<?xml version="1.0"?>
<VTKFile type="UnstructuredGrid" version="0.1" byte_order="LittleEndian">
<UnstructuredGrid>
<Piece NumberOfPoints="30881" NumberOfCells="10862">
<Points>
<DataArray type="Float64" NumberOfComponents="3" format="ascii">
-0.49999999999999828 -0.48677703703187492 0 -0.5 -0.5 0 -0.48129281494584059 -0.49338851851593718 0 -0.5 -0.5 0 -0.48129281494584059 -0.49338851851593718 0 -0.46258562989168328 -0.5 0 -0.49999999999999828 -0.48677703703187492 0 -0.48129281494584059 -0.49338851851593718 0 -0.49999999999999828 -0.48677703703187492 0 -0.4824545428279598 -0.47451624516148783 0 -0.48129281494584059 -0.49338851851593718 0 -0.49999999999999828 -0.48677703703187492 0 -0.4824545428279598 -0.47451624516148783 0 -0.5 -0.46599539173150673 0 -0.4824545428279598 -0.47451624516148783 0 -0.46853075243710779 -0.48354990242643758 0 -0.46411508256092049 -0.46598235294430129 0 -0.4824545428279598 -0.47451624516148783 0 -0.48129281494584059 -0.49338851851593718 0 -0.46853075243710779 -0.48354990242643758 0 -0.48129281494584059 -0.49338851851593718 0 -0.46258562989168328 -0.5 0 -0.48129281494584059 -0.49338851851593718 0 -0.46258562989168328 -0.5 0 -0.46853075243710779 -0.48354990242643758 0 -0.46258562989168328 -0.5 0 -0.46853075243710779 -0.48354990242643758 0 -0.45147378687733691 -0.48362213557840178 0 -0.46853075243710779 -0.48354990242643758 0 -0.45147378687733691 -0.48362213557840178 0 -0.46411508256092049 -0.46598235294430129 0 -0.4457251648104853 -0.47020164095208389 0 -0.45147378687733691 -0.48362213557840178 0 -0.46411508256092049 -0.46598235294430129 0 -0.4457251648104853 -0.47020164095208389 0 -0.45147378687733691 -0.48362213557840178 0 -0.43513446131126993 -0.48199891714758791 0 -0.45147378687733691 -0.48362213557840178 0 -0.43275163025255442 -0.5 0 -0.43513446131126993 -0.48199891714758791 0 -0.46258562989168328 -0.5 0 -0.45147378687733691 -0.48362213557840178 0 -0.43275163025255442 -0.5 0 -0.4467190029717853 -0.45478934699519452 0 -0.4422915115958943 -0.43555510214664611 0 -0.43246707723660932 -0.44794326854796312 0 -0.4457251648104853 -0.47020164095208389 0 -0.4467190029717853 -0.45478934699519452 0 -0.46411508256092049 -0.46598235294430129 0 -0.4457251648104853 -0.47020164095208389 0 -0.4467190029717853 -0.45478934699519452 0 -0.43016578207734568 -0.46313500011938619 0 -0.4467190029717853 -0.45478934699519452 0 -0.46411508256092049 -0.46598235294430129 0 -0.47114575579794699 -0.4403844242888923 0 -0.4467190029717853 -0.45478934699519452 0 -0.47114575579794699 -0.4403844242888923 0 -0.4422915115958943 -0.43555510214664611 0 -0.47114575579794699 -0.4403844242888923 0 -0.4422915115958943 -0.43555510214664611 0 -0.46411508256092049 -0.46598235294430129 0 -0.47114575579794699 -0.4403844242888923 0 -0.48354307623736548 -0.45841843211146538 0 -0.4824545428279598 -0.47451624516148783 0 -0.46411508256092049 -0.46598235294430129 0 -0.48354307623736548 -0.45841843211146538 0 -0.4824545428279598 -0.47451624516148783 0 -0.48354307623736548 -0.45841843211146538 0 -0.5 -0.46599539173150673 0 -0.48354307623736548 -0.45841843211146538 0 -0.5 -0.46599539173150673 0 -0.49999999999999972 -0.44521374643113848 0 -0.47114575579794699 -0.4403844242888923 0 -0.49999999999999972 -0.44521374643113848 0 -0.47114575579794699 -0.4403844242888923 0 -0.49999999999999972 -0.44521374643113848 0 -0.48704432221743971 -0.42935617662229603 0 -0.47114575579794699 -0.4403844242888923 0 -0.48354307623736548 -0.45841843211146538 0 -0.49999999999999972 -0.44521374643113848 0 -0.49999999999999972 -0.44521374643113848 0 -0.48704432221743971 -0.42935617662229603 0 -0.5 -0.41591957503128979 0 -0.48704432221743971 -0.42935617662229603 0 -0.5 -0.41591957503128979 0 -0.47703153307181151 -0.41590696073786332 0 -0.5 -0.41591957503128979 0 -0.47703153307181151 -0.41590696073786332 0 -0.48817838912021821 -0.4022119694541284 0 -0.47114575579794699 -0.4403844242888923 0 -0.48704432221743971 -0.42935617662229603 0 -0.47703153307181151 -0.41590696073786332 0 -0.5 -0.38662540363144121 0 -0.47568202340906118 -0.39039593841591919 0 -0.4947615751445838 -0.37332156409002909 0 -0.47568202340906118 -0.39039593841591919 0 -0.4947615751445838 -0.37332156409002909 0 -0.5 -0.38662540363144121 0 -0.48817838912021821 -0.4022119694541284 0 -0.47568202340906118 -0.39039593841591919 0 -0.5 -0.41591957503128979 0 -0.5 -0.38662540363144121 0 -0.48817838912021821 -0.4022119694541284 0 -0.47703153307181151 -0.41590696073786332 0 -0.48817838912021821 -0.4022119694541284 0 -0.47568202340906118 -0.39039593841591919 0 -0.47703153307181151 -0.41590696073786332 0 -0.47568202340906118 -0.39039593841591919 0 -0.45660247167353862 -0.40747031274180939 0 -0.47568202340906118 -0.39039593841591919 0 -0.48030931097003587 -0.37191064435083931 0 -0.46669490250066459 -0.37481721741951951 0 -0.47568202340906118 -0.39039593841591919 0 -0.4947615751445838 -0.37332156409002909 0 -0.48030931097003587 -0.37191064435083931 0 -0.45332061783919553 -0.38729481725706361 0 -0.46669490250066459 -0.37481721741951951 0 -0.45095991715087752 -0.36968037302039969 0 -0.47568202340906118 -0.39039593841591919 0 -0.45332061783919553 -0.38729481725706361 0 -0.46669490250066459 -0.37481721741951951 0 -0.47568202340906118 -0.39039593841591919 0 -0.45660247167353862 -0.40747031274180939 0 -0.47568202340906118 -0.39039593841591919 0 -0.45332061783919553 -0.38729481725706361 0 -0.45660247167353862 -0.40747031274180939 0 -0.44332653075004852 -0.401690115615219 0 -0.44646247228389868 -0.41654464256061052 0 -0.42870657106664078 -0.39987574649354879 0 -0.45332061783919553 -0.38729481725706361 0 -0.44332653075004852 -0.401690115615219 0 -0.43479631603355468 -0.39077639303142497 0 -0.45332061783919553 -0.38729481725706361 0 -0.44332653075004852 -0.401690115615219 0 -0.45660247167353862 -0.40747031274180939 0 -0.45332061783919553 -0.38729481725706361 0 -0.43421362475025049 -0.37527491429266319 0 -0.43479631603355468 -0.39077639303142497 0 -0.45332061783919553 -0.38729481725706361 0 -0.43421362475025049 -0.37527491429266319 0 -0.45095991715087752 -0.36968037302039969 0 -0.47114575579794699 -0.4403844242888923 0 -0.45663439814062529 -0.42533932462455271 0 -0.4422915115958943 -0.43555510214664611 0 -0.47114575579794699 -0.4403844242888923 0 -0.47703153307181151 -0.41590696073786332 0 -0.45663439814062529 -0.42533932462455271 0 -0.45663439814062529 -0.42533932462455271 0 -0.45660247167353862 -0.40747031274180939 0 -0.44646247228389868 -0.41654464256061052 0 -0.47703153307181151 -0.41590696073786332 0 -0.45663439814062529 -0.42533932462455271 0 -0.45660247167353862 -0.40747031274180939 0 -0.44332653075004852 -0.401690115615219 0 -0.45660247167353862 -0.40747031274180939 0 -0.44646247228389868 -0.41654464256061052 0 -0.45660247167353862 -0.40747031274180939 0 -0.44646247228389868 -0.41654464256061052 0 -0.44646247228389868 -0.41654464256061052 0 -0.4375229199380159 -0.42454468706769971 0 -0.45663439814062529 -0.42533932462455271 0 -0.4375229199380159 -0.42454468706769971 0 -0.4422915115958943 -0.43555510214664611 0 -0.45663439814062529 -0.42533932462455271 0 -0.44646247228389868 -0.41654464256061052 0 -0.4375229199380159 -0.42454468706769971 0 -0.4375229199380159 -0.42454468706769971 0 -0.4422915115958943 -0.43555510214664611 0 -0.43077617074680319 -0.43406335077952207 0 -0.43077617074680319 -0.43406335077952207 0 -0.42550232634077589 -0.42345940056268039 0 -0.41950844772475421 -0.43888456563633732 0 -0.4375229199380159 -0.42454468706769971 0 -0.43077617074680319 -0.43406335077952207 0 -0.42550232634077589 -0.42345940056268039 0 -0.44646247228389868 -0.41654464256061052 0 -0.41657232816672918 -0.41306671883907142 0 -0.42870657106664078 -0.39987574649354879 0 -0.44646247228389868 -0.41654464256061052 0 -0.4375229199380159 -0.42454468706769971 0 -0.42550232634077589 -0.42345940056268039 0 -0.44646247228389868 -0.41654464256061052 0 -0.42550232634077589 -0.42345940056268039 0 -0.41657232816672918 -0.41306671883907142 0 -0.44646247228389868 -0.41654464256061052 0 -0.41657232816672918 -0.41306671883907142 0 -0.42550232634077589 -0.42345940056268039 0 -0.41657232816672918 -0.41306671883907142 0 -0.41333489101611293 -0.42699700567040988 0 -0.41657232816672918 -0.41306671883907142 0 -0.41333489101611293 -0.42699700567040988 0 -0.39893236021425188 -0.42931692235905211 0 -0.41333489101611293 -0.42699700567040988 0 -0.39893236021425188 -0.42931692235905211 0 -0.41950844772475421 -0.43888456563633732 0 -0.42550232634077589 -0.42345940056268039 0 -0.41333489101611293 -0.42699700567040988 0 -0.41950844772475421 -0.43888456563633732 0 -0.43421362475025049 -0.37527491429266319 0 -0.42478231784314502 -0.38643128255249681 0 -0.41656514696884139 -0.37636588688318029 0 -0.43421362475025049 -0.37527491429266319 0 -0.42478231784314502 -0.38643128255249681 0 -0.43479631603355468 -0.39077639303142497 0 -0.42478231784314502 -0.38643128255249681 0 -0.43479631603355468 -0.39077639303142497 0 -0.42870657106664078 -0.39987574649354879 0 -0.44332653075004852 -0.401690115615219 0 -0.43479631603355468 -0.39077639303142497 0 -0.42870657106664078 -0.39987574649354879 0 -0.41657232816672918 -0.41306671883907142 0 -0.40962993039643741 -0.3898634720616666 0 -0.3946356370269814 -0.39577424904278191 0 -0.42478231784314502 -0.38643128255249681 0 -0.42870657106664078 -0.39987574649354879 0 -0.40962993039643741 -0.3898634720616666 0 -0.41657232816672918 -0.41306671883907142 0 -0.42870657106664078 -0.39987574649354879 0 -0.40962993039643741 -0.3898634720616666 0 -0.42478231784314502 -0.38643128255249681 0 -0.40962993039643741 -0.3898634720616666 0 -0.41656514696884139 -0.37636588688318029 0 -0.40962993039643741 -0.3898634720616666 0 -0.41656514696884139 -0.37636588688318029 0 -0.40465459864295228 -0.37650109000307358 0 -0.39431275766669582 -0.38061373190328529 0 -0.40465459864295228 -0.37650109000307358 0 -0.3968495855878465 -0.36923685638487008 0 -0.40962993039643741 -0.3898634720616666 0 -0.39431275766669582 -0.38061373190328529 0 -0.40465459864295228 -0.37650109000307358 0 -0.40962993039643741 -0.3898634720616666 0 -0.39431275766669582 -0.38061373190328529 0 -0.3946356370269814 -0.39577424904278191 0 -0.3946356370269814 -0.39577424904278191 0 -0.38704143117499401 -0.40999023144455299 0 -0.37464038230528551 -0.396492613407532 0 -0.3946356370269814 -0.39577424904278191 0 -0.37522403377147279 -0.38060127254172499 0 -0.37464038230528551 -0.396492613407532 0 -0.39431275766669582 -0.38061373190328529 0 -0.3946356370269814 -0.39577424904278191 0 -0.37522403377147279 -0.38060127254172499 0 -0.39431275766669582 -0.38061373190328529 0 -0.37522403377147279 -0.38060127254172499 0 -0.38569326772338258 -0.37053454129240582 0 -0.41657232816672918 -0.41306671883907142 0 -0.39893236021425188 -0.42931692235905211 0 -0.38704143117499401 -0.40999023144455299 0 -0.41657232816672918 -0.41306671883907142 0 -0.3946356370269814 -0.39577424904278191 0 -0.38704143117499401 -0.40999023144455299 0 -0.41657232816672918 -0.41306671883907142 0 -0.38704143117499401 -0.40999023144455299 0 -0.38704143117499401 -0.40999023144455299 0 -0.38131756488089769 -0.42670085612339947 0 -0.36377437909963828 -0.41972983174959272 0 -0.38131756488089769 -0.42670085612339947 0 -0.38339996822118783 -0.44368928783448319 0 -0.36866352395763108 -0.4313760290561211 0 -0.39893236021425188 -0.42931692235905211 0 -0.38131756488089769 -0.42670085612339947 0 -0.38339996822118783 -0.44368928783448319 0 -0.39893236021425188 -0.42931692235905211 0 -0.38704143117499401 -0.40999023144455299 0 -0.38131756488089769 -0.42670085612339947 0 -0.38339996822118783 -0.44368928783448319 0 -0.40446438048225181 -0.45117017211807442 0 -0.3895931593355052 -0.46351353191466821 0 -0.39893236021425188 -0.42931692235905211 0 -0.38339996822118783 -0.44368928783448319 0 -0.40446438048225181 -0.45117017211807442 0 -0.40446438048225181 -0.45117017211807442 0 -0.3895931593355052 -0.46351353191466821 0 -0.40280611050484572 -0.47090640128894168 0 -0.38339996822118783 -0.44368928783448319 0 -0.3895931593355052 -0.46351353191466821 0 -0.37415472949075129 -0.45946062715310632 0 -0.3895931593355052 -0.46351353191466821 0 -0.38039451612360919 -0.47713749807852829 0 -0.37415472949075129 -0.45946062715310632 0 -0.38039451612360919 -0.47713749807852829 0 -0.39198476482648659 -0.49312537606366408 0 -0.39366244928105898 -0.47747566409097131 0 -0.3895931593355052 -0.46351353191466821 0 -0.38039451612360919 -0.47713749807852829 0 -0.39366244928105898 -0.47747566409097131 0 -0.39198476482648659 -0.49312537606366408 0 -0.37055643484088358 -0.49425936316784103 0 -0.39198476482648659 -0.49312537606366408 0 -0.40291763061342539 -0.5 0 -0.37308363097429631 -0.50000000000000244 0 -0.39198476482648659 -0.49312537606366408 0 -0.37055643484088358 -0.49425936316784103 0 -0.37308363097429631 -0.50000000000000244 0 -0.38039451612360919 -0.47713749807852829 0 -0.39198476482648659 -0.49312537606366408 0 -0.37055643484088358 -0.49425936316784103 0 -0.39198476482648659 -0.49312537606366408 0 -0.41341309481208982 -0.49199138895948757 0 -0.39198476482648659 -0.49312537606366408 0 -0.39366244928105898 -0.47747566409097131 0 -0.40353369561484831 -0.48269551310905429 0 -0.39198476482648659 -0.49312537606366408 0 -0.40291763061342539 -0.5 0 -0.41341309481208982 -0.49199138895948757 0 -0.39198476482648659 -0.49312537606366408 0 -0.40353369561484831 -0.48269551310905429 0 -0.41341309481208982 -0.49199138895948757 0 -0.3895931593355052 -0.46351353191466821 0 -0.39366244928105898 -0.47747566409097131 0 -0.40280611050484572 -0.47090640128894168 0 -0.39366244928105898 -0.47747566409097131 0 -0.40353369561484831 -0.48269551310905429 0 -0.40280611050484572 -0.47090640128894168 0 -0.40280611050484572 -0.47090640128894168 0 -0.41792735015940108 -0.47619959015896091 0 -0.41524515795200517 -0.46243146669528151 0 -0.40353369561484831 -0.48269551310905429 0 -0.41792735015940108 -0.47619959015896091 0 -0.41341309481208982 -0.49199138895948757 0 -0.40353369561484831 -0.48269551310905429 0 -0.40280611050484572 -0.47090640128894168 0 -0.41792735015940108 -0.47619959015896091 0 -0.41792735015940108 -0.47619959015896091 0 -0.41341309481208982 -0.49199138895948757 0 -0.42480663413382869 -0.48754747406650911 0 -0.40291763061342539 -0.5 0 -0.41341309481208982 -0.49199138895948757 0 -0.43275163025255442 -0.5 0 -0.41341309481208982 -0.49199138895948757 0 -0.42480663413382869 -0.48754747406650911 0 -0.43275163025255442 -0.5 0 -0.42480663413382869 -0.48754747406650911 0 -0.43275163025255442 -0.5 0 -0.43513446131126993 -0.48199891714758791 0 -0.4457251648104853 -0.47020164095208389 0 -0.43513446131126993 -0.48199891714758791 0 -0.43016578207734568 -0.46313500011938619 0 -0.41792735015940108 -0.47619959015896091 0 -0.43513446131126993 -0.48199891714758791 0 -0.43016578207734568 -0.46313500011938619 0 -0.41792735015940108 -0.47619959015896091 0 -0.42480663413382869 -0.48754747406650911 0 -0.43513446131126993 -0.48199891714758791 0 -0.4467190029717853 -0.45478934699519452 0 -0.43016578207734568 -0.46313500011938619 0 -0.43246707723660932 -0.44794326854796312 0 -0.43016578207734568 -0.46313500011938619 0 -0.42051073979218989 -0.45215097324273301 0 -0.41524515795200517 -0.46243146669528151 0 -0.43016578207734568 -0.46313500011938619 0 -0.43246707723660932 -0.44794326854796312 0 -0.42051073979218989 -0.45215097324273301 0 -0.4422915115958943 -0.43555510214664611 0 -0.43077617074680319 -0.43406335077952207 0 -0.43246707723660932 -0.44794326854796312 0 -0.43077617074680319 -0.43406335077952207 0 -0.43246707723660932 -0.44794326854796312 0 -0.41950844772475421 -0.43888456563633732 0 -0.43246707723660932 -0.44794326854796312 0 -0.42051073979218989 -0.45215097324273301 0 -0.41950844772475421 -0.43888456563633732 0 -0.39893236021425188 -0.42931692235905211 0 -0.40446438048225181 -0.45117017211807442 0 -0.41950844772475421 -0.43888456563633732 0 -0.40446438048225181 -0.45117017211807442 0 -0.42051073979218989 -0.45215097324273301 0 -0.41950844772475421 -0.43888456563633732 0 -0.40446438048225181 -0.45117017211807442 0 -0.42051073979218989 -0.45215097324273301 0 -0.41524515795200517 -0.46243146669528151 0 -0.40446438048225181 -0.45117017211807442 0 -0.40280611050484572 -0.47090640128894168 0 -0.41524515795200517 -0.46243146669528151 0 -0.41792735015940108 -0.47619959015896091 0 -0.43016578207734568 -0.46313500011938619 0 -0.41524515795200517 -0.46243146669528151 0 -0.45018232007011222 -0.256765034028549 0 -0.429874989515865 -0.26165756953837482 0 -0.43598079583492633 -0.24721882136819351 0 -0.45018232007011222 -0.256765034028549 0 -0.43765198640052377 -0.27443700488157741 0 -0.429874989515865 -0.26165756953837482 0 -0.45018232007011222 -0.256765034028549 0 -0.43598079583492633 -0.24721882136819351 0 -0.45139902778349827 -0.24711062934306771 0 -0.45018232007011222 -0.256765034028549 0 -0.43765198640052377 -0.27443700488157741 0 -0.46196722525855399 -0.27174391220054139 0 -0.43765198640052377 -0.27443700488157741 0 -0.46196722525855399 -0.27174391220054139 0 -0.4476129789611048 -0.29283803371489903 0 -0.46196722525855399 -0.27174391220054139 0 -0.48050148842732221 -0.25523221810557922 0 -0.46267023581878858 -0.24817136713935201 0 -0.45018232007011222 -0.256765034028549 0 -0.46196722525855399 -0.27174391220054139 0 -0.46267023581878858 -0.24817136713935201 0 -0.45018232007011222 -0.256765034028549 0 -0.46267023581878858 -0.24817136713935201 0 -0.45139902778349827 -0.24711062934306771 0 -0.48050148842732221 -0.25523221810557922 0 -0.5 -0.26944871803204617 0 -0.5 -0.2401545466321974 0 -0.48050148842732221 -0.25523221810557922 0 -0.5 -0.26944871803204617 0 -0.48245797385404121 -0.28063059353633901 0 -0.46196722525855399 -0.27174391220054139 0 -0.48050148842732221 -0.25523221810557922 0 -0.48245797385404121 -0.28063059353633901 0 -0.46196722525855399 -0.27174391220054139 0 -0.48245797385404121 -0.28063059353633901 0 -0.46937090116945868 -0.29821258941183898 0 -0.48245797385404121 -0.28063059353633901 0 -0.5 -0.29874288943189498 0 -0.46937090116945868 -0.29821258941183898 0 -0.5 -0.26944871803204617 0 -0.48245797385404121 -0.28063059353633901 0 -0.5 -0.29874288943189498 0 -0.5 -0.29874288943189498 0 -0.46937090116945868 -0.29821258941183898 0 -0.47623524987602139 -0.32201367690444971 0 -0.46937090116945868 -0.29821258941183898 0 -0.4476129789611048 -0.29283803371489903 0 -0.45018982867155483 -0.32180400573951162 0 -0.46196722525855399 -0.27174391220054139 0 -0.46937090116945868 -0.29821258941183898 0 -0.4476129789611048 -0.29283803371489903 0 -0.43765198640052377 -0.27443700488157741 0 -0.4476129789611048 -0.29283803371489903 0 -0.43236213870239748 -0.29002705800971151 0 -0.4476129789611048 -0.29283803371489903 0 -0.45018982867155483 -0.32180400573951162 0 -0.4314578060398388 -0.3048790663939604 0 -0.45018982867155483 -0.32180400573951162 0 -0.4314578060398388 -0.3048790663939604 0 -0.45018982867155483 -0.32180400573951162 0 -0.46157657978994598 -0.34139555482026068 0 -0.43521386225128428 -0.33802231259611382 0 -0.46157657978994598 -0.34139555482026068 0 -0.43521386225128428 -0.33802231259611382 0 -0.45018982867155483 -0.32180400573951162 0 -0.46157657978994598 -0.34139555482026068 0 -0.47623524987602139 -0.32201367690444971 0 -0.46937090116945868 -0.29821258941183898 0 -0.45018982867155483 -0.32180400573951162 0 -0.47623524987602139 -0.32201367690444971 0 -0.5 -0.29874288943189498 0 -0.47623524987602139 -0.32201367690444971 0 -0.5 -0.32803706083174372 0 -0.47623524987602139 -0.32201367690444971 0 -0.5 -0.32803706083174372 0 -0.48561656391384522 -0.34384835974822991 0 -0.5 -0.32803706083174372 0 -0.5 -0.35733123223159241 0 -0.48561656391384522 -0.34384835974822991 0 -0.46157657978994598 -0.34139555482026068 0 -0.47623524987602139 -0.32201367690444971 0 -0.48561656391384522 -0.34384835974822991 0 -0.46157657978994598 -0.34139555482026068 0 -0.47568148196104371 -0.35852722048879659 0 -0.48561656391384522 -0.34384835974822991 0 -0.47568148196104371 -0.35852722048879659 0 -0.48561656391384522 -0.34384835974822991 0 -0.48768886795130861 -0.36141736908419309 0 -0.5 -0.35733123223159241 0 -0.48561656391384522 -0.34384835974822991 0 -0.48768886795130861 -0.36141736908419309 0 -0.5 -0.35733123223159241 0 -0.4947615751445838 -0.37332156409002909 0 -0.48768886795130861 -0.36141736908419309 0 -0.5 -0.38662540363144121 0 -0.5 -0.35733123223159241 0 -0.4947615751445838 -0.37332156409002909 0 -0.4947615751445838 -0.37332156409002909 0 -0.48768886795130861 -0.36141736908419309 0 -0.48030931097003587 -0.37191064435083931 0 -0.47568148196104371 -0.35852722048879659 0 -0.48030931097003587 -0.37191064435083931 0 -0.46669490250066459 -0.37481721741951951 0 -0.47568148196104371 -0.35852722048879659 0 -0.48768886795130861 -0.36141736908419309 0 -0.48030931097003587 -0.37191064435083931 0 -0.46669490250066459 -0.37481721741951951 0 -0.45985290530711531 -0.35919053618658509 0 -0.45095991715087752 -0.36968037302039969 0 -0.47568148196104371 -0.35852722048879659 0 -0.46669490250066459 -0.37481721741951951 0 -0.45985290530711531 -0.35919053618658509 0 -0.46157657978994598 -0.34139555482026068 0 -0.47568148196104371 -0.35852722048879659 0 -0.45985290530711531 -0.35919053618658509 0 -0.46157657978994598 -0.34139555482026068 0 -0.45985290530711531 -0.35919053618658509 0 -0.44091292170358748 -0.35617636658334351 0 -0.46157657978994598 -0.34139555482026068 0 -0.44091292170358748 -0.35617636658334351 0 -0.43521386225128428 -0.33802231259611382 0 -0.43421362475025049 -0.37527491429266319 0 -0.44091292170358748 -0.35617636658334351 0 -0.45095991715087752 -0.36968037302039969 0 -0.45985290530711531 -0.35919053618658509 0 -0.44091292170358748 -0.35617636658334351 0 -0.45095991715087752 -0.36968037302039969 0 -0.43421362475025049 -0.37527491429266319 0 -0.41656514696884139 -0.37636588688318029 0 -0.42218579342164808 -0.36334977441807748 0 -0.43421362475025049 -0.37527491429266319 0 -0.44091292170358748 -0.35617636658334351 0 -0.42218579342164808 -0.36334977441807748 0 -0.44091292170358748 -0.35617636658334351 0 -0.42218579342164808 -0.36334977441807748 0 -0.42066840753926321 -0.34864312644900147 0 -0.44091292170358748 -0.35617636658334351 0 -0.42066840753926321 -0.34864312644900147 0 -0.43521386225128428 -0.33802231259611382 0 -0.42218579342164808 -0.36334977441807748 0 -0.42066840753926321 -0.34864312644900147 0 -0.40690054455725883 -0.35815659477868023 0 -0.40690054455725883 -0.35815659477868023 0 -0.40885114471262263 -0.334649070371968 0 -0.42066840753926321 -0.34864312644900147 0 -0.40690054455725883 -0.35815659477868023 0 -0.40885114471262263 -0.334649070371968 0 -0.42218579342164808 -0.36334977441807748 0 -0.40690054455725883 -0.35815659477868023 0 -0.40625971269279348 -0.36587953617857771 0 -0.40690054455725883 -0.35815659477868023 0 -0.40625971269279348 -0.36587953617857771 0 -0.41656514696884139 -0.37636588688318029 0 -0.42218579342164808 -0.36334977441807748 0 -0.40625971269279348 -0.36587953617857771 0 -0.42218579342164808 -0.36334977441807748 0 -0.40690054455725883 -0.35815659477868023 0 -0.41656514696884139 -0.37636588688318029 0 -0.40465459864295228 -0.37650109000307358 0 -0.40625971269279348 -0.36587953617857771 0 -0.40465459864295228 -0.37650109000307358 0 -0.40625971269279348 -0.36587953617857771 0 -0.3968495855878465 -0.36923685638487008 0 -0.40690054455725883 -0.35815659477868023 0 -0.40029228617445223 -0.36350286704594809 0 -0.3911593018599101 -0.36073848084166482 0 -0.40625971269279348 -0.36587953617857771 0 -0.40029228617445223 -0.36350286704594809 0 -0.3968495855878465 -0.36923685638487008 0 -0.40690054455725883 -0.35815659477868023 0 -0.40625971269279348 -0.36587953617857771 0 -0.40029228617445223 -0.36350286704594809 0 -0.3911593018599101 -0.36073848084166482 0 -0.3968495855878465 -0.36923685638487008 0 -0.38569326772338258 -0.37053454129240582 0 -0.40029228617445223 -0.36350286704594809 0 -0.3911593018599101 -0.36073848084166482 0 -0.3968495855878465 -0.36923685638487008 0 -0.39431275766669582 -0.38061373190328529 0 -0.3968495855878465 -0.36923685638487008 0 -0.38569326772338258 -0.37053454129240582 0 -0.3911593018599101 -0.36073848084166482 0 -0.38569326772338258 -0.37053454129240582 0 -0.37568472164775779 -0.36524225821647011 0 -0.37522403377147279 -0.38060127254172499 0 -0.38569326772338258 -0.37053454129240582 0 -0.37568472164775779 -0.36524225821647011 0 -0.3911593018599101 -0.36073848084166482 0 -0.37568472164775779 -0.36524225821647011 0 -0.38024887903539811 -0.3491016629308506 0 -0.40690054455725883 -0.35815659477868023 0 -0.3911593018599101 -0.36073848084166482 0 -0.38024887903539811 -0.3491016629308506 0 -0.40690054455725883 -0.35815659477868023 0 -0.38024887903539811 -0.3491016629308506 0 -0.39533213247953691 -0.34338662223350158 0 -0.40690054455725883 -0.35815659477868023 0 -0.39533213247953691 -0.34338662223350158 0 -0.40885114471262263 -0.334649070371968 0 -0.40690054455725883 -0.35815659477868023 0 -0.38024887903539811 -0.3491016629308506 0 -0.39533213247953691 -0.34338662223350158 0 -0.38532796161286798 -0.33163916085250739 0 -0.40885114471262263 -0.334649070371968 0 -0.38532796161286798 -0.33163916085250739 0 -0.40885114471262263 -0.334649070371968 0 -0.38024887903539811 -0.3491016629308506 0 -0.39533213247953691 -0.34338662223350158 0 -0.38532796161286798 -0.33163916085250739 0 -0.38024887903539811 -0.3491016629308506 0 -0.38532796161286798 -0.33163916085250739 0 -0.37024470816872912 -0.33735420154985679 0 -0.38532796161286798 -0.33163916085250739 0 -0.37601492727600683 -0.3197696392392384 0 -0.39293033406270472 -0.31505081143976649 0 -0.37601492727600683 -0.3197696392392384 0 -0.39293033406270472 -0.31505081143976649 0 -0.37651642550459341 -0.307078797330949 0 -0.38532796161286798 -0.33163916085250739 0 -0.39293033406270472 -0.31505081143976649 0 -0.40885114471262263 -0.334649070371968 0 -0.39293033406270472 -0.31505081143976649 0 -0.40885114471262263 -0.334649070371968 0 -0.41078846406037228 -0.3113015987101887 0 -0.40885114471262263 -0.334649070371968 0 -0.42554877913925399 -0.3223331804902434 0 -0.41078846406037228 -0.3113015987101887 0 -0.40885114471262263 -0.334649070371968 0 -0.41078846406037228 -0.3113015987101887 0 -0.42066840753926321 -0.34864312644900147 0 -0.40885114471262263 -0.334649070371968 0 -0.43521386225128428 -0.33802231259611382 0 -0.40885114471262263 -0.334649070371968 0 -0.43521386225128428 -0.33802231259611382 0 -0.40885114471262263 -0.334649070371968 0 -0.43521386225128428 -0.33802231259611382 0 -0.42554877913925399 -0.3223331804902434 0 -0.42554877913925399 -0.3223331804902434 0 -0.4314578060398388 -0.3048790663939604 0 -0.41078846406037228 -0.3113015987101887 0 -0.45018982867155483 -0.32180400573951162 0 -0.43521386225128428 -0.33802231259611382 0 -0.42554877913925399 -0.3223331804902434 0 -0.45018982867155483 -0.32180400573951162 0 -0.42554877913925399 -0.3223331804902434 0 -0.4314578060398388 -0.3048790663939604 0 -0.4476129789611048 -0.29283803371489903 0 -0.4314578060398388 -0.3048790663939604 0 -0.43236213870239748 -0.29002705800971151 0 -0.4314578060398388 -0.3048790663939604 0 -0.43236213870239748 -0.29002705800971151 0 -0.41272578340812272 -0.2879541270484095 0 -0.4314578060398388 -0.3048790663939604 0 -0.41272578340812272 -0.2879541270484095 0 -0.43765198640052377 -0.27443700488157741 0 -0.43236213870239748 -0.29002705800971151 0 -0.41272578340812272 -0.2879541270484095 0 -0.4314578060398388 -0.3048790663939604 0 -0.41272578340812272 -0.2879541270484095 0 -0.41078846406037228 -0.3113015987101887 0 -0.41272578340812272 -0.2879541270484095 0 -0.41078846406037228 -0.3113015987101887 0 -0.41272578340812272 -0.2879541270484095 0 -0.41078846406037228 -0.3113015987101887 0 -0.39233272698174793 -0.29435547039456872 0 -0.39293033406270472 -0.31505081143976649 0 -0.41078846406037228 -0.3113015987101887 0 -0.39233272698174793 -0.29435547039456872 0 -0.39293033406270472 -0.31505081143976649 0 -0.37651642550459341 -0.307078797330949 0 -0.39233272698174793 -0.29435547039456872 0 -0.39233272698174793 -0.29435547039456872 0 -0.39278725088820249 -0.26993907014966689 0 -0.37040839911066209 -0.28171057629616708 0 -0.37651642550459341 -0.307078797330949 0 -0.39233272698174793 -0.29435547039456872 0 -0.37040839911066209 -0.28171057629616708 0 -0.41272578340812272 -0.2879541270484095 0 -0.39233272698174793 -0.29435547039456872 0 -0.39278725088820249 -0.26993907014966689 0 -0.41272578340812272 -0.2879541270484095 0 -0.39278725088820249 -0.26993907014966689 0 -0.39278725088820249 -0.26993907014966689 0 -0.37040839911066209 -0.28171057629616708 0 -0.39278725088820249 -0.26993907014966689 0 -0.37533687834285862 -0.25417213976024849 0 -0.37040839911066209 -0.28171057629616708 0 -0.39278725088820249 -0.26993907014966689 0 -0.37533687834285862 -0.25417213976024849 0 -0.39826986996263802 -0.25360934065352753 0 -0.39278725088820249 -0.26993907014966689 0 -0.37533687834285862 -0.25417213976024849 0 -0.39278725088820249 -0.26993907014966689 0 -0.39826986996263802 -0.25360934065352753 0 -0.41519883225968468 -0.25815034790020708 0 -0.39278725088820249 -0.26993907014966689 0 -0.41519883225968468 -0.25815034790020708 0 -0.39826986996263802 -0.25360934065352753 0 -0.41519883225968468 -0.25815034790020708 0 -0.41615383063077721 -0.2466412503256647 0 -0.41519883225968468 -0.25815034790020708 0 -0.41615383063077721 -0.2466412503256647 0 -0.41272578340812272 -0.2879541270484095 0 -0.41519883225968468 -0.25815034790020708 0 -0.41272578340812272 -0.2879541270484095 0 -0.41519883225968468 -0.25815034790020708 0 -0.429874989515865 -0.26165756953837482 0 -0.41272578340812272 -0.2879541270484095 0 -0.39278725088820249 -0.26993907014966689 0 -0.41519883225968468 -0.25815034790020708 0 -0.43765198640052377 -0.27443700488157741 0 -0.41272578340812272 -0.2879541270484095 0 -0.429874989515865 -0.26165756953837482 0 -0.41519883225968468 -0.25815034790020708 0 -0.43598079583492633 -0.24721882136819351 0 -0.41519883225968468 -0.25815034790020708 0 -0.429874989515865 -0.26165756953837482 0 -0.43598079583492633 -0.24721882136819351 0 -0.41519883225968468 -0.25815034790020708 0 -0.43598079583492633 -0.24721882136819351 0 -0.41615383063077721 -0.2466412503256647 0 -0.31968345090478489 -0.25798973640781447 0 -0.33623326073948312 -0.25365348176558788 0 -0.32213598881581812 -0.2442700999577708 0 -0.31968345090478489 -0.25798973640781447 0 -0.31319680135340772 -0.27337899374224139 0 -0.30564385326437488 -0.26015983685037081 0 -0.31968345090478489 -0.25798973640781447 0 -0.31319680135340772 -0.27337899374224139 0 -0.33256675641106698 -0.27199424518209242 0 -0.31319680135340772 -0.27337899374224139 0 -0.33256675641106698 -0.27199424518209242 0 -0.3219330120753135 -0.28752383142540722 0 -0.33256675641106698 -0.27199424518209242 0 -0.33623326073948312 -0.25365348176558788 0 -0.35329637777243872 -0.26495799818728782 0 -0.31968345090478489 -0.25798973640781447 0 -0.33256675641106698 -0.27199424518209242 0 -0.33623326073948312 -0.25365348176558788 0 -0.33623326073948312 -0.25365348176558788 0 -0.35329637777243872 -0.26495799818728782 0 -0.35305879752332059 -0.24486073726717009 0 -0.37533687834285862 -0.25417213976024849 0 -0.35329637777243872 -0.26495799818728782 0 -0.35305879752332059 -0.24486073726717009 0 -0.37533687834285862 -0.25417213976024849 0 -0.35329637777243872 -0.26495799818728782 0 -0.37040839911066209 -0.28171057629616708 0 -0.35329637777243872 -0.26495799818728782 0 -0.34802954733312141 -0.29348208244266671 0 -0.37040839911066209 -0.28171057629616708 0 -0.33256675641106698 -0.27199424518209242 0 -0.35329637777243872 -0.26495799818728782 0 -0.34802954733312141 -0.29348208244266671 0 -0.34802954733312141 -0.29348208244266671 0 -0.37040839911066209 -0.28171057629616708 0 -0.37651642550459341 -0.307078797330949 0 -0.37040839911066209 -0.28171057629616708 0 -0.36249180620921062 -0.30132401124355712 0 -0.34802954733312141 -0.29348208244266671 0 -0.37040839911066209 -0.28171057629616708 0 -0.36249180620921062 -0.30132401124355712 0 -0.37651642550459341 -0.307078797330949 0 -0.36249180620921062 -0.30132401124355712 0 -0.36514172279026702 -0.314674684486903 0 -0.36249180620921062 -0.30132401124355712 0 -0.35217384865543538 -0.31302074178168637 0 -0.36514172279026702 -0.314674684486903 0 -0.34802954733312141 -0.29348208244266671 0 -0.33894022777705518 -0.31261958861733652 0 -0.35217384865543538 -0.31302074178168637 0 -0.34802954733312141 -0.29348208244266671 0 -0.36249180620921062 -0.30132401124355712 0 -0.35217384865543538 -0.31302074178168637 0 -0.34802954733312141 -0.29348208244266671 0 -0.32565069555558063 -0.30525358858916618 0 -0.33894022777705518 -0.31261958861733652 0 -0.34802954733312141 -0.29348208244266671 0 -0.32565069555558063 -0.30525358858916618 0 -0.32565069555558063 -0.30525358858916618 0 -0.32940773276489932 -0.31652548782855527 0 -0.33894022777705518 -0.31261958861733652 0 -0.33256675641106698 -0.27199424518209242 0 -0.34802954733312141 -0.29348208244266671 0 -0.3219330120753135 -0.28752383142540722 0 -0.34802954733312141 -0.29348208244266671 0 -0.3219330120753135 -0.28752383142540722 0 -0.32565069555558063 -0.30525358858916618 0 -0.3219330120753135 -0.28752383142540722 0 -0.31228269981280887 -0.29918463989613459 0 -0.30483638085835207 -0.28788342401786787 0 -0.31319680135340772 -0.27337899374224139 0 -0.3219330120753135 -0.28752383142540722 0 -0.30483638085835207 -0.28788342401786787 0 -0.32565069555558063 -0.30525358858916618 0 -0.30327184377803978 -0.31702509473566581 0 -0.31228269981280887 -0.29918463989613459 0 -0.3219330120753135 -0.28752383142540722 0 -0.32565069555558063 -0.30525358858916618 0 -0.31228269981280887 -0.29918463989613459 0 -0.32565069555558063 -0.30525358858916618 0 -0.30327184377803978 -0.31702509473566581 0 -0.31475841231360341 -0.32260943229412947 0 -0.32694554799167658 -0.33099179923519167 0 -0.33828159541335823 -0.32561934181358893 0 -0.32565069555558063 -0.30525358858916618 0 -0.31475841231360341 -0.32260943229412947 0 -0.30327184377803978 -0.31702509473566581 0 -0.31475841231360341 -0.32260943229412947 0 -0.33828159541335823 -0.32561934181358893 0 -0.32940773276489932 -0.31652548782855527 0 -0.32565069555558063 -0.30525358858916618 0 -0.31475841231360341 -0.32260943229412947 0 -0.32940773276489932 -0.31652548782855527 0 -0.31475841231360341 -0.32260943229412947 0 -0.33828159541335823 -0.32561934181358893 0 -0.31475841231360341 -0.32260943229412947 0 -0.31372637242327511 -0.33497634201883658 0 -0.32694554799167658 -0.33099179923519167 0 -0.32694554799167658 -0.33099179923519167 0 -0.32737612656656928 -0.35021722948502532 0 -0.3170311031704231 -0.34491623006635341 0 -0.31372637242327511 -0.33497634201883658 0 -0.32694554799167658 -0.33099179923519167 0 -0.3170311031704231 -0.34491623006635341 0 -0.31372637242327511 -0.33497634201883658 0 -0.3170311031704231 -0.34491623006635341 0 -0.30849554643820359 -0.34481279163420842 0 -0.32694554799167658 -0.33099179923519167 0 -0.33828159541335823 -0.32561934181358893 0 -0.35359721351353718 -0.34004673108302108 0 -0.32694554799167658 -0.33099179923519167 0 -0.35359721351353718 -0.34004673108302108 0 -0.33765025977867152 -0.34480892108230998 0 -0.32694554799167658 -0.33099179923519167 0 -0.35359721351353718 -0.34004673108302108 0 -0.32694554799167658 -0.33099179923519167 0 -0.33765025977867152 -0.34480892108230998 0 -0.32737612656656928 -0.35021722948502532 0 -0.33828159541335823 -0.32561934181358893 0 -0.32940773276489932 -0.31652548782855527 0 -0.33894022777705518 -0.31261958861733652 0 -0.33828159541335823 -0.32561934181358893 0 -0.33894022777705518 -0.31261958861733652 0 -0.35217384865543538 -0.31302074178168637 0 -0.33828159541335823 -0.32561934181358893 0 -0.3618047785131131 -0.32862925133304821 0 -0.33828159541335823 -0.32561934181358893 0 -0.35217384865543538 -0.31302074178168637 0 -0.3618047785131131 -0.32862925133304821 0 -0.38532796161286798 -0.33163916085250739 0 -0.37601492727600683 -0.3197696392392384 0 -0.3618047785131131 -0.32862925133304821 0 -0.35217384865543538 -0.31302074178168637 0 -0.36514172279026702 -0.314674684486903 0 -0.3618047785131131 -0.32862925133304821 0 -0.37601492727600683 -0.3197696392392384 0 -0.36514172279026702 -0.314674684486903 0 -0.3618047785131131 -0.32862925133304821 0 -0.37601492727600683 -0.3197696392392384 0 -0.37651642550459341 -0.307078797330949 0 -0.36514172279026702 -0.314674684486903 0 -0.38532796161286798 -0.33163916085250739 0 -0.37024470816872912 -0.33735420154985679 0 -0.3618047785131131 -0.32862925133304821 0 -0.37024470816872912 -0.33735420154985679 0 -0.3618047785131131 -0.32862925133304821 0 -0.35359721351353718 -0.34004673108302108 0 -0.38532796161286798 -0.33163916085250739 0 -0.3618047785131131 -0.32862925133304821 0 -0.38024887903539811 -0.3491016629308506 0 -0.37024470816872912 -0.33735420154985679 0 -0.35359721351353718 -0.34004673108302108 0 -0.33828159541335823 -0.32561934181358893 0 -0.3618047785131131 -0.32862925133304821 0 -0.35359721351353718 -0.34004673108302108 0 -0.35359721351353718 -0.34004673108302108 0 -0.36247207576052709 -0.35740109745143939 0 -0.34268215104290278 -0.35797992452600158 0 -0.35359721351353718 -0.34004673108302108 0 -0.34268215104290278 -0.35797992452600158 0 -0.33765025977867152 -0.34480892108230998 0 -0.37568472164775779 -0.36524225821647011 0 -0.38024887903539811 -0.3491016629308506 0 -0.36247207576052709 -0.35740109745143939 0 -0.38024887903539811 -0.3491016629308506 0 -0.35359721351353718 -0.34004673108302108 0 -0.36247207576052709 -0.35740109745143939 0 -0.38024887903539811 -0.3491016629308506 0 -0.35359721351353718 -0.34004673108302108 0 -0.37522403377147279 -0.38060127254172499 0 -0.37568472164775779 -0.36524225821647011 0 -0.35964608014779109 -0.37334112637938882 0 -0.37568472164775779 -0.36524225821647011 0 -0.36247207576052709 -0.35740109745143939 0 -0.35964608014779109 -0.37334112637938882 0 -0.36247207576052709 -0.35740109745143939 0 -0.35964608014779109 -0.37334112637938882 0 -0.34268215104290278 -0.35797992452600158 0 -0.35964608014779109 -0.37334112637938882 0 -0.34268215104290278 -0.35797992452600158 0 -0.34254000635277743 -0.38197763020755832 0 -0.34268215104290278 -0.35797992452600158 0 -0.32737612656656928 -0.35021722948502532 0 -0.32270418411731933 -0.37181077970513959 0 -0.34268215104290278 -0.35797992452600158 0 -0.32270418411731933 -0.37181077970513959 0 -0.34254000635277743 -0.38197763020755832 0 -0.34268215104290278 -0.35797992452600158 0 -0.34254000635277743 -0.38197763020755832 0 -0.34268215104290278 -0.35797992452600158 0 -0.33765025977867152 -0.34480892108230998 0 -0.32737612656656928 -0.35021722948502532 0 -0.32737612656656928 -0.35021722948502532 0 -0.31662274924076123 -0.35606216629487569 0 -0.32270418411731933 -0.37181077970513959 0 -0.32737612656656928 -0.35021722948502532 0 -0.3170311031704231 -0.34491623006635341 0 -0.31662274924076123 -0.35606216629487569 0 -0.3170311031704231 -0.34491623006635341 0 -0.31662274924076123 -0.35606216629487569 0 -0.30902027636205309 -0.35243705172998302 0 -0.31662274924076123 -0.35606216629487569 0 -0.32270418411731933 -0.37181077970513959 0 -0.30796050174877349 -0.36016317053514468 0 -0.32270418411731933 -0.37181077970513959 0 -0.29719619905707523 -0.36594012765828582 0 -0.30796050174877349 -0.36016317053514468 0 -0.32270418411731933 -0.37181077970513959 0 -0.29719619905707523 -0.36594012765828582 0 -0.3103864423796594 -0.37828470113645102 0 -0.32270418411731933 -0.37181077970513959 0 -0.29719619905707523 -0.36594012765828582 0 -0.29719619905707523 -0.36594012765828582 0 -0.29943295026653399 -0.35953932364306618 0 -0.30796050174877349 -0.36016317053514468 0 -0.29719619905707523 -0.36594012765828582 0 -0.29584447723995128 -0.37444813956539807 0 -0.3103864423796594 -0.37828470113645102 0 -0.31662274924076123 -0.35606216629487569 0 -0.30796050174877349 -0.36016317053514468 0 -0.30902027636205309 -0.35243705172998302 0 -0.30796050174877349 -0.36016317053514468 0 -0.30902027636205309 -0.35243705172998302 0 -0.30278665144889838 -0.35518957417951802 0 -0.3170311031704231 -0.34491623006635341 0 -0.30902027636205309 -0.35243705172998302 0 -0.30849554643820359 -0.34481279163420842 0 -0.30902027636205309 -0.35243705172998302 0 -0.30849554643820359 -0.34481279163420842 0 -0.30076474035813339 -0.34759465108555682 0 -0.30849554643820359 -0.34481279163420842 0 -0.30076474035813339 -0.34759465108555682 0 -0.30398917998114899 -0.33934800480643368 0 -0.30902027636205309 -0.35243705172998302 0 -0.30076474035813339 -0.34759465108555682 0 -0.30278665144889838 -0.35518957417951802 0 -0.29943295026653399 -0.35953932364306618 0 -0.30796050174877349 -0.36016317053514468 0 -0.30278665144889838 -0.35518957417951802 0 -0.30076474035813339 -0.34759465108555682 0 -0.30278665144889838 -0.35518957417951802 0 -0.29719830368448108 -0.35301728683459582 0 -0.29943295026653399 -0.35953932364306618 0 -0.30278665144889838 -0.35518957417951802 0 -0.29719830368448108 -0.35301728683459582 0 -0.29943295026653399 -0.35953932364306618 0 -0.29719830368448108 -0.35301728683459582 0 -0.29016743694869812 -0.35649807524262711 0 -0.29016743694869812 -0.35649807524262711 0 -0.28284547851944208 -0.35047845284871731 0 -0.27168821399683141 -0.36006947561143121 0 -0.29719830368448108 -0.35301728683459582 0 -0.29016743694869812 -0.35649807524262711 0 -0.2925915294609488 -0.34919256188026188 0 -0.2925915294609488 -0.34919256188026188 0 -0.28611540962297188 -0.3426453659285974 0 -0.29619358151489988 -0.34015641309103278 0 -0.30076474035813339 -0.34759465108555682 0 -0.29719830368448108 -0.35301728683459582 0 -0.2925915294609488 -0.34919256188026188 0 -0.30076474035813339 -0.34759465108555682 0 -0.2925915294609488 -0.34919256188026188 0 -0.29619358151489988 -0.34015641309103278 0 -0.2925915294609488 -0.34919256188026188 0 -0.28284547851944208 -0.35047845284871731 0 -0.28611540962297188 -0.3426453659285974 0 -0.28284547851944208 -0.35047845284871731 0 -0.27676447355633299 -0.3457480812413124 0 -0.28611540962297188 -0.3426453659285974 0 -0.29016743694869812 -0.35649807524262711 0 -0.2925915294609488 -0.34919256188026188 0 -0.28284547851944208 -0.35047845284871731 0 -0.29202770366946113 -0.36668513997228358 0 -0.27168821399683141 -0.36006947561143121 0 -0.28307956849111848 -0.3828068929804474 0 -0.29719619905707523 -0.36594012765828582 0 -0.27168821399683141 -0.36006947561143121 0 -0.29202770366946113 -0.36668513997228358 0 -0.28307956849111848 -0.3828068929804474 0 -0.29202770366946113 -0.36668513997228358 0 -0.29584447723995128 -0.37444813956539807 0 -0.28307956849111848 -0.3828068929804474 0 -0.29719619905707523 -0.36594012765828582 0 -0.29016743694869812 -0.35649807524262711 0 -0.27168821399683141 -0.36006947561143121 0 -0.29719619905707523 -0.36594012765828582 0 -0.29202770366946113 -0.36668513997228358 0 -0.27168821399683141 -0.36006947561143121 0 -0.29719619905707523 -0.36594012765828582 0 -0.29943295026653399 -0.35953932364306618 0 -0.29016743694869812 -0.35649807524262711 0 -0.29719619905707523 -0.36594012765828582 0 -0.29202770366946113 -0.36668513997228358 0 -0.29584447723995128 -0.37444813956539807 0 -0.27168821399683141 -0.36006947561143121 0 -0.28307956849111848 -0.3828068929804474 0 -0.27168821399683141 -0.36006947561143121 0 -0.28307956849111848 -0.3828068929804474 0 -0.26050234447883253 -0.38027693877573482 0 -0.27168821399683141 -0.36006947561143121 0 -0.25721723303835431 -0.36623646057876708 0 -0.26050234447883253 -0.38027693877573482 0 -0.27168821399683141 -0.36006947561143121 0 -0.25721723303835431 -0.36623646057876708 0 -0.24850069890613241 -0.35473287875334369 0 -0.25721723303835431 -0.36623646057876708 0 -0.24817767477162081 -0.36986654917455902 0 -0.24850069890613241 -0.35473287875334369 0 -0.25721723303835431 -0.36623646057876708 0 -0.26050234447883253 -0.38027693877573482 0 -0.24817767477162081 -0.36986654917455902 0 -0.27168821399683141 -0.36006947561143121 0 -0.25445926970156468 -0.34270101061729968 0 -0.24850069890613241 -0.35473287875334369 0 -0.27168821399683141 -0.36006947561143121 0 -0.26120815563270988 -0.3391510272218049 0 -0.25445926970156468 -0.34270101061729968 0 -0.27168821399683141 -0.36006947561143121 0 -0.24850069890613241 -0.35473287875334369 0 -0.27168821399683141 -0.36006947561143121 0 -0.27676447355633299 -0.3457480812413124 0 -0.26120815563270988 -0.3391510272218049 0 -0.27168821399683141 -0.36006947561143121 0 -0.26120815563270988 -0.3391510272218049 0 -0.28284547851944208 -0.35047845284871731 0 -0.27168821399683141 -0.36006947561143121 0 -0.27676447355633299 -0.3457480812413124 0 -0.27676447355633299 -0.3457480812413124 0 -0.27858368134566353 -0.33798527866036399 0 -0.28611540962297188 -0.3426453659285974 0 -0.27676447355633299 -0.3457480812413124 0 -0.27858368134566353 -0.33798527866036399 0 -0.26120815563270988 -0.3391510272218049 0 -0.28089299200049878 -0.32879660088216478 0 -0.26120815563270988 -0.3391510272218049 0 -0.28089299200049878 -0.32879660088216478 0 -0.26120815563270988 -0.3391510272218049 0 -0.26730676106940449 -0.32685643845792262 0 -0.27858368134566353 -0.33798527866036399 0 -0.28089299200049878 -0.32879660088216478 0 -0.26120815563270988 -0.3391510272218049 0 -0.26120815563270988 -0.3391510272218049 0 -0.26057751607960811 -0.32279583566460812 0 -0.26730676106940449 -0.32685643845792262 0 -0.26120815563270988 -0.3391510272218049 0 -0.25273748935779161 -0.32224337373924072 0 -0.26120815563270988 -0.3391510272218049 0 -0.25207330520806498 -0.33378255792528982 0 -0.25273748935779161 -0.32224337373924072 0 -0.26120815563270988 -0.3391510272218049 0 -0.25445926970156468 -0.34270101061729968 0 -0.25207330520806498 -0.33378255792528982 0 -0.25445926970156468 -0.34270101061729968 0 -0.2460450098649074 -0.33743905859998191 0 -0.26120815563270988 -0.3391510272218049 0 -0.25207330520806498 -0.33378255792528982 0 -0.25445926970156468 -0.34270101061729968 0 -0.25273748935779161 -0.32224337373924072 0 -0.26050456352867191 -0.3149367065078193 0 -0.24426682308287331 -0.30533572025667649 0 -0.26120815563270988 -0.3391510272218049 0 -0.25273748935779161 -0.32224337373924072 0 -0.26057751607960811 -0.32279583566460812 0 -0.26057751607960811 -0.32279583566460812 0 -0.26050456352867191 -0.3149367065078193 0 -0.26730676106940449 -0.32685643845792262 0 -0.25273748935779161 -0.32224337373924072 0 -0.26057751607960811 -0.32279583566460812 0 -0.26050456352867191 -0.3149367065078193 0 -0.28089299200049878 -0.32879660088216478 0 -0.26050456352867191 -0.3149367065078193 0 -0.27445713665833338 -0.31633796571173628 0 -0.28089299200049878 -0.32879660088216478 0 -0.26050456352867191 -0.3149367065078193 0 -0.26050456352867191 -0.3149367065078193 0 -0.27445713665833338 -0.31633796571173628 0 -0.26793999894844561 -0.31004618489902153 0 -0.28089299200049878 -0.32879660088216478 0 -0.26050456352867191 -0.3149367065078193 0 -0.26730676106940449 -0.32685643845792262 0 -0.28089299200049878 -0.32879660088216478 0 -0.27445713665833338 -0.31633796571173628 0 -0.28125105682705043 -0.31976055402590231 0 -0.27445713665833338 -0.31633796571173628 0 -0.28252008875028978 -0.31254235777143202 0 -0.28125105682705043 -0.31976055402590231 0 -0.28252008875028978 -0.31254235777143202 0 -0.28823329624350208 -0.31711313423980658 0 -0.29327146190654751 -0.30876504511160502 0 -0.28089299200049878 -0.32879660088216478 0 -0.28823329624350208 -0.31711313423980658 0 -0.30327184377803978 -0.31702509473566581 0 -0.28089299200049878 -0.32879660088216478 0 -0.29457520052377689 -0.33013191680287202 0 -0.30327184377803978 -0.31702509473566581 0 -0.28089299200049878 -0.32879660088216478 0 -0.30327184377803978 -0.31702509473566581 0 -0.28252008875028978 -0.31254235777143202 0 -0.28125105682705043 -0.31976055402590231 0 -0.28823329624350208 -0.31711313423980658 0 -0.28823329624350208 -0.31711313423980658 0 -0.30327184377803978 -0.31702509473566581 0 -0.29327146190654751 -0.30876504511160502 0 -0.28089299200049878 -0.32879660088216478 0 -0.28125105682705043 -0.31976055402590231 0 -0.28823329624350208 -0.31711313423980658 0 -0.28089299200049878 -0.32879660088216478 0 -0.28793737591580382 -0.33358531802794061 0 -0.27858368134566353 -0.33798527866036399 0 -0.28089299200049878 -0.32879660088216478 0 -0.28793737591580382 -0.33358531802794061 0 -0.28089299200049878 -0.32879660088216478 0 -0.28793737591580382 -0.33358531802794061 0 -0.29457520052377689 -0.33013191680287202 0 -0.27858368134566353 -0.33798527866036399 0 -0.28793737591580382 -0.33358531802794061 0 -0.28611540962297188 -0.3426453659285974 0 -0.28793737591580382 -0.33358531802794061 0 -0.28611540962297188 -0.3426453659285974 0 -0.29619358151489988 -0.34015641309103278 0 -0.28793737591580382 -0.33358531802794061 0 -0.29619358151489988 -0.34015641309103278 0 -0.29457520052377689 -0.33013191680287202 0 -0.29619358151489988 -0.34015641309103278 0 -0.29457520052377689 -0.33013191680287202 0 -0.30458020940964259 -0.3310961572775562 0 -0.30076474035813339 -0.34759465108555682 0 -0.29619358151489988 -0.34015641309103278 0 -0.30398917998114899 -0.33934800480643368 0 -0.29619358151489988 -0.34015641309103278 0 -0.30458020940964259 -0.3310961572775562 0 -0.30398917998114899 -0.33934800480643368 0 -0.31372637242327511 -0.33497634201883658 0 -0.30849554643820359 -0.34481279163420842 0 -0.30398917998114899 -0.33934800480643368 0 -0.31475841231360341 -0.32260943229412947 0 -0.31372637242327511 -0.33497634201883658 0 -0.30458020940964259 -0.3310961572775562 0 -0.31372637242327511 -0.33497634201883658 0 -0.30458020940964259 -0.3310961572775562 0 -0.30398917998114899 -0.33934800480643368 0 -0.31475841231360341 -0.32260943229412947 0 -0.30458020940964259 -0.3310961572775562 0 -0.30327184377803978 -0.31702509473566581 0 -0.29457520052377689 -0.33013191680287202 0 -0.30458020940964259 -0.3310961572775562 0 -0.30327184377803978 -0.31702509473566581 0 -0.30327184377803978 -0.31702509473566581 0 -0.30068554560480582 -0.30112982209441241 0 -0.31228269981280887 -0.29918463989613459 0 -0.30327184377803978 -0.31702509473566581 0 -0.30068554560480582 -0.30112982209441241 0 -0.29327146190654751 -0.30876504511160502 0 -0.30068554560480582 -0.30112982209441241 0 -0.30483638085835207 -0.28788342401786787 0 -0.28888361246081401 -0.29493054457851903 0 -0.30068554560480582 -0.30112982209441241 0 -0.31228269981280887 -0.29918463989613459 0 -0.30483638085835207 -0.28788342401786787 0 -0.28888361246081401 -0.29493054457851903 0 -0.28078806465599399 -0.28300047521785149 0 -0.29451735460655398 -0.27472288856989607 0 -0.30483638085835207 -0.28788342401786787 0 -0.28888361246081401 -0.29493054457851903 0 -0.29451735460655398 -0.27472288856989607 0 -0.28888361246081401 -0.29493054457851903 0 -0.28295382644196537 -0.3038897035906043 0 -0.27388309143310768 -0.29511411685975181 0 -0.28888361246081401 -0.29493054457851903 0 -0.28295382644196537 -0.3038897035906043 0 -0.29327146190654751 -0.30876504511160502 0 -0.30068554560480582 -0.30112982209441241 0 -0.28888361246081401 -0.29493054457851903 0 -0.29327146190654751 -0.30876504511160502 0 -0.28252008875028978 -0.31254235777143202 0 -0.28295382644196537 -0.3038897035906043 0 -0.29327146190654751 -0.30876504511160502 0 -0.27445713665833338 -0.31633796571173628 0 -0.28252008875028978 -0.31254235777143202 0 -0.27524002690986649 -0.30828041126704497 0 -0.28252008875028978 -0.31254235777143202 0 -0.28295382644196537 -0.3038897035906043 0 -0.27524002690986649 -0.30828041126704497 0 -0.28295382644196537 -0.3038897035906043 0 -0.27524002690986649 -0.30828041126704497 0 -0.27388309143310768 -0.29511411685975181 0 -0.26808679199009749 -0.30362992927208171 0 -0.26252268864995981 -0.29761987486456531 0 -0.27388309143310768 -0.29511411685975181 0 -0.27524002690986649 -0.30828041126704497 0 -0.26808679199009749 -0.30362992927208171 0 -0.27388309143310768 -0.29511411685975181 0 -0.27445713665833338 -0.31633796571173628 0 -0.27524002690986649 -0.30828041126704497 0 -0.26793999894844561 -0.31004618489902153 0 -0.27524002690986649 -0.30828041126704497 0 -0.26808679199009749 -0.30362992927208171 0 -0.26793999894844561 -0.31004618489902153 0 -0.26808679199009749 -0.30362992927208171 0 -0.26793999894844561 -0.31004618489902153 0 -0.26278193746552841 -0.30551063084933561 0 -0.26050456352867191 -0.3149367065078193 0 -0.25485564421046719 -0.30132045870319019 0 -0.24011613505684479 -0.30107681213347393 0 -0.26050456352867191 -0.3149367065078193 0 -0.24011613505684479 -0.30107681213347393 0 -0.26050456352867191 -0.3149367065078193 0 -0.26278193746552841 -0.30551063084933561 0 -0.25485564421046719 -0.30132045870319019 0 -0.26050456352867191 -0.3149367065078193 0 -0.26793999894844561 -0.31004618489902153 0 -0.26278193746552841 -0.30551063084933561 0 -0.26278193746552841 -0.30551063084933561 0 -0.26252268864995981 -0.29761987486456531 0 -0.25485564421046719 -0.30132045870319019 0 -0.26252268864995981 -0.29761987486456531 0 -0.25485564421046719 -0.30132045870319019 0 -0.2567143935458242 -0.29223768812186002 0 -0.26808679199009749 -0.30362992927208171 0 -0.26278193746552841 -0.30551063084933561 0 -0.26252268864995981 -0.29761987486456531 0 -0.25608276685525683 -0.28295324223861612 0 -0.2567143935458242 -0.29223768812186002 0 -0.24732420154209239 -0.29033586459568173 0 -0.25485564421046719 -0.30132045870319019 0 -0.2567143935458242 -0.29223768812186002 0 -0.24732420154209239 -0.29033586459568173 0 -0.26252268864995981 -0.29761987486456531 0 -0.2567143935458242 -0.29223768812186002 0 -0.26350989061834318 -0.28909490770035701 0 -0.25608276685525683 -0.28295324223861612 0 -0.26350989061834318 -0.28909490770035701 0 -0.26907982973782107 -0.2804670883869903 0 -0.25608276685525683 -0.28295324223861612 0 -0.2567143935458242 -0.29223768812186002 0 -0.26350989061834318 -0.28909490770035701 0 -0.26350989061834318 -0.28909490770035701 0 -0.27388309143310768 -0.29511411685975181 0 -0.26907982973782107 -0.2804670883869903 0 -0.26252268864995981 -0.29761987486456531 0 -0.26350989061834318 -0.28909490770035701 0 -0.27388309143310768 -0.29511411685975181 0 -0.28888361246081401 -0.29493054457851903 0 -0.27388309143310768 -0.29511411685975181 0 -0.28078806465599399 -0.28300047521785149 0 -0.27388309143310768 -0.29511411685975181 0 -0.28078806465599399 -0.28300047521785149 0 -0.26907982973782107 -0.2804670883869903 0 -0.27772768471542669 -0.26767482265106679 0 -0.26907982973782107 -0.2804670883869903 0 -0.25958550566062261 -0.27102626557679149 0 -0.28078806465599399 -0.28300047521785149 0 -0.27772768471542669 -0.26767482265106679 0 -0.26907982973782107 -0.2804670883869903 0 -0.25608276685525683 -0.28295324223861612 0 -0.26907982973782107 -0.2804670883869903 0 -0.25958550566062261 -0.27102626557679149 0 -0.25608276685525683 -0.28295324223861612 0 -0.25958550566062261 -0.27102626557679149 0 -0.2444485511135471 -0.27534046621033159 0 -0.26398002587916253 -0.25656090854441049 0 -0.24465976002352091 -0.25387891845332877 0 -0.25992972331208369 -0.2410680052130979 0 -0.25958550566062261 -0.27102626557679149 0 -0.26398002587916253 -0.25656090854441049 0 -0.24465976002352091 -0.25387891845332877 0 -0.27772768471542669 -0.26767482265106679 0 -0.26398002587916253 -0.25656090854441049 0 -0.27722523139620658 -0.24922189107985179 0 -0.27772768471542669 -0.26767482265106679 0 -0.25958550566062261 -0.27102626557679149 0 -0.26398002587916253 -0.25656090854441049 0 -0.27772768471542669 -0.26767482265106679 0 -0.29131753467172561 -0.25675805269722002 0 -0.27722523139620658 -0.24922189107985179 0 -0.28078806465599399 -0.28300047521785149 0 -0.27772768471542669 -0.26767482265106679 0 -0.29451735460655398 -0.27472288856989607 0 -0.27772768471542669 -0.26767482265106679 0 -0.29131753467172561 -0.25675805269722002 0 -0.29451735460655398 -0.27472288856989607 0 -0.31319680135340772 -0.27337899374224139 0 -0.29451735460655398 -0.27472288856989607 0 -0.30564385326437488 -0.26015983685037081 0 -0.31319680135340772 -0.27337899374224139 0 -0.30483638085835207 -0.28788342401786787 0 -0.29451735460655398 -0.27472288856989607 0 -0.29131753467172561 -0.25675805269722002 0 -0.29451735460655398 -0.27472288856989607 0 -0.30564385326437488 -0.26015983685037081 0 -0.29131753467172561 -0.25675805269722002 0 -0.30564385326437488 -0.26015983685037081 0 -0.30769212114973271 -0.24578220261295139 0 -0.31968345090478489 -0.25798973640781447 0 -0.30564385326437488 -0.26015983685037081 0 -0.30769212114973271 -0.24578220261295139 0 -0.34207866423036198 -0.45986413066326443 0 -0.33141508850449702 -0.45187214799378478 0 -0.32594289259428999 -0.46085836632795257 0 -0.34207866423036198 -0.45986413066326443 0 -0.32594289259428999 -0.46085836632795257 0 -0.33264581849560632 -0.47431014716802089 0 -0.34207866423036198 -0.45986413066326443 0 -0.34225571697252682 -0.42997304157067162 0 -0.34207866423036198 -0.45986413066326443 0 -0.33358626016413989 -0.44229992863572659 0 -0.33141508850449702 -0.45187214799378478 0 -0.34207866423036198 -0.45986413066326443 0 -0.33358626016413989 -0.44229992863572659 0 -0.34225571697252682 -0.42997304157067162 0 -0.33358626016413989 -0.44229992863572659 0 -0.33141508850449702 -0.45187214799378478 0 -0.32300139100864811 -0.44723989508536771 0 -0.33358626016413989 -0.44229992863572659 0 -0.32300139100864811 -0.44723989508536771 0 -0.32413493920603592 -0.43586432580396972 0 -0.32300139100864811 -0.44723989508536771 0 -0.31385630152515048 -0.44199725430357722 0 -0.32413493920603592 -0.43586432580396972 0 -0.32300139100864811 -0.44723989508536771 0 -0.31385630152515048 -0.44199725430357722 0 -0.31044958537109257 -0.45255960714027171 0 -0.32594289259428999 -0.46085836632795257 0 -0.31333683559556219 -0.46686726284272168 0 -0.31044958537109257 -0.45255960714027171 0 -0.32594289259428999 -0.46085836632795257 0 -0.31333683559556219 -0.46686726284272168 0 -0.32224857144892449 -0.47649828689453749 0 -0.32300139100864811 -0.44723989508536771 0 -0.32594289259428999 -0.46085836632795257 0 -0.31044958537109257 -0.45255960714027171 0 -0.33141508850449702 -0.45187214799378478 0 -0.32300139100864811 -0.44723989508536771 0 -0.32594289259428999 -0.46085836632795257 0 -0.31333683559556219 -0.46686726284272168 0 -0.32224857144892449 -0.47649828689453749 0 -0.30503152439861497 -0.48190266549989857 0 -0.32224857144892449 -0.47649828689453749 0 -0.32279626626388608 -0.48781718170045291 0 -0.30503152439861497 -0.48190266549989857 0 -0.32594289259428999 -0.46085836632795257 0 -0.32224857144892449 -0.47649828689453749 0 -0.33264581849560632 -0.47431014716802089 0 -0.32224857144892449 -0.47649828689453749 0 -0.32279626626388608 -0.48781718170045291 0 -0.33105735271625752 -0.4845747321984929 0 -0.32006214434654462 -0.5 0 -0.32279626626388608 -0.48781718170045291 0 -0.30503152439861497 -0.48190266549989857 0 -0.32006214434654462 -0.5 0 -0.32279626626388608 -0.48781718170045291 0 -0.33558173840908911 -0.49611022390933512 0 -0.32006214434654462 -0.5 0 -0.33558173840908911 -0.49611022390933512 0 -0.34657288766042038 -0.5 0 -0.33558173840908911 -0.49611022390933512 0 -0.34190161148819742 -0.48975521975585701 0 -0.35306908662498632 -0.4951847935385878 0 -0.32279626626388608 -0.48781718170045291 0 -0.33558173840908911 -0.49611022390933512 0 -0.33105735271625752 -0.4845747321984929 0 -0.33558173840908911 -0.49611022390933512 0 -0.33105735271625752 -0.4845747321984929 0 -0.34190161148819742 -0.48975521975585701 0 -0.34207866423036198 -0.45986413066326443 0 -0.34190161148819742 -0.48975521975585701 0 -0.34207866423036198 -0.45986413066326443 0 -0.34190161148819742 -0.48975521975585701 0 -0.33264581849560632 -0.47431014716802089 0 -0.33105735271625752 -0.4845747321984929 0 -0.34190161148819742 -0.48975521975585701 0 -0.33264581849560632 -0.47431014716802089 0 -0.32224857144892449 -0.47649828689453749 0 -0.33105735271625752 -0.4845747321984929 0 -0.33264581849560632 -0.47431014716802089 0 -0.34190161148819742 -0.48975521975585701 0 -0.35001641252228072 -0.47142734906239081 0 -0.35328963507943428 -0.48328499015431992 0 -0.34207866423036198 -0.45986413066326443 0 -0.34190161148819742 -0.48975521975585701 0 -0.35001641252228072 -0.47142734906239081 0 -0.35328963507943428 -0.48328499015431992 0 -0.35950950469085041 -0.48638993404071668 0 -0.36112286221809747 -0.47283058930211808 0 -0.35001641252228072 -0.47142734906239081 0 -0.35328963507943428 -0.48328499015431992 0 -0.36112286221809747 -0.47283058930211808 0 -0.33558173840908911 -0.49611022390933512 0 -0.35306908662498632 -0.4951847935385878 0 -0.33558173840908911 -0.49611022390933512 0 -0.34657288766042038 -0.5 0 -0.35306908662498632 -0.4951847935385878 0 -0.34657288766042038 -0.5 0 -0.35306908662498632 -0.4951847935385878 0 -0.37308363097429631 -0.50000000000000244 0 -0.34190161148819742 -0.48975521975585701 0 -0.35328963507943428 -0.48328499015431992 0 -0.35306908662498632 -0.4951847935385878 0 -0.35328963507943428 -0.48328499015431992 0 -0.35306908662498632 -0.4951847935385878 0 -0.35950950469085041 -0.48638993404071668 0 -0.35306908662498632 -0.4951847935385878 0 -0.35950950469085041 -0.48638993404071668 0 -0.37055643484088358 -0.49425936316784103 0 -0.35306908662498632 -0.4951847935385878 0 -0.37055643484088358 -0.49425936316784103 0 -0.35950950469085041 -0.48638993404071668 0 -0.37055643484088358 -0.49425936316784103 0 -0.36112286221809747 -0.47283058930211808 0 -0.35306908662498632 -0.4951847935385878 0 -0.37055643484088358 -0.49425936316784103 0 -0.37308363097429631 -0.50000000000000244 0 -0.37055643484088358 -0.49425936316784103 0 -0.37308363097429631 -0.50000000000000244 0 -0.38039451612360919 -0.47713749807852829 0 -0.37055643484088358 -0.49425936316784103 0 -0.36112286221809747 -0.47283058930211808 0 -0.37055643484088358 -0.49425936316784103 0 -0.36112286221809747 -0.47283058930211808 0 -0.38039451612360919 -0.47713749807852829 0 -0.36112286221809747 -0.47283058930211808 0 -0.37415472949075129 -0.45946062715310632 0 -0.37415472949075129 -0.45946062715310632 0 -0.3629811744391212 -0.45722253899736259 0 -0.36406731613876331 -0.44506275929787698 0 -0.36112286221809747 -0.47283058930211808 0 -0.37415472949075129 -0.45946062715310632 0 -0.3629811744391212 -0.45722253899736259 0 -0.36112286221809747 -0.47283058930211808 0 -0.3629811744391212 -0.45722253899736259 0 -0.35168928959531232 -0.4514018154363949 0 -0.36112286221809747 -0.47283058930211808 0 -0.35168928959531232 -0.4514018154363949 0 -0.35001641252228072 -0.47142734906239081 0 -0.36112286221809747 -0.47283058930211808 0 -0.35168928959531232 -0.4514018154363949 0 -0.34207866423036198 -0.45986413066326443 0 -0.35001641252228072 -0.47142734906239081 0 -0.35168928959531232 -0.4514018154363949 0 -0.35168928959531232 -0.4514018154363949 0 -0.34225571697252682 -0.42997304157067162 0 -0.35168928959531232 -0.4514018154363949 0 -0.36406731613876331 -0.44506275929787698 0 -0.34225571697252682 -0.42997304157067162 0 -0.34207866423036198 -0.45986413066326443 0 -0.35168928959531232 -0.4514018154363949 0 -0.34225571697252682 -0.42997304157067162 0 -0.38339996822118783 -0.44368928783448319 0 -0.36406731613876331 -0.44506275929787698 0 -0.36866352395763108 -0.4313760290561211 0 -0.38339996822118783 -0.44368928783448319 0 -0.37415472949075129 -0.45946062715310632 0 -0.36406731613876331 -0.44506275929787698 0 -0.3629811744391212 -0.45722253899736259 0 -0.35168928959531232 -0.4514018154363949 0 -0.36406731613876331 -0.44506275929787698 0 -0.38131756488089769 -0.42670085612339947 0 -0.36866352395763108 -0.4313760290561211 0 -0.36377437909963828 -0.41972983174959272 0 -0.38704143117499401 -0.40999023144455299 0 -0.3575105341832589 -0.40691374405003478 0 -0.38704143117499401 -0.40999023144455299 0 -0.36377437909963828 -0.41972983174959272 0 -0.3575105341832589 -0.40691374405003478 0 -0.35062038894632092 -0.41624612172537079 0 -0.34239786166265201 -0.40597533588911489 0 -0.34225571697252682 -0.42997304157067162 0 -0.36377437909963828 -0.41972983174959272 0 -0.3575105341832589 -0.40691374405003478 0 -0.35062038894632092 -0.41624612172537079 0 -0.3575105341832589 -0.40691374405003478 0 -0.35062038894632092 -0.41624612172537079 0 -0.34239786166265201 -0.40597533588911489 0 -0.36406731613876331 -0.44506275929787698 0 -0.36866352395763108 -0.4313760290561211 0 -0.34225571697252682 -0.42997304157067162 0 -0.36866352395763108 -0.4313760290561211 0 -0.36377437909963828 -0.41972983174959272 0 -0.34225571697252682 -0.42997304157067162 0 -0.36377437909963828 -0.41972983174959272 0 -0.35062038894632092 -0.41624612172537079 0 -0.34225571697252682 -0.42997304157067162 0 -0.37522403377147279 -0.38060127254172499 0 -0.37464038230528551 -0.396492613407532 0 -0.35879027536972019 -0.3891835699585654 0 -0.37522403377147279 -0.38060127254172499 0 -0.35964608014779109 -0.37334112637938882 0 -0.35879027536972019 -0.3891835699585654 0 -0.38704143117499401 -0.40999023144455299 0 -0.3575105341832589 -0.40691374405003478 0 -0.37464038230528551 -0.396492613407532 0 -0.3575105341832589 -0.40691374405003478 0 -0.37464038230528551 -0.396492613407532 0 -0.35879027536972019 -0.3891835699585654 0 -0.3575105341832589 -0.40691374405003478 0 -0.35030966939210212 -0.39601257002631829 0 -0.35879027536972019 -0.3891835699585654 0 -0.35030966939210212 -0.39601257002631829 0 -0.34254000635277743 -0.38197763020755832 0 -0.34239786166265201 -0.40597533588911489 0 -0.3575105341832589 -0.40691374405003478 0 -0.35030966939210212 -0.39601257002631829 0 -0.34239786166265201 -0.40597533588911489 0 -0.35964608014779109 -0.37334112637938882 0 -0.35879027536972019 -0.3891835699585654 0 -0.34254000635277743 -0.38197763020755832 0 -0.35030966939210212 -0.39601257002631829 0 -0.35879027536972019 -0.3891835699585654 0 -0.34254000635277743 -0.38197763020755832 0 -0.32270418411731933 -0.37181077970513959 0 -0.34254000635277743 -0.38197763020755832 0 -0.32435131947256218 -0.38428518727128619 0 -0.34254000635277743 -0.38197763020755832 0 -0.33211028503505757 -0.39455092735479258 0 -0.32435131947256218 -0.38428518727128619 0 -0.34254000635277743 -0.38197763020755832 0 -0.33211028503505757 -0.39455092735479258 0 -0.34239786166265201 -0.40597533588911489 0 -0.34254000635277743 -0.38197763020755832 0 -0.34239786166265201 -0.40597533588911489 0 -0.33211028503505757 -0.39455092735479258 0 -0.32627218782356721 -0.40254155632103228 0 -0.33325599186729038 -0.40952977136485508 0 -0.33211028503505757 -0.39455092735479258 0 -0.34239786166265201 -0.40597533588911489 0 -0.33325599186729038 -0.40952977136485508 0 -0.32627218782356721 -0.40254155632103228 0 -0.31778611784491262 -0.39429551077659458 0 -0.31836523457261151 -0.40628576827473822 0 -0.31778611784491262 -0.39429551077659458 0 -0.31836523457261151 -0.40628576827473822 0 -0.30856762168503782 -0.40330407176644772 0 -0.33211028503505757 -0.39455092735479258 0 -0.32627218782356721 -0.40254155632103228 0 -0.31778611784491262 -0.39429551077659458 0 -0.33211028503505757 -0.39455092735479258 0 -0.31778611784491262 -0.39429551077659458 0 -0.32435131947256218 -0.38428518727128619 0 -0.31778611784491262 -0.39429551077659458 0 -0.32435131947256218 -0.38428518727128619 0 -0.3103864423796594 -0.37828470113645102 0 -0.32270418411731933 -0.37181077970513959 0 -0.32435131947256218 -0.38428518727128619 0 -0.3103864423796594 -0.37828470113645102 0 -0.34225571697252682 -0.42997304157067162 0 -0.32127707919304882 -0.42450406978857058 0 -0.32413493920603592 -0.43586432580396972 0 -0.33358626016413989 -0.44229992863572659 0 -0.34225571697252682 -0.42997304157067162 0 -0.32413493920603592 -0.43586432580396972 0 -0.34225571697252682 -0.42997304157067162 0 -0.32547848823970138 -0.41505510354763547 0 -0.32127707919304882 -0.42450406978857058 0 -0.34225571697252682 -0.42997304157067162 0 -0.33325599186729038 -0.40952977136485508 0 -0.34239786166265201 -0.40597533588911489 0 -0.34225571697252682 -0.42997304157067162 0 -0.34225571697252682 -0.42997304157067162 0 -0.33325599186729038 -0.40952977136485508 0 -0.32547848823970138 -0.41505510354763547 0 -0.34239786166265201 -0.40597533588911489 0 -0.34225571697252682 -0.42997304157067162 0 -0.33325599186729038 -0.40952977136485508 0 -0.32627218782356721 -0.40254155632103228 0 -0.33325599186729038 -0.40952977136485508 0 -0.32547848823970138 -0.41505510354763547 0 -0.32547848823970138 -0.41505510354763547 0 -0.3149711123139971 -0.41411215899080989 0 -0.32127707919304882 -0.42450406978857058 0 -0.32627218782356721 -0.40254155632103228 0 -0.32547848823970138 -0.41505510354763547 0 -0.31836523457261151 -0.40628576827473822 0 -0.32547848823970138 -0.41505510354763547 0 -0.31836523457261151 -0.40628576827473822 0 -0.3149711123139971 -0.41411215899080989 0 -0.31836523457261151 -0.40628576827473822 0 -0.3149711123139971 -0.41411215899080989 0 -0.30856762168503782 -0.40330407176644772 0 -0.3149711123139971 -0.41411215899080989 0 -0.32127707919304882 -0.42450406978857058 0 -0.31068047406536009 -0.42124040027518911 0 -0.32127707919304882 -0.42450406978857058 0 -0.31073004788055869 -0.43167813375356229 0 -0.31068047406536009 -0.42124040027518911 0 -0.32127707919304882 -0.42450406978857058 0 -0.32413493920603592 -0.43586432580396972 0 -0.31073004788055869 -0.43167813375356229 0 -0.31385630152515048 -0.44199725430357722 0 -0.32413493920603592 -0.43586432580396972 0 -0.31073004788055869 -0.43167813375356229 0 -0.31073004788055869 -0.43167813375356229 0 -0.29829421210859891 -0.43220714453990322 0 -0.30286215921622678 -0.44210958888768459 0 -0.31073004788055869 -0.43167813375356229 0 -0.29829421210859891 -0.43220714453990322 0 -0.30293836312512551 -0.42244552438862548 0 -0.29829421210859891 -0.43220714453990322 0 -0.30293836312512551 -0.42244552438862548 0 -0.29038846928103268 -0.42353273433611682 0 -0.31073004788055869 -0.43167813375356229 0 -0.30293836312512551 -0.42244552438862548 0 -0.31068047406536009 -0.42124040027518911 0 -0.3149711123139971 -0.41411215899080989 0 -0.31068047406536009 -0.42124040027518911 0 -0.30545777612822328 -0.41428354029227837 0 -0.30293836312512551 -0.42244552438862548 0 -0.31068047406536009 -0.42124040027518911 0 -0.30545777612822328 -0.41428354029227837 0 -0.3149711123139971 -0.41411215899080989 0 -0.30545777612822328 -0.41428354029227837 0 -0.30856762168503782 -0.40330407176644772 0 -0.30545777612822328 -0.41428354029227837 0 -0.30856762168503782 -0.40330407176644772 0 -0.30079847364115991 -0.40578130343003371 0 -0.30545777612822328 -0.41428354029227837 0 -0.2987732092282892 -0.41413177709842958 0 -0.30079847364115991 -0.40578130343003371 0 -0.30293836312512551 -0.42244552438862548 0 -0.2987732092282892 -0.41413177709842958 0 -0.29038846928103268 -0.42353273433611682 0 -0.30293836312512551 -0.42244552438862548 0 -0.2987732092282892 -0.41413177709842958 0 -0.30293836312512551 -0.42244552438862548 0 -0.30545777612822328 -0.41428354029227837 0 -0.2987732092282892 -0.41413177709842958 0 -0.30545777612822328 -0.41428354029227837 0 -0.2987732092282892 -0.41413177709842958 0 -0.2987732092282892 -0.41413177709842958 0 -0.29092638885970451 -0.39846933503943821 0 -0.2987732092282892 -0.41413177709842958 0 -0.28243901841779939 -0.41376093348156762 0 -0.29092638885970451 -0.39846933503943821 0 -0.2987732092282892 -0.41413177709842958 0 -0.28243901841779939 -0.41376093348156762 0 -0.29038846928103268 -0.42353273433611682 0 -0.2987732092282892 -0.41413177709842958 0 -0.28243901841779939 -0.41376093348156762 0 -0.28243901841779939 -0.41376093348156762 0 -0.29038846928103268 -0.42353273433611682 0 -0.27500508569675858 -0.42792788340523652 0 -0.29038846928103268 -0.42353273433611682 0 -0.27500508569675858 -0.42792788340523652 0 -0.28620792983366777 -0.44117103379144762 0 -0.29829421210859891 -0.43220714453990322 0 -0.29038846928103268 -0.42353273433611682 0 -0.28620792983366777 -0.44117103379144762 0 -0.31778611784491262 -0.39429551077659458 0 -0.3103864423796594 -0.37828470113645102 0 -0.30424293331838692 -0.39073887816822978 0 -0.29584447723995128 -0.37444813956539807 0 -0.29713407365637251 -0.38186722723828942 0 -0.3103864423796594 -0.37828470113645102 0 -0.29713407365637251 -0.38186722723828942 0 -0.30424293331838692 -0.39073887816822978 0 -0.29406976999373469 -0.38920344929064732 0 -0.29713407365637251 -0.38186722723828942 0 -0.3103864423796594 -0.37828470113645102 0 -0.30424293331838692 -0.39073887816822978 0 -0.29998863005712628 -0.39809616774203599 0 -0.30424293331838692 -0.39073887816822978 0 -0.30856762168503782 -0.40330407176644772 0 -0.29998863005712628 -0.39809616774203599 0 -0.30424293331838692 -0.39073887816822978 0 -0.29406976999373469 -0.38920344929064732 0 -0.31778611784491262 -0.39429551077659458 0 -0.30424293331838692 -0.39073887816822978 0 -0.30856762168503782 -0.40330407176644772 0 -0.29998863005712628 -0.39809616774203599 0 -0.30079847364115991 -0.40578130343003371 0 -0.29092638885970451 -0.39846933503943821 0 -0.29998863005712628 -0.39809616774203599 0 -0.30856762168503782 -0.40330407176644772 0 -0.30079847364115991 -0.40578130343003371 0 -0.2987732092282892 -0.41413177709842958 0 -0.30079847364115991 -0.40578130343003371 0 -0.29092638885970451 -0.39846933503943821 0 -0.29092638885970451 -0.39846933503943821 0 -0.28307956849111848 -0.3828068929804474 0 -0.29092638885970451 -0.39846933503943821 0 -0.28307956849111848 -0.3828068929804474 0 -0.27459219804921331 -0.39809849142257658 0 -0.28243901841779939 -0.41376093348156762 0 -0.29092638885970451 -0.39846933503943821 0 -0.27459219804921331 -0.39809849142257658 0 -0.29998863005712628 -0.39809616774203599 0 -0.29092638885970451 -0.39846933503943821 0 -0.29406976999373469 -0.38920344929064732 0 -0.29092638885970451 -0.39846933503943821 0 -0.29406976999373469 -0.38920344929064732 0 -0.28307956849111848 -0.3828068929804474 0 -0.29713407365637251 -0.38186722723828942 0 -0.29406976999373469 -0.38920344929064732 0 -0.28307956849111848 -0.3828068929804474 0 -0.29584447723995128 -0.37444813956539807 0 -0.29713407365637251 -0.38186722723828942 0 -0.28307956849111848 -0.3828068929804474 0 -0.28307956849111848 -0.3828068929804474 0 -0.27459219804921331 -0.39809849142257658 0 -0.26050234447883253 -0.38027693877573482 0 -0.28307956849111848 -0.3828068929804474 0 -0.27459219804921331 -0.39809849142257658 0 -0.27459219804921331 -0.39809849142257658 0 -0.26610482760730952 -0.4133900898647066 0 -0.27459219804921331 -0.39809849142257658 0 -0.26088670843651829 -0.40068536336094251 0 -0.26610482760730952 -0.4133900898647066 0 -0.26088670843651829 -0.40068536336094251 0 -0.26050234447883253 -0.38027693877573482 0 -0.2487824818667288 -0.3954643368039899 0 -0.27459219804921331 -0.39809849142257658 0 -0.26088670843651829 -0.40068536336094251 0 -0.26050234447883253 -0.38027693877573482 0 -0.26088670843651829 -0.40068536336094251 0 -0.24694430377570939 -0.41295507854145541 0 -0.2487824818667288 -0.3954643368039899 0 -0.27500508569675858 -0.42792788340523652 0 -0.25298523514652932 -0.43702750984159111 0 -0.27028712802556781 -0.44002206955302048 0 -0.27500508569675858 -0.42792788340523652 0 -0.27028712802556781 -0.44002206955302048 0 -0.28620792983366777 -0.44117103379144762 0 -0.28243901841779939 -0.41376093348156762 0 -0.27500508569675858 -0.42792788340523652 0 -0.26610482760730952 -0.4133900898647066 0 -0.28243901841779939 -0.41376093348156762 0 -0.27459219804921331 -0.39809849142257658 0 -0.26610482760730952 -0.4133900898647066 0 -0.28243901841779939 -0.41376093348156762 0 -0.26610482760730952 -0.4133900898647066 0 -0.26610482760730952 -0.4133900898647066 0 -0.24694430377570939 -0.41295507854145541 0 -0.26610482760730952 -0.4133900898647066 0 -0.25298523514652932 -0.43702750984159111 0 -0.24694430377570939 -0.41295507854145541 0 -0.26088670843651829 -0.40068536336094251 0 -0.26610482760730952 -0.4133900898647066 0 -0.24694430377570939 -0.41295507854145541 0 -0.27500508569675858 -0.42792788340523652 0 -0.26610482760730952 -0.4133900898647066 0 -0.25298523514652932 -0.43702750984159111 0 -0.26610482760730952 -0.4133900898647066 0 -0.25298523514652932 -0.43702750984159111 0 -0.25298523514652932 -0.43702750984159111 0 -0.25823473398406083 -0.46259190486934387 0 -0.27139768853026319 -0.45350369328431828 0 -0.25298523514652932 -0.43702750984159111 0 -0.27139768853026319 -0.45350369328431828 0 -0.27028712802556781 -0.44002206955302048 0 -0.25298523514652932 -0.43702750984159111 0 -0.25823473398406083 -0.46259190486934387 0 -0.2398656426857485 -0.46066492981847512 0 -0.27139768853026319 -0.45350369328431828 0 -0.28665438526504589 -0.45880473289459528 0 -0.27499686831673542 -0.4693274569635677 0 -0.25823473398406083 -0.46259190486934387 0 -0.27139768853026319 -0.45350369328431828 0 -0.27499686831673542 -0.4693274569635677 0 -0.27139768853026319 -0.45350369328431828 0 -0.27028712802556781 -0.44002206955302048 0 -0.28620792983366777 -0.44117103379144762 0 -0.28620792983366777 -0.44117103379144762 0 -0.29665932401628559 -0.4519210782245337 0 -0.28665438526504589 -0.45880473289459528 0 -0.28620792983366777 -0.44117103379144762 0 -0.29665932401628559 -0.4519210782245337 0 -0.30286215921622678 -0.44210958888768459 0 -0.27139768853026319 -0.45350369328431828 0 -0.28620792983366777 -0.44117103379144762 0 -0.28665438526504589 -0.45880473289459528 0 -0.29829421210859891 -0.43220714453990322 0 -0.28620792983366777 -0.44117103379144762 0 -0.30286215921622678 -0.44210958888768459 0 -0.28665438526504589 -0.45880473289459528 0 -0.28928475434474438 -0.47221518125428918 0 -0.27499686831673542 -0.4693274569635677 0 -0.28665438526504589 -0.45880473289459528 0 -0.30029558254474148 -0.46389675841394568 0 -0.28928475434474438 -0.47221518125428918 0 -0.29665932401628559 -0.4519210782245337 0 -0.28665438526504589 -0.45880473289459528 0 -0.30029558254474148 -0.46389675841394568 0 -0.29665932401628559 -0.4519210782245337 0 -0.30029558254474148 -0.46389675841394568 0 -0.31044958537109257 -0.45255960714027171 0 -0.31333683559556219 -0.46686726284272168 0 -0.30029558254474148 -0.46389675841394568 0 -0.31044958537109257 -0.45255960714027171 0 -0.31385630152515048 -0.44199725430357722 0 -0.31044958537109257 -0.45255960714027171 0 -0.30286215921622678 -0.44210958888768459 0 -0.31385630152515048 -0.44199725430357722 0 -0.31073004788055869 -0.43167813375356229 0 -0.30286215921622678 -0.44210958888768459 0 -0.29665932401628559 -0.4519210782245337 0 -0.31044958537109257 -0.45255960714027171 0 -0.30286215921622678 -0.44210958888768459 0 -0.32006214434654462 -0.5 0 -0.30503152439861497 -0.48190266549989857 0 -0.29355140103266869 -0.5 0 -0.30029558254474148 -0.46389675841394568 0 -0.30503152439861497 -0.48190266549989857 0 -0.28928475434474438 -0.47221518125428918 0 -0.31333683559556219 -0.46686726284272168 0 -0.30029558254474148 -0.46389675841394568 0 -0.30503152439861497 -0.48190266549989857 0 -0.30503152439861497 -0.48190266549989857 0 -0.28928475434474438 -0.47221518125428918 0 -0.27944541119858413 -0.48714429249943858 0 -0.30503152439861497 -0.48190266549989857 0 -0.29355140103266869 -0.5 0 -0.27944541119858413 -0.48714429249943858 0 -0.26704065771879287 -0.5 0 -0.27944541119858413 -0.48714429249943858 0 -0.26377894750559139 -0.4817410620592058 0 -0.29355140103266869 -0.5 0 -0.26704065771879287 -0.5 0 -0.27944541119858413 -0.48714429249943858 0 -0.27944541119858413 -0.48714429249943858 0 -0.27499686831673542 -0.4693274569635677 0 -0.26377894750559139 -0.4817410620592058 0 -0.28928475434474438 -0.47221518125428918 0 -0.27944541119858413 -0.48714429249943858 0 -0.27499686831673542 -0.4693274569635677 0 -0.25823473398406083 -0.46259190486934387 0 -0.27499686831673542 -0.4693274569635677 0 -0.26377894750559139 -0.4817410620592058 0 -0.25823473398406083 -0.46259190486934387 0 -0.26377894750559139 -0.4817410620592058 0 -0.24769273461092009 -0.47775775457152359 0 -0.26704065771879287 -0.5 0 -0.26377894750559139 -0.4817410620592058 0 -0.24052991440491719 -0.5 0 -0.26377894750559139 -0.4817410620592058 0 -0.24052991440491719 -0.5 0 -0.24769273461092009 -0.47775775457152359 0 -0.24052991440491719 -0.5 0 -0.24769273461092009 -0.47775775457152359 0 -0.2238647917587385 -0.47868470982513422 0 -0.24769273461092009 -0.47775775457152359 0 -0.2238647917587385 -0.47868470982513422 0 -0.2253613830811457 -0.45761053917550981 0 -0.24052991440491719 -0.5 0 -0.2238647917587385 -0.47868470982513422 0 -0.2140191710910414 -0.49999999999999972 0 -0.25298523514652932 -0.43702750984159111 0 -0.23591515519085041 -0.44398209369878189 0 -0.2398656426857485 -0.46066492981847512 0 -0.25298523514652932 -0.43702750984159111 0 -0.2398656426857485 -0.46066492981847512 0 -0.25823473398406083 -0.46259190486934387 0 -0.24769273461092009 -0.47775775457152359 0 -0.2398656426857485 -0.46066492981847512 0 -0.24769273461092009 -0.47775775457152359 0 -0.2398656426857485 -0.46066492981847512 0 -0.2253613830811457 -0.45761053917550981 0 -0.24769273461092009 -0.47775775457152359 0 -0.2253613830811457 -0.45761053917550981 0 -0.2238647917587385 -0.47868470982513422 0 -0.2253613830811457 -0.45761053917550981 0 -0.20999779143719291 -0.46083672605530768 0 -0.23591515519085041 -0.44398209369878189 0 -0.2398656426857485 -0.46066492981847512 0 -0.2253613830811457 -0.45761053917550981 0 -0.23591515519085041 -0.44398209369878189 0 -0.2253613830811457 -0.45761053917550981 0 -0.22549954629610269 -0.43500765649169948 0 -0.2253613830811457 -0.45761053917550981 0 -0.20999779143719291 -0.46083672605530768 0 -0.2030300315513712 -0.43746332377949593 0 -0.2253613830811457 -0.45761053917550981 0 -0.2030300315513712 -0.43746332377949593 0 -0.20999779143719291 -0.46083672605530768 0 -0.19715634076338631 -0.4518064782969281 0 -0.2030300315513712 -0.43746332377949593 0 -0.2253613830811457 -0.45761053917550981 0 -0.2030300315513712 -0.43746332377949593 0 -0.22549954629610269 -0.43500765649169948 0 -0.20999779143719291 -0.46083672605530768 0 -0.19715634076338631 -0.4518064782969281 0 -0.2055877559272139 -0.47590323914846377 0 -0.19715634076338631 -0.4518064782969281 0 -0.2055877559272139 -0.47590323914846377 0 -0.19179305986328829 -0.46711759196808689 0 -0.19715634076338631 -0.4518064782969281 0 -0.2055877559272139 -0.47590323914846377 0 -0.19179305986328829 -0.46711759196808689 0 -0.19715634076338631 -0.4518064782969281 0 -0.184822707974968 -0.45592422963236362 0 -0.19715634076338631 -0.4518064782969281 0 -0.2030300315513712 -0.43746332377949593 0 -0.18872492559955881 -0.42770971744539221 0 -0.19715634076338631 -0.4518064782969281 0 -0.18872492559955881 -0.42770971744539221 0 -0.19715634076338631 -0.4518064782969281 0 -0.1870173619903012 -0.44414077979923022 0 -0.18872492559955881 -0.42770971744539221 0 -0.19715634076338631 -0.4518064782969281 0 -0.184822707974968 -0.45592422963236362 0 -0.1870173619903012 -0.44414077979923022 0 -0.2140191710910414 -0.49999999999999972 0 -0.2055877559272139 -0.47590323914846377 0 -0.2140191710910414 -0.49999999999999972 0 -0.2055877559272139 -0.47590323914846377 0 -0.1915741566131953 -0.48274482478870012 0 -0.2238647917587385 -0.47868470982513422 0 -0.2140191710910414 -0.49999999999999972 0 -0.2055877559272139 -0.47590323914846377 0 -0.2238647917587385 -0.47868470982513422 0 -0.20999779143719291 -0.46083672605530768 0 -0.2055877559272139 -0.47590323914846377 0 -0.19179305986328829 -0.46711759196808689 0 -0.2055877559272139 -0.47590323914846377 0 -0.1915741566131953 -0.48274482478870012 0 -0.19179305986328829 -0.46711759196808689 0 -0.1915741566131953 -0.48274482478870012 0 -0.17982433803767831 -0.46920918797397909 0 -0.2140191710910414 -0.49999999999999972 0 -0.1915741566131953 -0.48274482478870012 0 -0.1841956238768391 -0.5 0 -0.1915741566131953 -0.48274482478870012 0 -0.1841956238768391 -0.5 0 -0.17247084166804699 -0.48396500267038112 0 -0.1841956238768391 -0.5 0 -0.17247084166804699 -0.48396500267038112 0 -0.15437207666263669 -0.50000000000000022 0 -0.15669106487963419 -0.47716915445828201 0 -0.17247084166804699 -0.48396500267038112 0 -0.15437207666263669 -0.50000000000000022 0 -0.15669106487963419 -0.47716915445828201 0 -0.17247084166804699 -0.48396500267038112 0 -0.1680230602922401 -0.4683158249620154 0 -0.17247084166804699 -0.48396500267038112 0 -0.17982433803767831 -0.46920918797397909 0 -0.1680230602922401 -0.4683158249620154 0 -0.1915741566131953 -0.48274482478870012 0 -0.17247084166804699 -0.48396500267038112 0 -0.17982433803767831 -0.46920918797397909 0 -0.19179305986328829 -0.46711759196808689 0 -0.17982433803767831 -0.46920918797397909 0 -0.184822707974968 -0.45592422963236362 0 -0.17982433803767831 -0.46920918797397909 0 -0.184822707974968 -0.45592422963236362 0 -0.17211900377920919 -0.45689747079087062 0 -0.17982433803767831 -0.46920918797397909 0 -0.17211900377920919 -0.45689747079087062 0 -0.1680230602922401 -0.4683158249620154 0 -0.1870173619903012 -0.44414077979923022 0 -0.17843006300647921 -0.44542980211747812 0 -0.1823118302108766 -0.43680876328769058 0 -0.184822707974968 -0.45592422963236362 0 -0.1870173619903012 -0.44414077979923022 0 -0.17843006300647921 -0.44542980211747812 0 -0.17211900377920919 -0.45689747079087062 0 -0.17843006300647921 -0.44542980211747812 0 -0.16919262628862339 -0.44362555979768409 0 -0.184822707974968 -0.45592422963236362 0 -0.17211900377920919 -0.45689747079087062 0 -0.17843006300647921 -0.44542980211747812 0 -0.17843006300647921 -0.44542980211747812 0 -0.16919262628862339 -0.44362555979768409 0 -0.17507497024716731 -0.42995475378866199 0 -0.1590100530966318 -0.45433830891656402 0 -0.148881704538534 -0.44296791951084241 0 -0.1613290413136293 -0.43150746337484569 0 -0.1590100530966318 -0.45433830891656402 0 -0.1613290413136293 -0.43150746337484569 0 -0.16919262628862339 -0.44362555979768409 0 -0.1590100530966318 -0.45433830891656402 0 -0.1613290413136293 -0.43150746337484569 0 -0.17211900377920919 -0.45689747079087062 0 -0.16919262628862339 -0.44362555979768409 0 -0.1590100530966318 -0.45433830891656402 0 -0.15669106487963419 -0.47716915445828201 0 -0.1680230602922401 -0.4683158249620154 0 -0.1590100530966318 -0.45433830891656402 0 -0.15669106487963419 -0.47716915445828201 0 -0.1590100530966318 -0.45433830891656402 0 -0.17211900377920919 -0.45689747079087062 0 -0.1680230602922401 -0.4683158249620154 0 -0.1590100530966318 -0.45433830891656402 0 -0.15669106487963419 -0.47716915445828201 0 -0.1590100530966318 -0.45433830891656402 0 -0.1472923250818238 -0.46077477567243558 0 -0.1590100530966318 -0.45433830891656402 0 -0.1472923250818238 -0.46077477567243558 0 -0.148881704538534 -0.44296791951084241 0 -0.1472923250818238 -0.46077477567243558 0 -0.148881704538534 -0.44296791951084241 0 -0.13194602454298601 -0.43962244526902572 0 -0.13194602454298601 -0.43962244526902572 0 -0.13077987840644981 -0.46069854066347632 0 -0.11615585050415531 -0.45102464773050138 0 -0.1472923250818238 -0.46077477567243558 0 -0.13194602454298601 -0.43962244526902572 0 -0.1472923250818238 -0.46077477567243558 0 -0.13077987840644981 -0.46069854066347632 0 -0.13742439756140509 -0.48004162281001828 0 -0.1472923250818238 -0.46077477567243558 0 -0.13194602454298601 -0.43962244526902572 0 -0.13077987840644981 -0.46069854066347632 0 -0.13742439756140509 -0.48004162281001828 0 -0.12108079434187891 -0.47202921183540031 0 -0.1206292342060253 -0.48641385964910883 0 -0.13077987840644981 -0.46069854066347632 0 -0.13742439756140509 -0.48004162281001828 0 -0.12108079434187891 -0.47202921183540031 0 -0.13742439756140509 -0.48004162281001828 0 -0.131118449396015 -0.5 0 -0.1206292342060253 -0.48641385964910883 0 -0.15669106487963419 -0.47716915445828201 0 -0.13742439756140509 -0.48004162281001828 0 -0.15437207666263669 -0.50000000000000022 0 -0.15669106487963419 -0.47716915445828201 0 -0.15437207666263669 -0.50000000000000022 0 -0.13742439756140509 -0.48004162281001828 0 -0.131118449396015 -0.5 0 -0.15437207666263669 -0.50000000000000022 0 -0.15669106487963419 -0.47716915445828201 0 -0.1472923250818238 -0.46077477567243558 0 -0.13742439756140509 -0.48004162281001828 0 -0.13678826443221431 -0.39755243580027871 0 -0.14931675495270949 -0.41057852288770358 0 -0.15761740849691311 -0.38818340141201402 0 -0.1369224961495438 -0.38192389563367207 0 -0.13678826443221431 -0.39755243580027871 0 -0.15761740849691311 -0.38818340141201402 0 -0.1369224961495438 -0.38192389563367207 0 -0.15761740849691311 -0.38818340141201402 0 -0.148308101659717 -0.36695316985008092 0 -0.1369224961495438 -0.38192389563367207 0 -0.12526638733901391 -0.39147447277512609 0 -0.13678826443221431 -0.39755243580027871 0 -0.1369224961495438 -0.38192389563367207 0 -0.1303219987982592 -0.3665496015062627 0 -0.12201267174342199 -0.37938718301114999 0 -0.1369224961495438 -0.38192389563367207 0 -0.12526638733901391 -0.39147447277512609 0 -0.12201267174342199 -0.37938718301114999 0 -0.12526638733901391 -0.39147447277512609 0 -0.13678826443221431 -0.39755243580027871 0 -0.12592730430259419 -0.40432488328170318 0 -0.13678826443221431 -0.39755243580027871 0 -0.12592730430259419 -0.40432488328170318 0 -0.1345256340888337 -0.41538851269275129 0 -0.13678826443221431 -0.39755243580027871 0 -0.1345256340888337 -0.41538851269275129 0 -0.14931675495270949 -0.41057852288770358 0 -0.12592730430259419 -0.40432488328170318 0 -0.1345256340888337 -0.41538851269275129 0 -0.1165997240041481 -0.41847011486561592 0 -0.13194602454298601 -0.43962244526902572 0 -0.1345256340888337 -0.41538851269275129 0 -0.14483107865759889 -0.42859660432134139 0 -0.13194602454298601 -0.43962244526902572 0 -0.1345256340888337 -0.41538851269275129 0 -0.1165997240041481 -0.41847011486561592 0 -0.148881704538534 -0.44296791951084241 0 -0.14483107865759889 -0.42859660432134139 0 -0.1613290413136293 -0.43150746337484569 0 -0.148881704538534 -0.44296791951084241 0 -0.13194602454298601 -0.43962244526902572 0 -0.14483107865759889 -0.42859660432134139 0 -0.14483107865759889 -0.42859660432134139 0 -0.14931675495270949 -0.41057852288770358 0 -0.1613290413136293 -0.43150746337484569 0 -0.1345256340888337 -0.41538851269275129 0 -0.14483107865759889 -0.42859660432134139 0 -0.14931675495270949 -0.41057852288770358 0 -0.16364802953062679 -0.40867661783312748 0 -0.1613290413136293 -0.43150746337484569 0 -0.14931675495270949 -0.41057852288770358 0 -0.16364802953062679 -0.40867661783312748 0 -0.1613290413136293 -0.43150746337484569 0 -0.16364802953062679 -0.40867661783312748 0 -0.1613290413136293 -0.43150746337484569 0 -0.17507497024716731 -0.42995475378866199 0 -0.16919262628862339 -0.44362555979768409 0 -0.1613290413136293 -0.43150746337484569 0 -0.17507497024716731 -0.42995475378866199 0 -0.1870173619903012 -0.44414077979923022 0 -0.1823118302108766 -0.43680876328769058 0 -0.18872492559955881 -0.42770971744539221 0 -0.17843006300647921 -0.44542980211747812 0 -0.17507497024716731 -0.42995475378866199 0 -0.1823118302108766 -0.43680876328769058 0 -0.17507497024716731 -0.42995475378866199 0 -0.1806986800215967 -0.4173161083834821 0 -0.18872492559955881 -0.42770971744539221 0 -0.17507497024716731 -0.42995475378866199 0 -0.1823118302108766 -0.43680876328769058 0 -0.18872492559955881 -0.42770971744539221 0 -0.1806986800215967 -0.4173161083834821 0 -0.18228064084688081 -0.39610998094782668 0 -0.19209360216251761 -0.40824625574224149 0 -0.16364802953062679 -0.40867661783312748 0 -0.17507497024716731 -0.42995475378866199 0 -0.1806986800215967 -0.4173161083834821 0 -0.16364802953062679 -0.40867661783312748 0 -0.1806986800215967 -0.4173161083834821 0 -0.18228064084688081 -0.39610998094782668 0 -0.16364802953062679 -0.40867661783312748 0 -0.18228064084688081 -0.39610998094782668 0 -0.15761740849691311 -0.38818340141201402 0 -0.14931675495270949 -0.41057852288770358 0 -0.16364802953062679 -0.40867661783312748 0 -0.15761740849691311 -0.38818340141201402 0 -0.15761740849691311 -0.38818340141201402 0 -0.183603859264966 -0.3766054584014627 0 -0.1661931572416451 -0.36889933283976362 0 -0.18228064084688081 -0.39610998094782668 0 -0.15761740849691311 -0.38818340141201402 0 -0.183603859264966 -0.3766054584014627 0 -0.18228064084688081 -0.39610998094782668 0 -0.183603859264966 -0.3766054584014627 0 -0.20216487974800659 -0.3829991661375407 0 -0.18228064084688081 -0.39610998094782668 0 -0.20343785588976751 -0.39944649130885712 0 -0.19209360216251761 -0.40824625574224149 0 -0.18228064084688081 -0.39610998094782668 0 -0.20216487974800659 -0.3829991661375407 0 -0.20343785588976751 -0.39944649130885712 0 -0.20343785588976751 -0.39944649130885712 0 -0.21350444502423929 -0.40864471589815532 0 -0.22035180610084079 -0.39356726900625483 0 -0.20216487974800659 -0.3829991661375407 0 -0.20343785588976751 -0.39944649130885712 0 -0.22035180610084079 -0.39356726900625483 0 -0.20216487974800659 -0.3829991661375407 0 -0.22035180610084079 -0.39356726900625483 0 -0.219169022554425 -0.37113875127287832 0 -0.1806986800215967 -0.4173161083834821 0 -0.2030300315513712 -0.43746332377949593 0 -0.18872492559955881 -0.42770971744539221 0 -0.1806986800215967 -0.4173161083834821 0 -0.2030300315513712 -0.43746332377949593 0 -0.2030300315513712 -0.43746332377949593 0 -0.19369636752838881 -0.41903658901391427 0 -0.2031687955665597 -0.42354741618771741 0 -0.1806986800215967 -0.4173161083834821 0 -0.2030300315513712 -0.43746332377949593 0 -0.19369636752838881 -0.41903658901391427 0 -0.19369636752838881 -0.41903658901391427 0 -0.20299923128825029 -0.41376529568937459 0 -0.2031687955665597 -0.42354741618771741 0 -0.1806986800215967 -0.4173161083834821 0 -0.19369636752838881 -0.41903658901391427 0 -0.19209360216251761 -0.40824625574224149 0 -0.19369636752838881 -0.41903658901391427 0 -0.19209360216251761 -0.40824625574224149 0 -0.20299923128825029 -0.41376529568937459 0 -0.20343785588976751 -0.39944649130885712 0 -0.19209360216251761 -0.40824625574224149 0 -0.20299923128825029 -0.41376529568937459 0 -0.20343785588976751 -0.39944649130885712 0 -0.20299923128825029 -0.41376529568937459 0 -0.21350444502423929 -0.40864471589815532 0 -0.21350444502423929 -0.40864471589815532 0 -0.21294955189822859 -0.42392445626808489 0 -0.2277837799441092 -0.41252006721820539 0 -0.20299923128825029 -0.41376529568937459 0 -0.2031687955665597 -0.42354741618771741 0 -0.21294955189822859 -0.42392445626808489 0 -0.20299923128825029 -0.41376529568937459 0 -0.21350444502423929 -0.40864471589815532 0 -0.21294955189822859 -0.42392445626808489 0 -0.2030300315513712 -0.43746332377949593 0 -0.21294955189822859 -0.42392445626808489 0 -0.22549954629610269 -0.43500765649169948 0 -0.2030300315513712 -0.43746332377949593 0 -0.2031687955665597 -0.42354741618771741 0 -0.21294955189822859 -0.42392445626808489 0 -0.23591515519085041 -0.44398209369878189 0 -0.22549954629610269 -0.43500765649169948 0 -0.23735783041644329 -0.42609093398936743 0 -0.22549954629610269 -0.43500765649169948 0 -0.2277837799441092 -0.41252006721820539 0 -0.23735783041644329 -0.42609093398936743 0 -0.21294955189822859 -0.42392445626808489 0 -0.22549954629610269 -0.43500765649169948 0 -0.2277837799441092 -0.41252006721820539 0 -0.2277837799441092 -0.41252006721820539 0 -0.24694430377570939 -0.41295507854145541 0 -0.2277837799441092 -0.41252006721820539 0 -0.24694430377570939 -0.41295507854145541 0 -0.23735783041644329 -0.42609093398936743 0 -0.2277837799441092 -0.41252006721820539 0 -0.24694430377570939 -0.41295507854145541 0 -0.2359891007147569 -0.39914414181493052 0 -0.25298523514652932 -0.43702750984159111 0 -0.24694430377570939 -0.41295507854145541 0 -0.23735783041644329 -0.42609093398936743 0 -0.25298523514652932 -0.43702750984159111 0 -0.23591515519085041 -0.44398209369878189 0 -0.23735783041644329 -0.42609093398936743 0 -0.22035180610084079 -0.39356726900625483 0 -0.23802591309349369 -0.38358476956933441 0 -0.219169022554425 -0.37113875127287832 0 -0.22035180610084079 -0.39356726900625483 0 -0.2359891007147569 -0.39914414181493052 0 -0.23802591309349369 -0.38358476956933441 0 -0.21350444502423929 -0.40864471589815532 0 -0.2277837799441092 -0.41252006721820539 0 -0.22035180610084079 -0.39356726900625483 0 -0.2277837799441092 -0.41252006721820539 0 -0.22035180610084079 -0.39356726900625483 0 -0.2359891007147569 -0.39914414181493052 0 -0.2359891007147569 -0.39914414181493052 0 -0.2487824818667288 -0.3954643368039899 0 -0.23802591309349369 -0.38358476956933441 0 -0.24694430377570939 -0.41295507854145541 0 -0.2359891007147569 -0.39914414181493052 0 -0.2487824818667288 -0.3954643368039899 0 -0.26050234447883253 -0.38027693877573482 0 -0.2487824818667288 -0.3954643368039899 0 -0.23802591309349369 -0.38358476956933441 0 -0.26050234447883253 -0.38027693877573482 0 -0.23802591309349369 -0.38358476956933441 0 -0.24817767477162081 -0.36986654917455902 0 -0.23802591309349369 -0.38358476956933441 0 -0.24817767477162081 -0.36986654917455902 0 -0.23583729862822109 -0.36574384613307409 0 -0.24817767477162081 -0.36986654917455902 0 -0.23583729862822109 -0.36574384613307409 0 -0.24850069890613241 -0.35473287875334369 0 -0.23583729862822109 -0.36574384613307409 0 -0.219169022554425 -0.37113875127287832 0 -0.22531318381543361 -0.34939628189525529 0 -0.23802591309349369 -0.38358476956933441 0 -0.23583729862822109 -0.36574384613307409 0 -0.219169022554425 -0.37113875127287832 0 -0.22531318381543361 -0.34939628189525529 0 -0.24850069890613241 -0.35473287875334369 0 -0.24219101746094579 -0.34438554910399921 0 -0.23583729862822109 -0.36574384613307409 0 -0.22531318381543361 -0.34939628189525529 0 -0.24850069890613241 -0.35473287875334369 0 -0.22531318381543361 -0.34939628189525529 0 -0.24850069890613241 -0.35473287875334369 0 -0.25445926970156468 -0.34270101061729968 0 -0.24850069890613241 -0.35473287875334369 0 -0.24219101746094579 -0.34438554910399921 0 -0.25445926970156468 -0.34270101061729968 0 -0.24219101746094579 -0.34438554910399921 0 -0.2460450098649074 -0.33743905859998191 0 -0.25207330520806498 -0.33378255792528982 0 -0.2460450098649074 -0.33743905859998191 0 -0.24306356592407591 -0.32787829483024122 0 -0.2348359590034956 -0.33686915078515089 0 -0.24306356592407591 -0.32787829483024122 0 -0.23163603200856511 -0.32708080208212859 0 -0.2460450098649074 -0.33743905859998191 0 -0.2348359590034956 -0.33686915078515089 0 -0.24306356592407591 -0.32787829483024122 0 -0.24219101746094579 -0.34438554910399921 0 -0.2460450098649074 -0.33743905859998191 0 -0.2348359590034956 -0.33686915078515089 0 -0.25273748935779161 -0.32224337373924072 0 -0.24326482791746179 -0.31394285089519419 0 -0.24426682308287331 -0.30533572025667649 0 -0.25273748935779161 -0.32224337373924072 0 -0.24426682308287331 -0.30533572025667649 0 -0.25273748935779161 -0.32224337373924072 0 -0.24326482791746179 -0.31394285089519419 0 -0.2440208243134171 -0.32058552998791068 0 -0.25273748935779161 -0.32224337373924072 0 -0.24306356592407591 -0.32787829483024122 0 -0.2440208243134171 -0.32058552998791068 0 -0.25207330520806498 -0.33378255792528982 0 -0.25273748935779161 -0.32224337373924072 0 -0.24306356592407591 -0.32787829483024122 0 -0.24306356592407591 -0.32787829483024122 0 -0.2440208243134171 -0.32058552998791068 0 -0.23701741405433899 -0.31827760048696663 0 -0.24306356592407591 -0.32787829483024122 0 -0.23701741405433899 -0.31827760048696663 0 -0.23163603200856511 -0.32708080208212859 0 -0.24326482791746179 -0.31394285089519419 0 -0.23701741405433899 -0.31827760048696663 0 -0.2384772558931193 -0.30928307653082621 0 -0.24326482791746179 -0.31394285089519419 0 -0.2440208243134171 -0.32058552998791068 0 -0.23701741405433899 -0.31827760048696663 0 -0.22244826701882919 -0.32070202864358233 0 -0.22802593536356699 -0.30882837184141948 0 -0.21110805984082151 -0.30983785689108939 0 -0.23701741405433899 -0.31827760048696663 0 -0.22244826701882919 -0.32070202864358233 0 -0.22802593536356699 -0.30882837184141948 0 -0.23701741405433899 -0.31827760048696663 0 -0.23163603200856511 -0.32708080208212859 0 -0.22244826701882919 -0.32070202864358233 0 -0.23163603200856511 -0.32708080208212859 0 -0.22244826701882919 -0.32070202864358233 0 -0.22079431421521131 -0.33353493235345111 0 -0.22531318381543361 -0.34939628189525529 0 -0.2348359590034956 -0.33686915078515089 0 -0.22079431421521131 -0.33353493235345111 0 -0.22531318381543361 -0.34939628189525529 0 -0.24219101746094579 -0.34438554910399921 0 -0.2348359590034956 -0.33686915078515089 0 -0.2348359590034956 -0.33686915078515089 0 -0.23163603200856511 -0.32708080208212859 0 -0.22079431421521131 -0.33353493235345111 0 -0.22079431421521131 -0.33353493235345111 0 -0.20839645480677241 -0.32403064402179738 0 -0.20212566872473489 -0.34405968503716688 0 -0.22531318381543361 -0.34939628189525529 0 -0.22079431421521131 -0.33353493235345111 0 -0.20212566872473489 -0.34405968503716688 0 -0.22244826701882919 -0.32070202864358233 0 -0.20839645480677241 -0.32403064402179738 0 -0.21110805984082151 -0.30983785689108939 0 -0.22244826701882919 -0.32070202864358233 0 -0.22079431421521131 -0.33353493235345111 0 -0.20839645480677241 -0.32403064402179738 0 -0.20839645480677241 -0.32403064402179738 0 -0.19575919956014079 -0.31702437624003538 0 -0.21110805984082151 -0.30983785689108939 0 -0.20839645480677241 -0.32403064402179738 0 -0.19575919956014079 -0.31702437624003538 0 -0.19562896033857519 -0.33020038185646122 0 -0.19575919956014079 -0.31702437624003538 0 -0.19562896033857519 -0.33020038185646122 0 -0.18477851095256179 -0.32477614194451959 0 -0.20212566872473489 -0.34405968503716688 0 -0.1789381536340362 -0.33872308817907848 0 -0.19562896033857519 -0.33020038185646122 0 -0.20212566872473489 -0.34405968503716688 0 -0.1789381536340362 -0.33872308817907848 0 -0.20839645480677241 -0.32403064402179738 0 -0.19562896033857519 -0.33020038185646122 0 -0.20212566872473489 -0.34405968503716688 0 -0.20212566872473489 -0.34405968503716688 0 -0.2037839996862793 -0.36234410805543599 0 -0.1863350517553729 -0.35962674217565882 0 -0.20212566872473489 -0.34405968503716688 0 -0.1863350517553729 -0.35962674217565882 0 -0.1789381536340362 -0.33872308817907848 0 -0.183603859264966 -0.3766054584014627 0 -0.20216487974800659 -0.3829991661375407 0 -0.2037839996862793 -0.36234410805543599 0 -0.183603859264966 -0.3766054584014627 0 -0.2037839996862793 -0.36234410805543599 0 -0.1863350517553729 -0.35962674217565882 0 -0.219169022554425 -0.37113875127287832 0 -0.22531318381543361 -0.34939628189525529 0 -0.2037839996862793 -0.36234410805543599 0 -0.20216487974800659 -0.3829991661375407 0 -0.219169022554425 -0.37113875127287832 0 -0.2037839996862793 -0.36234410805543599 0 -0.22531318381543361 -0.34939628189525529 0 -0.20212566872473489 -0.34405968503716688 0 -0.2037839996862793 -0.36234410805543599 0 -0.22531318381543361 -0.34939628189525529 0 -0.20212566872473489 -0.34405968503716688 0 -0.24465976002352091 -0.25387891845332877 0 -0.23199225124923151 -0.26692477658714647 0 -0.21854221021918649 -0.25236034283526498 0 -0.23199225124923151 -0.26692477658714647 0 -0.21864709985809599 -0.27150291036173302 0 -0.21854221021918649 -0.25236034283526498 0 -0.24465976002352091 -0.25387891845332877 0 -0.2444485511135471 -0.27534046621033159 0 -0.23199225124923151 -0.26692477658714647 0 -0.25958550566062261 -0.27102626557679149 0 -0.24465976002352091 -0.25387891845332877 0 -0.2444485511135471 -0.27534046621033159 0 -0.2444485511135471 -0.27534046621033159 0 -0.23199225124923151 -0.26692477658714647 0 -0.23366363503180709 -0.28154124507507411 0 -0.2197277065850177 -0.2872169177591285 0 -0.23366363503180709 -0.28154124507507411 0 -0.21864709985809599 -0.27150291036173302 0 -0.23199225124923151 -0.26692477658714647 0 -0.23366363503180709 -0.28154124507507411 0 -0.21864709985809599 -0.27150291036173302 0 -0.2197277065850177 -0.2872169177591285 0 -0.23366363503180709 -0.28154124507507411 0 -0.24011613505684479 -0.30107681213347393 0 -0.2197277065850177 -0.2872169177591285 0 -0.24011613505684479 -0.30107681213347393 0 -0.2197277065850177 -0.2872169177591285 0 -0.24011613505684479 -0.30107681213347393 0 -0.2201073871300871 -0.30044142834658671 0 -0.2444485511135471 -0.27534046621033159 0 -0.23366363503180709 -0.28154124507507411 0 -0.24732420154209239 -0.29033586459568173 0 -0.23366363503180709 -0.28154124507507411 0 -0.24732420154209239 -0.29033586459568173 0 -0.24011613505684479 -0.30107681213347393 0 -0.25608276685525683 -0.28295324223861612 0 -0.2444485511135471 -0.27534046621033159 0 -0.24732420154209239 -0.29033586459568173 0 -0.26050456352867191 -0.3149367065078193 0 -0.24011613505684479 -0.30107681213347393 0 -0.24426682308287331 -0.30533572025667649 0 -0.25485564421046719 -0.30132045870319019 0 -0.24732420154209239 -0.29033586459568173 0 -0.24011613505684479 -0.30107681213347393 0 -0.24011613505684479 -0.30107681213347393 0 -0.2384772558931193 -0.30928307653082621 0 -0.22802593536356699 -0.30882837184141948 0 -0.24326482791746179 -0.31394285089519419 0 -0.24426682308287331 -0.30533572025667649 0 -0.2384772558931193 -0.30928307653082621 0 -0.24011613505684479 -0.30107681213347393 0 -0.24426682308287331 -0.30533572025667649 0 -0.2384772558931193 -0.30928307653082621 0 -0.23701741405433899 -0.31827760048696663 0 -0.2384772558931193 -0.30928307653082621 0 -0.22802593536356699 -0.30882837184141948 0 -0.22802593536356699 -0.30882837184141948 0 -0.2201073871300871 -0.30044142834658671 0 -0.21110805984082151 -0.30983785689108939 0 -0.24011613505684479 -0.30107681213347393 0 -0.22802593536356699 -0.30882837184141948 0 -0.2201073871300871 -0.30044142834658671 0 -0.2201073871300871 -0.30044142834658671 0 -0.21110805984082151 -0.30983785689108939 0 -0.20155909880418441 -0.29524718310782239 0 -0.21110805984082151 -0.30983785689108939 0 -0.2000775247532616 -0.30687463122530689 0 -0.20155909880418441 -0.29524718310782239 0 -0.19575919956014079 -0.31702437624003538 0 -0.21110805984082151 -0.30983785689108939 0 -0.2000775247532616 -0.30687463122530689 0 -0.18961770926909149 -0.30481471110084102 0 -0.20155909880418441 -0.29524718310782239 0 -0.1798976030385912 -0.29461474791537873 0 -0.19575919956014079 -0.31702437624003538 0 -0.2000775247532616 -0.30687463122530689 0 -0.18961770926909149 -0.30481471110084102 0 -0.19575919956014079 -0.31702437624003538 0 -0.18961770926909149 -0.30481471110084102 0 -0.1803928959391416 -0.31521744924658562 0 -0.2000775247532616 -0.30687463122530689 0 -0.18961770926909149 -0.30481471110084102 0 -0.20155909880418441 -0.29524718310782239 0 -0.19933927811319041 -0.27335702338478318 0 -0.1798976030385912 -0.29461474791537873 0 -0.20155909880418441 -0.29524718310782239 0 -0.19933927811319041 -0.27335702338478318 0 -0.1798976030385912 -0.29461474791537873 0 -0.2197277065850177 -0.2872169177591285 0 -0.20155909880418441 -0.29524718310782239 0 -0.19933927811319041 -0.27335702338478318 0 -0.2197277065850177 -0.2872169177591285 0 -0.2201073871300871 -0.30044142834658671 0 -0.20155909880418441 -0.29524718310782239 0 -0.21864709985809599 -0.27150291036173302 0 -0.19933927811319041 -0.27335702338478318 0 -0.21854221021918649 -0.25236034283526498 0 -0.2197277065850177 -0.2872169177591285 0 -0.21864709985809599 -0.27150291036173302 0 -0.19933927811319041 -0.27335702338478318 0 -0.2197277065850177 -0.2872169177591285 0 -0.19933927811319041 -0.27335702338478318 0 -0.19672455084482071 -0.27157955221738023 0 -0.19563648814007639 -0.2627950405098789 0 -0.1773613401945949 -0.28300380337564962 0 -0.19672455084482071 -0.27157955221738023 0 -0.19933927811319041 -0.27335702338478318 0 -0.1773613401945949 -0.28300380337564962 0 -0.19672455084482071 -0.27157955221738023 0 -0.19933927811319041 -0.27335702338478318 0 -0.19563648814007639 -0.2627950405098789 0 -0.19672455084482071 -0.27157955221738023 0 -0.19933927811319041 -0.27335702338478318 0 -0.19933927811319041 -0.27335702338478318 0 -0.19563648814007639 -0.2627950405098789 0 -0.2024770003035091 -0.25628481747185139 0 -0.19563648814007639 -0.2627950405098789 0 -0.19160736129165659 -0.25262396586623759 0 -0.18182513936558051 -0.25739227955256888 0 -0.19563648814007639 -0.2627950405098789 0 -0.19160736129165659 -0.25262396586623759 0 -0.2024770003035091 -0.25628481747185139 0 -0.19160736129165659 -0.25262396586623759 0 -0.2024770003035091 -0.25628481747185139 0 -0.19988453840298659 -0.24176205441804 0 -0.19933927811319041 -0.27335702338478318 0 -0.2024770003035091 -0.25628481747185139 0 -0.21854221021918649 -0.25236034283526498 0 -0.2024770003035091 -0.25628481747185139 0 -0.21854221021918649 -0.25236034283526498 0 -0.19988453840298659 -0.24176205441804 0 -0.19933927811319041 -0.27335702338478318 0 -0.21854221021918649 -0.25236034283526498 0 -0.16270034237907721 -0.26451024010365409 0 -0.1689202540561075 -0.25519621835756329 0 -0.15263230708737521 -0.24356194903458239 0 -0.16270034237907721 -0.26451024010365409 0 -0.15585924966824549 -0.27338725763800159 0 -0.15263230708737521 -0.24356194903458239 0 -0.16270034237907721 -0.26451024010365409 0 -0.1689202540561075 -0.25519621835756329 0 -0.17291740387759841 -0.2648938158906885 0 -0.1689202540561075 -0.25519621835756329 0 -0.18182513936558051 -0.25739227955256888 0 -0.1745260775709061 -0.24562280720632229 0 -0.19160736129165659 -0.25262396586623759 0 -0.18182513936558051 -0.25739227955256888 0 -0.1745260775709061 -0.24562280720632229 0 -0.19563648814007639 -0.2627950405098789 0 -0.18182513936558051 -0.25739227955256888 0 -0.18269465011250469 -0.26841637399603913 0 -0.1689202540561075 -0.25519621835756329 0 -0.18182513936558051 -0.25739227955256888 0 -0.17291740387759841 -0.2648938158906885 0 -0.18182513936558051 -0.25739227955256888 0 -0.17291740387759841 -0.2648938158906885 0 -0.18269465011250469 -0.26841637399603913 0 -0.19563648814007639 -0.2627950405098789 0 -0.18269465011250469 -0.26841637399603913 0 -0.1773613401945949 -0.28300380337564962 0 -0.17291740387759841 -0.2648938158906885 0 -0.17526212336935321 -0.27297056277525461 0 -0.1680750992927145 -0.27556825783864097 0 -0.19563648814007639 -0.2627950405098789 0 -0.1773613401945949 -0.28300380337564962 0 -0.17291740387759841 -0.2648938158906885 0 -0.17526212336935321 -0.27297056277525461 0 -0.18269465011250469 -0.26841637399603913 0 -0.17526212336935321 -0.27297056277525461 0 -0.18269465011250469 -0.26841637399603913 0 -0.1773613401945949 -0.28300380337564962 0 -0.17526212336935321 -0.27297056277525461 0 -0.1680750992927145 -0.27556825783864097 0 -0.1773613401945949 -0.28300380337564962 0 -0.1680750992927145 -0.27556825783864097 0 -0.1682011228878135 -0.28257539269247411 0 -0.1773613401945949 -0.28300380337564962 0 -0.1680750992927145 -0.27556825783864097 0 -0.1622412594804854 -0.28273310688964581 0 -0.1682011228878135 -0.28257539269247411 0 -0.16270034237907721 -0.26451024010365409 0 -0.17291740387759841 -0.2648938158906885 0 -0.1680750992927145 -0.27556825783864097 0 -0.16270034237907721 -0.26451024010365409 0 -0.1680750992927145 -0.27556825783864097 0 -0.16179622859894191 -0.27503335760685149 0 -0.16270034237907721 -0.26451024010365409 0 -0.16179622859894191 -0.27503335760685149 0 -0.15585924966824549 -0.27338725763800159 0 -0.16179622859894191 -0.27503335760685149 0 -0.1622412594804854 -0.28273310688964581 0 -0.15585924966824549 -0.27338725763800159 0 -0.1680750992927145 -0.27556825783864097 0 -0.16179622859894191 -0.27503335760685149 0 -0.1622412594804854 -0.28273310688964581 0 -0.1622412594804854 -0.28273310688964581 0 -0.16512679258345911 -0.28899640266596011 0 -0.15908619224911419 -0.30321256624142101 0 -0.1622412594804854 -0.28273310688964581 0 -0.15908619224911419 -0.30321256624142101 0 -0.15585924966824549 -0.27338725763800159 0 -0.15908619224911419 -0.30321256624142101 0 -0.15585924966824549 -0.27338725763800159 0 -0.16512679258345911 -0.28899640266596011 0 -0.1773613401945949 -0.28300380337564962 0 -0.15908619224911419 -0.30321256624142101 0 -0.1773613401945949 -0.28300380337564962 0 -0.15908619224911419 -0.30321256624142101 0 -0.16512679258345911 -0.28899640266596011 0 -0.1682011228878135 -0.28257539269247411 0 -0.1773613401945949 -0.28300380337564962 0 -0.1622412594804854 -0.28273310688964581 0 -0.16512679258345911 -0.28899640266596011 0 -0.1682011228878135 -0.28257539269247411 0 -0.1773613401945949 -0.28300380337564962 0 -0.1798976030385912 -0.29461474791537873 0 -0.15908619224911419 -0.30321256624142101 0 -0.19933927811319041 -0.27335702338478318 0 -0.1773613401945949 -0.28300380337564962 0 -0.1798976030385912 -0.29461474791537873 0 -0.1798976030385912 -0.29461474791537873 0 -0.17759103405270391 -0.30762984517719472 0 -0.16045592796399111 -0.3158724724459735 0 -0.18961770926909149 -0.30481471110084102 0 -0.1798976030385912 -0.29461474791537873 0 -0.17759103405270391 -0.30762984517719472 0 -0.18961770926909149 -0.30481471110084102 0 -0.17759103405270391 -0.30762984517719472 0 -0.1803928959391416 -0.31521744924658562 0 -0.1798976030385912 -0.29461474791537873 0 -0.16045592796399111 -0.3158724724459735 0 -0.1798976030385912 -0.29461474791537873 0 -0.15908619224911419 -0.30321256624142101 0 -0.16045592796399111 -0.3158724724459735 0 -0.15908619224911419 -0.30321256624142101 0 -0.16045592796399111 -0.3158724724459735 0 -0.1471380549162328 -0.30532142906175452 0 -0.14032160831301491 -0.30752887986621158 0 -0.14130665940473261 -0.32287327510069419 0 -0.15908619224911419 -0.30321256624142101 0 -0.1471380549162328 -0.30532142906175452 0 -0.14130665940473261 -0.32287327510069419 0 -0.15908619224911419 -0.30321256624142101 0 -0.1471380549162328 -0.30532142906175452 0 -0.1510678287434867 -0.29559461902651829 0 -0.14390798587081549 -0.29739780507392732 0 -0.1471380549162328 -0.30532142906175452 0 -0.1510678287434867 -0.29559461902651829 0 -0.14390798587081549 -0.29739780507392732 0 -0.1471380549162328 -0.30532142906175452 0 -0.14032160831301491 -0.30752887986621158 0 -0.14032160831301491 -0.30752887986621158 0 -0.13439128381467691 -0.29991683468539793 0 -0.13033731665847181 -0.31286393971371201 0 -0.13439128381467691 -0.29991683468539793 0 -0.13033731665847181 -0.31286393971371201 0 -0.12304085188452731 -0.29931348820209958 0 -0.14390798587081549 -0.29739780507392732 0 -0.14032160831301491 -0.30752887986621158 0 -0.13439128381467691 -0.29991683468539793 0 -0.14390798587081549 -0.29739780507392732 0 -0.13439128381467691 -0.29991683468539793 0 -0.14011095662501261 -0.28947786809128212 0 -0.13439128381467691 -0.29991683468539793 0 -0.14011095662501261 -0.28947786809128212 0 -0.12994370463312691 -0.28995419054763111 0 -0.13439128381467691 -0.29991683468539793 0 -0.12994370463312691 -0.28995419054763111 0 -0.12304085188452731 -0.29931348820209958 0 -0.12994370463312691 -0.28995419054763111 0 -0.13687965345326569 -0.27993872332247433 0 -0.1257911728949061 -0.280427018304516 0 -0.12994370463312691 -0.28995419054763111 0 -0.1257911728949061 -0.280427018304516 0 -0.1194571486541455 -0.28746452468861589 0 -0.14011095662501261 -0.28947786809128212 0 -0.12994370463312691 -0.28995419054763111 0 -0.13687965345326569 -0.27993872332247433 0 -0.15908619224911419 -0.30321256624142101 0 -0.15162645984294551 -0.28670064183700439 0 -0.15585924966824549 -0.27338725763800159 0 -0.14011095662501261 -0.28947786809128212 0 -0.1458827091329962 -0.28225219708249882 0 -0.13687965345326569 -0.27993872332247433 0 -0.15908619224911419 -0.30321256624142101 0 -0.1510678287434867 -0.29559461902651829 0 -0.15162645984294551 -0.28670064183700439 0 -0.1458827091329962 -0.28225219708249882 0 -0.1468811506158991 -0.28912565090950809 0 -0.15162645984294551 -0.28670064183700439 0 -0.14011095662501261 -0.28947786809128212 0 -0.1458827091329962 -0.28225219708249882 0 -0.1468811506158991 -0.28912565090950809 0 -0.14390798587081549 -0.29739780507392732 0 -0.1468811506158991 -0.28912565090950809 0 -0.1510678287434867 -0.29559461902651829 0 -0.14390798587081549 -0.29739780507392732 0 -0.14011095662501261 -0.28947786809128212 0 -0.1468811506158991 -0.28912565090950809 0 -0.1468811506158991 -0.28912565090950809 0 -0.1510678287434867 -0.29559461902651829 0 -0.15162645984294551 -0.28670064183700439 0 -0.1458827091329962 -0.28225219708249882 0 -0.15162645984294551 -0.28670064183700439 0 -0.15098162864793119 -0.27663156012407891 0 -0.15162645984294551 -0.28670064183700439 0 -0.15098162864793119 -0.27663156012407891 0 -0.15585924966824549 -0.27338725763800159 0 -0.15098162864793119 -0.27663156012407891 0 -0.1522527558101047 -0.27366235468835692 0 -0.14903370440966179 -0.27344637702894548 0 -0.15098162864793119 -0.27663156012407891 0 -0.1522527558101047 -0.27366235468835692 0 -0.15585924966824549 -0.27338725763800159 0 -0.14903370440966179 -0.27344637702894548 0 -0.1531364405145805 -0.27118422396240138 0 -0.14385763015454139 -0.26954128824380802 0 -0.1522527558101047 -0.27366235468835692 0 -0.15585924966824549 -0.27338725763800159 0 -0.1531364405145805 -0.27118422396240138 0 -0.1522527558101047 -0.27366235468835692 0 -0.14903370440966179 -0.27344637702894548 0 -0.1531364405145805 -0.27118422396240138 0 -0.14903370440966179 -0.27344637702894548 0 -0.14385763015454139 -0.26954128824380802 0 -0.1442805510697899 -0.27562940435382949 0 -0.14385763015454139 -0.26954128824380802 0 -0.1442805510697899 -0.27562940435382949 0 -0.13835653564694769 -0.27242798417408381 0 -0.1458827091329962 -0.28225219708249882 0 -0.1442805510697899 -0.27562940435382949 0 -0.13687965345326569 -0.27993872332247433 0 -0.15098162864793119 -0.27663156012407891 0 -0.14903370440966179 -0.27344637702894548 0 -0.1442805510697899 -0.27562940435382949 0 -0.1458827091329962 -0.28225219708249882 0 -0.15098162864793119 -0.27663156012407891 0 -0.1442805510697899 -0.27562940435382949 0 -0.13687965345326569 -0.27993872332247433 0 -0.12970248462840331 -0.2717774759070859 0 -0.13835653564694769 -0.27242798417408381 0 -0.1442805510697899 -0.27562940435382949 0 -0.13687965345326569 -0.27993872332247433 0 -0.13835653564694769 -0.27242798417408381 0 -0.13687965345326569 -0.27993872332247433 0 -0.1257911728949061 -0.280427018304516 0 -0.12970248462840331 -0.2717774759070859 0 -0.12970248462840331 -0.2717774759070859 0 -0.13570208279224111 -0.26528350045903498 0 -0.12855037573501921 -0.26115248962005239 0 -0.14385763015454139 -0.26954128824380802 0 -0.13835653564694769 -0.27242798417408381 0 -0.13570208279224111 -0.26528350045903498 0 -0.12970248462840331 -0.2717774759070859 0 -0.13835653564694769 -0.27242798417408381 0 -0.13570208279224111 -0.26528350045903498 0 -0.13570208279224111 -0.26528350045903498 0 -0.12855037573501921 -0.26115248962005239 0 -0.1377523016625678 -0.25581657194563601 0 -0.14385763015454139 -0.26954128824380802 0 -0.13570208279224111 -0.26528350045903498 0 -0.1377523016625678 -0.25581657194563601 0 -0.12855037573501921 -0.26115248962005239 0 -0.1377523016625678 -0.25581657194563601 0 -0.1223681628105569 -0.24044891992886891 0 -0.1531364405145805 -0.27118422396240138 0 -0.1377523016625678 -0.25581657194563601 0 -0.15263230708737521 -0.24356194903458239 0 -0.15585924966824549 -0.27338725763800159 0 -0.1531364405145805 -0.27118422396240138 0 -0.15263230708737521 -0.24356194903458239 0 -0.15585924966824549 -0.27338725763800159 0 -0.15263230708737521 -0.24356194903458239 0 -0.1531364405145805 -0.27118422396240138 0 -0.1377523016625678 -0.25581657194563601 0 -0.1531364405145805 -0.27118422396240138 0 -0.14385763015454139 -0.26954128824380802 0 -0.1377523016625678 -0.25581657194563601 0 -0.1661931572416451 -0.36889933283976362 0 -0.1633245426028184 -0.34238590264286861 0 -0.15433175674287769 -0.35458729317269139 0 -0.1661931572416451 -0.36889933283976362 0 -0.1633245426028184 -0.34238590264286861 0 -0.1661931572416451 -0.36889933283976362 0 -0.17388048196752651 -0.3522733272046466 0 -0.1633245426028184 -0.34238590264286861 0 -0.1661931572416451 -0.36889933283976362 0 -0.15433175674287769 -0.35458729317269139 0 -0.148308101659717 -0.36695316985008092 0 -0.15761740849691311 -0.38818340141201402 0 -0.1661931572416451 -0.36889933283976362 0 -0.148308101659717 -0.36695316985008092 0 -0.183603859264966 -0.3766054584014627 0 -0.1661931572416451 -0.36889933283976362 0 -0.1863350517553729 -0.35962674217565882 0 -0.1661931572416451 -0.36889933283976362 0 -0.1863350517553729 -0.35962674217565882 0 -0.17388048196752651 -0.3522733272046466 0 -0.1863350517553729 -0.35962674217565882 0 -0.17388048196752651 -0.3522733272046466 0 -0.1789381536340362 -0.33872308817907848 0 -0.17388048196752651 -0.3522733272046466 0 -0.1789381536340362 -0.33872308817907848 0 -0.1633245426028184 -0.34238590264286861 0 -0.19562896033857519 -0.33020038185646122 0 -0.1789381536340362 -0.33872308817907848 0 -0.18477851095256179 -0.32477614194451959 0 -0.1789381536340362 -0.33872308817907848 0 -0.18477851095256179 -0.32477614194451959 0 -0.1735479853981102 -0.32728394705986258 0 -0.1789381536340362 -0.33872308817907848 0 -0.1735479853981102 -0.32728394705986258 0 -0.1633245426028184 -0.34238590264286861 0 -0.17759103405270391 -0.30762984517719472 0 -0.1803928959391416 -0.31521744924658562 0 -0.16045592796399111 -0.3158724724459735 0 -0.19575919956014079 -0.31702437624003538 0 -0.1803928959391416 -0.31521744924658562 0 -0.18477851095256179 -0.32477614194451959 0 -0.1803928959391416 -0.31521744924658562 0 -0.18477851095256179 -0.32477614194451959 0 -0.1735479853981102 -0.32728394705986258 0 -0.1803928959391416 -0.31521744924658562 0 -0.1735479853981102 -0.32728394705986258 0 -0.16045592796399111 -0.3158724724459735 0 -0.1735479853981102 -0.32728394705986258 0 -0.16045592796399111 -0.3158724724459735 0 -0.1633245426028184 -0.34238590264286861 0 -0.16045592796399111 -0.3158724724459735 0 -0.1633245426028184 -0.34238590264286861 0 -0.1476770575246594 -0.3298450188736391 0 -0.16045592796399111 -0.3158724724459735 0 -0.1633245426028184 -0.34238590264286861 0 -0.1633245426028184 -0.34238590264286861 0 -0.15030263560259111 -0.34285112818916452 0 -0.1476770575246594 -0.3298450188736391 0 -0.1476770575246594 -0.3298450188736391 0 -0.14130665940473261 -0.32287327510069419 0 -0.13989838249203351 -0.33226752099114382 0 -0.1476770575246594 -0.3298450188736391 0 -0.14096893258994439 -0.33934882548262568 0 -0.13989838249203351 -0.33226752099114382 0 -0.15030263560259111 -0.34285112818916452 0 -0.1476770575246594 -0.3298450188736391 0 -0.14096893258994439 -0.33934882548262568 0 -0.15908619224911419 -0.30321256624142101 0 -0.14130665940473261 -0.32287327510069419 0 -0.16045592796399111 -0.3158724724459735 0 -0.1476770575246594 -0.3298450188736391 0 -0.14130665940473261 -0.32287327510069419 0 -0.15908619224911419 -0.30321256624142101 0 -0.16045592796399111 -0.3158724724459735 0 -0.14130665940473261 -0.32287327510069419 0 -0.16045592796399111 -0.3158724724459735 0 -0.1476770575246594 -0.3298450188736391 0 -0.14130665940473261 -0.32287327510069419 0 -0.12766342535057629 -0.32481504462803062 0 -0.13033731665847181 -0.31286393971371201 0 -0.14032160831301491 -0.30752887986621158 0 -0.14130665940473261 -0.32287327510069419 0 -0.13033731665847181 -0.31286393971371201 0 -0.14130665940473261 -0.32287327510069419 0 -0.12766342535057629 -0.32481504462803062 0 -0.12902917457320359 -0.33644978787578289 0 -0.12766342535057629 -0.32481504462803062 0 -0.12902917457320359 -0.33644978787578289 0 -0.123033176677132 -0.34308019655903149 0 -0.14096893258994439 -0.33934882548262568 0 -0.12902917457320359 -0.33644978787578289 0 -0.13366226850604379 -0.34759248760944123 0 -0.14096893258994439 -0.33934882548262568 0 -0.13989838249203351 -0.33226752099114382 0 -0.12902917457320359 -0.33644978787578289 0 -0.14130665940473261 -0.32287327510069419 0 -0.12902917457320359 -0.33644978787578289 0 -0.14130665940473261 -0.32287327510069419 0 -0.13989838249203351 -0.33226752099114382 0 -0.12902917457320359 -0.33644978787578289 0 -0.12902917457320359 -0.33644978787578289 0 -0.123033176677132 -0.34308019655903149 0 -0.12902917457320359 -0.33644978787578289 0 -0.13366226850604379 -0.34759248760944123 0 -0.123033176677132 -0.34308019655903149 0 -0.13366226850604379 -0.34759248760944123 0 -0.1303219987982592 -0.3665496015062627 0 -0.123033176677132 -0.34308019655903149 0 -0.1303219987982592 -0.3665496015062627 0 -0.123033176677132 -0.34308019655903149 0 -0.13366226850604379 -0.34759248760944123 0 -0.1435303466076166 -0.35184693234157938 0 -0.1303219987982592 -0.3665496015062627 0 -0.14096893258994439 -0.33934882548262568 0 -0.13366226850604379 -0.34759248760944123 0 -0.1435303466076166 -0.35184693234157938 0 -0.15030263560259111 -0.34285112818916452 0 -0.14096893258994439 -0.33934882548262568 0 -0.1435303466076166 -0.35184693234157938 0 -0.1435303466076166 -0.35184693234157938 0 -0.15433175674287769 -0.35458729317269139 0 -0.148308101659717 -0.36695316985008092 0 -0.1633245426028184 -0.34238590264286861 0 -0.15030263560259111 -0.34285112818916452 0 -0.15433175674287769 -0.35458729317269139 0 -0.15030263560259111 -0.34285112818916452 0 -0.1435303466076166 -0.35184693234157938 0 -0.15433175674287769 -0.35458729317269139 0 -0.1435303466076166 -0.35184693234157938 0 -0.148308101659717 -0.36695316985008092 0 -0.1303219987982592 -0.3665496015062627 0 -0.1369224961495438 -0.38192389563367207 0 -0.148308101659717 -0.36695316985008092 0 -0.1303219987982592 -0.3665496015062627 0 -0.1303219987982592 -0.3665496015062627 0 -0.1159926709000937 -0.36685414663024191 0 -0.11895596668836859 -0.34683008488337108 0 -0.1303219987982592 -0.3665496015062627 0 -0.1159926709000937 -0.36685414663024191 0 -0.12201267174342199 -0.37938718301114999 0 -0.1024060606807759 -0.36205135125861898 0 -0.1016559479587178 -0.38500202459504551 0 -0.1159926709000937 -0.36685414663024191 0 -0.1024060606807759 -0.36205135125861898 0 -0.1094440337948836 -0.37923577087639421 0 -0.1024060606807759 -0.36205135125861898 0 -0.1016559479587178 -0.38500202459504551 0 -0.095426438310298192 -0.37780241062099151 0 -0.1024060606807759 -0.36205135125861898 0 -0.090139611558562177 -0.37333304007799939 0 -0.095426438310298192 -0.37780241062099151 0 -0.1024060606807759 -0.36205135125861898 0 -0.093943439343664059 -0.36410026383479388 0 -0.090139611558562177 -0.37333304007799939 0 -0.1024060606807759 -0.36205135125861898 0 -0.093943439343664059 -0.36410026383479388 0 -0.095626283443773746 -0.35612124291623848 0 -0.1024060606807759 -0.36205135125861898 0 -0.090139611558562177 -0.37333304007799939 0 -0.1024060606807759 -0.36205135125861898 0 -0.1029439411344124 -0.34559419992324319 0 -0.1024060606807759 -0.36205135125861898 0 -0.1029439411344124 -0.34559419992324319 0 -0.11895596668836859 -0.34683008488337108 0 -0.1024060606807759 -0.36205135125861898 0 -0.095626283443773746 -0.35612124291623848 0 -0.1029439411344124 -0.34559419992324319 0 -0.095626283443773746 -0.35612124291623848 0 -0.1029439411344124 -0.34559419992324319 0 -0.093212578299404075 -0.34130700998995739 0 -0.1159926709000937 -0.36685414663024191 0 -0.1024060606807759 -0.36205135125861898 0 -0.11895596668836859 -0.34683008488337108 0 -0.1024060606807759 -0.36205135125861898 0 -0.11895596668836859 -0.34683008488337108 0 -0.1303219987982592 -0.3665496015062627 0 -0.11895596668836859 -0.34683008488337108 0 -0.123033176677132 -0.34308019655903149 0 -0.1029439411344124 -0.34559419992324319 0 -0.11895596668836859 -0.34683008488337108 0 -0.123033176677132 -0.34308019655903149 0 -0.11895596668836859 -0.34683008488337108 0 -0.123033176677132 -0.34308019655903149 0 -0.1029439411344124 -0.34559419992324319 0 -0.1137910684918501 -0.33520612369310882 0 -0.123033176677132 -0.34308019655903149 0 -0.123033176677132 -0.34308019655903149 0 -0.1159692764993048 -0.31568518943543378 0 -0.1137910684918501 -0.33520612369310882 0 -0.123033176677132 -0.34308019655903149 0 -0.1159692764993048 -0.31568518943543378 0 -0.12766342535057629 -0.32481504462803062 0 -0.123033176677132 -0.34308019655903149 0 -0.1159692764993048 -0.31568518943543378 0 -0.1137910684918501 -0.33520612369310882 0 -0.1159692764993048 -0.31568518943543378 0 -0.1034818215880495 -0.3291370485878673 0 -0.12766342535057629 -0.32481504462803062 0 -0.13033731665847181 -0.31286393971371201 0 -0.1159692764993048 -0.31568518943543378 0 -0.1159692764993048 -0.31568518943543378 0 -0.10079975883819629 -0.31506063040533638 0 -0.1034818215880495 -0.3291370485878673 0 -0.10079975883819629 -0.31506063040533638 0 -0.093212578299404075 -0.34130700998995739 0 -0.10079975883819629 -0.31506063040533638 0 -0.093212578299404075 -0.34130700998995739 0 -0.087373844159168004 -0.3291061545470132 0 -0.10079975883819629 -0.31506063040533638 0 -0.1034818215880495 -0.3291370485878673 0 -0.093212578299404075 -0.34130700998995739 0 -0.1029439411344124 -0.34559419992324319 0 -0.1034818215880495 -0.3291370485878673 0 -0.1029439411344124 -0.34559419992324319 0 -0.1034818215880495 -0.3291370485878673 0 -0.093212578299404075 -0.34130700998995739 0 -0.1029439411344124 -0.34559419992324319 0 -0.1137910684918501 -0.33520612369310882 0 -0.1034818215880495 -0.3291370485878673 0 -0.093212578299404075 -0.34130700998995739 0 -0.087373844159168004 -0.3291061545470132 0 -0.080908772255243899 -0.33898270124258217 0 -0.087373844159168004 -0.3291061545470132 0 -0.080908772255243899 -0.33898270124258217 0 -0.077490532230771417 -0.32991328235931511 0 -0.093212578299404075 -0.34130700998995739 0 -0.080908772255243899 -0.33898270124258217 0 -0.080378844364046895 -0.35001101873094542 0 -0.10079975883819629 -0.31506063040533638 0 -0.085305929108392881 -0.31951846990187233 0 -0.091873739319295072 -0.31122357941036211 0 -0.10079975883819629 -0.31506063040533638 0 -0.087373844159168004 -0.3291061545470132 0 -0.085305929108392881 -0.31951846990187233 0 -0.085305929108392881 -0.31951846990187233 0 -0.076805788315873161 -0.32077910918615782 0 -0.077490532230771417 -0.32991328235931511 0 -0.087373844159168004 -0.3291061545470132 0 -0.085305929108392881 -0.31951846990187233 0 -0.077490532230771417 -0.32991328235931511 0 -0.085305929108392881 -0.31951846990187233 0 -0.076805788315873161 -0.32077910918615782 0 -0.078544889372492196 -0.31002595631180607 0 -0.085305929108392881 -0.31951846990187233 0 -0.091873739319295072 -0.31122357941036211 0 -0.078544889372492196 -0.31002595631180607 0 -0.066882954587322394 -0.32486941793266988 0 -0.078544889372492196 -0.31002595631180607 0 -0.05424539878688571 -0.319762651601179 0 -0.078544889372492196 -0.31002595631180607 0 -0.05424539878688571 -0.319762651601179 0 -0.076805788315873161 -0.32077910918615782 0 -0.066882954587322394 -0.32486941793266988 0 -0.078544889372492196 -0.31002595631180607 0 -0.076805788315873161 -0.32077910918615782 0 -0.066882954587322394 -0.32486941793266988 0 -0.077490532230771417 -0.32991328235931511 0 -0.066882954587322394 -0.32486941793266988 0 -0.070160141916437824 -0.34098238217286791 0 -0.054527031800802053 -0.34042178362413461 0 -0.066882954587322394 -0.32486941793266988 0 -0.077490532230771417 -0.32991328235931511 0 -0.070160141916437824 -0.34098238217286791 0 -0.080908772255243899 -0.33898270124258217 0 -0.077490532230771417 -0.32991328235931511 0 -0.070160141916437824 -0.34098238217286791 0 -0.080908772255243899 -0.33898270124258217 0 -0.070160141916437824 -0.34098238217286791 0 -0.080378844364046895 -0.35001101873094542 0 -0.070160141916437824 -0.34098238217286791 0 -0.066522813126512412 -0.35680227137673098 0 -0.054527031800802053 -0.34042178362413461 0 -0.070160141916437824 -0.34098238217286791 0 -0.066522813126512412 -0.35680227137673098 0 -0.080378844364046895 -0.35001101873094542 0 -0.066522813126512412 -0.35680227137673098 0 -0.076582500297099523 -0.36039923154202719 0 -0.080378844364046895 -0.35001101873094542 0 -0.066522813126512412 -0.35680227137673098 0 -0.073802945937226916 -0.36723024648585417 0 -0.058387822440418388 -0.36975607908058028 0 -0.073802945937226916 -0.36723024648585417 0 -0.058387822440418388 -0.36975607908058028 0 -0.08170780991661282 -0.38109255286014232 0 -0.066522813126512412 -0.35680227137673098 0 -0.073802945937226916 -0.36723024648585417 0 -0.076582500297099523 -0.36039923154202719 0 -0.073802945937226916 -0.36723024648585417 0 -0.076582500297099523 -0.36039923154202719 0 -0.085625397760611066 -0.36755338957457828 0 -0.085625397760611066 -0.36755338957457828 0 -0.087954911787112483 -0.37534235041220648 0 -0.08170780991661282 -0.38109255286014232 0 -0.073802945937226916 -0.36723024648585417 0 -0.085625397760611066 -0.36755338957457828 0 -0.08170780991661282 -0.38109255286014232 0 -0.085625397760611066 -0.36755338957457828 0 -0.08170780991661282 -0.38109255286014232 0 -0.093943439343664059 -0.36410026383479388 0 -0.085625397760611066 -0.36755338957457828 0 -0.090139611558562177 -0.37333304007799939 0 -0.093943439343664059 -0.36410026383479388 0 -0.090139611558562177 -0.37333304007799939 0 -0.085625397760611066 -0.36755338957457828 0 -0.090139611558562177 -0.37333304007799939 0 -0.087954911787112483 -0.37534235041220648 0 -0.085625397760611066 -0.36755338957457828 0 -0.087954911787112483 -0.37534235041220648 0 -0.090139611558562177 -0.37333304007799939 0 -0.087954911787112483 -0.37534235041220648 0 -0.093943439343664059 -0.36410026383479388 0 -0.095626283443773746 -0.35612124291623848 0 -0.085625397760611066 -0.36755338957457828 0 -0.093212578299404075 -0.34130700998995739 0 -0.085625397760611066 -0.36755338957457828 0 -0.076582500297099523 -0.36039923154202719 0 -0.085625397760611066 -0.36755338957457828 0 -0.080378844364046895 -0.35001101873094542 0 -0.093212578299404075 -0.34130700998995739 0 -0.085625397760611066 -0.36755338957457828 0 -0.080378844364046895 -0.35001101873094542 0 -0.085625397760611066 -0.36755338957457828 0 -0.080378844364046895 -0.35001101873094542 0 -0.095626283443773746 -0.35612124291623848 0 -0.093212578299404075 -0.34130700998995739 0 -0.085625397760611066 -0.36755338957457828 0 -0.10474757541744149 -0.26087495970427582 0 -0.090174700483665673 -0.26498018187443112 0 -0.1005321994236209 -0.2431127607729493 0 -0.10474757541744149 -0.26087495970427582 0 -0.11757885349586771 -0.25701660664448461 0 -0.1005321994236209 -0.2431127607729493 0 -0.12855037573501921 -0.26115248962005239 0 -0.11757885349586771 -0.25701660664448461 0 -0.1127895441811773 -0.27358429336009982 0 -0.12855037573501921 -0.26115248962005239 0 -0.11757885349586771 -0.25701660664448461 0 -0.1223681628105569 -0.24044891992886891 0 -0.10474757541744149 -0.26087495970427582 0 -0.11757885349586771 -0.25701660664448461 0 -0.1127895441811773 -0.27358429336009982 0 -0.11757885349586771 -0.25701660664448461 0 -0.1127895441811773 -0.27358429336009982 0 -0.1257911728949061 -0.280427018304516 0 -0.12970248462840331 -0.2717774759070859 0 -0.1127895441811773 -0.27358429336009982 0 -0.12855037573501921 -0.26115248962005239 0 -0.1127895441811773 -0.27358429336009982 0 -0.12970248462840331 -0.2717774759070859 0 -0.12855037573501921 -0.26115248962005239 0 -0.1127895441811773 -0.27358429336009982 0 -0.1257911728949061 -0.280427018304516 0 -0.1127895441811773 -0.27358429336009982 0 -0.1194571486541455 -0.28746452468861589 0 -0.1127895441811773 -0.27358429336009982 0 -0.1083869393769897 -0.28881425082071571 0 -0.1127895441811773 -0.27358429336009982 0 -0.093274829049746905 -0.28897707944045958 0 -0.090174700483665673 -0.26498018187443112 0 -0.10474757541744149 -0.26087495970427582 0 -0.1127895441811773 -0.27358429336009982 0 -0.090174700483665673 -0.26498018187443112 0 -0.1127895441811773 -0.27358429336009982 0 -0.1067008731150054 -0.28283902414649681 0 -0.093274829049746905 -0.28897707944045958 0 -0.1127895441811773 -0.27358429336009982 0 -0.093274829049746905 -0.28897707944045958 0 -0.1083869393769897 -0.28881425082071571 0 -0.102844379958099 -0.30028926102243358 0 -0.093274829049746905 -0.28897707944045958 0 -0.1127895441811773 -0.27358429336009982 0 -0.1083869393769897 -0.28881425082071571 0 -0.1067008731150054 -0.28283902414649681 0 -0.1083869393769897 -0.28881425082071571 0 -0.1067008731150054 -0.28283902414649681 0 -0.1083869393769897 -0.28881425082071571 0 -0.1067008731150054 -0.28283902414649681 0 -0.093274829049746905 -0.28897707944045958 0 -0.1127895441811773 -0.27358429336009982 0 -0.1083869393769897 -0.28881425082071571 0 -0.1194571486541455 -0.28746452468861589 0 -0.12994370463312691 -0.28995419054763111 0 -0.1194571486541455 -0.28746452468861589 0 -0.12304085188452731 -0.29931348820209958 0 -0.1083869393769897 -0.28881425082071571 0 -0.1194571486541455 -0.28746452468861589 0 -0.12304085188452731 -0.29931348820209958 0 -0.1159692764993048 -0.31568518943543378 0 -0.1083869393769897 -0.28881425082071571 0 -0.12304085188452731 -0.29931348820209958 0 -0.1159692764993048 -0.31568518943543378 0 -0.1083869393769897 -0.28881425082071571 0 -0.13033731665847181 -0.31286393971371201 0 -0.1159692764993048 -0.31568518943543378 0 -0.12304085188452731 -0.29931348820209958 0 -0.1159692764993048 -0.31568518943543378 0 -0.10079975883819629 -0.31506063040533638 0 -0.1083869393769897 -0.28881425082071571 0 -0.10079975883819629 -0.31506063040533638 0 -0.1083869393769897 -0.28881425082071571 0 -0.10079975883819629 -0.31506063040533638 0 -0.1083869393769897 -0.28881425082071571 0 -0.102844379958099 -0.30028926102243358 0 -0.10079975883819629 -0.31506063040533638 0 -0.102844379958099 -0.30028926102243358 0 -0.091873739319295072 -0.31122357941036211 0 -0.078544889372492196 -0.31002595631180607 0 -0.073760113918316481 -0.30436986552081963 0 -0.093274829049746905 -0.28897707944045958 0 -0.102844379958099 -0.30028926102243358 0 -0.078544889372492196 -0.31002595631180607 0 -0.093274829049746905 -0.28897707944045958 0 -0.102844379958099 -0.30028926102243358 0 -0.091873739319295072 -0.31122357941036211 0 -0.078544889372492196 -0.31002595631180607 0 -0.102844379958099 -0.30028926102243358 0 -0.078544889372492196 -0.31002595631180607 0 -0.078544889372492196 -0.31002595631180607 0 -0.073760113918316481 -0.30436986552081963 0 -0.05424539878688571 -0.319762651601179 0 -0.073760113918316481 -0.30436986552081963 0 -0.05424539878688571 -0.319762651601179 0 -0.073760113918316481 -0.30436986552081963 0 -0.071188273097670243 -0.28513602236808322 0 -0.055748641784298267 -0.30178875706485681 0 -0.073760113918316481 -0.30436986552081963 0 -0.071188273097670243 -0.28513602236808322 0 -0.093274829049746905 -0.28897707944045958 0 -0.073760113918316481 -0.30436986552081963 0 -0.093274829049746905 -0.28897707944045958 0 -0.071188273097670243 -0.28513602236808322 0 -0.093274829049746905 -0.28897707944045958 0 -0.090174700483665673 -0.26498018187443112 0 -0.071188273097670243 -0.28513602236808322 0 -0.063484538676239377 -0.26413124226689111 0 -0.090174700483665673 -0.26498018187443112 0 -0.063484538676239377 -0.26413124226689111 0 -0.076282262678724011 -0.24169347649274159 0 -0.063484538676239377 -0.26413124226689111 0 -0.090174700483665673 -0.26498018187443112 0 -0.076282262678724011 -0.24169347649274159 0 -0.036942597034766073 -0.27265489088473938 0 -0.050686814673754729 -0.28656900804104057 0 -0.0185119813334658 -0.28327625011988139 0 -0.038581934025118947 -0.25114857380685968 0 -0.038334603868346327 -0.2604973367990705 0 -0.03064478186574425 -0.25326356670072259 0 -0.038334603868346327 -0.2604973367990705 0 -0.029413390480137139 -0.26518294325465769 0 -0.03064478186574425 -0.25326356670072259 0 -0.038334603868346327 -0.2604973367990705 0 -0.046517308340487992 -0.25474718453952289 0 -0.048289188575406587 -0.26955092917192058 0 -0.038581934025118947 -0.25114857380685968 0 -0.038334603868346327 -0.2604973367990705 0 -0.046517308340487992 -0.25474718453952289 0 -0.063484538676239377 -0.26413124226689111 0 -0.046517308340487992 -0.25474718453952289 0 -0.0567919256119837 -0.24387644547435741 0 -0.063484538676239377 -0.26413124226689111 0 -0.046517308340487992 -0.25474718453952289 0 -0.048289188575406587 -0.26955092917192058 0 -0.063484538676239377 -0.26413124226689111 0 -0.050686814673754729 -0.28656900804104057 0 -0.071188273097670243 -0.28513602236808322 0 -0.063484538676239377 -0.26413124226689111 0 -0.050686814673754729 -0.28656900804104057 0 -0.063484538676239377 -0.26413124226689111 0 -0.048289188575406587 -0.26955092917192058 0 -0.050686814673754729 -0.28656900804104057 0 -0.048289188575406587 -0.26955092917192058 0 -0.036942597034766073 -0.27265489088473938 0 -0.050686814673754729 -0.28656900804104057 0 -0.038334603868346327 -0.2604973367990705 0 -0.048289188575406587 -0.26955092917192058 0 -0.036942597034766073 -0.27265489088473938 0 -0.038334603868346327 -0.2604973367990705 0 -0.036942597034766073 -0.27265489088473938 0 -0.029413390480137139 -0.26518294325465769 0 -0.050686814673754729 -0.28656900804104057 0 -0.037889090671270123 -0.30900677381518998 0 -0.0185119813334658 -0.28327625011988139 0 -0.071188273097670243 -0.28513602236808322 0 -0.050686814673754729 -0.28656900804104057 0 -0.055748641784298267 -0.30178875706485681 0 -0.073760113918316481 -0.30436986552081963 0 -0.055748641784298267 -0.30178875706485681 0 -0.05424539878688571 -0.319762651601179 0 -0.055748641784298267 -0.30178875706485681 0 -0.037889090671270123 -0.30900677381518998 0 -0.05424539878688571 -0.319762651601179 0 -0.050686814673754729 -0.28656900804104057 0 -0.055748641784298267 -0.30178875706485681 0 -0.037889090671270123 -0.30900677381518998 0 -0.050686814673754729 -0.28656900804104057 0 -0.037889090671270123 -0.30900677381518998 0 -0.037889090671270123 -0.30900677381518998 0 -0.014390974368570029 -0.31032982847088841 0 -0.0185119813334658 -0.28327625011988139 0 -0.014390974368570029 -0.31032982847088841 0 0.001904989571353899 -0.32214434476741449 0 0.0019518825097332619 -0.30029273945570772 0 -0.014390974368570029 -0.31032982847088841 0 -0.0185119813334658 -0.28327625011988139 0 0.0019518825097332619 -0.30029273945570772 0 -0.0185119813334658 -0.28327625011988139 0 -0.0020851015340006161 -0.28052611142458661 0 0.0019518825097332619 -0.30029273945570772 0 -0.014390974368570029 -0.31032982847088841 0 -0.0185119813334658 -0.28327625011988139 0 -0.036942597034766073 -0.27265489088473938 0 -0.0185119813334658 -0.28327625011988139 0 -0.029413390480137139 -0.26518294325465769 0 -0.0185119813334658 -0.28327625011988139 0 -0.02263298829836323 -0.25622267176887481 0 -0.029413390480137139 -0.26518294325465769 0 -0.0185119813334658 -0.28327625011988139 0 -0.02263298829836323 -0.25622267176887481 0 -0.0185119813334658 -0.28327625011988139 0 -0.0093077836028632385 -0.27105033158696179 0 -0.02263298829836323 -0.25622267176887481 0 -0.0185119813334658 -0.28327625011988139 0 -0.0020851015340006161 -0.28052611142458661 0 -0.0093077836028632385 -0.27105033158696179 0 -0.0020851015340006161 -0.28052611142458661 0 -0.0093077836028632385 -0.27105033158696179 0 0.0055944649301708496 -0.26664830233551728 0 -0.014059514610042069 -0.25416210053859828 0 -0.02263298829836323 -0.25622267176887481 0 0.0055944649301708496 -0.26664830233551728 0 -0.0093077836028632385 -0.27105033158696179 0 -0.02263298829836323 -0.25622267176887481 0 0.0055944649301708496 -0.26664830233551728 0 -0.02263298829836323 -0.25622267176887481 0 0.0055944649301708496 -0.26664830233551728 0 -0.014059514610042069 -0.25416210053859828 0 -0.0080727856436109482 -0.2481099565327444 0 0.0055944649301708496 -0.26664830233551728 0 -0.014059514610042069 -0.25416210053859828 0 -0.01887874476148543 -0.24814250919209771 0 -0.0080727856436109482 -0.2481099565327444 0 -0.014059514610042069 -0.25416210053859828 0 -0.02263298829836323 -0.25622267176887481 0 -0.02285766608625657 -0.25474770747244752 0 -0.014059514610042069 -0.25416210053859828 0 -0.02285766608625657 -0.25474770747244752 0 -0.01887874476148543 -0.24814250919209771 0 -0.02285766608625657 -0.25474770747244752 0 -0.026067501294639708 -0.24850247980592871 0 -0.01887874476148543 -0.24814250919209771 0 -0.02263298829836323 -0.25622267176887481 0 -0.02285766608625657 -0.25474770747244752 0 -0.02263298829836323 -0.25622267176887481 0 -0.029413390480137139 -0.26518294325465769 0 -0.03064478186574425 -0.25326356670072259 0 -0.02263298829836323 -0.25622267176887481 0 -0.03064478186574425 -0.25326356670072259 0 -0.02263298829836323 -0.25622267176887481 0 -0.02285766608625657 -0.25474770747244752 0 -0.03064478186574425 -0.25326356670072259 0 -0.02285766608625657 -0.25474770747244752 0 -0.03064478186574425 -0.25326356670072259 0 -0.026067501294639708 -0.24850247980592871 0 -0.040780788735907937 -0.34809370153295588 0 -0.035070660285960877 -0.35841379707961513 0 -0.051335308585544609 -0.35442186843706669 0 -0.040780788735907937 -0.34809370153295588 0 -0.033802973987086503 -0.33588719504380232 0 -0.029167969020145641 -0.35132386348016093 0 -0.040780788735907937 -0.34809370153295588 0 -0.035070660285960877 -0.35841379707961513 0 -0.029167969020145641 -0.35132386348016093 0 -0.035070660285960877 -0.35841379707961513 0 -0.040000350022935588 -0.37213681664196291 0 -0.021437446366364531 -0.36359117576668931 0 -0.035070660285960877 -0.35841379707961513 0 -0.058387822440418388 -0.36975607908058028 0 -0.035070660285960877 -0.35841379707961513 0 -0.040000350022935588 -0.37213681664196291 0 -0.058387822440418388 -0.36975607908058028 0 -0.040000350022935588 -0.37213681664196291 0 -0.058387822440418388 -0.36975607908058028 0 -0.058563253679506787 -0.38068245751723601 0 -0.035070660285960877 -0.35841379707961513 0 -0.058387822440418388 -0.36975607908058028 0 -0.051335308585544609 -0.35442186843706669 0 -0.066522813126512412 -0.35680227137673098 0 -0.058387822440418388 -0.36975607908058028 0 -0.051335308585544609 -0.35442186843706669 0 -0.066522813126512412 -0.35680227137673098 0 -0.051335308585544609 -0.35442186843706669 0 -0.054527031800802053 -0.34042178362413461 0 -0.040780788735907937 -0.34809370153295588 0 -0.051335308585544609 -0.35442186843706669 0 -0.054527031800802053 -0.34042178362413461 0 -0.066882954587322394 -0.32486941793266988 0 -0.054527031800802053 -0.34042178362413461 0 -0.05424539878688571 -0.319762651601179 0 -0.054527031800802053 -0.34042178362413461 0 -0.05424539878688571 -0.319762651601179 0 -0.033802973987086503 -0.33588719504380232 0 -0.05424539878688571 -0.319762651601179 0 -0.039668382727836717 -0.32560359559526031 0 -0.05424539878688571 -0.319762651601179 0 -0.033802973987086503 -0.33588719504380232 0 -0.037889090671270123 -0.30900677381518998 0 -0.025091366668787349 -0.3314445395893405 0 -0.05424539878688571 -0.319762651601179 0 -0.039668382727836717 -0.32560359559526031 0 -0.033802973987086503 -0.33588719504380232 0 -0.037889090671270123 -0.30900677381518998 0 -0.05424539878688571 -0.319762651601179 0 -0.039668382727836717 -0.32560359559526031 0 -0.037889090671270123 -0.30900677381518998 0 -0.039668382727836717 -0.32560359559526031 0 -0.025091366668787349 -0.3314445395893405 0 -0.040780788735907937 -0.34809370153295588 0 -0.054527031800802053 -0.34042178362413461 0 -0.033802973987086503 -0.33588719504380232 0 -0.039668382727836717 -0.32560359559526031 0 -0.025091366668787349 -0.3314445395893405 0 -0.039668382727836717 -0.32560359559526031 0 -0.033802973987086503 -0.33588719504380232 0 -0.025091366668787349 -0.3314445395893405 0 -0.025091366668787349 -0.3314445395893405 0 -0.01336054918728761 -0.35201173848642592 0 -0.033802973987086503 -0.33588719504380232 0 -0.025091366668787349 -0.3314445395893405 0 -0.01336054918728761 -0.35201173848642592 0 -0.025091366668787349 -0.3314445395893405 0 -0.01532372128421448 -0.33535839064186268 0 -0.01336054918728761 -0.35201173848642592 0 -0.025091366668787349 -0.3314445395893405 0 -0.022734703789933738 -0.32728556430890232 0 -0.01532372128421448 -0.33535839064186268 0 -0.025091366668787349 -0.3314445395893405 0 -0.01532372128421448 -0.33535839064186268 0 -0.022734703789933738 -0.32728556430890232 0 -0.01532372128421448 -0.33535839064186268 0 -0.037889090671270123 -0.30900677381518998 0 -0.014390974368570029 -0.31032982847088841 0 -0.022734703789933738 -0.32728556430890232 0 -0.037889090671270123 -0.30900677381518998 0 -0.025091366668787349 -0.3314445395893405 0 -0.022734703789933738 -0.32728556430890232 0 -0.014390974368570029 -0.31032982847088841 0 -0.022734703789933738 -0.32728556430890232 0 -0.01532372128421448 -0.33535839064186268 0 -0.014390974368570029 -0.31032982847088841 0 -0.010269967403673339 -0.33738340682189533 0 -0.014390974368570029 -0.31032982847088841 0 -0.010269967403673339 -0.33738340682189533 0 -0.01532372128421448 -0.33535839064186268 0 -0.014390974368570029 -0.31032982847088841 0 -0.010269967403673339 -0.33738340682189533 0 0.001904989571353899 -0.32214434476741449 0 -0.010269967403673339 -0.33738340682189533 0 -0.0096343958099064687 -0.34155580596031437 0 0.0075807645751098419 -0.34453611388615663 0 -0.010269967403673339 -0.33738340682189533 0 0.0075807645751098419 -0.34453611388615663 0 -0.0096343958099064687 -0.34155580596031437 0 -0.01532372128421448 -0.33535839064186268 0 -0.01336054918728761 -0.35201173848642592 0 -0.010269967403673339 -0.33738340682189533 0 -0.0096343958099064687 -0.34155580596031437 0 -0.010269967403673339 -0.33738340682189533 0 -0.0096343958099064687 -0.34155580596031437 0 -0.01532372128421448 -0.33535839064186268 0 -0.0096343958099064687 -0.34155580596031437 0 -0.01532372128421448 -0.33535839064186268 0 -0.010269967403673339 -0.33738340682189533 0 -0.01532372128421448 -0.33535839064186268 0 -0.010269967403673339 -0.33738340682189533 0 0.0034794820758208261 -0.33361449123698089 0 0.001904989571353899 -0.32214434476741449 0 -0.0096343958099064687 -0.34155580596031437 0 -0.0070150904897389628 -0.35875101633193152 0 -0.0096343958099064687 -0.34155580596031437 0 -0.0070150904897389628 -0.35875101633193152 0 -0.01336054918728761 -0.35201173848642592 0 -0.0096343958099064687 -0.34155580596031437 0 -0.0070150904897389628 -0.35875101633193152 0 0.0099352179383349771 -0.36287309999936251 0 -0.033802973987086503 -0.33588719504380232 0 -0.01336054918728761 -0.35201173848642592 0 -0.029167969020145641 -0.35132386348016093 0 -0.01336054918728761 -0.35201173848642592 0 -0.029167969020145641 -0.35132386348016093 0 -0.021437446366364531 -0.36359117576668931 0 -0.033802973987086503 -0.33588719504380232 0 -0.01336054918728761 -0.35201173848642592 0 -0.035070660285960877 -0.35841379707961513 0 -0.029167969020145641 -0.35132386348016093 0 -0.021437446366364531 -0.36359117576668931 0 -0.040000350022935588 -0.37213681664196291 0 -0.021437446366364531 -0.36359117576668931 0 -0.02618172091304426 -0.37743656618445498 0 -0.021437446366364531 -0.36359117576668931 0 -0.002178803782163227 -0.37161627006544062 0 -0.02618172091304426 -0.37743656618445498 0 -0.040000350022935588 -0.37213681664196291 0 -0.021437446366364531 -0.36359117576668931 0 -0.01336054918728761 -0.35201173848642592 0 -0.021437446366364531 -0.36359117576668931 0 -0.002178803782163227 -0.37161627006544062 0 -0.01336054918728761 -0.35201173848642592 0 -0.002178803782163227 -0.37161627006544062 0 -0.0070150904897389628 -0.35875101633193152 0 -0.01336054918728761 -0.35201173848642592 0 -0.002178803782163227 -0.37161627006544062 0 -0.002178803782163227 -0.37161627006544062 0 -0.026336278995230201 -0.38905167830789189 0 -0.002178803782163227 -0.37161627006544062 0 -0.0066930742226519926 -0.39143820132839208 0 -0.026336278995230201 -0.38905167830789189 0 -0.0066930742226519926 -0.39143820132839208 0 -0.001728596279610697 -0.40597762003102339 0 -0.017737199096442072 -0.40073047040120602 0 -0.0066930742226519926 -0.39143820132839208 0 -0.017737199096442072 -0.40073047040120602 0 -0.026336278995230201 -0.38905167830789189 0 -0.017737199096442072 -0.40073047040120602 0 -0.026336278995230201 -0.38905167830789189 0 -0.033287388117186109 -0.40399871831440642 0 -0.002178803782163227 -0.37161627006544062 0 -0.026336278995230201 -0.38905167830789189 0 -0.02618172091304426 -0.37743656618445498 0 -0.026336278995230201 -0.38905167830789189 0 -0.02618172091304426 -0.37743656618445498 0 -0.033482850758781962 -0.383939184607547 0 -0.02618172091304426 -0.37743656618445498 0 -0.042372487296275553 -0.37905951185084519 0 -0.033482850758781962 -0.383939184607547 0 -0.02618172091304426 -0.37743656618445498 0 -0.042372487296275553 -0.37905951185084519 0 -0.040000350022935588 -0.37213681664196291 0 -0.02618172091304426 -0.37743656618445498 0 -0.042372487296275553 -0.37905951185084519 0 -0.042372487296275553 -0.37905951185084519 0 -0.039040915830577852 -0.39020898208699611 0 -0.049048127186911553 -0.38756594990863991 0 -0.042372487296275553 -0.37905951185084519 0 -0.039040915830577852 -0.39020898208699611 0 -0.033482850758781962 -0.383939184607547 0 -0.026336278995230201 -0.38905167830789189 0 -0.039040915830577852 -0.39020898208699611 0 -0.033482850758781962 -0.383939184607547 0 -0.026336278995230201 -0.38905167830789189 0 -0.050493754208297943 -0.40648708655034188 0 -0.039040915830577852 -0.39020898208699611 0 -0.048181286987745188 -0.3967611761759377 0 -0.050493754208297943 -0.40648708655034188 0 -0.026336278995230201 -0.38905167830789189 0 -0.039040915830577852 -0.39020898208699611 0 -0.050493754208297943 -0.40648708655034188 0 -0.026336278995230201 -0.38905167830789189 0 -0.033287388117186109 -0.40399871831440642 0 -0.050493754208297943 -0.40648708655034188 0 -0.039040915830577852 -0.39020898208699611 0 -0.048181286987745188 -0.3967611761759377 0 -0.049048127186911553 -0.38756594990863991 0 -0.048181286987745188 -0.3967611761759377 0 -0.055512870853615448 -0.39455951290216967 0 -0.049048127186911553 -0.38756594990863991 0 -0.055512870853615448 -0.39455951290216967 0 -0.052509649903146327 -0.40794203844841681 0 -0.074281153156084773 -0.38791836881244668 0 -0.048181286987745188 -0.3967611761759377 0 -0.055512870853615448 -0.39455951290216967 0 -0.050493754208297943 -0.40648708655034188 0 -0.055512870853615448 -0.39455951290216967 0 -0.052509649903146327 -0.40794203844841681 0 -0.050493754208297943 -0.40648708655034188 0 -0.048181286987745188 -0.3967611761759377 0 -0.050493754208297943 -0.40648708655034188 0 -0.040000350022935588 -0.37213681664196291 0 -0.042372487296275553 -0.37905951185084519 0 -0.058563253679506787 -0.38068245751723601 0 -0.042372487296275553 -0.37905951185084519 0 -0.058563253679506787 -0.38068245751723601 0 -0.040000350022935588 -0.37213681664196291 0 -0.058563253679506787 -0.38068245751723601 0 -0.042372487296275553 -0.37905951185084519 0 -0.058563253679506787 -0.38068245751723601 0 -0.049048127186911553 -0.38756594990863991 0 -0.055512870853615448 -0.39455951290216967 0 -0.058563253679506787 -0.38068245751723601 0 -0.049048127186911553 -0.38756594990863991 0 -0.055571169944573007 -0.4278419796903028 0 -0.060002998013559863 -0.44648162232419802 0 -0.069408814394604765 -0.42365151461769918 0 -0.055571169944573007 -0.4278419796903028 0 -0.060002998013559863 -0.44648162232419802 0 -0.055571169944573007 -0.4278419796903028 0 -0.04142135733128624 -0.43391233418184683 0 -0.048623679129421588 -0.44273110985945369 0 -0.055571169944573007 -0.4278419796903028 0 -0.059775586818595829 -0.41787661413097049 0 -0.069408814394604765 -0.42365151461769918 0 -0.055571169944573007 -0.4278419796903028 0 -0.059775586818595829 -0.41787661413097049 0 -0.052509649903146327 -0.40794203844841681 0 -0.055571169944573007 -0.4278419796903028 0 -0.052509649903146327 -0.40794203844841681 0 -0.038621424185474637 -0.4207153063468223 0 -0.055571169944573007 -0.4278419796903028 0 -0.052509649903146327 -0.40794203844841681 0 -0.052509649903146327 -0.40794203844841681 0 -0.070248957975066639 -0.42074520084202788 0 -0.059775586818595829 -0.41787661413097049 0 -0.052509649903146327 -0.40794203844841681 0 -0.070248957975066639 -0.42074520084202788 0 -0.052509649903146327 -0.40794203844841681 0 -0.050493754208297943 -0.40648708655034188 0 -0.041470954428671609 -0.41006675355118111 0 -0.052509649903146327 -0.40794203844841681 0 -0.050493754208297943 -0.40648708655034188 0 -0.052509649903146327 -0.40794203844841681 0 -0.038621424185474637 -0.4207153063468223 0 -0.033287388117186109 -0.40399871831440642 0 -0.050493754208297943 -0.40648708655034188 0 -0.041470954428671609 -0.41006675355118111 0 -0.052509649903146327 -0.40794203844841681 0 -0.041470954428671609 -0.41006675355118111 0 -0.038621424185474637 -0.4207153063468223 0 -0.033287388117186109 -0.40399871831440642 0 -0.041470954428671609 -0.41006675355118111 0 -0.027792962261932352 -0.41547375898907968 0 -0.041470954428671609 -0.41006675355118111 0 -0.038621424185474637 -0.4207153063468223 0 -0.027792962261932352 -0.41547375898907968 0 -0.055571169944573007 -0.4278419796903028 0 -0.038621424185474637 -0.4207153063468223 0 -0.04142135733128624 -0.43391233418184683 0 -0.038621424185474637 -0.4207153063468223 0 -0.026103506495360269 -0.43222827563723731 0 -0.038621424185474637 -0.4207153063468223 0 -0.04142135733128624 -0.43391233418184683 0 -0.026103506495360269 -0.43222827563723731 0 -0.04142135733128624 -0.43391233418184683 0 -0.026103506495360269 -0.43222827563723731 0 -0.035662081446574762 -0.44437129177822371 0 -0.026103506495360269 -0.43222827563723731 0 -0.027792962261932352 -0.41547375898907968 0 -0.009537301248459449 -0.42510302968362512 0 -0.026103506495360269 -0.43222827563723731 0 -0.009537301248459449 -0.42510302968362512 0 -0.019709463090837601 -0.44530454005801179 0 -0.038621424185474637 -0.4207153063468223 0 -0.026103506495360269 -0.43222827563723731 0 -0.027792962261932352 -0.41547375898907968 0 -0.017737199096442072 -0.40073047040120602 0 -0.027792962261932352 -0.41547375898907968 0 -0.009537301248459449 -0.42510302968362512 0 -0.017737199096442072 -0.40073047040120602 0 -0.033287388117186109 -0.40399871831440642 0 -0.027792962261932352 -0.41547375898907968 0 -0.001728596279610697 -0.40597762003102339 0 -0.017737199096442072 -0.40073047040120602 0 -0.009537301248459449 -0.42510302968362512 0 -0.017737199096442072 -0.40073047040120602 0 -0.009537301248459449 -0.42510302968362512 0 -0.001728596279610697 -0.40597762003102339 0 -0.009537301248459449 -0.42510302968362512 0 0.0082246319185010179 -0.41465428951275207 0 -0.009537301248459449 -0.42510302968362512 0 -0.0013374034004768371 -0.44947558896604423 0 -0.009537301248459449 -0.42510302968362512 0 -0.0013374034004768371 -0.44947558896604423 0 0.01039378864355619 -0.42848339288335913 0 -0.009537301248459449 -0.42510302968362512 0 -0.0013374034004768371 -0.44947558896604423 0 -0.019709463090837601 -0.44530454005801179 0 -0.0013374034004768371 -0.44947558896604423 0 -0.014612752260004851 -0.46155177919014362 0 -0.019709463090837601 -0.44530454005801179 0 -0.0013374034004768371 -0.44947558896604423 0 -0.014612752260004851 -0.46155177919014362 0 0.0068624944475057766 -0.47384814824846327 0 -0.014612752260004851 -0.46155177919014362 0 -0.028521420705905499 -0.4674310816654948 0 -0.030789477839635839 -0.45543267362212791 0 -0.014612752260004851 -0.46155177919014362 0 -0.030789477839635839 -0.45543267362212791 0 -0.019709463090837601 -0.44530454005801179 0 -0.030789477839635839 -0.45543267362212791 0 -0.019709463090837601 -0.44530454005801179 0 -0.035662081446574762 -0.44437129177822371 0 -0.026103506495360269 -0.43222827563723731 0 -0.019709463090837601 -0.44530454005801179 0 -0.035662081446574762 -0.44437129177822371 0 -0.015217900669161011 -0.5 0 -0.01418124297067914 -0.47781864258071971 0 0.0024053695883212941 -0.48891336768777249 0 -0.01418124297067914 -0.47781864258071971 0 0.0068624944475057766 -0.47384814824846327 0 0.0024053695883212941 -0.48891336768777249 0 -0.014612752260004851 -0.46155177919014362 0 -0.01418124297067914 -0.47781864258071971 0 0.0068624944475057766 -0.47384814824846327 0 -0.014612752260004851 -0.46155177919014362 0 -0.028521420705905499 -0.4674310816654948 0 -0.01418124297067914 -0.47781864258071971 0 -0.028521420705905499 -0.4674310816654948 0 -0.01418124297067914 -0.47781864258071971 0 -0.027752274071966478 -0.47742461628286209 0 -0.015217900669161011 -0.5 0 -0.027752274071966478 -0.47742461628286209 0 -0.038171784631523778 -0.48284131767108018 0 -0.015217900669161011 -0.5 0 -0.01418124297067914 -0.47781864258071971 0 -0.027752274071966478 -0.47742461628286209 0 -0.015217900669161011 -0.5 0 -0.043972809743024373 -0.5 0 -0.038171784631523778 -0.48284131767108018 0 -0.043972809743024373 -0.5 0 -0.038171784631523778 -0.48284131767108018 0 -0.049841179956411519 -0.48183723669954598 0 -0.038171784631523778 -0.48284131767108018 0 -0.048675315621036823 -0.47094071089761919 0 -0.038171784631523778 -0.48284131767108018 0 -0.048675315621036823 -0.47094071089761919 0 -0.049841179956411519 -0.48183723669954598 0 -0.027752274071966478 -0.47742461628286209 0 -0.038171784631523778 -0.48284131767108018 0 -0.038764373548703768 -0.47063519779216179 0 -0.028521420705905499 -0.4674310816654948 0 -0.027752274071966478 -0.47742461628286209 0 -0.038764373548703768 -0.47063519779216179 0 -0.038764373548703768 -0.47063519779216179 0 -0.048675315621036823 -0.47094071089761919 0 -0.045335619097383061 -0.46570514195792412 0 -0.038171784631523778 -0.48284131767108018 0 -0.038764373548703768 -0.47063519779216179 0 -0.048675315621036823 -0.47094071089761919 0 -0.048675315621036823 -0.47094071089761919 0 -0.055120034750126161 -0.47128965669693351 0 -0.049841179956411519 -0.48183723669954598 0 -0.048675315621036823 -0.47094071089761919 0 -0.055120034750126161 -0.47128965669693351 0 -0.057384894248553399 -0.46524593439390849 0 -0.055120034750126161 -0.47128965669693351 0 -0.059149819292987238 -0.47777467248794547 0 -0.064422500494955764 -0.4650694252783244 0 -0.059149819292987238 -0.47777467248794547 0 -0.049841179956411519 -0.48183723669954598 0 -0.058853327493046781 -0.48842932436532971 0 -0.055120034750126161 -0.47128965669693351 0 -0.059149819292987238 -0.47777467248794547 0 -0.049841179956411519 -0.48183723669954598 0 -0.059149819292987238 -0.47777467248794547 0 -0.058853327493046781 -0.48842932436532971 0 -0.068575109655922298 -0.48253471263916042 0 -0.043972809743024373 -0.5 0 -0.058853327493046781 -0.48842932436532971 0 -0.072727718816887776 -0.49999999999999672 0 -0.043972809743024373 -0.5 0 -0.049841179956411519 -0.48183723669954598 0 -0.058853327493046781 -0.48842932436532971 0 -0.045123684251444827 -0.45223268167437758 0 -0.035662081446574762 -0.44437129177822371 0 -0.048623679129421588 -0.44273110985945369 0 -0.04142135733128624 -0.43391233418184683 0 -0.035662081446574762 -0.44437129177822371 0 -0.048623679129421588 -0.44273110985945369 0 -0.030789477839635839 -0.45543267362212791 0 -0.045123684251444827 -0.45223268167437758 0 -0.035662081446574762 -0.44437129177822371 0 -0.030789477839635839 -0.45543267362212791 0 -0.045123684251444827 -0.45223268167437758 0 -0.04007978340352341 -0.46172459869688548 0 -0.028521420705905499 -0.4674310816654948 0 -0.030789477839635839 -0.45543267362212791 0 -0.04007978340352341 -0.46172459869688548 0 -0.028521420705905499 -0.4674310816654948 0 -0.038764373548703768 -0.47063519779216179 0 -0.04007978340352341 -0.46172459869688548 0 -0.038764373548703768 -0.47063519779216179 0 -0.04007978340352341 -0.46172459869688548 0 -0.045335619097383061 -0.46570514195792412 0 -0.04007978340352341 -0.46172459869688548 0 -0.045335619097383061 -0.46570514195792412 0 -0.047248161051959649 -0.4591011094540644 0 -0.045123684251444827 -0.45223268167437758 0 -0.04007978340352341 -0.46172459869688548 0 -0.047248161051959649 -0.4591011094540644 0 -0.045123684251444827 -0.45223268167437758 0 -0.050581796861615229 -0.45333412325219669 0 -0.047248161051959649 -0.4591011094540644 0 -0.050581796861615229 -0.45333412325219669 0 -0.047248161051959649 -0.4591011094540644 0 -0.051910461861691633 -0.46612409294888979 0 -0.051910461861691633 -0.46612409294888979 0 -0.05917884661055 -0.4590401041241583 0 -0.060002998013559863 -0.44648162232419802 0 -0.051910461861691633 -0.46612409294888979 0 -0.060002998013559863 -0.44648162232419802 0 -0.050581796861615229 -0.45333412325219669 0 -0.051910461861691633 -0.46612409294888979 0 -0.060002998013559863 -0.44648162232419802 0 -0.048675315621036823 -0.47094071089761919 0 -0.05917884661055 -0.4590401041241583 0 -0.048675315621036823 -0.47094071089761919 0 -0.051910461861691633 -0.46612409294888979 0 -0.05917884661055 -0.4590401041241583 0 -0.048675315621036823 -0.47094071089761919 0 -0.045335619097383061 -0.46570514195792412 0 -0.051910461861691633 -0.46612409294888979 0 -0.045335619097383061 -0.46570514195792412 0 -0.047248161051959649 -0.4591011094540644 0 -0.051910461861691633 -0.46612409294888979 0 -0.055120034750126161 -0.47128965669693351 0 -0.057384894248553399 -0.46524593439390849 0 -0.064422500494955764 -0.4650694252783244 0 -0.048675315621036823 -0.47094071089761919 0 -0.057384894248553399 -0.46524593439390849 0 -0.05917884661055 -0.4590401041241583 0 -0.057384894248553399 -0.46524593439390849 0 -0.05917884661055 -0.4590401041241583 0 -0.059237257045792073 -0.46090013765886428 0 -0.064422500494955764 -0.4650694252783244 0 -0.057384894248553399 -0.46524593439390849 0 -0.059237257045792073 -0.46090013765886428 0 -0.064422500494955764 -0.4650694252783244 0 -0.057384894248553399 -0.46524593439390849 0 -0.059237257045792073 -0.46090013765886428 0 -0.05917884661055 -0.4590401041241583 0 -0.059237257045792073 -0.46090013765886428 0 -0.062180371227510647 -0.45563934639583059 0 -0.064422500494955764 -0.4650694252783244 0 -0.059237257045792073 -0.46090013765886428 0 -0.05917884661055 -0.4590401041241583 0 -0.062180371227510647 -0.45563934639583059 0 -0.05917884661055 -0.4590401041241583 0 -0.062180371227510647 -0.45563934639583059 0 -0.05917884661055 -0.4590401041241583 0 -0.061269440441321127 -0.45180810022505591 0 -0.05917884661055 -0.4590401041241583 0 -0.062180371227510647 -0.45563934639583059 0 -0.061269440441321127 -0.45180810022505591 0 -0.062180371227510647 -0.45563934639583059 0 -0.061269440441321127 -0.45180810022505591 0 -0.055571169944573007 -0.4278419796903028 0 -0.060002998013559863 -0.44648162232419802 0 -0.048623679129421588 -0.44273110985945369 0 -0.05917884661055 -0.4590401041241583 0 -0.061269440441321127 -0.45180810022505591 0 -0.060002998013559863 -0.44648162232419802 0 -0.061269440441321127 -0.45180810022505591 0 -0.060002998013559863 -0.44648162232419802 0 -0.050581796861615229 -0.45333412325219669 0 -0.060002998013559863 -0.44648162232419802 0 -0.048623679129421588 -0.44273110985945369 0 -0.045123684251444827 -0.45223268167437758 0 -0.050581796861615229 -0.45333412325219669 0 -0.048623679129421588 -0.44273110985945369 0 -0.061269440441321127 -0.45180810022505591 0 -0.069408814394604765 -0.42365151461769918 0 -0.062180371227510647 -0.45563934639583059 0 -0.061269440441321127 -0.45180810022505591 0 -0.077098496045509793 -0.43873696019506903 0 -0.062180371227510647 -0.45563934639583059 0 -0.077098496045509793 -0.43873696019506903 0 -0.073769461018799692 -0.45951707792468061 0 -0.061269440441321127 -0.45180810022505591 0 -0.077098496045509793 -0.43873696019506903 0 -0.069408814394604765 -0.42365151461769918 0 -0.061269440441321127 -0.45180810022505591 0 -0.060002998013559863 -0.44648162232419802 0 -0.069408814394604765 -0.42365151461769918 0 -0.062180371227510647 -0.45563934639583059 0 -0.077098496045509793 -0.43873696019506903 0 -0.062180371227510647 -0.45563934639583059 0 -0.064422500494955764 -0.4650694252783244 0 -0.062180371227510647 -0.45563934639583059 0 -0.064422500494955764 -0.4650694252783244 0 -0.073769461018799692 -0.45951707792468061 0 -0.084521355142842869 -0.45759592347480388 0 -0.086143661312174283 -0.48253471263916248 0 -0.099165393688022629 -0.46120376842987459 0 -0.073769461018799692 -0.45951707792468061 0 -0.084521355142842869 -0.45759592347480388 0 -0.086143661312174283 -0.48253471263916248 0 -0.084521355142842869 -0.45759592347480388 0 -0.089624247433654214 -0.44685599598904568 0 -0.099165393688022629 -0.46120376842987459 0 -0.077098496045509793 -0.43873696019506903 0 -0.084521355142842869 -0.45759592347480388 0 -0.089624247433654214 -0.44685599598904568 0 -0.077098496045509793 -0.43873696019506903 0 -0.073769461018799692 -0.45951707792468061 0 -0.084521355142842869 -0.45759592347480388 0 -0.089624247433654214 -0.44685599598904568 0 -0.099878095611554862 -0.4393977270813314 0 -0.089545628933694749 -0.43673796215895883 0 -0.077098496045509793 -0.43873696019506903 0 -0.089624247433654214 -0.44685599598904568 0 -0.089545628933694749 -0.43673796215895883 0 -0.072727718816887776 -0.49999999999999672 0 -0.068575109655922298 -0.48253471263916042 0 -0.058853327493046781 -0.48842932436532971 0 -0.072727718816887776 -0.49999999999999672 0 -0.068575109655922298 -0.48253471263916042 0 -0.072727718816887776 -0.49999999999999672 0 -0.068575109655922298 -0.48253471263916042 0 -0.086143661312174283 -0.48253471263916248 0 -0.064422500494955764 -0.4650694252783244 0 -0.068575109655922298 -0.48253471263916042 0 -0.059149819292987238 -0.47777467248794547 0 -0.064422500494955764 -0.4650694252783244 0 -0.068575109655922298 -0.48253471263916042 0 -0.064422500494955764 -0.4650694252783244 0 -0.073769461018799692 -0.45951707792468061 0 -0.086143661312174283 -0.48253471263916248 0 -0.064422500494955764 -0.4650694252783244 0 -0.068575109655922298 -0.48253471263916042 0 -0.086143661312174283 -0.48253471263916248 0 -0.064422500494955764 -0.4650694252783244 0 -0.086143661312174283 -0.48253471263916248 0 -0.072727718816887776 -0.49999999999999672 0 -0.086143661312174283 -0.48253471263916248 0 -0.090296270473140428 -0.5 0 -0.086143661312174283 -0.48253471263916248 0 -0.090296270473140428 -0.5 0 -0.10786482212939311 -0.50000000000000011 0 -0.086143661312174283 -0.48253471263916248 0 -0.10786482212939311 -0.50000000000000011 0 -0.086143661312174283 -0.48253471263916248 0 -0.10786482212939311 -0.50000000000000011 0 -0.1056577076014347 -0.47999846360012538 0 -0.086143661312174283 -0.48253471263916248 0 -0.1056577076014347 -0.47999846360012538 0 -0.099165393688022629 -0.46120376842987459 0 -0.1056577076014347 -0.47999846360012538 0 -0.12108079434187891 -0.47202921183540031 0 -0.099165393688022629 -0.46120376842987459 0 -0.1056577076014347 -0.47999846360012538 0 -0.12108079434187891 -0.47202921183540031 0 -0.1206292342060253 -0.48641385964910883 0 -0.131118449396015 -0.5 0 -0.10786482212939311 -0.50000000000000011 0 -0.1206292342060253 -0.48641385964910883 0 -0.10786482212939311 -0.50000000000000011 0 -0.1056577076014347 -0.47999846360012538 0 -0.1206292342060253 -0.48641385964910883 0 -0.099878095611554862 -0.4393977270813314 0 -0.099165393688022629 -0.46120376842987459 0 -0.099878095611554862 -0.4393977270813314 0 -0.099165393688022629 -0.46120376842987459 0 -0.11615585050415531 -0.45102464773050138 0 -0.089624247433654214 -0.44685599598904568 0 -0.099878095611554862 -0.4393977270813314 0 -0.099165393688022629 -0.46120376842987459 0 -0.12108079434187891 -0.47202921183540031 0 -0.099165393688022629 -0.46120376842987459 0 -0.11615585050415531 -0.45102464773050138 0 -0.13077987840644981 -0.46069854066347632 0 -0.12108079434187891 -0.47202921183540031 0 -0.11615585050415531 -0.45102464773050138 0 -0.13194602454298601 -0.43962244526902572 0 -0.11615585050415531 -0.45102464773050138 0 -0.1129403580353462 -0.43280081863281078 0 -0.099878095611554862 -0.4393977270813314 0 -0.11615585050415531 -0.45102464773050138 0 -0.1129403580353462 -0.43280081863281078 0 -0.13194602454298601 -0.43962244526902572 0 -0.1165997240041481 -0.41847011486561592 0 -0.13194602454298601 -0.43962244526902572 0 -0.1129403580353462 -0.43280081863281078 0 -0.1165997240041481 -0.41847011486561592 0 -0.1129403580353462 -0.43280081863281078 0 -0.1079125428112538 -0.41892639524425412 0 -0.1165997240041481 -0.41847011486561592 0 -0.099878095611554862 -0.4393977270813314 0 -0.100590797535087 -0.41759168573278821 0 -0.092016620863508841 -0.4218345739943074 0 -0.099878095611554862 -0.4393977270813314 0 -0.089545628933694749 -0.43673796215895883 0 -0.092016620863508841 -0.4218345739943074 0 -0.099878095611554862 -0.4393977270813314 0 -0.1129403580353462 -0.43280081863281078 0 -0.10283731640903 -0.42510314405888588 0 -0.099878095611554862 -0.4393977270813314 0 -0.100590797535087 -0.41759168573278821 0 -0.099878095611554862 -0.4393977270813314 0 -0.10283731640903 -0.42510314405888588 0 -0.100590797535087 -0.41759168573278821 0 -0.1129403580353462 -0.43280081863281078 0 -0.10283731640903 -0.42510314405888588 0 -0.1079125428112538 -0.41892639524425412 0 -0.100590797535087 -0.41759168573278821 0 -0.1012534234653099 -0.39731778446220639 0 -0.1165997240041481 -0.41847011486561592 0 -0.1012534234653099 -0.39731778446220639 0 -0.100590797535087 -0.41759168573278821 0 -0.094499944748829334 -0.39722631626938482 0 -0.088610052547492879 -0.41006814396079783 0 -0.100590797535087 -0.41759168573278821 0 -0.1079125428112538 -0.41892639524425412 0 -0.1012534234653099 -0.39731778446220639 0 -0.100590797535087 -0.41759168573278821 0 -0.094499944748829334 -0.39722631626938482 0 -0.1079125428112538 -0.41892639524425412 0 -0.1165997240041481 -0.41847011486561592 0 -0.1012534234653099 -0.39731778446220639 0 -0.10283731640903 -0.42510314405888588 0 -0.100590797535087 -0.41759168573278821 0 -0.1079125428112538 -0.41892639524425412 0 -0.10283731640903 -0.42510314405888588 0 -0.100590797535087 -0.41759168573278821 0 -0.12592730430259419 -0.40432488328170318 0 -0.1165997240041481 -0.41847011486561592 0 -0.1152538145686829 -0.39895411709426332 0 -0.1165997240041481 -0.41847011486561592 0 -0.1152538145686829 -0.39895411709426332 0 -0.1012534234653099 -0.39731778446220639 0 -0.12526638733901391 -0.39147447277512609 0 -0.12592730430259419 -0.40432488328170318 0 -0.1152538145686829 -0.39895411709426332 0 -0.12526638733901391 -0.39147447277512609 0 -0.1152538145686829 -0.39895411709426332 0 -0.1147112201852714 -0.38836266809632891 0 -0.1152538145686829 -0.39895411709426332 0 -0.1147112201852714 -0.38836266809632891 0 -0.1077648281157602 -0.39377477908459929 0 -0.12526638733901391 -0.39147447277512609 0 -0.12201267174342199 -0.37938718301114999 0 -0.1147112201852714 -0.38836266809632891 0 -0.1147112201852714 -0.38836266809632891 0 -0.1094440337948836 -0.37923577087639421 0 -0.1073228884697877 -0.3875649225559597 0 -0.1147112201852714 -0.38836266809632891 0 -0.1073228884697877 -0.3875649225559597 0 -0.1077648281157602 -0.39377477908459929 0 -0.12201267174342199 -0.37938718301114999 0 -0.1147112201852714 -0.38836266809632891 0 -0.1094440337948836 -0.37923577087639421 0 -0.1159926709000937 -0.36685414663024191 0 -0.12201267174342199 -0.37938718301114999 0 -0.1094440337948836 -0.37923577087639421 0 -0.1024060606807759 -0.36205135125861898 0 -0.1094440337948836 -0.37923577087639421 0 -0.1016559479587178 -0.38500202459504551 0 -0.1094440337948836 -0.37923577087639421 0 -0.1016559479587178 -0.38500202459504551 0 -0.1073228884697877 -0.3875649225559597 0 -0.1016559479587178 -0.38500202459504551 0 -0.1014693111655476 -0.390712419775258 0 -0.1016559479587178 -0.38500202459504551 0 -0.1073228884697877 -0.3875649225559597 0 -0.1014693111655476 -0.390712419775258 0 -0.1016559479587178 -0.38500202459504551 0 -0.091585827134305964 -0.3839926061052007 0 -0.1016559479587178 -0.38500202459504551 0 -0.1014693111655476 -0.390712419775258 0 -0.093729726096669103 -0.3869476153003294 0 -0.1016559479587178 -0.38500202459504551 0 -0.091585827134305964 -0.3839926061052007 0 -0.093729726096669103 -0.3869476153003294 0 -0.1014693111655476 -0.390712419775258 0 -0.093729726096669103 -0.3869476153003294 0 -0.1016559479587178 -0.38500202459504551 0 -0.095426438310298192 -0.37780241062099151 0 -0.091585827134305964 -0.3839926061052007 0 -0.100590797535087 -0.41759168573278821 0 -0.1012534234653099 -0.39731778446220639 0 -0.099487365185966847 -0.39952233119993291 0 -0.100590797535087 -0.41759168573278821 0 -0.094499944748829334 -0.39722631626938482 0 -0.099487365185966847 -0.39952233119993291 0 -0.1152538145686829 -0.39895411709426332 0 -0.1077648281157602 -0.39377477908459929 0 -0.1012534234653099 -0.39731778446220639 0 -0.1073228884697877 -0.3875649225559597 0 -0.1077648281157602 -0.39377477908459929 0 -0.1014693111655476 -0.390712419775258 0 -0.1077648281157602 -0.39377477908459929 0 -0.1012534234653099 -0.39731778446220639 0 -0.1014693111655476 -0.390712419775258 0 -0.1077648281157602 -0.39377477908459929 0 -0.1014693111655476 -0.390712419775258 0 -0.1012534234653099 -0.39731778446220639 0 -0.094499944748829334 -0.39722631626938482 0 -0.099487365185966847 -0.39952233119993291 0 -0.1012534234653099 -0.39731778446220639 0 -0.094499944748829334 -0.39722631626938482 0 -0.093729726096669103 -0.3869476153003294 0 -0.1012534234653099 -0.39731778446220639 0 -0.1014693111655476 -0.390712419775258 0 -0.093729726096669103 -0.3869476153003294 0 -0.1012534234653099 -0.39731778446220639 0 -0.093729726096669103 -0.3869476153003294 0 -0.1012534234653099 -0.39731778446220639 0 -0.1014693111655476 -0.390712419775258 0 -0.094499944748829334 -0.39722631626938482 0 -0.099487365185966847 -0.39952233119993291 0 -0.094499944748829334 -0.39722631626938482 0 -0.085553154766675646 -0.40134027138503481 0 -0.088610052547492879 -0.41006814396079783 0 -0.094499944748829334 -0.39722631626938482 0 -0.082560309743270749 -0.39172977139542609 0 -0.085553154766675646 -0.40134027138503481 0 -0.094499944748829334 -0.39722631626938482 0 -0.082560309743270749 -0.39172977139542609 0 -0.091033556626635648 -0.38563610430902873 0 -0.094499944748829334 -0.39722631626938482 0 -0.082560309743270749 -0.39172977139542609 0 -0.094499944748829334 -0.39722631626938482 0 -0.091033556626635648 -0.38563610430902873 0 -0.082560309743270749 -0.39172977139542609 0 -0.079097438192195432 -0.39013559964190198 0 -0.074673198083630793 -0.40544040024196493 0 -0.082560309743270749 -0.39172977139542609 0 -0.079097438192195432 -0.39013559964190198 0 -0.082560309743270749 -0.39172977139542609 0 -0.076542312027108539 -0.406336853914531 0 -0.082560309743270749 -0.39172977139542609 0 -0.085553154766675646 -0.40134027138503481 0 -0.076542312027108539 -0.406336853914531 0 -0.085553154766675646 -0.40134027138503481 0 -0.076542312027108539 -0.406336853914531 0 -0.088610052547492879 -0.41006814396079783 0 -0.090139611558562177 -0.37333304007799939 0 -0.088525620654428705 -0.37725057202694517 0 -0.088525620654428705 -0.37725057202694517 0 -0.087954911787112483 -0.37534235041220648 0 -0.08170780991661282 -0.38109255286014232 0 -0.090139611558562177 -0.37333304007799939 0 -0.088525620654428705 -0.37725057202694517 0 -0.087954911787112483 -0.37534235041220648 0 -0.088525620654428705 -0.37725057202694517 0 -0.087954911787112483 -0.37534235041220648 0 -0.090139611558562177 -0.37333304007799939 0 -0.095426438310298192 -0.37780241062099151 0 -0.088525620654428705 -0.37725057202694517 0 -0.088525620654428705 -0.37725057202694517 0 -0.091585827134305964 -0.3839926061052007 0 -0.095426438310298192 -0.37780241062099151 0 -0.088525620654428705 -0.37725057202694517 0 -0.091585827134305964 -0.3839926061052007 0 -0.088525620654428705 -0.37725057202694517 0 -0.086634605294488312 -0.38349630075200858 0 -0.088525620654428705 -0.37725057202694517 0 -0.086634605294488312 -0.38349630075200858 0 -0.091585827134305964 -0.3839926061052007 0 -0.082560309743270749 -0.39172977139542609 0 -0.086634605294488312 -0.38349630075200858 0 -0.091033556626635648 -0.38563610430902873 0 -0.094499944748829334 -0.39722631626938482 0 -0.091033556626635648 -0.38563610430902873 0 -0.093729726096669103 -0.3869476153003294 0 -0.086634605294488312 -0.38349630075200858 0 -0.091585827134305964 -0.3839926061052007 0 -0.086634605294488312 -0.38349630075200858 0 -0.091033556626635648 -0.38563610430902873 0 -0.086634605294488312 -0.38349630075200858 0 -0.091585827134305964 -0.3839926061052007 0 -0.091033556626635648 -0.38563610430902873 0 -0.091585827134305964 -0.3839926061052007 0 -0.091033556626635648 -0.38563610430902873 0 -0.093729726096669103 -0.3869476153003294 0 -0.091033556626635648 -0.38563610430902873 0 -0.093729726096669103 -0.3869476153003294 0 -0.091585827134305964 -0.3839926061052007 0 -0.093729726096669103 -0.3869476153003294 0 -0.091585827134305964 -0.3839926061052007 0 -0.091033556626635648 -0.38563610430902873 0 -0.082560309743270749 -0.39172977139542609 0 -0.086634605294488312 -0.38349630075200858 0 -0.082560309743270749 -0.39172977139542609 0 -0.086634605294488312 -0.38349630075200858 0 -0.081174899406055781 -0.38294902548401538 0 -0.082560309743270749 -0.39172977139542609 0 -0.079097438192195432 -0.39013559964190198 0 -0.081174899406055781 -0.38294902548401538 0 -0.079097438192195432 -0.39013559964190198 0 -0.081174899406055781 -0.38294902548401538 0 -0.074281153156084773 -0.38791836881244668 0 -0.079097438192195432 -0.39013559964190198 0 -0.081174899406055781 -0.38294902548401538 0 -0.086634605294488312 -0.38349630075200858 0 -0.081174899406055781 -0.38294902548401538 0 -0.088525620654428705 -0.37725057202694517 0 -0.086634605294488312 -0.38349630075200858 0 -0.08170780991661282 -0.38109255286014232 0 -0.086634605294488312 -0.38349630075200858 0 -0.081174899406055781 -0.38294902548401538 0 -0.08170780991661282 -0.38109255286014232 0 -0.086634605294488312 -0.38349630075200858 0 -0.08170780991661282 -0.38109255286014232 0 -0.081174899406055781 -0.38294902548401538 0 -0.08170780991661282 -0.38109255286014232 0 -0.087954911787112483 -0.37534235041220648 0 -0.08170780991661282 -0.38109255286014232 0 -0.055512870853615448 -0.39455951290216967 0 -0.058563253679506787 -0.38068245751723601 0 -0.074281153156084773 -0.38791836881244668 0 -0.058563253679506787 -0.38068245751723601 0 -0.074281153156084773 -0.38791836881244668 0 -0.058387822440418388 -0.36975607908058028 0 -0.08170780991661282 -0.38109255286014232 0 -0.058387822440418388 -0.36975607908058028 0 -0.081174899406055781 -0.38294902548401538 0 -0.08170780991661282 -0.38109255286014232 0 -0.058563253679506787 -0.38068245751723601 0 -0.081174899406055781 -0.38294902548401538 0 -0.074281153156084773 -0.38791836881244668 0 -0.058563253679506787 -0.38068245751723601 0 -0.081174899406055781 -0.38294902548401538 0 -0.058387822440418388 -0.36975607908058028 0 -0.058563253679506787 -0.38068245751723601 0 -0.081174899406055781 -0.38294902548401538 0 -0.081174899406055781 -0.38294902548401538 0 -0.074281153156084773 -0.38791836881244668 0 -0.079097438192195432 -0.39013559964190198 0 -0.074281153156084773 -0.38791836881244668 0 -0.079097438192195432 -0.39013559964190198 0 -0.074281153156084773 -0.38791836881244668 0 -0.074673198083630793 -0.40544040024196493 0 -0.052509649903146327 -0.40794203844841681 0 -0.074281153156084773 -0.38791836881244668 0 -0.052509649903146327 -0.40794203844841681 0 -0.074281153156084773 -0.38791836881244668 0 -0.074673198083630793 -0.40544040024196493 0 -0.082560309743270749 -0.39172977139542609 0 -0.074673198083630793 -0.40544040024196493 0 -0.076542312027108539 -0.406336853914531 0 -0.079097438192195432 -0.39013559964190198 0 -0.074673198083630793 -0.40544040024196493 0 -0.052509649903146327 -0.40794203844841681 0 -0.074673198083630793 -0.40544040024196493 0 -0.070248957975066639 -0.42074520084202788 0 -0.076542312027108539 -0.406336853914531 0 -0.070248957975066639 -0.42074520084202788 0 -0.074673198083630793 -0.40544040024196493 0 -0.070248957975066639 -0.42074520084202788 0 -0.074673198083630793 -0.40544040024196493 0 -0.076542312027108539 -0.406336853914531 0 -0.070248957975066639 -0.42074520084202788 0 -0.070248957975066639 -0.42074520084202788 0 -0.077246521605040669 -0.42579562012280953 0 -0.078194253298280558 -0.41865647959270891 0 -0.076542312027108539 -0.406336853914531 0 -0.070248957975066639 -0.42074520084202788 0 -0.078194253298280558 -0.41865647959270891 0 -0.059775586818595829 -0.41787661413097049 0 -0.070248957975066639 -0.42074520084202788 0 -0.069408814394604765 -0.42365151461769918 0 -0.060002998013559863 -0.44648162232419802 0 -0.069408814394604765 -0.42365151461769918 0 -0.070248957975066639 -0.42074520084202788 0 -0.069408814394604765 -0.42365151461769918 0 -0.077098496045509793 -0.43873696019506903 0 -0.069408814394604765 -0.42365151461769918 0 -0.077246521605040669 -0.42579562012280953 0 -0.070248957975066639 -0.42074520084202788 0 -0.069408814394604765 -0.42365151461769918 0 -0.077246521605040669 -0.42579562012280953 0 -0.070248957975066639 -0.42074520084202788 0 -0.077246521605040669 -0.42579562012280953 0 -0.077246521605040669 -0.42579562012280953 0 -0.082943237868067593 -0.4239856173255338 0 -0.078194253298280558 -0.41865647959270891 0 -0.077098496045509793 -0.43873696019506903 0 -0.082943237868067593 -0.4239856173255338 0 -0.092016620863508841 -0.4218345739943074 0 -0.077098496045509793 -0.43873696019506903 0 -0.089545628933694749 -0.43673796215895883 0 -0.092016620863508841 -0.4218345739943074 0 -0.077098496045509793 -0.43873696019506903 0 -0.092016620863508841 -0.4218345739943074 0 -0.077098496045509793 -0.43873696019506903 0 -0.077246521605040669 -0.42579562012280953 0 -0.082943237868067593 -0.4239856173255338 0 -0.100590797535087 -0.41759168573278821 0 -0.092016620863508841 -0.4218345739943074 0 -0.088610052547492879 -0.41006814396079783 0 -0.082943237868067593 -0.4239856173255338 0 -0.092016620863508841 -0.4218345739943074 0 -0.083714880680240453 -0.41622037016703428 0 -0.092016620863508841 -0.4218345739943074 0 -0.088610052547492879 -0.41006814396079783 0 -0.083714880680240453 -0.41622037016703428 0 -0.076542312027108539 -0.406336853914531 0 -0.088610052547492879 -0.41006814396079783 0 -0.083714880680240453 -0.41622037016703428 0 -0.076542312027108539 -0.406336853914531 0 -0.078194253298280558 -0.41865647959270891 0 -0.083714880680240453 -0.41622037016703428 0 -0.082943237868067593 -0.4239856173255338 0 -0.078194253298280558 -0.41865647959270891 0 -0.083714880680240453 -0.41622037016703428 0 -0.081808777729522386 -0.083143660930833002 0 -0.073985000225153141 -0.099795971436559522 0 -0.085935801107842547 -0.09579043756499836 0 -0.081808777729522386 -0.083143660930833002 0 -0.085935801107842547 -0.09579043756499836 0 -0.094306078709463503 -0.087148618235937392 0 -0.081808777729522386 -0.083143660930833002 0 -0.094306078709463503 -0.087148618235937392 0 -0.095869533599057435 -0.074719864200214883 0 -0.081808777729522386 -0.083143660930833002 0 -0.087640100333796281 -0.066301869750421821 0 -0.076351800502585221 -0.068318825045574613 0 -0.081808777729522386 -0.083143660930833002 0 -0.087640100333796281 -0.066301869750421821 0 -0.095869533599057435 -0.074719864200214883 0 -0.087640100333796281 -0.066301869750421821 0 -0.095869533599057435 -0.074719864200214883 0 -0.097041901727127691 -0.062312633498474219 0 -0.087640100333796281 -0.066301869750421821 0 -0.076351800502585221 -0.068318825045574613 0 -0.079773765115028039 -0.057914828426178573 0 -0.081808777729522386 -0.083143660930833002 0 -0.076351800502585221 -0.068318825045574613 0 -0.068001603171865072 -0.074911341683796137 0 -0.068001603171865072 -0.074911341683796137 0 -0.065822825648978775 -0.060485584973140792 0 -0.05753372126900759 -0.073422836261521005 0 -0.076351800502585221 -0.068318825045574613 0 -0.068001603171865072 -0.074911341683796137 0 -0.065822825648978775 -0.060485584973140792 0 -0.068001603171865072 -0.074911341683796137 0 -0.066670257350634976 -0.085780572793309681 0 -0.05753372126900759 -0.073422836261521005 0 -0.081808777729522386 -0.083143660930833002 0 -0.066670257350634976 -0.085780572793309681 0 -0.073985000225153141 -0.099795971436559522 0 -0.081808777729522386 -0.083143660930833002 0 -0.068001603171865072 -0.074911341683796137 0 -0.066670257350634976 -0.085780572793309681 0 -0.066670257350634976 -0.085780572793309681 0 -0.073985000225153141 -0.099795971436559522 0 -0.05982498813170789 -0.10249801488187529 0 -0.073985000225153141 -0.099795971436559522 0 -0.065415314349395459 -0.11473522154729129 0 -0.05982498813170789 -0.10249801488187529 0 -0.073985000225153141 -0.099795971436559522 0 -0.065415314349395459 -0.11473522154729129 0 -0.07727601190464152 -0.1134926659633375 0 -0.065415314349395459 -0.11473522154729129 0 -0.060446148579459319 -0.1303024678998376 0 -0.071674103496310607 -0.1250344835198243 0 -0.07727601190464152 -0.1134926659633375 0 -0.082994471061899833 -0.1234246307735777 0 -0.071674103496310607 -0.1250344835198243 0 -0.065415314349395459 -0.11473522154729129 0 -0.07727601190464152 -0.1134926659633375 0 -0.071674103496310607 -0.1250344835198243 0 -0.07727601190464152 -0.1134926659633375 0 -0.082994471061899833 -0.1234246307735777 0 -0.08680817640523622 -0.1078855820033275 0 -0.082994471061899833 -0.1234246307735777 0 -0.08680817640523622 -0.1078855820033275 0 -0.095277368860953449 -0.1178446661751102 0 -0.082994471061899833 -0.1234246307735777 0 -0.095277368860953449 -0.1178446661751102 0 -0.095971306836852913 -0.13086642389395989 0 -0.085935801107842547 -0.09579043756499836 0 -0.08680817640523622 -0.1078855820033275 0 -0.1020424425883536 -0.1015565670732166 0 -0.073985000225153141 -0.099795971436559522 0 -0.085935801107842547 -0.09579043756499836 0 -0.08680817640523622 -0.1078855820033275 0 -0.073985000225153141 -0.099795971436559522 0 -0.07727601190464152 -0.1134926659633375 0 -0.08680817640523622 -0.1078855820033275 0 -0.085935801107842547 -0.09579043756499836 0 -0.1020424425883536 -0.1015565670732166 0 -0.094306078709463503 -0.087148618235937392 0 -0.08680817640523622 -0.1078855820033275 0 -0.1020424425883536 -0.1015565670732166 0 -0.095277368860953449 -0.1178446661751102 0 -0.1020424425883536 -0.1015565670732166 0 -0.095277368860953449 -0.1178446661751102 0 -0.1085913382140784 -0.11903379143832921 0 -0.095277368860953449 -0.1178446661751102 0 -0.1085913382140784 -0.11903379143832921 0 -0.095971306836852913 -0.13086642389395989 0 -0.1085913382140784 -0.11903379143832921 0 -0.11893842975153809 -0.10446969177473921 0 -0.12736410167423581 -0.1213878944680517 0 -0.1020424425883536 -0.1015565670732166 0 -0.11893842975153809 -0.10446969177473921 0 -0.1189291253072135 -0.086669643832799348 0 -0.1020424425883536 -0.1015565670732166 0 -0.1085913382140784 -0.11903379143832921 0 -0.11893842975153809 -0.10446969177473921 0 -0.1189291253072135 -0.086669643832799348 0 -0.1056068239719813 -0.08097964138995771 0 -0.1139735316209595 -0.069866863539540053 0 -0.1020424425883536 -0.1015565670732166 0 -0.1189291253072135 -0.086669643832799348 0 -0.1056068239719813 -0.08097964138995771 0 -0.1020424425883536 -0.1015565670732166 0 -0.1056068239719813 -0.08097964138995771 0 -0.094306078709463503 -0.087148618235937392 0 -0.1056068239719813 -0.08097964138995771 0 -0.094306078709463503 -0.087148618235937392 0 -0.095869533599057435 -0.074719864200214883 0 -0.095869533599057435 -0.074719864200214883 0 -0.1039382096783972 -0.069282752438140638 0 -0.097041901727127691 -0.062312633498474219 0 -0.1056068239719813 -0.08097964138995771 0 -0.1039382096783972 -0.069282752438140638 0 -0.1139735316209595 -0.069866863539540053 0 -0.1056068239719813 -0.08097964138995771 0 -0.095869533599057435 -0.074719864200214883 0 -0.1039382096783972 -0.069282752438140638 0 -0.1039382096783972 -0.069282752438140638 0 -0.097041901727127691 -0.062312633498474219 0 -0.1071992574728602 -0.058534759562516372 0 -0.1039382096783972 -0.069282752438140638 0 -0.1139735316209595 -0.069866863539540053 0 -0.1071992574728602 -0.058534759562516372 0 -0.1189291253072135 -0.086669643832799348 0 -0.1139735316209595 -0.069866863539540053 0 -0.12930964035960699 -0.069761515268982097 0 -0.1139735316209595 -0.069866863539540053 0 -0.1161384697585349 -0.056806249932135858 0 -0.12930964035960699 -0.069761515268982097 0 -0.1161384697585349 -0.056806249932135858 0 -0.1208541397454049 -0.045822468476665427 0 -0.12930964035960699 -0.069761515268982097 0 -0.1248214427799455 -0.0491876577223027 0 -0.1208541397454049 -0.045822468476665427 0 -0.12930964035960699 -0.069761515268982097 0 -0.1161384697585349 -0.056806249932135858 0 -0.10991932193075039 -0.048940588969216672 0 -0.1071992574728602 -0.058534759562516372 0 -0.1139735316209595 -0.069866863539540053 0 -0.1161384697585349 -0.056806249932135858 0 -0.1071992574728602 -0.058534759562516372 0 -0.1161384697585349 -0.056806249932135858 0 -0.10991932193075039 -0.048940588969216672 0 -0.1149357203506014 -0.047989794102068162 0 -0.1161384697585349 -0.056806249932135858 0 -0.1149357203506014 -0.047989794102068162 0 -0.1208541397454049 -0.045822468476665427 0 -0.1248214427799455 -0.0491876577223027 0 -0.1208541397454049 -0.045822468476665427 0 -0.1246368416492639 -0.024787675353444869 0 -0.1128309499677153 -0.040389869030254703 0 -0.10841128816168021 -0.033720593740292633 0 -0.11239863913120279 -0.021883421684348751 0 -0.1208541397454049 -0.045822468476665427 0 -0.11239863913120279 -0.021883421684348751 0 -0.1208541397454049 -0.045822468476665427 0 -0.1128309499677153 -0.040389869030254703 0 -0.11239863913120279 -0.021883421684348751 0 -0.1248214427799455 -0.0491876577223027 0 -0.1246368416492639 -0.024787675353444869 0 -0.1149357203506014 -0.047989794102068162 0 -0.1208541397454049 -0.045822468476665427 0 -0.1128309499677153 -0.040389869030254703 0 -0.10991932193075039 -0.048940588969216672 0 -0.1149357203506014 -0.047989794102068162 0 -0.1128309499677153 -0.040389869030254703 0 -0.10991932193075039 -0.048940588969216672 0 -0.1128309499677153 -0.040389869030254703 0 -0.1049963107845597 -0.040407454994133042 0 -0.10991932193075039 -0.048940588969216672 0 -0.1049963107845597 -0.040407454994133042 0 -0.1002598709818909 -0.049694841596422852 0 -0.1049963107845597 -0.040407454994133042 0 -0.10841128816168021 -0.033720593740292633 0 -0.1012581714839781 -0.029848849592015819 0 -0.1128309499677153 -0.040389869030254703 0 -0.1049963107845597 -0.040407454994133042 0 -0.10841128816168021 -0.033720593740292633 0 -0.097298262181343159 -0.039849987036595598 0 -0.1012581714839781 -0.029848849592015819 0 -0.091929659262116575 -0.033133953101480262 0 -0.1049963107845597 -0.040407454994133042 0 -0.097298262181343159 -0.039849987036595598 0 -0.1012581714839781 -0.029848849592015819 0 -0.1049963107845597 -0.040407454994133042 0 -0.097298262181343159 -0.039849987036595598 0 -0.1002598709818909 -0.049694841596422852 0 -0.097298262181343159 -0.039849987036595598 0 -0.1002598709818909 -0.049694841596422852 0 -0.087030839425688053 -0.044306376809862227 0 -0.1002598709818909 -0.049694841596422852 0 -0.097041901727127691 -0.062312633498474219 0 -0.1071992574728602 -0.058534759562516372 0 -0.1002598709818909 -0.049694841596422852 0 -0.097041901727127691 -0.062312633498474219 0 -0.090164156554830718 -0.055563028782557922 0 -0.10991932193075039 -0.048940588969216672 0 -0.1002598709818909 -0.049694841596422852 0 -0.1071992574728602 -0.058534759562516372 0 -0.1244522405185825 -0.00038769298458709092 0 -0.11239863913120279 -0.021883421684348751 0 -0.10394313851700079 0.0020556251079679459 0 -0.1244522405185825 -0.00038769298458709092 0 -0.1246368416492639 -0.024787675353444869 0 -0.1244522405185825 -0.00038769298458709092 0 -0.11239863913120279 -0.021883421684348751 0 -0.1246368416492639 -0.024787675353444869 0 -0.1208541397454049 -0.045822468476665427 0 -0.11239863913120279 -0.021883421684348751 0 -0.1246368416492639 -0.024787675353444869 0 -0.10841128816168021 -0.033720593740292633 0 -0.11239863913120279 -0.021883421684348751 0 -0.1012581714839781 -0.029848849592015819 0 -0.1012581714839781 -0.029848849592015819 0 -0.090677970328949406 -0.022917020247476879 0 -0.091929659262116575 -0.033133953101480262 0 -0.1012581714839781 -0.029848849592015819 0 -0.1001126671493681 -0.016491083843961009 0 -0.090677970328949406 -0.022917020247476879 0 -0.1001126671493681 -0.016491083843961009 0 -0.092285416285709382 -0.0098617528039315269 0 -0.090677970328949406 -0.022917020247476879 0 -0.11239863913120279 -0.021883421684348751 0 -0.1012581714839781 -0.029848849592015819 0 -0.1001126671493681 -0.016491083843961009 0 -0.1001126671493681 -0.016491083843961009 0 -0.092285416285709382 -0.0098617528039315269 0 -0.10394313851700079 0.0020556251079679459 0 -0.11239863913120279 -0.021883421684348751 0 -0.1001126671493681 -0.016491083843961009 0 -0.10394313851700079 0.0020556251079679459 0 -0.092285416285709382 -0.0098617528039315269 0 -0.10394313851700079 0.0020556251079679459 0 -0.085958893623968774 0.001514634656162053 0 -0.11239863913120279 -0.021883421684348751 0 -0.10394313851700079 0.0020556251079679459 0 -0.092285416285709382 -0.0098617528039315269 0 -0.077949881484559239 -0.01307625006729682 0 -0.085958893623968774 0.001514634656162053 0 -0.092285416285709382 -0.0098617528039315269 0 -0.090677970328949406 -0.022917020247476879 0 -0.077949881484559239 -0.01307625006729682 0 -0.090677970328949406 -0.022917020247476879 0 -0.073841780976804383 -0.025706854857452392 0 -0.077949881484559239 -0.01307625006729682 0 -0.090677970328949406 -0.022917020247476879 0 -0.073841780976804383 -0.025706854857452392 0 -0.082102255714859004 -0.034759692131612618 0 -0.090677970328949406 -0.022917020247476879 0 -0.091929659262116575 -0.033133953101480262 0 -0.082102255714859004 -0.034759692131612618 0 -0.073841780976804383 -0.025706854857452392 0 -0.077949881484559239 -0.01307625006729682 0 -0.060674527584339763 -0.015412449877807689 0 -0.073841780976804383 -0.025706854857452392 0 -0.060674527584339763 -0.015412449877807689 0 -0.060703590497751453 -0.03101491529774986 0 -0.077949881484559239 -0.01307625006729682 0 -0.085958893623968774 0.001514634656162053 0 -0.065648076432031049 0.00090955339710942099 0 -0.077949881484559239 -0.01307625006729682 0 -0.060674527584339763 -0.015412449877807689 0 -0.065648076432031049 0.00090955339710942099 0 -0.079773765115028039 -0.057914828426178573 0 -0.087030839425688053 -0.044306376809862227 0 -0.074827122987446398 -0.047817820925290022 0 -0.079773765115028039 -0.057914828426178573 0 -0.090164156554830718 -0.055563028782557922 0 -0.087030839425688053 -0.044306376809862227 0 -0.087640100333796281 -0.066301869750421821 0 -0.079773765115028039 -0.057914828426178573 0 -0.090164156554830718 -0.055563028782557922 0 -0.087640100333796281 -0.066301869750421821 0 -0.097041901727127691 -0.062312633498474219 0 -0.090164156554830718 -0.055563028782557922 0 -0.1002598709818909 -0.049694841596422852 0 -0.090164156554830718 -0.055563028782557922 0 -0.087030839425688053 -0.044306376809862227 0 -0.097298262181343159 -0.039849987036595598 0 -0.087030839425688053 -0.044306376809862227 0 -0.091929659262116575 -0.033133953101480262 0 -0.087030839425688053 -0.044306376809862227 0 -0.091929659262116575 -0.033133953101480262 0 -0.082102255714859004 -0.034759692131612618 0 -0.087030839425688053 -0.044306376809862227 0 -0.082102255714859004 -0.034759692131612618 0 -0.074827122987446398 -0.047817820925290022 0 -0.082102255714859004 -0.034759692131612618 0 -0.070942460250367517 -0.03706080152277047 0 -0.074827122987446398 -0.047817820925290022 0 -0.073841780976804383 -0.025706854857452392 0 -0.082102255714859004 -0.034759692131612618 0 -0.070942460250367517 -0.03706080152277047 0 -0.073841780976804383 -0.025706854857452392 0 -0.070942460250367517 -0.03706080152277047 0 -0.060703590497751453 -0.03101491529774986 0 -0.070942460250367517 -0.03706080152277047 0 -0.061850736208416378 -0.044087883634974623 0 -0.060703590497751453 -0.03101491529774986 0 -0.070942460250367517 -0.03706080152277047 0 -0.074827122987446398 -0.047817820925290022 0 -0.061850736208416378 -0.044087883634974623 0 -0.074827122987446398 -0.047817820925290022 0 -0.065822825648978775 -0.060485584973140792 0 -0.061850736208416378 -0.044087883634974623 0 -0.079773765115028039 -0.057914828426178573 0 -0.074827122987446398 -0.047817820925290022 0 -0.065822825648978775 -0.060485584973140792 0 -0.076351800502585221 -0.068318825045574613 0 -0.079773765115028039 -0.057914828426178573 0 -0.065822825648978775 -0.060485584973140792 0 -0.065822825648978775 -0.060485584973140792 0 -0.051906109188989122 -0.051634581827710108 0 -0.055146373663134192 -0.063188587977351315 0 -0.065822825648978775 -0.060485584973140792 0 -0.051906109188989122 -0.051634581827710108 0 -0.061850736208416378 -0.044087883634974623 0 -0.051906109188989122 -0.051634581827710108 0 -0.044968642856814678 -0.064628327886466996 0 -0.055146373663134192 -0.063188587977351315 0 -0.061850736208416378 -0.044087883634974623 0 -0.048286593140243993 -0.039377229684959138 0 -0.060703590497751453 -0.03101491529774986 0 -0.051906109188989122 -0.051634581827710108 0 -0.061850736208416378 -0.044087883634974623 0 -0.048286593140243993 -0.039377229684959138 0 -0.048286593140243993 -0.039377229684959138 0 -0.039642814346724391 -0.052475069278980747 0 -0.030584103036016622 -0.035608219704199993 0 -0.039642814346724391 -0.052475069278980747 0 -0.024435088609687641 -0.049746151716912712 0 -0.030584103036016622 -0.035608219704199993 0 -0.048286593140243993 -0.039377229684959138 0 -0.044331283213942488 -0.020119990811347448 0 -0.030584103036016622 -0.035608219704199993 0 -0.039642814346724391 -0.052475069278980747 0 -0.03034189778213453 -0.060014988360291517 0 -0.024435088609687641 -0.049746151716912712 0 -0.039642814346724391 -0.052475069278980747 0 -0.03034189778213453 -0.060014988360291517 0 -0.044968642856814678 -0.064628327886466996 0 -0.051906109188989122 -0.051634581827710108 0 -0.039642814346724391 -0.052475069278980747 0 -0.044968642856814678 -0.064628327886466996 0 -0.051906109188989122 -0.051634581827710108 0 -0.048286593140243993 -0.039377229684959138 0 -0.039642814346724391 -0.052475069278980747 0 -0.060674527584339763 -0.015412449877807689 0 -0.044331283213942488 -0.020119990811347448 0 -0.045118160941850949 -0.00049033847668307538 0 -0.060674527584339763 -0.015412449877807689 0 -0.045118160941850949 -0.00049033847668307538 0 -0.065648076432031049 0.00090955339710942099 0 -0.048286593140243993 -0.039377229684959138 0 -0.060703590497751453 -0.03101491529774986 0 -0.044331283213942488 -0.020119990811347448 0 -0.060674527584339763 -0.015412449877807689 0 -0.060703590497751453 -0.03101491529774986 0 -0.044331283213942488 -0.020119990811347448 0 -0.044331283213942488 -0.020119990811347448 0 -0.027025641752002061 -0.0079319500279313396 0 -0.030584103036016622 -0.035608219704199993 0 -0.044331283213942488 -0.020119990811347448 0 -0.045118160941850949 -0.00049033847668307538 0 -0.027025641752002061 -0.0079319500279313396 0 -0.027025641752002061 -0.0079319500279313396 0 -0.0118242871531395 -0.020545428430059291 0 -0.0091716063734174208 -0.003332990253060792 0 -0.027025641752002061 -0.0079319500279313396 0 -0.0091716063734174208 -0.003332990253060792 0 -0.01566814095190756 0.010235570601176981 0 -0.027025641752002061 -0.0079319500279313396 0 -0.0118242871531395 -0.020545428430059291 0 -0.030584103036016622 -0.035608219704199993 0 -0.0118242871531395 -0.020545428430059291 0 -0.030584103036016622 -0.035608219704199993 0 -0.0118242871531395 -0.020545428430059291 0 0.006935528729737548 -0.0054826371559186567 0 0.0027408304473846411 -0.028176541972939319 0 -0.0118242871531395 -0.020545428430059291 0 -0.01026660782967455 -0.041229232136501717 0 0.0027408304473846411 -0.028176541972939319 0 -0.0118242871531395 -0.020545428430059291 0 -0.0091716063734174208 -0.003332990253060792 0 0.006935528729737548 -0.0054826371559186567 0 -0.0118242871531395 -0.020545428430059291 0 0.006935528729737548 -0.0054826371559186567 0 -0.024435088609687641 -0.049746151716912712 0 -0.01026660782967455 -0.041229232136501717 0 -0.01499476028908407 -0.06055090283160456 0 -0.03034189778213453 -0.060014988360291517 0 -0.01499476028908407 -0.06055090283160456 0 -0.03034189778213453 -0.060014988360291517 0 -0.024435088609687641 -0.049746151716912712 0 -0.01499476028908407 -0.06055090283160456 0 -0.024435088609687641 -0.049746151716912712 0 -0.030584103036016622 -0.035608219704199993 0 -0.01026660782967455 -0.041229232136501717 0 -0.0118242871531395 -0.020545428430059291 0 -0.030584103036016622 -0.035608219704199993 0 -0.01026660782967455 -0.041229232136501717 0 -0.01026660782967455 -0.041229232136501717 0 0.0096258971738255473 -0.043108802377643002 0 0.00035237720396625368 -0.061086817302918282 0 -0.01026660782967455 -0.041229232136501717 0 -0.01499476028908407 -0.06055090283160456 0 0.00035237720396625368 -0.061086817302918282 0 -0.01499476028908407 -0.06055090283160456 0 0.00035237720396625368 -0.061086817302918282 0 -0.011408129540087309 -0.083886203777590068 0 0.0065051428120863272 -0.082127796022149757 0 0.00035237720396625368 -0.061086817302918282 0 -0.011408129540087309 -0.083886203777590068 0 0.00035237720396625368 -0.061086817302918282 0 -0.01499476028908407 -0.06055090283160456 0 -0.011408129540087309 -0.083886203777590068 0 0.00035237720396625368 -0.061086817302918282 0 -0.011408129540087309 -0.083886203777590068 0 0.001856719827670471 -0.098182337095309047 0 0.0065051428120863272 -0.082127796022149757 0 -0.011408129540087309 -0.083886203777590068 0 -0.03053113156520738 -0.089911417014305078 0 -0.02316863628414112 -0.10668559025226169 0 -0.011408129540087309 -0.083886203777590068 0 -0.03053113156520738 -0.089911417014305078 0 -0.026049830403481512 -0.075342802050597457 0 -0.01499476028908407 -0.06055090283160456 0 -0.011408129540087309 -0.083886203777590068 0 -0.026049830403481512 -0.075342802050597457 0 -0.03034189778213453 -0.060014988360291517 0 -0.01499476028908407 -0.06055090283160456 0 -0.026049830403481512 -0.075342802050597457 0 -0.03034189778213453 -0.060014988360291517 0 -0.026049830403481512 -0.075342802050597457 0 -0.041349905228919973 -0.078428718904655664 0 -0.03034189778213453 -0.060014988360291517 0 -0.044968642856814678 -0.064628327886466996 0 -0.041349905228919973 -0.078428718904655664 0 -0.03053113156520738 -0.089911417014305078 0 -0.026049830403481512 -0.075342802050597457 0 -0.041349905228919973 -0.078428718904655664 0 -0.03053113156520738 -0.089911417014305078 0 -0.041349905228919973 -0.078428718904655664 0 -0.047432501145458397 -0.097370211357339573 0 -0.041349905228919973 -0.078428718904655664 0 -0.053879666709155317 -0.08598560359304859 0 -0.05753372126900759 -0.073422836261521005 0 -0.041349905228919973 -0.078428718904655664 0 -0.053879666709155317 -0.08598560359304859 0 -0.047432501145458397 -0.097370211357339573 0 -0.066670257350634976 -0.085780572793309681 0 -0.053879666709155317 -0.08598560359304859 0 -0.05982498813170789 -0.10249801488187529 0 -0.066670257350634976 -0.085780572793309681 0 -0.053879666709155317 -0.08598560359304859 0 -0.05753372126900759 -0.073422836261521005 0 -0.044968642856814678 -0.064628327886466996 0 -0.041349905228919973 -0.078428718904655664 0 -0.05753372126900759 -0.073422836261521005 0 -0.065822825648978775 -0.060485584973140792 0 -0.05753372126900759 -0.073422836261521005 0 -0.055146373663134192 -0.063188587977351315 0 -0.044968642856814678 -0.064628327886466996 0 -0.05753372126900759 -0.073422836261521005 0 -0.055146373663134192 -0.063188587977351315 0 -0.065415314349395459 -0.11473522154729129 0 -0.048239208743362072 -0.1165718691901324 0 -0.05982498813170789 -0.10249801488187529 0 -0.065415314349395459 -0.11473522154729129 0 -0.048239208743362072 -0.1165718691901324 0 -0.060446148579459319 -0.1303024678998376 0 -0.048239208743362072 -0.1165718691901324 0 -0.05982498813170789 -0.10249801488187529 0 -0.047432501145458397 -0.097370211357339573 0 -0.053879666709155317 -0.08598560359304859 0 -0.05982498813170789 -0.10249801488187529 0 -0.047432501145458397 -0.097370211357339573 0 -0.048239208743362072 -0.1165718691901324 0 -0.047432501145458397 -0.097370211357339573 0 -0.02316863628414112 -0.10668559025226169 0 -0.03053113156520738 -0.089911417014305078 0 -0.047432501145458397 -0.097370211357339573 0 -0.02316863628414112 -0.10668559025226169 0 -0.048239208743362072 -0.1165718691901324 0 -0.02316863628414112 -0.10668559025226169 0 -0.029948833034415319 -0.13246817914486481 0 -0.02316863628414112 -0.10668559025226169 0 -0.01250087523651249 -0.12826546419306251 0 -0.029948833034415319 -0.13246817914486481 0 -0.011408129540087309 -0.083886203777590068 0 -0.02316863628414112 -0.10668559025226169 0 -0.02316863628414112 -0.10668559025226169 0 0.0015243557028834459 -0.11711868301268021 0 0.001856719827670471 -0.098182337095309047 0 -0.011408129540087309 -0.083886203777590068 0 -0.02316863628414112 -0.10668559025226169 0 0.001856719827670471 -0.098182337095309047 0 -0.02316863628414112 -0.10668559025226169 0 -0.01250087523651249 -0.12826546419306251 0 0.0015243557028834459 -0.11711868301268021 0 -0.01250087523651249 -0.12826546419306251 0 -0.013317386200938249 -0.14799664519887931 0 0.0088678229424013627 -0.13941235935176011 0 -0.01250087523651249 -0.12826546419306251 0 0.0088678229424013627 -0.13941235935176011 0 0.0015243557028834459 -0.11711868301268021 0 -0.01250087523651249 -0.12826546419306251 0 -0.029948833034415319 -0.13246817914486481 0 -0.013317386200938249 -0.14799664519887931 0 -0.013317386200938249 -0.14799664519887931 0 -0.035502595344277812 -0.15658093104599841 0 -0.029948833034415319 -0.13246817914486481 0 -0.013317386200938249 -0.14799664519887931 0 -0.035502595344277812 -0.15658093104599841 0 -0.013317386200938249 -0.14799664519887931 0 0.0088678229424013627 -0.13941235935176011 0 -0.013317386200938249 -0.14799664519887931 0 0.0027310736070901482 -0.15493719994590471 0 0.0088678229424013627 -0.13941235935176011 0 -0.013317386200938249 -0.14799664519887931 0 -0.0013673002328405961 -0.1767093328090546 0 0.0027310736070901482 -0.15493719994590471 0 -0.013317386200938249 -0.14799664519887931 0 -0.0013673002328405961 -0.1767093328090546 0 -0.029934926785222919 -0.1776443960910804 0 -0.0013673002328405961 -0.1767093328090546 0 -0.0217915143334447 -0.19785215020996011 0 -0.0013673002328405961 -0.1767093328090546 0 -0.029934926785222919 -0.1776443960910804 0 -0.0217915143334447 -0.19785215020996011 0 -0.013317386200938249 -0.14799664519887931 0 -0.029934926785222919 -0.1776443960910804 0 -0.035502595344277812 -0.15658093104599841 0 -0.035502595344277812 -0.15658093104599841 0 -0.057687804487617317 -0.16516521689311761 0 -0.029934926785222919 -0.1776443960910804 0 -0.035502595344277812 -0.15658093104599841 0 -0.057687804487617317 -0.16516521689311761 0 -0.029934926785222919 -0.1776443960910804 0 -0.048583433801033478 -0.18728911877980611 0 -0.034676635542126917 -0.191298641696723 0 -0.029934926785222919 -0.1776443960910804 0 -0.048583433801033478 -0.18728911877980611 0 -0.057687804487617317 -0.16516521689311761 0 -0.048583433801033478 -0.18728911877980611 0 -0.057687804487617317 -0.16516521689311761 0 -0.063770138428779252 -0.18079669395549949 0 -0.035502595344277812 -0.15658093104599841 0 -0.057687804487617317 -0.16516521689311761 0 -0.06059931965736505 -0.14742373122833671 0 -0.035502595344277812 -0.15658093104599841 0 -0.06059931965736505 -0.14742373122833671 0 -0.046947221071775923 -0.13666943570183401 0 -0.048239208743362072 -0.1165718691901324 0 -0.046947221071775923 -0.13666943570183401 0 -0.060446148579459319 -0.1303024678998376 0 -0.06059931965736505 -0.14742373122833671 0 -0.046947221071775923 -0.13666943570183401 0 -0.060446148579459319 -0.1303024678998376 0 -0.048239208743362072 -0.1165718691901324 0 -0.029948833034415319 -0.13246817914486481 0 -0.046947221071775923 -0.13666943570183401 0 -0.029948833034415319 -0.13246817914486481 0 -0.035502595344277812 -0.15658093104599841 0 -0.046947221071775923 -0.13666943570183401 0 -0.03064478186574425 -0.25326356670072259 0 -0.026067501294639708 -0.24850247980592871 0 -0.033387688564450117 -0.24425465961654741 0 -0.026067501294639708 -0.24850247980592871 0 -0.02456862519526215 -0.24210395604782819 0 -0.033387688564450117 -0.24425465961654741 0 -0.02974340118516787 -0.23585106297766359 0 -0.02456862519526215 -0.24210395604782819 0 -0.02062871475200042 -0.2320366992723622 0 -0.02974340118516787 -0.23585106297766359 0 -0.02456862519526215 -0.24210395604782819 0 -0.033387688564450117 -0.24425465961654741 0 -0.02456862519526215 -0.24210395604782819 0 -0.01660477195623393 -0.2403164687020414 0 -0.02062871475200042 -0.2320366992723622 0 -0.02456862519526215 -0.24210395604782819 0 -0.01660477195623393 -0.2403164687020414 0 -0.01887874476148543 -0.24814250919209771 0 -0.026067501294639708 -0.24850247980592871 0 -0.02456862519526215 -0.24210395604782819 0 -0.01887874476148543 -0.24814250919209771 0 -0.01660477195623393 -0.2403164687020414 0 -0.01887874476148543 -0.24814250919209771 0 -0.0080727856436109482 -0.2481099565327444 0 -0.0080727856436109482 -0.2481099565327444 0 -0.0084819670471955304 -0.2367225590632196 0 0.0055632338660241776 -0.24332209518663511 0 -0.01660477195623393 -0.2403164687020414 0 -0.0084819670471955304 -0.2367225590632196 0 -0.02062871475200042 -0.2320366992723622 0 -0.01660477195623393 -0.2403164687020414 0 -0.0080727856436109482 -0.2481099565327444 0 -0.0084819670471955304 -0.2367225590632196 0 -0.0084819670471955304 -0.2367225590632196 0 -0.0075276580997289226 -0.21896018305478171 0 0.0032521440618358652 -0.23009641691855939 0 -0.0084819670471955304 -0.2367225590632196 0 -0.0075276580997289226 -0.21896018305478171 0 -0.02062871475200042 -0.2320366992723622 0 -0.0075276580997289226 -0.21896018305478171 0 -0.02062871475200042 -0.2320366992723622 0 -0.024832472176938718 -0.21885173135413241 0 -0.02974340118516787 -0.23585106297766359 0 -0.02062871475200042 -0.2320366992723622 0 -0.031998745265470661 -0.22641465662269231 0 -0.02062871475200042 -0.2320366992723622 0 -0.024832472176938718 -0.21885173135413241 0 -0.031998745265470661 -0.22641465662269231 0 -0.0075276580997289226 -0.21896018305478171 0 -0.024832472176938718 -0.21885173135413241 0 -0.0217915143334447 -0.19785215020996011 0 -0.024832472176938718 -0.21885173135413241 0 -0.0217915143334447 -0.19785215020996011 0 -0.042215728434048867 -0.21899496761086559 0 -0.0075276580997289226 -0.21896018305478171 0 -0.0217915143334447 -0.19785215020996011 0 0.003555539334036632 -0.19934620758084881 0 -0.0013673002328405961 -0.1767093328090546 0 -0.0217915143334447 -0.19785215020996011 0 0.003555539334036632 -0.19934620758084881 0 -0.029934926785222919 -0.1776443960910804 0 -0.0217915143334447 -0.19785215020996011 0 -0.034676635542126917 -0.191298641696723 0 -0.0217915143334447 -0.19785215020996011 0 -0.034676635542126917 -0.191298641696723 0 -0.04224094911505525 -0.20168175555289891 0 -0.048583433801033478 -0.18728911877980611 0 -0.034676635542126917 -0.191298641696723 0 -0.04224094911505525 -0.20168175555289891 0 -0.048583433801033478 -0.18728911877980611 0 -0.058327232484387218 -0.2013044317948425 0 -0.063770138428779252 -0.18079669395549949 0 -0.048583433801033478 -0.18728911877980611 0 -0.04224094911505525 -0.20168175555289891 0 -0.058327232484387218 -0.2013044317948425 0 -0.058327232484387218 -0.2013044317948425 0 -0.04785115009529034 -0.21335122322519601 0 -0.065984069430329237 -0.21594808513783789 0 -0.04224094911505525 -0.20168175555289891 0 -0.058327232484387218 -0.2013044317948425 0 -0.04785115009529034 -0.21335122322519601 0 -0.04785115009529034 -0.21335122322519601 0 -0.065984069430329237 -0.21594808513783789 0 -0.04785115009529034 -0.21335122322519601 0 -0.050089297127046031 -0.22131182591420251 0 -0.065984069430329237 -0.21594808513783789 0 -0.0217915143334447 -0.19785215020996011 0 -0.042215728434048867 -0.21899496761086559 0 -0.0217915143334447 -0.19785215020996011 0 -0.04224094911505525 -0.20168175555289891 0 -0.042215728434048867 -0.21899496761086559 0 -0.04224094911505525 -0.20168175555289891 0 -0.04785115009529034 -0.21335122322519601 0 -0.042215728434048867 -0.21899496761086559 0 -0.04785115009529034 -0.21335122322519601 0 -0.042215728434048867 -0.21899496761086559 0 -0.050089297127046031 -0.22131182591420251 0 -0.024832472176938718 -0.21885173135413241 0 -0.031998745265470661 -0.22641465662269231 0 -0.042215728434048867 -0.21899496761086559 0 -0.031998745265470661 -0.22641465662269231 0 -0.042215728434048867 -0.21899496761086559 0 -0.041320068815934301 -0.22639292378782619 0 -0.031998745265470661 -0.22641465662269231 0 -0.041320068815934301 -0.22639292378782619 0 -0.038133232148655979 -0.23444534332888789 0 -0.02974340118516787 -0.23585106297766359 0 -0.031998745265470661 -0.22641465662269231 0 -0.038133232148655979 -0.23444534332888789 0 -0.041320068815934301 -0.22639292378782619 0 -0.052151212760384272 -0.22988480121754831 0 -0.038133232148655979 -0.23444534332888789 0 -0.042215728434048867 -0.21899496761086559 0 -0.041320068815934301 -0.22639292378782619 0 -0.050089297127046031 -0.22131182591420251 0 -0.041320068815934301 -0.22639292378782619 0 -0.050089297127046031 -0.22131182591420251 0 -0.052151212760384272 -0.22988480121754831 0 -0.0567919256119837 -0.24387644547435741 0 -0.065984069430329237 -0.21594808513783789 0 -0.050089297127046031 -0.22131182591420251 0 -0.052151212760384272 -0.22988480121754831 0 -0.065984069430329237 -0.21594808513783789 0 -0.052151212760384272 -0.22988480121754831 0 -0.0567919256119837 -0.24387644547435741 0 -0.065984069430329237 -0.21594808513783789 0 -0.052151212760384272 -0.22988480121754831 0 -0.0567919256119837 -0.24387644547435741 0 -0.045207486351244337 -0.24272005325013779 0 -0.046517308340487992 -0.25474718453952289 0 -0.0567919256119837 -0.24387644547435741 0 -0.045207486351244337 -0.24272005325013779 0 -0.038581934025118947 -0.25114857380685968 0 -0.046517308340487992 -0.25474718453952289 0 -0.045207486351244337 -0.24272005325013779 0 -0.052151212760384272 -0.22988480121754831 0 -0.045207486351244337 -0.24272005325013779 0 -0.038133232148655979 -0.23444534332888789 0 -0.02974340118516787 -0.23585106297766359 0 -0.038133232148655979 -0.23444534332888789 0 -0.033387688564450117 -0.24425465961654741 0 -0.045207486351244337 -0.24272005325013779 0 -0.038133232148655979 -0.23444534332888789 0 -0.033387688564450117 -0.24425465961654741 0 -0.038581934025118947 -0.25114857380685968 0 -0.03064478186574425 -0.25326356670072259 0 -0.033387688564450117 -0.24425465961654741 0 -0.038581934025118947 -0.25114857380685968 0 -0.045207486351244337 -0.24272005325013779 0 -0.033387688564450117 -0.24425465961654741 0 -0.076282262678724011 -0.24169347649274159 0 -0.094544528280961701 -0.23130979592197831 0 -0.1005321994236209 -0.2431127607729493 0 -0.090174700483665673 -0.26498018187443112 0 -0.076282262678724011 -0.24169347649274159 0 -0.1005321994236209 -0.2431127607729493 0 -0.063484538676239377 -0.26413124226689111 0 -0.0567919256119837 -0.24387644547435741 0 -0.076282262678724011 -0.24169347649274159 0 -0.0567919256119837 -0.24387644547435741 0 -0.076282262678724011 -0.24169347649274159 0 -0.076216545617433393 -0.2267874217425101 0 -0.0567919256119837 -0.24387644547435741 0 -0.076216545617433393 -0.2267874217425101 0 -0.065984069430329237 -0.21594808513783789 0 -0.076216545617433393 -0.2267874217425101 0 -0.089079986681209755 -0.21925571071859279 0 -0.065984069430329237 -0.21594808513783789 0 -0.076282262678724011 -0.24169347649274159 0 -0.076216545617433393 -0.2267874217425101 0 -0.089079986681209755 -0.21925571071859279 0 -0.076282262678724011 -0.24169347649274159 0 -0.089079986681209755 -0.21925571071859279 0 -0.076282262678724011 -0.24169347649274159 0 -0.089079986681209755 -0.21925571071859279 0 -0.094544528280961701 -0.23130979592197831 0 -0.089079986681209755 -0.21925571071859279 0 -0.087982693832912948 -0.20610030108417279 0 -0.065984069430329237 -0.21594808513783789 0 -0.089079986681209755 -0.21925571071859279 0 -0.091681034097487346 -0.21469539259619891 0 -0.087982693832912948 -0.20610030108417279 0 -0.089079986681209755 -0.21925571071859279 0 -0.091681034097487346 -0.21469539259619891 0 -0.089079986681209755 -0.21925571071859279 0 -0.065984069430329237 -0.21594808513783789 0 -0.058327232484387218 -0.2013044317948425 0 -0.065984069430329237 -0.21594808513783789 0 -0.072928541530643487 -0.1948487939390374 0 -0.065984069430329237 -0.21594808513783789 0 -0.072928541530643487 -0.1948487939390374 0 -0.087982693832912948 -0.20610030108417279 0 -0.065984069430329237 -0.21594808513783789 0 -0.072928541530643487 -0.1948487939390374 0 -0.058327232484387218 -0.2013044317948425 0 -0.072928541530643487 -0.1948487939390374 0 -0.063770138428779252 -0.18079669395549949 0 -0.087982693832912948 -0.20610030108417279 0 -0.072928541530643487 -0.1948487939390374 0 -0.088647710124579282 -0.1895137930351245 0 -0.087982693832912948 -0.20610030108417279 0 -0.088647710124579282 -0.1895137930351245 0 -0.098413722631135098 -0.19641739989264009 0 -0.088647710124579282 -0.1895137930351245 0 -0.098413722631135098 -0.19641739989264009 0 -0.1039428787252024 -0.18306303235069041 0 -0.087982693832912948 -0.20610030108417279 0 -0.098413722631135098 -0.19641739989264009 0 -0.1018219586260966 -0.2062222809526808 0 -0.098413722631135098 -0.19641739989264009 0 -0.10967337184688419 -0.19718759204053191 0 -0.1018219586260966 -0.2062222809526808 0 -0.098413722631135098 -0.19641739989264009 0 -0.10967337184688419 -0.19718759204053191 0 -0.1039428787252024 -0.18306303235069041 0 -0.1039428787252024 -0.18306303235069041 0 -0.1280127438194481 -0.19237656196114411 0 -0.10967337184688419 -0.19718759204053191 0 -0.1178174188303993 -0.20556040013348681 0 -0.1280127438194481 -0.19237656196114411 0 -0.10967337184688419 -0.19718759204053191 0 -0.1039428787252024 -0.18306303235069041 0 -0.1280127438194481 -0.19237656196114411 0 -0.10967337184688419 -0.19718759204053191 0 -0.10961342770230489 -0.21003706569406461 0 -0.1178174188303993 -0.20556040013348681 0 -0.1178174188303993 -0.20556040013348681 0 -0.1109550451866443 -0.21888036136960631 0 -0.13246178853905299 -0.20873151589840269 0 -0.1109550451866443 -0.21888036136960631 0 -0.13246178853905299 -0.20873151589840269 0 -0.1109550451866443 -0.21888036136960631 0 -0.12407830270498089 -0.22426790937284519 0 -0.13246178853905299 -0.20873151589840269 0 -0.10961342770230489 -0.21003706569406461 0 -0.1178174188303993 -0.20556040013348681 0 -0.1109550451866443 -0.21888036136960631 0 -0.10961342770230489 -0.21003706569406461 0 -0.103172625086798 -0.22127395363072039 0 -0.1109550451866443 -0.21888036136960631 0 -0.10961342770230489 -0.21003706569406461 0 -0.1018219586260966 -0.2062222809526808 0 -0.103172625086798 -0.22127395363072039 0 -0.10967337184688419 -0.19718759204053191 0 -0.10961342770230489 -0.21003706569406461 0 -0.1018219586260966 -0.2062222809526808 0 -0.091681034097487346 -0.21469539259619891 0 -0.087982693832912948 -0.20610030108417279 0 -0.103172625086798 -0.22127395363072039 0 -0.089079986681209755 -0.21925571071859279 0 -0.091681034097487346 -0.21469539259619891 0 -0.103172625086798 -0.22127395363072039 0 -0.087982693832912948 -0.20610030108417279 0 -0.103172625086798 -0.22127395363072039 0 -0.087982693832912948 -0.20610030108417279 0 -0.1018219586260966 -0.2062222809526808 0 -0.103172625086798 -0.22127395363072039 0 -0.094544528280961701 -0.23130979592197831 0 -0.103172625086798 -0.22127395363072039 0 -0.1005321994236209 -0.2431127607729493 0 -0.089079986681209755 -0.21925571071859279 0 -0.103172625086798 -0.22127395363072039 0 -0.089079986681209755 -0.21925571071859279 0 -0.094544528280961701 -0.23130979592197831 0 -0.103172625086798 -0.22127395363072039 0 -0.103172625086798 -0.22127395363072039 0 -0.1223681628105569 -0.24044891992886891 0 -0.103172625086798 -0.22127395363072039 0 -0.12407830270498089 -0.22426790937284519 0 -0.1238233973506119 -0.23541481827178831 0 -0.103172625086798 -0.22127395363072039 0 -0.1223681628105569 -0.24044891992886891 0 -0.1238233973506119 -0.23541481827178831 0 -0.103172625086798 -0.22127395363072039 0 -0.12407830270498089 -0.22426790937284519 0 -0.103172625086798 -0.22127395363072039 0 -0.1109550451866443 -0.21888036136960631 0 -0.12407830270498089 -0.22426790937284519 0 -0.11757885349586771 -0.25701660664448461 0 -0.1223681628105569 -0.24044891992886891 0 -0.1005321994236209 -0.2431127607729493 0 -0.11757885349586771 -0.25701660664448461 0 -0.1223681628105569 -0.24044891992886891 0 -0.1223681628105569 -0.24044891992886891 0 -0.1238233973506119 -0.23541481827178831 0 -0.103172625086798 -0.22127395363072039 0 -0.1223681628105569 -0.24044891992886891 0 -0.1005321994236209 -0.2431127607729493 0 -0.088441251280713618 -0.1477167476767523 0 -0.085474651021334253 -0.13655174303235951 0 -0.077236065216807342 -0.1460130695171887 0 -0.088441251280713618 -0.1477167476767523 0 -0.077236065216807342 -0.1460130695171887 0 -0.072985053953480025 -0.15595005707556001 0 -0.088441251280713618 -0.1477167476767523 0 -0.093538562727787294 -0.15940564464812701 0 -0.098894310772838973 -0.14952020789867901 0 -0.088441251280713618 -0.1477167476767523 0 -0.085474651021334253 -0.13655174303235951 0 -0.095252038160572317 -0.1406191133899993 0 -0.085474651021334253 -0.13655174303235951 0 -0.095971306836852913 -0.13086642389395989 0 -0.095252038160572317 -0.1406191133899993 0 -0.082994471061899833 -0.1234246307735777 0 -0.085474651021334253 -0.13655174303235951 0 -0.095971306836852913 -0.13086642389395989 0 -0.082994471061899833 -0.1234246307735777 0 -0.085474651021334253 -0.13655174303235951 0 -0.073596501371478315 -0.1364787996572045 0 -0.085474651021334253 -0.13655174303235951 0 -0.073596501371478315 -0.1364787996572045 0 -0.077236065216807342 -0.1460130695171887 0 -0.06059931965736505 -0.14742373122833671 0 -0.060446148579459319 -0.1303024678998376 0 -0.073596501371478315 -0.1364787996572045 0 -0.082994471061899833 -0.1234246307735777 0 -0.073596501371478315 -0.1364787996572045 0 -0.071674103496310607 -0.1250344835198243 0 -0.060446148579459319 -0.1303024678998376 0 -0.073596501371478315 -0.1364787996572045 0 -0.071674103496310607 -0.1250344835198243 0 -0.06059931965736505 -0.14742373122833671 0 -0.073596501371478315 -0.1364787996572045 0 -0.077236065216807342 -0.1460130695171887 0 -0.057687804487617317 -0.16516521689311761 0 -0.06059931965736505 -0.14742373122833671 0 -0.072985053953480025 -0.15595005707556001 0 -0.06059931965736505 -0.14742373122833671 0 -0.077236065216807342 -0.1460130695171887 0 -0.072985053953480025 -0.15595005707556001 0 -0.057687804487617317 -0.16516521689311761 0 -0.079873013630956835 -0.17374950274023659 0 -0.057687804487617317 -0.16516521689311761 0 -0.072985053953480025 -0.15595005707556001 0 -0.079873013630956835 -0.17374950274023659 0 -0.072928541530643487 -0.1948487939390374 0 -0.079873013630956835 -0.17374950274023659 0 -0.057687804487617317 -0.16516521689311761 0 -0.063770138428779252 -0.18079669395549949 0 -0.079873013630956835 -0.17374950274023659 0 -0.072928541530643487 -0.1948487939390374 0 -0.063770138428779252 -0.18079669395549949 0 -0.079873013630956835 -0.17374950274023659 0 -0.072928541530643487 -0.1948487939390374 0 -0.088647710124579282 -0.1895137930351245 0 -0.079873013630956835 -0.17374950274023659 0 -0.079873013630956835 -0.17374950274023659 0 -0.1039428787252024 -0.18306303235069041 0 -0.088647710124579282 -0.1895137930351245 0 -0.079873013630956835 -0.17374950274023659 0 -0.1039428787252024 -0.18306303235069041 0 -0.088441251280713618 -0.1477167476767523 0 -0.079873013630956835 -0.17374950274023659 0 -0.079873013630956835 -0.17374950274023659 0 -0.093538562727787294 -0.15940564464812701 0 -0.098088850166783578 -0.16700629557107341 0 -0.088441251280713618 -0.1477167476767523 0 -0.079873013630956835 -0.17374950274023659 0 -0.093538562727787294 -0.15940564464812701 0 -0.088441251280713618 -0.1477167476767523 0 -0.072985053953480025 -0.15595005707556001 0 -0.079873013630956835 -0.17374950274023659 0 -0.093538562727787294 -0.15940564464812701 0 -0.098088850166783578 -0.16700629557107341 0 -0.1023953877876435 -0.15903546935389351 0 -0.098088850166783578 -0.16700629557107341 0 -0.1039428787252024 -0.18306303235069041 0 -0.1119878388851908 -0.16231915977259129 0 -0.098088850166783578 -0.16700629557107341 0 -0.1023953877876435 -0.15903546935389351 0 -0.1119878388851908 -0.16231915977259129 0 -0.079873013630956835 -0.17374950274023659 0 -0.098088850166783578 -0.16700629557107341 0 -0.1039428787252024 -0.18306303235069041 0 -0.1039428787252024 -0.18306303235069041 0 -0.11859204859796291 -0.17560578940816099 0 -0.1119878388851908 -0.16231915977259129 0 -0.1039428787252024 -0.18306303235069041 0 -0.11859204859796291 -0.17560578940816099 0 -0.1280127438194481 -0.19237656196114411 0 -0.1023953877876435 -0.15903546935389351 0 -0.1119878388851908 -0.16231915977259129 0 -0.1169630623746598 -0.14907522687480429 0 -0.11859204859796291 -0.17560578940816099 0 -0.1119878388851908 -0.16231915977259129 0 -0.12588679133122799 -0.1624874708491951 0 -0.1119878388851908 -0.16231915977259129 0 -0.1169630623746598 -0.14907522687480429 0 -0.12588679133122799 -0.1624874708491951 0 -0.1119878388851908 -0.16231915977259129 0 -0.1169630623746598 -0.14907522687480429 0 -0.1023953877876435 -0.15903546935389351 0 -0.1169630623746598 -0.14907522687480429 0 -0.098894310772838973 -0.14952020789867901 0 -0.1169630623746598 -0.14907522687480429 0 -0.098894310772838973 -0.14952020789867901 0 -0.1169630623746598 -0.14907522687480429 0 -0.098894310772838973 -0.14952020789867901 0 -0.1074786708911218 -0.1384404444482458 0 -0.088441251280713618 -0.1477167476767523 0 -0.098894310772838973 -0.14952020789867901 0 -0.095252038160572317 -0.1406191133899993 0 -0.098894310772838973 -0.14952020789867901 0 -0.095252038160572317 -0.1406191133899993 0 -0.1074786708911218 -0.1384404444482458 0 -0.093538562727787294 -0.15940564464812701 0 -0.1023953877876435 -0.15903546935389351 0 -0.098894310772838973 -0.14952020789867901 0 -0.1085913382140784 -0.11903379143832921 0 -0.095971306836852913 -0.13086642389395989 0 -0.1074786708911218 -0.1384404444482458 0 -0.095971306836852913 -0.13086642389395989 0 -0.095252038160572317 -0.1406191133899993 0 -0.1074786708911218 -0.1384404444482458 0 -0.1085913382140784 -0.11903379143832921 0 -0.1074786708911218 -0.1384404444482458 0 -0.12736410167423581 -0.1213878944680517 0 -0.1169630623746598 -0.14907522687480429 0 -0.1074786708911218 -0.1384404444482458 0 -0.12736410167423581 -0.1213878944680517 0 -0.1169630623746598 -0.14907522687480429 0 -0.12736410167423581 -0.1213878944680517 0 -0.13746664940214659 -0.13470709103134659 0 -0.12736410167423581 -0.1213878944680517 0 -0.14737054533773081 -0.1208951937003558 0 -0.1169630623746598 -0.14907522687480429 0 -0.13746664940214659 -0.13470709103134659 0 -0.12736410167423581 -0.1213878944680517 0 -0.1569759497016511 -0.14808982533941309 0 -0.14737054533773081 -0.1208951937003558 0 -0.13746664940214659 -0.13470709103134659 0 -0.1569759497016511 -0.14808982533941309 0 -0.14737054533773081 -0.1208951937003558 0 -0.1369695060381555 -0.1485825261071109 0 -0.1526603788815559 -0.1573596194762775 0 -0.1569759497016511 -0.14808982533941309 0 -0.13746664940214659 -0.13470709103134659 0 -0.1369695060381555 -0.1485825261071109 0 -0.1569759497016511 -0.14808982533941309 0 -0.1369695060381555 -0.1485825261071109 0 -0.1569759497016511 -0.14808982533941309 0 -0.1169630623746598 -0.14907522687480429 0 -0.1369695060381555 -0.1485825261071109 0 -0.1169630623746598 -0.14907522687480429 0 -0.1369695060381555 -0.1485825261071109 0 -0.12588679133122799 -0.1624874708491951 0 -0.1169630623746598 -0.14907522687480429 0 -0.13746664940214659 -0.13470709103134659 0 -0.1369695060381555 -0.1485825261071109 0 -0.11859204859796291 -0.17560578940816099 0 -0.12588679133122799 -0.1624874708491951 0 -0.13147554750711021 -0.17522771154146191 0 -0.12588679133122799 -0.1624874708491951 0 -0.13147554750711021 -0.17522771154146191 0 -0.14107140235061469 -0.16358211752318311 0 -0.13147554750711021 -0.17522771154146191 0 -0.14520517551865919 -0.17294749126987599 0 -0.14107140235061469 -0.16358211752318311 0 -0.1369695060381555 -0.1485825261071109 0 -0.12588679133122799 -0.1624874708491951 0 -0.14107140235061469 -0.16358211752318311 0 -0.11859204859796291 -0.17560578940816099 0 -0.13147554750711021 -0.17522771154146191 0 -0.1280127438194481 -0.19237656196114411 0 -0.13147554750711021 -0.17522771154146191 0 -0.1398254013782112 -0.18365029146927231 0 -0.1280127438194481 -0.19237656196114411 0 -0.13147554750711021 -0.17522771154146191 0 -0.1398254013782112 -0.18365029146927231 0 -0.14520517551865919 -0.17294749126987599 0 -0.1398254013782112 -0.18365029146927231 0 -0.14820117369214661 -0.18035874543477601 0 -0.1498687104188495 -0.18767128888863599 0 -0.1398254013782112 -0.18365029146927231 0 -0.14820117369214661 -0.18035874543477601 0 -0.14520517551865919 -0.17294749126987599 0 -0.14820117369214661 -0.18035874543477601 0 -0.14520517551865919 -0.17294749126987599 0 -0.1568216795970071 -0.17538216601134321 0 -0.14820117369214661 -0.18035874543477601 0 -0.15608754076248521 -0.18190001438557629 0 -0.1568216795970071 -0.17538216601134321 0 -0.14520517551865919 -0.17294749126987599 0 -0.15263532751206779 -0.16758471640843459 0 -0.1568216795970071 -0.17538216601134321 0 -0.14820117369214661 -0.18035874543477601 0 -0.15608754076248521 -0.18190001438557629 0 -0.1498687104188495 -0.18767128888863599 0 -0.15608754076248521 -0.18190001438557629 0 -0.1607184616130248 -0.18728683910860641 0 -0.1498687104188495 -0.18767128888863599 0 -0.1369695060381555 -0.1485825261071109 0 -0.14107140235061469 -0.16358211752318311 0 -0.1526603788815559 -0.1573596194762775 0 -0.14520517551865919 -0.17294749126987599 0 -0.14107140235061469 -0.16358211752318311 0 -0.15263532751206779 -0.16758471640843459 0 -0.15263532751206779 -0.16758471640843459 0 -0.1526603788815559 -0.1573596194762775 0 -0.16142564196989831 -0.16655703171874039 0 -0.14107140235061469 -0.16358211752318311 0 -0.15263532751206779 -0.16758471640843459 0 -0.1526603788815559 -0.1573596194762775 0 -0.1526603788815559 -0.1573596194762775 0 -0.16142564196989831 -0.16655703171874039 0 -0.16326087804426159 -0.16588359066980229 0 -0.16326087804426159 -0.16588359066980229 0 -0.1569759497016511 -0.14808982533941309 0 -0.1526603788815559 -0.1573596194762775 0 -0.16326087804426159 -0.16588359066980229 0 -0.1569759497016511 -0.14808982533941309 0 -0.1594122663447772 -0.17133307891758459 0 -0.16142564196989831 -0.16655703171874039 0 -0.16676641630013581 -0.17580840153182001 0 -0.15263532751206779 -0.16758471640843459 0 -0.1594122663447772 -0.17133307891758459 0 -0.16142564196989831 -0.16655703171874039 0 -0.16142564196989831 -0.16655703171874039 0 -0.16326087804426159 -0.16588359066980229 0 -0.16676641630013581 -0.17580840153182001 0 -0.15263532751206779 -0.16758471640843459 0 -0.1594122663447772 -0.17133307891758459 0 -0.1568216795970071 -0.17538216601134321 0 -0.16142564196989831 -0.16655703171874039 0 -0.16326087804426159 -0.16588359066980229 0 -0.16326087804426159 -0.16588359066980229 0 -0.16676641630013581 -0.17580840153182001 0 -0.1783922457352059 -0.17293489930968209 0 -0.16326087804426159 -0.16588359066980229 0 -0.16676641630013581 -0.17580840153182001 0 -0.15608754076248521 -0.18190001438557629 0 -0.1607184616130248 -0.18728683910860641 0 -0.16676641630013581 -0.17580840153182001 0 -0.15608754076248521 -0.18190001438557629 0 -0.1568216795970071 -0.17538216601134321 0 -0.16676641630013581 -0.17580840153182001 0 -0.1594122663447772 -0.17133307891758459 0 -0.1568216795970071 -0.17538216601134321 0 -0.16676641630013581 -0.17580840153182001 0 -0.1607184616130248 -0.18728683910860641 0 -0.16676641630013581 -0.17580840153182001 0 -0.17547527524387041 -0.1884338249559952 0 -0.17547527524387041 -0.1884338249559952 0 -0.1969820185962792 -0.17828497948479149 0 -0.1783922457352059 -0.17293489930968209 0 -0.17547527524387041 -0.1884338249559952 0 -0.1969820185962792 -0.17828497948479149 0 -0.16676641630013581 -0.17580840153182001 0 -0.1783922457352059 -0.17293489930968209 0 -0.17547527524387041 -0.1884338249559952 0 -0.16326087804426159 -0.16588359066980229 0 -0.18947664049148261 -0.1562636999060015 0 -0.16326087804426159 -0.16588359066980229 0 -0.18633417632017751 -0.14736681724080919 0 -0.18947664049148261 -0.1562636999060015 0 -0.16326087804426159 -0.16588359066980229 0 -0.1783922457352059 -0.17293489930968209 0 -0.18947664049148261 -0.1562636999060015 0 -0.18633417632017751 -0.14736681724080919 0 -0.16621773075288121 -0.1295318635244681 0 -0.18400621351090571 -0.1217110611121094 0 -0.16621773075288121 -0.1295318635244681 0 -0.1569759497016511 -0.14808982533941309 0 -0.14737054533773081 -0.1208951937003558 0 -0.18633417632017751 -0.14736681724080919 0 -0.16621773075288121 -0.1295318635244681 0 -0.1569759497016511 -0.14808982533941309 0 -0.18633417632017751 -0.14736681724080919 0 -0.1569759497016511 -0.14808982533941309 0 -0.16326087804426159 -0.16588359066980229 0 -0.18633417632017751 -0.14736681724080919 0 -0.1569759497016511 -0.14808982533941309 0 -0.1377523016625678 -0.25581657194563601 0 -0.15263230708737521 -0.24356194903458239 0 -0.13476861079800859 -0.2391754021203874 0 -0.15263230708737521 -0.24356194903458239 0 -0.13476861079800859 -0.2391754021203874 0 -0.14055595197029169 -0.22979662500526149 0 -0.1377523016625678 -0.25581657194563601 0 -0.1223681628105569 -0.24044891992886891 0 -0.13476861079800859 -0.2391754021203874 0 -0.1377523016625678 -0.25581657194563601 0 -0.1223681628105569 -0.24044891992886891 0 -0.1238233973506119 -0.23541481827178831 0 -0.13476861079800859 -0.2391754021203874 0 -0.13139441447274411 -0.22962184130071481 0 -0.1223681628105569 -0.24044891992886891 0 -0.1238233973506119 -0.23541481827178831 0 -0.13476861079800859 -0.2391754021203874 0 -0.13476861079800859 -0.2391754021203874 0 -0.14055595197029169 -0.22979662500526149 0 -0.13139441447274411 -0.22962184130071481 0 -0.12407830270498089 -0.22426790937284519 0 -0.1238233973506119 -0.23541481827178831 0 -0.13139441447274411 -0.22962184130071481 0 -0.12407830270498089 -0.22426790937284519 0 -0.13139441447274411 -0.22962184130071481 0 -0.13441394179160859 -0.22010184774946731 0 -0.14055595197029169 -0.22979662500526149 0 -0.13139441447274411 -0.22962184130071481 0 -0.13441394179160859 -0.22010184774946731 0 -0.14055595197029169 -0.22979662500526149 0 -0.13441394179160859 -0.22010184774946731 0 -0.14940536450650499 -0.21373664043116339 0 -0.15263230708737521 -0.24356194903458239 0 -0.14940536450650499 -0.21373664043116339 0 -0.15263230708737521 -0.24356194903458239 0 -0.14940536450650499 -0.21373664043116339 0 -0.16621803193972459 -0.22739125443424221 0 -0.15263230708737521 -0.24356194903458239 0 -0.14055595197029169 -0.22979662500526149 0 -0.14940536450650499 -0.21373664043116339 0 -0.14940536450650499 -0.21373664043116339 0 -0.13246178853905299 -0.20873151589840269 0 -0.1539685318914617 -0.1985826704271989 0 -0.13246178853905299 -0.20873151589840269 0 -0.1539685318914617 -0.1985826704271989 0 -0.13441394179160859 -0.22010184774946731 0 -0.14940536450650499 -0.21373664043116339 0 -0.13246178853905299 -0.20873151589840269 0 -0.12407830270498089 -0.22426790937284519 0 -0.13441394179160859 -0.22010184774946731 0 -0.13246178853905299 -0.20873151589840269 0 -0.1178174188303993 -0.20556040013348681 0 -0.13246178853905299 -0.20873151589840269 0 -0.1280127438194481 -0.19237656196114411 0 -0.13246178853905299 -0.20873151589840269 0 -0.1280127438194481 -0.19237656196114411 0 -0.14041115317576749 -0.19424917250638599 0 -0.1398254013782112 -0.18365029146927231 0 -0.1280127438194481 -0.19237656196114411 0 -0.14041115317576749 -0.19424917250638599 0 -0.13246178853905299 -0.20873151589840269 0 -0.14041115317576749 -0.19424917250638599 0 -0.1539685318914617 -0.1985826704271989 0 -0.14041115317576749 -0.19424917250638599 0 -0.1539685318914617 -0.1985826704271989 0 -0.1498687104188495 -0.18767128888863599 0 -0.1398254013782112 -0.18365029146927231 0 -0.14041115317576749 -0.19424917250638599 0 -0.1498687104188495 -0.18767128888863599 0 -0.1607184616130248 -0.18728683910860641 0 -0.1539685318914617 -0.1985826704271989 0 -0.1498687104188495 -0.18767128888863599 0 -0.1607184616130248 -0.18728683910860641 0 -0.1539685318914617 -0.1985826704271989 0 -0.17547527524387041 -0.1884338249559952 0 -0.1539685318914617 -0.1985826704271989 0 -0.17547527524387041 -0.1884338249559952 0 -0.16825702714884239 -0.20885775366498019 0 -0.1539685318914617 -0.1985826704271989 0 -0.17547527524387041 -0.1884338249559952 0 -0.17547527524387041 -0.1884338249559952 0 -0.18277425339256639 -0.2026996383603622 0 -0.16825702714884239 -0.20885775366498019 0 -0.17547527524387041 -0.1884338249559952 0 -0.18277425339256639 -0.2026996383603622 0 -0.1902080517791363 -0.1917922864575213 0 -0.18277425339256639 -0.2026996383603622 0 -0.16825702714884239 -0.20885775366498019 0 -0.18626938338499441 -0.22517712183416291 0 -0.14940536450650499 -0.21373664043116339 0 -0.1539685318914617 -0.1985826704271989 0 -0.16825702714884239 -0.20885775366498019 0 -0.14940536450650499 -0.21373664043116339 0 -0.16825702714884239 -0.20885775366498019 0 -0.16621803193972459 -0.22739125443424221 0 -0.16825702714884239 -0.20885775366498019 0 -0.16621803193972459 -0.22739125443424221 0 -0.18626938338499441 -0.22517712183416291 0 -0.16621803193972459 -0.22739125443424221 0 -0.18626938338499441 -0.22517712183416291 0 -0.1745260775709061 -0.24562280720632229 0 -0.18626938338499441 -0.22517712183416291 0 -0.1745260775709061 -0.24562280720632229 0 -0.19988453840298659 -0.24176205441804 0 -0.18626938338499441 -0.22517712183416291 0 -0.1745260775709061 -0.24562280720632229 0 -0.15263230708737521 -0.24356194903458239 0 -0.16621803193972459 -0.22739125443424221 0 -0.1745260775709061 -0.24562280720632229 0 -0.1689202540561075 -0.25519621835756329 0 -0.15263230708737521 -0.24356194903458239 0 -0.1745260775709061 -0.24562280720632229 0 -0.21854221021918649 -0.25236034283526498 0 -0.19988453840298659 -0.24176205441804 0 -0.21493562756427159 -0.22243862284749449 0 -0.19160736129165659 -0.25262396586623759 0 -0.1745260775709061 -0.24562280720632229 0 -0.19988453840298659 -0.24176205441804 0 -0.18626938338499441 -0.22517712183416291 0 -0.19988453840298659 -0.24176205441804 0 -0.21493562756427159 -0.22243862284749449 0 -0.21493562756427159 -0.22243862284749449 0 -0.19801268919908249 -0.2047314364620034 0 -0.21541309520260529 -0.20113031717637361 0 -0.18626938338499441 -0.22517712183416291 0 -0.19801268919908249 -0.2047314364620034 0 -0.18277425339256639 -0.2026996383603622 0 -0.18626938338499441 -0.22517712183416291 0 -0.19801268919908249 -0.2047314364620034 0 -0.18626938338499441 -0.22517712183416291 0 -0.21493562756427159 -0.22243862284749449 0 -0.19801268919908249 -0.2047314364620034 0 -0.19801268919908249 -0.2047314364620034 0 -0.1902080517791363 -0.1917922864575213 0 -0.20975599501317069 -0.18428575108984399 0 -0.18277425339256639 -0.2026996383603622 0 -0.19801268919908249 -0.2047314364620034 0 -0.1902080517791363 -0.1917922864575213 0 -0.21541309520260529 -0.20113031717637361 0 -0.20975599501317069 -0.18428575108984399 0 -0.229896455205026 -0.18225842567294781 0 -0.19801268919908249 -0.2047314364620034 0 -0.21541309520260529 -0.20113031717637361 0 -0.20975599501317069 -0.18428575108984399 0 -0.19801268919908249 -0.2047314364620034 0 -0.20975599501317069 -0.18428575108984399 0 -0.21541309520260529 -0.20113031717637361 0 -0.23384346774119599 -0.2034651679104556 0 -0.229896455205026 -0.18225842567294781 0 -0.24262172765942899 -0.19089247064050549 0 -0.25644706280453389 -0.1995927939493197 0 -0.25029992488695979 -0.1782534950292988 0 -0.24262172765942899 -0.19089247064050549 0 -0.23384346774119599 -0.2034651679104556 0 -0.25644706280453389 -0.1995927939493197 0 -0.24262172765942899 -0.19089247064050549 0 -0.23384346774119599 -0.2034651679104556 0 -0.229896455205026 -0.18225842567294781 0 -0.23384346774119599 -0.2034651679104556 0 -0.2377451423251814 -0.23136366228574551 0 -0.25674041691710447 -0.22108212323078871 0 -0.23384346774119599 -0.2034651679104556 0 -0.25674041691710447 -0.22108212323078871 0 -0.25644706280453389 -0.1995927939493197 0 -0.21493562756427159 -0.22243862284749449 0 -0.21541309520260529 -0.20113031717637361 0 -0.23384346774119599 -0.2034651679104556 0 -0.21493562756427159 -0.22243862284749449 0 -0.23384346774119599 -0.2034651679104556 0 -0.2377451423251814 -0.23136366228574551 0 -0.24465976002352091 -0.25387891845332877 0 -0.2377451423251814 -0.23136366228574551 0 -0.25992972331208369 -0.2410680052130979 0 -0.24465976002352091 -0.25387891845332877 0 -0.21854221021918649 -0.25236034283526498 0 -0.2377451423251814 -0.23136366228574551 0 -0.21854221021918649 -0.25236034283526498 0 -0.21493562756427159 -0.22243862284749449 0 -0.2377451423251814 -0.23136366228574551 0 -0.21854221021918649 -0.25236034283526498 0 -0.2377451423251814 -0.23136366228574551 0 -0.21569240293870359 -0.1466438091422006 0 -0.18947664049148261 -0.1562636999060015 0 -0.2105647825198341 -0.15627799774793921 0 -0.2105647825198341 -0.15627799774793921 0 -0.22149930082725899 -0.1638400657176845 0 -0.22047208921520459 -0.14652609931143951 0 -0.21569240293870359 -0.1466438091422006 0 -0.2105647825198341 -0.15627799774793921 0 -0.22047208921520459 -0.14652609931143951 0 -0.21569240293870359 -0.1466438091422006 0 -0.22047208921520459 -0.14652609931143951 0 -0.20228853596836749 -0.13187567246267581 0 -0.2244809527826766 -0.1321180186971766 0 -0.2129261089666101 -0.1196792574727195 0 -0.21569240293870359 -0.1466438091422006 0 -0.20228853596836749 -0.13187567246267581 0 -0.2244809527826766 -0.1321180186971766 0 -0.18633417632017751 -0.14736681724080919 0 -0.20228853596836749 -0.13187567246267581 0 -0.18400621351090571 -0.1217110611121094 0 -0.21569240293870359 -0.1466438091422006 0 -0.18947664049148261 -0.1562636999060015 0 -0.18633417632017751 -0.14736681724080919 0 -0.21569240293870359 -0.1466438091422006 0 -0.18947664049148261 -0.1562636999060015 0 -0.18633417632017751 -0.14736681724080919 0 -0.21569240293870359 -0.1466438091422006 0 -0.18633417632017751 -0.14736681724080919 0 -0.21569240293870359 -0.1466438091422006 0 -0.20228853596836749 -0.13187567246267581 0 -0.1783922457352059 -0.17293489930968209 0 -0.18947664049148261 -0.1562636999060015 0 -0.1969820185962792 -0.17828497948479149 0 -0.18947664049148261 -0.1562636999060015 0 -0.1969820185962792 -0.17828497948479149 0 -0.20568347912652049 -0.16811631466237001 0 -0.18947664049148261 -0.1562636999060015 0 -0.20568347912652049 -0.16811631466237001 0 -0.2105647825198341 -0.15627799774793921 0 -0.1902080517791363 -0.1917922864575213 0 -0.1969820185962792 -0.17828497948479149 0 -0.20975599501317069 -0.18428575108984399 0 -0.17547527524387041 -0.1884338249559952 0 -0.1902080517791363 -0.1917922864575213 0 -0.1969820185962792 -0.17828497948479149 0 -0.20975599501317069 -0.18428575108984399 0 -0.22149930082725899 -0.1638400657176845 0 -0.20975599501317069 -0.18428575108984399 0 -0.20568347912652049 -0.16811631466237001 0 -0.22149930082725899 -0.1638400657176845 0 -0.1969820185962792 -0.17828497948479149 0 -0.20975599501317069 -0.18428575108984399 0 -0.20568347912652049 -0.16811631466237001 0 -0.20568347912652049 -0.16811631466237001 0 -0.2105647825198341 -0.15627799774793921 0 -0.22149930082725899 -0.1638400657176845 0 -0.22149930082725899 -0.1638400657176845 0 -0.2402834514435094 -0.1667894474332684 0 -0.2341322288468432 -0.15422277024092529 0 -0.22149930082725899 -0.1638400657176845 0 -0.229896455205026 -0.18225842567294781 0 -0.2402834514435094 -0.1667894474332684 0 -0.20975599501317069 -0.18428575108984399 0 -0.22149930082725899 -0.1638400657176845 0 -0.229896455205026 -0.18225842567294781 0 -0.229896455205026 -0.18225842567294781 0 -0.2402834514435094 -0.1667894474332684 0 -0.25029992488695979 -0.1782534950292988 0 -0.24262172765942899 -0.19089247064050549 0 -0.229896455205026 -0.18225842567294781 0 -0.25029992488695979 -0.1782534950292988 0 -0.2402834514435094 -0.1667894474332684 0 -0.25029992488695979 -0.1782534950292988 0 -0.25761979100978533 -0.16665415002795461 0 -0.2402834514435094 -0.1667894474332684 0 -0.24825300788518309 -0.1555077779107997 0 -0.25761979100978533 -0.16665415002795461 0 -0.2402834514435094 -0.1667894474332684 0 -0.24825300788518309 -0.1555077779107997 0 -0.2341322288468432 -0.15422277024092529 0 -0.24825300788518309 -0.1555077779107997 0 -0.2405789555143194 -0.1375116727892334 0 -0.25601133851015478 -0.1487044986697981 0 -0.24825300788518309 -0.1555077779107997 0 -0.2341322288468432 -0.15422277024092529 0 -0.2405789555143194 -0.1375116727892334 0 -0.21569240293870359 -0.1466438091422006 0 -0.22047208921520459 -0.14652609931143951 0 -0.2405789555143194 -0.1375116727892334 0 -0.22149930082725899 -0.1638400657176845 0 -0.2341322288468432 -0.15422277024092529 0 -0.22047208921520459 -0.14652609931143951 0 -0.21569240293870359 -0.1466438091422006 0 -0.2405789555143194 -0.1375116727892334 0 -0.2341322288468432 -0.15422277024092529 0 -0.22047208921520459 -0.14652609931143951 0 -0.2405789555143194 -0.1375116727892334 0 -0.21569240293870359 -0.1466438091422006 0 -0.2244809527826766 -0.1321180186971766 0 -0.2405789555143194 -0.1375116727892334 0 -0.2244809527826766 -0.1321180186971766 0 -0.2405789555143194 -0.1375116727892334 0 -0.23651179230599079 -0.1199754775459997 0 -0.2405789555143194 -0.1375116727892334 0 -0.23651179230599079 -0.1199754775459997 0 -0.25054446979338107 -0.12912519928877991 0 -0.23651179230599079 -0.1199754775459997 0 -0.24959534238117709 -0.1078054475449232 0 -0.26009747564537128 -0.1202716976192799 0 -0.23651179230599079 -0.1199754775459997 0 -0.26009747564537128 -0.1202716976192799 0 -0.23651179230599079 -0.1199754775459997 0 -0.26009747564537128 -0.1202716976192799 0 -0.25054446979338107 -0.12912519928877991 0 -0.23651179230599079 -0.1199754775459997 0 -0.24959534238117709 -0.1078054475449232 0 -0.23746734258601571 -0.1067534300414448 0 -0.24098124084432149 -0.095291905336151436 0 -0.23746734258601571 -0.1067534300414448 0 -0.22473934926471251 -0.1042306158888877 0 -0.24959534238117709 -0.1078054475449232 0 -0.24098124084432149 -0.095291905336151436 0 -0.25687551172258971 -0.095275519396915032 0 -0.24959534238117709 -0.1078054475449232 0 -0.24098124084432149 -0.095291905336151436 0 -0.23746734258601571 -0.1067534300414448 0 -0.22473934926471251 -0.1042306158888877 0 -0.22774604229393439 -0.087804120453188278 0 -0.20897213189474381 -0.093424031558921927 0 -0.24098124084432149 -0.095291905336151436 0 -0.22473934926471251 -0.1042306158888877 0 -0.22774604229393439 -0.087804120453188278 0 -0.2244809527826766 -0.1321180186971766 0 -0.23651179230599079 -0.1199754775459997 0 -0.2129261089666101 -0.1196792574727195 0 -0.23651179230599079 -0.1199754775459997 0 -0.2129261089666101 -0.1196792574727195 0 -0.23651179230599079 -0.1199754775459997 0 -0.23746734258601571 -0.1067534300414448 0 -0.22473934926471251 -0.1042306158888877 0 -0.23651179230599079 -0.1199754775459997 0 -0.22473934926471251 -0.1042306158888877 0 -0.2129261089666101 -0.1196792574727195 0 -0.2466384096447127 -0.069214282175018252 0 -0.23144064811545881 -0.071679072189906365 0 -0.24006258296416741 -0.059977364163272567 0 -0.2466384096447127 -0.069214282175018252 0 -0.23867713564867771 -0.0818228939715063 0 -0.25106785873748549 -0.083001848322642804 0 -0.2466384096447127 -0.069214282175018252 0 -0.23867713564867771 -0.0818228939715063 0 -0.23144064811545881 -0.071679072189906365 0 -0.24098124084432149 -0.095291905336151436 0 -0.25106785873748549 -0.083001848322642804 0 -0.25687551172258971 -0.095275519396915032 0 -0.24098124084432149 -0.095291905336151436 0 -0.23867713564867771 -0.0818228939715063 0 -0.25106785873748549 -0.083001848322642804 0 -0.24098124084432149 -0.095291905336151436 0 -0.23867713564867771 -0.0818228939715063 0 -0.22774604229393439 -0.087804120453188278 0 -0.22048160989483939 -0.080833284582646742 0 -0.22774604229393439 -0.087804120453188278 0 -0.23144064811545881 -0.071679072189906365 0 -0.23867713564867771 -0.0818228939715063 0 -0.22774604229393439 -0.087804120453188278 0 -0.23144064811545881 -0.071679072189906365 0 -0.22048160989483939 -0.080833284582646742 0 -0.22774604229393439 -0.087804120453188278 0 -0.20897213189474381 -0.093424031558921927 0 -0.23144064811545881 -0.071679072189906365 0 -0.2137676172752207 -0.070425914128570383 0 -0.21856310265569601 -0.047427796698218422 0 -0.22048160989483939 -0.080833284582646742 0 -0.23144064811545881 -0.071679072189906365 0 -0.2137676172752207 -0.070425914128570383 0 -0.23144064811545881 -0.071679072189906365 0 -0.23092663332862359 -0.057189961691847993 0 -0.24006258296416741 -0.059977364163272567 0 -0.20335705558913081 -0.063140738221072371 0 -0.2137676172752207 -0.070425914128570383 0 -0.20224544779007569 -0.076575791796341275 0 -0.2137676172752207 -0.070425914128570383 0 -0.20897213189474381 -0.093424031558921927 0 -0.20224544779007569 -0.076575791796341275 0 -0.2137676172752207 -0.070425914128570383 0 -0.20897213189474381 -0.093424031558921927 0 -0.22048160989483939 -0.080833284582646742 0 -0.2137676172752207 -0.070425914128570383 0 -0.20897213189474381 -0.093424031558921927 0 -0.20897213189474381 -0.093424031558921927 0 -0.18864483179057751 -0.079783658531738119 0 -0.20224544779007569 -0.076575791796341275 0 -0.20897213189474381 -0.093424031558921927 0 -0.18864483179057751 -0.079783658531738119 0 -0.1843208979706715 -0.098582101900239388 0 -0.20335705558913081 -0.063140738221072371 0 -0.18864483179057751 -0.079783658531738119 0 -0.20224544779007569 -0.076575791796341275 0 -0.20335705558913081 -0.063140738221072371 0 -0.18864483179057751 -0.079783658531738119 0 -0.20335705558913081 -0.063140738221072371 0 -0.18864483179057751 -0.079783658531738119 0 -0.18476368522970901 -0.060313507398174523 0 -0.22473934926471251 -0.1042306158888877 0 -0.2129261089666101 -0.1196792574727195 0 -0.1994025973422491 -0.10829052452779669 0 -0.20228853596836749 -0.13187567246267581 0 -0.2129261089666101 -0.1196792574727195 0 -0.1994025973422491 -0.10829052452779669 0 -0.22473934926471251 -0.1042306158888877 0 -0.20897213189474381 -0.093424031558921927 0 -0.1994025973422491 -0.10829052452779669 0 -0.20897213189474381 -0.093424031558921927 0 -0.1994025973422491 -0.10829052452779669 0 -0.1843208979706715 -0.098582101900239388 0 -0.20228853596836749 -0.13187567246267581 0 -0.1994025973422491 -0.10829052452779669 0 -0.18400621351090571 -0.1217110611121094 0 -0.1994025973422491 -0.10829052452779669 0 -0.18400621351090571 -0.1217110611121094 0 -0.1843208979706715 -0.098582101900239388 0 -0.16621773075288121 -0.1295318635244681 0 -0.18400621351090571 -0.1217110611121094 0 -0.16647442841019139 -0.11035058163789351 0 -0.18400621351090571 -0.1217110611121094 0 -0.16647442841019139 -0.11035058163789351 0 -0.1843208979706715 -0.098582101900239388 0 -0.16621773075288121 -0.1295318635244681 0 -0.16647442841019139 -0.11035058163789351 0 -0.14737054533773081 -0.1208951937003558 0 -0.16647442841019139 -0.11035058163789351 0 -0.16521255597131029 -0.094363556792246006 0 -0.15171862691764881 -0.097019712797942706 0 -0.16647442841019139 -0.11035058163789351 0 -0.16521255597131029 -0.094363556792246006 0 -0.1843208979706715 -0.098582101900239388 0 -0.16521255597131029 -0.094363556792246006 0 -0.1843208979706715 -0.098582101900239388 0 -0.1718657805157274 -0.077566403117392158 0 -0.18864483179057751 -0.079783658531738119 0 -0.1843208979706715 -0.098582101900239388 0 -0.1718657805157274 -0.077566403117392158 0 -0.18864483179057751 -0.079783658531738119 0 -0.1718657805157274 -0.077566403117392158 0 -0.18476368522970901 -0.060313507398174523 0 -0.1718657805157274 -0.077566403117392158 0 -0.16766997596840549 -0.055069670457126463 0 -0.18476368522970901 -0.060313507398174523 0 -0.1718657805157274 -0.077566403117392158 0 -0.1555984100513392 -0.067553704814911478 0 -0.16766997596840549 -0.055069670457126463 0 -0.1718657805157274 -0.077566403117392158 0 -0.15451520526235171 -0.083858215916353424 0 -0.1555984100513392 -0.067553704814911478 0 -0.16521255597131029 -0.094363556792246006 0 -0.1718657805157274 -0.077566403117392158 0 -0.15451520526235171 -0.083858215916353424 0 -0.16521255597131029 -0.094363556792246006 0 -0.15451520526235171 -0.083858215916353424 0 -0.15171862691764881 -0.097019712797942706 0 -0.15451520526235171 -0.083858215916353424 0 -0.14334301715898221 -0.074859018030624863 0 -0.13903100861317999 -0.090330850909877913 0 -0.15451520526235171 -0.083858215916353424 0 -0.13903100861317999 -0.090330850909877913 0 -0.15171862691764881 -0.097019712797942706 0 -0.1377651409738101 -0.093700562061298426 0 -0.13903100861317999 -0.090330850909877913 0 -0.15171862691764881 -0.097019712797942706 0 -0.15451520526235171 -0.083858215916353424 0 -0.1555984100513392 -0.067553704814911478 0 -0.14334301715898221 -0.074859018030624863 0 -0.1555984100513392 -0.067553704814911478 0 -0.14334301715898221 -0.074859018030624863 0 -0.13945189113323761 -0.059806177835795588 0 -0.14334301715898221 -0.074859018030624863 0 -0.12930964035960699 -0.069761515268982097 0 -0.13945189113323761 -0.059806177835795588 0 -0.12930964035960699 -0.069761515268982097 0 -0.1377651409738101 -0.093700562061298426 0 -0.12930964035960699 -0.069761515268982097 0 -0.1377651409738101 -0.093700562061298426 0 -0.13903100861317999 -0.090330850909877913 0 -0.1189291253072135 -0.086669643832799348 0 -0.12930964035960699 -0.069761515268982097 0 -0.1377651409738101 -0.093700562061298426 0 -0.14334301715898221 -0.074859018030624863 0 -0.12930964035960699 -0.069761515268982097 0 -0.13903100861317999 -0.090330850909877913 0 -0.1377651409738101 -0.093700562061298426 0 -0.13903100861317999 -0.090330850909877913 0 -0.11893842975153809 -0.10446969177473921 0 -0.1377651409738101 -0.093700562061298426 0 -0.12736410167423581 -0.1213878944680517 0 -0.1377651409738101 -0.093700562061298426 0 -0.12736410167423581 -0.1213878944680517 0 -0.11893842975153809 -0.10446969177473921 0 -0.1189291253072135 -0.086669643832799348 0 -0.1377651409738101 -0.093700562061298426 0 -0.1377651409738101 -0.093700562061298426 0 -0.12736410167423581 -0.1213878944680517 0 -0.14737054533773081 -0.1208951937003558 0 -0.16647442841019139 -0.11035058163789351 0 -0.14737054533773081 -0.1208951937003558 0 -0.15171862691764881 -0.097019712797942706 0 -0.1377651409738101 -0.093700562061298426 0 -0.14737054533773081 -0.1208951937003558 0 -0.15171862691764881 -0.097019712797942706 0 -0.1377651409738101 -0.093700562061298426 0 -0.14737054533773081 -0.1208951937003558 0 -0.14925834278157041 -0.027771983247297551 0 -0.15381676672243971 -0.0048344028756085976 0 -0.16158573310271521 -0.019122381719964599 0 -0.14925834278157041 -0.027771983247297551 0 -0.15381676672243971 -0.0048344028756085976 0 -0.14925834278157041 -0.027771983247297551 0 -0.13622810944285851 -0.025664644749336048 0 -0.13728148428220571 -0.03631729474545041 0 -0.15381676672243971 -0.0048344028756085976 0 -0.13373576905839379 -0.01378162565115138 0 -0.13796817939809339 -7.5853332940862265e-05 0 -0.14925834278157041 -0.027771983247297551 0 -0.15381676672243971 -0.0048344028756085976 0 -0.13373576905839379 -0.01378162565115138 0 -0.1244522405185825 -0.00038769298458709092 0 -0.1246368416492639 -0.024787675353444869 0 -0.13373576905839379 -0.01378162565115138 0 -0.1244522405185825 -0.00038769298458709092 0 -0.13373576905839379 -0.01378162565115138 0 -0.13796817939809339 -7.5853332940862265e-05 0 -0.1244522405185825 -0.00038769298458709092 0 -0.13373576905839379 -0.01378162565115138 0 -0.1246368416492639 -0.024787675353444869 0 -0.13373576905839379 -0.01378162565115138 0 -0.13622810944285851 -0.025664644749336048 0 -0.14925834278157041 -0.027771983247297551 0 -0.13373576905839379 -0.01378162565115138 0 -0.13622810944285851 -0.025664644749336048 0 -0.1246368416492639 -0.024787675353444869 0 -0.13622810944285851 -0.025664644749336048 0 -0.13728148428220571 -0.03631729474545041 0 -0.1248214427799455 -0.0491876577223027 0 -0.1246368416492639 -0.024787675353444869 0 -0.13067566527459321 -0.039597081228004503 0 -0.1246368416492639 -0.024787675353444869 0 -0.13067566527459321 -0.039597081228004503 0 -0.13728148428220571 -0.03631729474545041 0 -0.1248214427799455 -0.0491876577223027 0 -0.13067566527459321 -0.039597081228004503 0 -0.1359628923869578 -0.048095697090820053 0 -0.13067566527459321 -0.039597081228004503 0 -0.13728148428220571 -0.03631729474545041 0 -0.1359628923869578 -0.048095697090820053 0 -0.13728148428220571 -0.03631729474545041 0 -0.1359628923869578 -0.048095697090820053 0 -0.14767594406259391 -0.049379474087132447 0 -0.1248214427799455 -0.0491876577223027 0 -0.12930964035960699 -0.069761515268982097 0 -0.13945189113323761 -0.059806177835795588 0 -0.1208541397454049 -0.045822468476665427 0 -0.12930964035960699 -0.069761515268982097 0 -0.1248214427799455 -0.0491876577223027 0 -0.1359628923869578 -0.048095697090820053 0 -0.13945189113323761 -0.059806177835795588 0 -0.1555984100513392 -0.067553704814911478 0 -0.13945189113323761 -0.059806177835795588 0 -0.14767594406259391 -0.049379474087132447 0 -0.1359628923869578 -0.048095697090820053 0 -0.13945189113323761 -0.059806177835795588 0 -0.14767594406259391 -0.049379474087132447 0 -0.14925834278157041 -0.027771983247297551 0 -0.14767594406259391 -0.049379474087132447 0 -0.16346190388351911 -0.035477368974388322 0 -0.14925834278157041 -0.027771983247297551 0 -0.13728148428220571 -0.03631729474545041 0 -0.14767594406259391 -0.049379474087132447 0 -0.14767594406259391 -0.049379474087132447 0 -0.16346190388351911 -0.035477368974388322 0 -0.16766997596840549 -0.055069670457126463 0 -0.16346190388351911 -0.035477368974388322 0 -0.16766997596840549 -0.055069670457126463 0 -0.1792130821544009 -0.041655239440509813 0 -0.1555984100513392 -0.067553704814911478 0 -0.14767594406259391 -0.049379474087132447 0 -0.16766997596840549 -0.055069670457126463 0 -0.16766997596840549 -0.055069670457126463 0 -0.18476368522970901 -0.060313507398174523 0 -0.1792130821544009 -0.041655239440509813 0 -0.18476368522970901 -0.060313507398174523 0 -0.1792130821544009 -0.041655239440509813 0 -0.19607578221694649 -0.043845816873478577 0 -0.16346190388351911 -0.035477368974388322 0 -0.1792130821544009 -0.041655239440509813 0 -0.1747539590121796 -0.02148713112583673 0 -0.1792130821544009 -0.041655239440509813 0 -0.1747539590121796 -0.02148713112583673 0 -0.18874747204970219 -0.028974905836781941 0 -0.1747539590121796 -0.02148713112583673 0 -0.18814241231787171 -0.014961103822567131 0 -0.18874747204970219 -0.028974905836781941 0 -0.14925834278157041 -0.027771983247297551 0 -0.16346190388351911 -0.035477368974388322 0 -0.16158573310271521 -0.019122381719964599 0 -0.16346190388351911 -0.035477368974388322 0 -0.1747539590121796 -0.02148713112583673 0 -0.16158573310271521 -0.019122381719964599 0 -0.1747539590121796 -0.02148713112583673 0 -0.16158573310271521 -0.019122381719964599 0 -0.1670666400728934 -0.0075955490013497832 0 -0.15381676672243971 -0.0048344028756085976 0 -0.1670666400728934 -0.0075955490013497832 0 -0.16872927738725291 0.0066655648670224509 0 -0.15381676672243971 -0.0048344028756085976 0 -0.16158573310271521 -0.019122381719964599 0 -0.1670666400728934 -0.0075955490013497832 0 -0.1670666400728934 -0.0075955490013497832 0 -0.1785064095432054 -0.0066611219507198768 0 -0.16872927738725291 0.0066655648670224509 0 -0.1747539590121796 -0.02148713112583673 0 -0.1670666400728934 -0.0075955490013497832 0 -0.1785064095432054 -0.0066611219507198768 0 -0.1747539590121796 -0.02148713112583673 0 -0.1785064095432054 -0.0066611219507198768 0 -0.18814241231787171 -0.014961103822567131 0 -0.1785064095432054 -0.0066611219507198768 0 -0.18814241231787171 -0.014961103822567131 0 -0.193034969706537 0.00064734206737222756 0 -0.20555212454711219 -0.022925237921517471 0 -0.20993853639106591 -0.0035380738047605968 0 -0.193034969706537 0.00064734206737222756 0 -0.18814241231787171 -0.014961103822567131 0 -0.20555212454711219 -0.022925237921517471 0 -0.193034969706537 0.00064734206737222756 0 -0.20555212454711219 -0.022925237921517471 0 -0.193034969706537 0.00064734206737222756 0 -0.20993853639106591 -0.0035380738047605968 0 -0.193034969706537 0.00064734206737222756 0 -0.18814241231787171 -0.014961103822567131 0 -0.18874747204970219 -0.028974905836781941 0 -0.20555212454711219 -0.022925237921517471 0 -0.20555212454711219 -0.022925237921517471 0 -0.21630961893328751 -0.01519709454307171 0 -0.22290571171937651 -0.026601576769118469 0 -0.20993853639106591 -0.0035380738047605968 0 -0.22684210307559549 -0.0077234896768903086 0 -0.21568563774484731 0.0082874278720449449 0 -0.20993853639106591 -0.0035380738047605968 0 -0.21630961893328751 -0.01519709454307171 0 -0.22684210307559549 -0.0077234896768903086 0 -0.20555212454711219 -0.022925237921517471 0 -0.20993853639106591 -0.0035380738047605968 0 -0.21630961893328751 -0.01519709454307171 0 -0.20993853639106591 -0.0035380738047605968 0 -0.22684210307559549 -0.0077234896768903086 0 -0.20335705558913081 -0.063140738221072371 0 -0.18476368522970901 -0.060313507398174523 0 -0.19607578221694649 -0.043845816873478577 0 -0.1792130821544009 -0.041655239440509813 0 -0.18874747204970219 -0.028974905836781941 0 -0.19607578221694649 -0.043845816873478577 0 -0.18874747204970219 -0.028974905836781941 0 -0.20555212454711219 -0.022925237921517471 0 -0.19607578221694649 -0.043845816873478577 0 -0.20555212454711219 -0.022925237921517471 0 -0.21856310265569601 -0.047427796698218422 0 -0.20555212454711219 -0.022925237921517471 0 -0.21856310265569601 -0.047427796698218422 0 -0.21896932036315811 -0.045479663861346789 0 -0.20555212454711219 -0.022925237921517471 0 -0.19607578221694649 -0.043845816873478577 0 -0.21856310265569601 -0.047427796698218422 0 -0.20555212454711219 -0.022925237921517471 0 -0.21896932036315811 -0.045479663861346789 0 -0.22290571171937651 -0.026601576769118469 0 -0.2137676172752207 -0.070425914128570383 0 -0.21856310265569601 -0.047427796698218422 0 -0.20335705558913081 -0.063140738221072371 0 -0.2137676172752207 -0.070425914128570383 0 -0.21856310265569601 -0.047427796698218422 0 -0.20335705558913081 -0.063140738221072371 0 -0.19607578221694649 -0.043845816873478577 0 -0.21856310265569601 -0.047427796698218422 0 -0.20335705558913081 -0.063140738221072371 0 -0.21856310265569601 -0.047427796698218422 0 -0.23144064811545881 -0.071679072189906365 0 -0.21856310265569601 -0.047427796698218422 0 -0.23092663332862359 -0.057189961691847993 0 -0.23144064811545881 -0.071679072189906365 0 -0.21856310265569601 -0.047427796698218422 0 -0.21856310265569601 -0.047427796698218422 0 -0.23092663332862359 -0.057189961691847993 0 -0.22458774444026389 -0.046948698447319907 0 -0.23092663332862359 -0.057189961691847993 0 -0.2320274706224234 -0.04981915803055513 0 -0.23892230415514151 -0.050781370399802413 0 -0.23092663332862359 -0.057189961691847993 0 -0.22458774444026389 -0.046948698447319907 0 -0.2320274706224234 -0.04981915803055513 0 -0.21896932036315811 -0.045479663861346789 0 -0.2306307955349908 -0.032287844280089482 0 -0.22290571171937651 -0.026601576769118469 0 -0.21896932036315811 -0.045479663861346789 0 -0.22290571171937651 -0.026601576769118469 0 -0.22458774444026389 -0.046948698447319907 0 -0.2320274706224234 -0.04981915803055513 0 -0.23529860714157019 -0.041169280456794459 0 -0.22458774444026389 -0.046948698447319907 0 -0.2306307955349908 -0.032287844280089482 0 -0.23529860714157019 -0.041169280456794459 0 -0.22458774444026389 -0.046948698447319907 0 -0.21896932036315811 -0.045479663861346789 0 -0.2306307955349908 -0.032287844280089482 0 -0.21856310265569601 -0.047427796698218422 0 -0.22458774444026389 -0.046948698447319907 0 -0.21896932036315811 -0.045479663861346789 0 -0.21856310265569601 -0.047427796698218422 0 -0.21896932036315811 -0.045479663861346789 0 -0.21896932036315811 -0.045479663861346789 0 -0.2306307955349908 -0.032287844280089482 0 -0.2306307955349908 -0.032287844280089482 0 -0.23529860714157019 -0.041169280456794459 0 -0.241537864008738 -0.030171217790278881 0 -0.24798951326795751 -0.035882587373858313 0 -0.23529860714157019 -0.041169280456794459 0 -0.241537864008738 -0.030171217790278881 0 -0.24798951326795751 -0.035882587373858313 0 -0.24357205858261219 -0.044359355700093257 0 -0.23529860714157019 -0.041169280456794459 0 -0.24798951326795751 -0.035882587373858313 0 -0.24357205858261219 -0.044359355700093257 0 -0.25238491957690051 -0.051022134359787842 0 -0.24357205858261219 -0.044359355700093257 0 -0.23529860714157019 -0.041169280456794459 0 -0.23892230415514151 -0.050781370399802413 0 -0.2466384096447127 -0.069214282175018252 0 -0.24006258296416741 -0.059977364163272567 0 -0.25238491957690051 -0.051022134359787842 0 -0.2320274706224234 -0.04981915803055513 0 -0.23529860714157019 -0.041169280456794459 0 -0.23892230415514151 -0.050781370399802413 0 -0.23892230415514151 -0.050781370399802413 0 -0.24006258296416741 -0.059977364163272567 0 -0.25238491957690051 -0.051022134359787842 0 -0.24357205858261219 -0.044359355700093257 0 -0.23892230415514151 -0.050781370399802413 0 -0.25238491957690051 -0.051022134359787842 0 -0.23092663332862359 -0.057189961691847993 0 -0.23892230415514151 -0.050781370399802413 0 -0.24006258296416741 -0.059977364163272567 0 -0.21630961893328751 -0.01519709454307171 0 -0.22684210307559549 -0.0077234896768903086 0 -0.22290571171937651 -0.026601576769118469 0 -0.22684210307559549 -0.0077234896768903086 0 -0.22290571171937651 -0.026601576769118469 0 -0.23226271327452069 -0.02198020745377605 0 -0.22684210307559549 -0.0077234896768903086 0 -0.22290571171937651 -0.026601576769118469 0 -0.2306307955349908 -0.032287844280089482 0 -0.22290571171937651 -0.026601576769118469 0 -0.23226271327452069 -0.02198020745377605 0 -0.22684210307559549 -0.0077234896768903086 0 -0.23226271327452069 -0.02198020745377605 0 -0.24229227070682269 -0.019096024698831499 0 -0.2306307955349908 -0.032287844280089482 0 -0.241537864008738 -0.030171217790278881 0 -0.24229227070682269 -0.019096024698831499 0 -0.2306307955349908 -0.032287844280089482 0 -0.23226271327452069 -0.02198020745377605 0 -0.24229227070682269 -0.019096024698831499 0 -0.2306307955349908 -0.032287844280089482 0 -0.24229227070682269 -0.019096024698831499 0 -0.24798951326795751 -0.035882587373858313 0 -0.241537864008738 -0.030171217790278881 0 -0.25387676547985721 -0.02452441136234379 0 -0.241537864008738 -0.030171217790278881 0 -0.24229227070682269 -0.019096024698831499 0 -0.25387676547985721 -0.02452441136234379 0 -0.24229227070682269 -0.019096024698831499 0 -0.24826461013585729 -0.013027819984466921 0 -0.25387676547985721 -0.02452441136234379 0 -0.22684210307559549 -0.0077234896768903086 0 -0.24826461013585729 -0.013027819984466921 0 -0.24598119983726671 0.0037338506766126851 0 -0.22684210307559549 -0.0077234896768903086 0 -0.24229227070682269 -0.019096024698831499 0 -0.24826461013585729 -0.013027819984466921 0 -0.22684210307559549 -0.0077234896768903086 0 -0.24826461013585729 -0.013027819984466921 0 -0.24826461013585729 -0.013027819984466921 0 -0.26003022337954462 -0.0038093911555793728 0 -0.24598119983726671 0.0037338506766126851 0 -0.24826461013585729 -0.013027819984466921 0 -0.26003022337954462 -0.0038093911555793728 0 -0.26968711719611937 -0.018332150292041979 0 -0.24826461013585729 -0.013027819984466921 0 -0.26968711719611937 -0.018332150292041979 0 -0.25387676547985721 -0.02452441136234379 0 -0.26968711719611937 -0.018332150292041979 0 -0.26155562347943467 -0.037861138146123199 0 -0.24826461013585729 -0.013027819984466921 0 -0.25387676547985721 -0.02452441136234379 0 -0.26968711719611937 -0.018332150292041979 0 -0.26968711719611937 -0.018332150292041979 0 -0.28953187906397732 -0.034281883787379987 0 -0.27524211720584768 -0.038538427260779863 0 -0.26003022337954462 -0.0038093911555793728 0 -0.26968711719611937 -0.018332150292041979 0 -0.27433688946420332 -0.0007833753365484626 0 -0.26968711719611937 -0.018332150292041979 0 -0.27433688946420332 -0.0007833753365484626 0 -0.28631392786639209 -0.0070506759659385472 0 -0.28631392786639209 -0.0070506759659385472 0 -0.29653674479957171 -0.021015146411400301 0 -0.3025805037907468 -0.0027432771802810229 0 -0.28631392786639209 -0.0070506759659385472 0 -0.3025805037907468 -0.0027432771802810229 0 -0.28842838408131971 0.0076205693905790281 0 -0.27433688946420332 -0.0007833753365484626 0 -0.28631392786639209 -0.0070506759659385472 0 -0.28842838408131971 0.0076205693905790281 0 -0.26968711719611937 -0.018332150292041979 0 -0.28631392786639209 -0.0070506759659385472 0 -0.29653674479957171 -0.021015146411400301 0 -0.26968711719611937 -0.018332150292041979 0 -0.29653674479957171 -0.021015146411400301 0 -0.28953187906397732 -0.034281883787379987 0 -0.29653674479957171 -0.021015146411400301 0 -0.28953187906397732 -0.034281883787379987 0 -0.31718310516035308 -0.038172790333745737 0 -0.29653674479957171 -0.021015146411400301 0 -0.31459326366374579 -0.01532774276474733 0 -0.31718310516035308 -0.038172790333745737 0 -0.29653674479957171 -0.021015146411400301 0 -0.3025805037907468 -0.0027432771802810229 0 -0.31459326366374579 -0.01532774276474733 0 -0.30229462048881822 -0.056161209871372138 0 -0.29850594913894141 -0.055440370537233663 0 -0.30849544073550722 -0.074776909133231664 0 -0.30229462048881822 -0.056161209871372138 0 -0.29366820665513949 -0.048519954280836622 0 -0.31370341578724742 -0.051143824177853653 0 -0.30229462048881822 -0.056161209871372138 0 -0.29850594913894141 -0.055440370537233663 0 -0.29366820665513949 -0.048519954280836622 0 -0.30229462048881822 -0.056161209871372138 0 -0.31629816603535338 -0.060261719535131632 0 -0.30229462048881822 -0.056161209871372138 0 -0.31178497446605258 -0.064623658022855565 0 -0.31629816603535338 -0.060261719535131632 0 -0.30229462048881822 -0.056161209871372138 0 -0.31370341578724742 -0.051143824177853653 0 -0.31629816603535338 -0.060261719535131632 0 -0.29366820665513949 -0.048519954280836622 0 -0.31718310516035308 -0.038172790333745737 0 -0.29366820665513949 -0.048519954280836622 0 -0.31718310516035308 -0.038172790333745737 0 -0.31370341578724742 -0.051143824177853653 0 -0.28953187906397732 -0.034281883787379987 0 -0.29366820665513949 -0.048519954280836622 0 -0.31718310516035308 -0.038172790333745737 0 -0.28953187906397732 -0.034281883787379987 0 -0.29366820665513949 -0.048519954280836622 0 -0.27524211720584768 -0.038538427260779863 0 -0.29366820665513949 -0.048519954280836622 0 -0.27015330814992611 -0.058867118227927437 0 -0.29366820665513949 -0.048519954280836622 0 -0.28660483069534037 -0.061918496488246169 0 -0.27015330814992611 -0.058867118227927437 0 -0.29850594913894141 -0.055440370537233663 0 -0.28660483069534037 -0.061918496488246169 0 -0.29557893925590151 -0.069462416794053169 0 -0.29850594913894141 -0.055440370537233663 0 -0.29366820665513949 -0.048519954280836622 0 -0.28660483069534037 -0.061918496488246169 0 -0.29366820665513949 -0.048519954280836622 0 -0.27015330814992611 -0.058867118227927437 0 -0.27524211720584768 -0.038538427260779863 0 -0.26968711719611937 -0.018332150292041979 0 -0.27524211720584768 -0.038538427260779863 0 -0.26155562347943467 -0.037861138146123199 0 -0.27015330814992611 -0.058867118227927437 0 -0.27524211720584768 -0.038538427260779863 0 -0.26155562347943467 -0.037861138146123199 0 -0.24798951326795751 -0.035882587373858313 0 -0.26155562347943467 -0.037861138146123199 0 -0.25238491957690051 -0.051022134359787842 0 -0.24798951326795751 -0.035882587373858313 0 -0.25387676547985721 -0.02452441136234379 0 -0.26155562347943467 -0.037861138146123199 0 -0.27015330814992611 -0.058867118227927437 0 -0.26155562347943467 -0.037861138146123199 0 -0.25238491957690051 -0.051022134359787842 0 -0.2466384096447127 -0.069214282175018252 0 -0.27015330814992611 -0.058867118227927437 0 -0.25238491957690051 -0.051022134359787842 0 -0.2466384096447127 -0.069214282175018252 0 -0.27015330814992611 -0.058867118227927437 0 -0.26102584033089798 -0.073534373921212107 0 -0.2466384096447127 -0.069214282175018252 0 -0.27015330814992611 -0.058867118227927437 0 -0.2466384096447127 -0.069214282175018252 0 -0.26102584033089798 -0.073534373921212107 0 -0.25106785873748549 -0.083001848322642804 0 -0.25106785873748549 -0.083001848322642804 0 -0.26431637422662529 -0.083961298504163229 0 -0.25687551172258971 -0.095275519396915032 0 -0.26431637422662529 -0.083961298504163229 0 -0.25687551172258971 -0.095275519396915032 0 -0.26922948176741379 -0.094556007429682482 0 -0.26102584033089798 -0.073534373921212107 0 -0.25106785873748549 -0.083001848322642804 0 -0.26431637422662529 -0.083961298504163229 0 -0.26431637422662529 -0.083961298504163229 0 -0.27622487875609619 -0.085738752979791055 0 -0.27411142324960069 -0.07331497732508381 0 -0.26431637422662529 -0.083961298504163229 0 -0.27622487875609619 -0.085738752979791055 0 -0.26922948176741379 -0.094556007429682482 0 -0.27622487875609619 -0.085738752979791055 0 -0.26922948176741379 -0.094556007429682482 0 -0.28208733676033698 -0.099544680508420066 0 -0.27622487875609619 -0.085738752979791055 0 -0.27411142324960069 -0.07331497732508381 0 -0.28634330733871821 -0.075869823829162894 0 -0.28660483069534037 -0.061918496488246169 0 -0.27015330814992611 -0.058867118227927437 0 -0.27411142324960069 -0.07331497732508381 0 -0.27015330814992611 -0.058867118227927437 0 -0.26102584033089798 -0.073534373921212107 0 -0.27411142324960069 -0.07331497732508381 0 -0.26102584033089798 -0.073534373921212107 0 -0.26431637422662529 -0.083961298504163229 0 -0.27411142324960069 -0.07331497732508381 0 -0.24959534238117709 -0.1078054475449232 0 -0.26009747564537128 -0.1202716976192799 0 -0.26511094786836592 -0.1069062435210571 0 -0.24959534238117709 -0.1078054475449232 0 -0.26511094786836592 -0.1069062435210571 0 -0.25687551172258971 -0.095275519396915032 0 -0.26511094786836592 -0.1069062435210571 0 -0.25687551172258971 -0.095275519396915032 0 -0.26922948176741379 -0.094556007429682482 0 -0.26511094786836592 -0.1069062435210571 0 -0.27676276389741278 -0.11052104179975 0 -0.28208733676033698 -0.099544680508420066 0 -0.26511094786836592 -0.1069062435210571 0 -0.26922948176741379 -0.094556007429682482 0 -0.28208733676033698 -0.099544680508420066 0 -0.26511094786836592 -0.1069062435210571 0 -0.28208733676033698 -0.099544680508420066 0 -0.26009747564537128 -0.1202716976192799 0 -0.28368315898475188 -0.1205679176925603 0 -0.26697405985724948 -0.1304210152969853 0 -0.26009747564537128 -0.1202716976192799 0 -0.27676276389741278 -0.11052104179975 0 -0.28368315898475188 -0.1205679176925603 0 -0.26009747564537128 -0.1202716976192799 0 -0.28368315898475188 -0.1205679176925603 0 -0.26009747564537128 -0.1202716976192799 0 -0.26511094786836592 -0.1069062435210571 0 -0.27676276389741278 -0.11052104179975 0 -0.28368315898475188 -0.1205679176925603 0 -0.30807566230962469 -0.12087427087378499 0 -0.28368315898475188 -0.1205679176925603 0 -0.29137344231852969 -0.1063755175941712 0 -0.30807566230962469 -0.12087427087378499 0 -0.27676276389741278 -0.11052104179975 0 -0.28368315898475188 -0.1205679176925603 0 -0.29137344231852969 -0.1063755175941712 0 -0.28368315898475188 -0.1205679176925603 0 -0.29137344231852969 -0.1063755175941712 0 -0.29137344231852969 -0.1063755175941712 0 -0.28208733676033698 -0.099544680508420066 0 -0.29906372565230788 -0.092183117495782341 0 -0.28208733676033698 -0.099544680508420066 0 -0.29906372565230788 -0.092183117495782341 0 -0.27676276389741278 -0.11052104179975 0 -0.29137344231852969 -0.1063755175941712 0 -0.28208733676033698 -0.099544680508420066 0 -0.29137344231852969 -0.1063755175941712 0 -0.29906372565230788 -0.092183117495782341 0 -0.30690970986333499 -0.10413412755240679 0 -0.29906372565230788 -0.092183117495782341 0 -0.31411573014289268 -0.085656035662949492 0 -0.29137344231852969 -0.1063755175941712 0 -0.30690970986333499 -0.10413412755240679 0 -0.29906372565230788 -0.092183117495782341 0 -0.28368315898475188 -0.1205679176925603 0 -0.30807566230962469 -0.12087427087378499 0 -0.30140371581860798 -0.1292511186866305 0 -0.29137344231852969 -0.1063755175941712 0 -0.30690970986333499 -0.10413412755240679 0 -0.30807566230962469 -0.12087427087378499 0 -0.29557893925590151 -0.069462416794053169 0 -0.28634330733871821 -0.075869823829162894 0 -0.29528406594296941 -0.079953964946478426 0 -0.28660483069534037 -0.061918496488246169 0 -0.29557893925590151 -0.069462416794053169 0 -0.28634330733871821 -0.075869823829162894 0 -0.28660483069534037 -0.061918496488246169 0 -0.27411142324960069 -0.07331497732508381 0 -0.28634330733871821 -0.075869823829162894 0 -0.27622487875609619 -0.085738752979791055 0 -0.28634330733871821 -0.075869823829162894 0 -0.28693891673241251 -0.08747755748016231 0 -0.28208733676033698 -0.099544680508420066 0 -0.28693891673241251 -0.08747755748016231 0 -0.29906372565230788 -0.092183117495782341 0 -0.27622487875609619 -0.085738752979791055 0 -0.28208733676033698 -0.099544680508420066 0 -0.28693891673241251 -0.08747755748016231 0 -0.28693891673241251 -0.08747755748016231 0 -0.29528406594296941 -0.079953964946478426 0 -0.29906372565230788 -0.092183117495782341 0 -0.28634330733871821 -0.075869823829162894 0 -0.28693891673241251 -0.08747755748016231 0 -0.29528406594296941 -0.079953964946478426 0 -0.29528406594296941 -0.079953964946478426 0 -0.29906372565230788 -0.092183117495782341 0 -0.30849544073550722 -0.074776909133231664 0 -0.29906372565230788 -0.092183117495782341 0 -0.30849544073550722 -0.074776909133231664 0 -0.29906372565230788 -0.092183117495782341 0 -0.30849544073550722 -0.074776909133231664 0 -0.31411573014289268 -0.085656035662949492 0 -0.29906372565230788 -0.092183117495782341 0 -0.31411573014289268 -0.085656035662949492 0 -0.30849544073550722 -0.074776909133231664 0 -0.31411573014289268 -0.085656035662949492 0 -0.30229462048881822 -0.056161209871372138 0 -0.30849544073550722 -0.074776909133231664 0 -0.31178497446605258 -0.064623658022855565 0 -0.29850594913894141 -0.055440370537233663 0 -0.29557893925590151 -0.069462416794053169 0 -0.30849544073550722 -0.074776909133231664 0 -0.30849544073550722 -0.074776909133231664 0 -0.31286059459191501 -0.066721027791507209 0 -0.29850594913894141 -0.055440370537233663 0 -0.30849544073550722 -0.074776909133231664 0 -0.29557893925590151 -0.069462416794053169 0 -0.29528406594296941 -0.079953964946478426 0 -0.30849544073550722 -0.074776909133231664 0 -0.30849544073550722 -0.074776909133231664 0 -0.31178497446605258 -0.064623658022855565 0 -0.31286059459191501 -0.066721027791507209 0 -0.31178497446605258 -0.064623658022855565 0 -0.31286059459191501 -0.066721027791507209 0 -0.31286059459191501 -0.066721027791507209 0 -0.32103296817657878 -0.082656476452658639 0 -0.31286059459191501 -0.066721027791507209 0 -0.32103296817657878 -0.082656476452658639 0 -0.32352590008436471 -0.062378140209921912 0 -0.31178497446605258 -0.064623658022855565 0 -0.31286059459191501 -0.066721027791507209 0 -0.31629816603535338 -0.060261719535131632 0 -0.30849544073550722 -0.074776909133231664 0 -0.31286059459191501 -0.066721027791507209 0 -0.32103296817657878 -0.082656476452658639 0 -0.31286059459191501 -0.066721027791507209 0 -0.31629816603535338 -0.060261719535131632 0 -0.31286059459191501 -0.066721027791507209 0 -0.31629816603535338 -0.060261719535131632 0 -0.32352590008436471 -0.062378140209921912 0 -0.32103296817657878 -0.082656476452658639 0 -0.33093834944883532 -0.101971145942244 0 -0.30849544073550722 -0.074776909133231664 0 -0.31411573014289268 -0.085656035662949492 0 -0.32103296817657878 -0.082656476452658639 0 -0.31411573014289268 -0.085656035662949492 0 -0.32103296817657878 -0.082656476452658639 0 -0.32329194788869442 -0.1034183298589804 0 -0.31411573014289268 -0.085656035662949492 0 -0.32103296817657878 -0.082656476452658639 0 -0.32103296817657878 -0.082656476452658639 0 -0.33692687914299491 -0.089632102483736459 0 -0.33093834944883532 -0.101971145942244 0 -0.32103296817657878 -0.082656476452658639 0 -0.33692687914299491 -0.089632102483736459 0 -0.3453529791357649 -0.07211045902320197 0 -0.32103296817657878 -0.082656476452658639 0 -0.3453529791357649 -0.07211045902320197 0 -0.32352590008436471 -0.062378140209921912 0 -0.34475717967991132 -0.068595070548471249 0 -0.3453529791357649 -0.07211045902320197 0 -0.32352590008436471 -0.062378140209921912 0 -0.34475717967991132 -0.068595070548471249 0 -0.32352590008436471 -0.062378140209921912 0 -0.32103296817657878 -0.082656476452658639 0 -0.3453529791357649 -0.07211045902320197 0 -0.30807566230962469 -0.12087427087378499 0 -0.32329194788869442 -0.1034183298589804 0 -0.33246816563449738 -0.1211806240550105 0 -0.30807566230962469 -0.12087427087378499 0 -0.33246816563449738 -0.1211806240550105 0 -0.30807566230962469 -0.12087427087378499 0 -0.32007374605487132 -0.12494213909402439 0 -0.33246816563449738 -0.1211806240550105 0 -0.30690970986333499 -0.10413412755240679 0 -0.30807566230962469 -0.12087427087378499 0 -0.32329194788869442 -0.1034183298589804 0 -0.32329194788869442 -0.1034183298589804 0 -0.33246816563449738 -0.1211806240550105 0 -0.32007374605487132 -0.12494213909402439 0 -0.33441303965894859 -0.1249452932850653 0 -0.30690970986333499 -0.10413412755240679 0 -0.31411573014289268 -0.085656035662949492 0 -0.32329194788869442 -0.1034183298589804 0 -0.32103296817657878 -0.082656476452658639 0 -0.32329194788869442 -0.1034183298589804 0 -0.33093834944883532 -0.101971145942244 0 -0.31411573014289268 -0.085656035662949492 0 -0.32329194788869442 -0.1034183298589804 0 -0.32329194788869442 -0.1034183298589804 0 -0.33093834944883532 -0.101971145942244 0 -0.33246816563449738 -0.1211806240550105 0 -0.33692687914299491 -0.089632102483736459 0 -0.33093834944883532 -0.101971145942244 0 -0.35038321981080389 -0.10179032851684799 0 -0.33093834944883532 -0.101971145942244 0 -0.34773438721257438 -0.1121772477149196 0 -0.35038321981080389 -0.10179032851684799 0 -0.33093834944883532 -0.101971145942244 0 -0.3408437307210912 -0.1212858154318297 0 -0.33093834944883532 -0.101971145942244 0 -0.3408437307210912 -0.1212858154318297 0 -0.33246816563449738 -0.1211806240550105 0 -0.33093834944883532 -0.101971145942244 0 -0.3408437307210912 -0.1212858154318297 0 -0.34773438721257438 -0.1121772477149196 0 -0.34272140335036932 -0.124947120862287 0 -0.3408437307210912 -0.1212858154318297 0 -0.33441303965894859 -0.1249452932850653 0 -0.3408437307210912 -0.1212858154318297 0 -0.33246816563449738 -0.1211806240550105 0 -0.34272140335036932 -0.124947120862287 0 -0.33441303965894859 -0.1249452932850653 0 -0.34272140335036932 -0.124947120862287 0 -0.3408437307210912 -0.1212858154318297 0 -0.32007374605487132 -0.12494213909402439 0 -0.33441303965894859 -0.1249452932850653 0 -0.33246816563449738 -0.1211806240550105 0 -0.3408437307210912 -0.1212858154318297 0 -0.33441303965894859 -0.1249452932850653 0 -0.33246816563449738 -0.1211806240550105 0 -0.33441303965894859 -0.1249452932850653 0 -0.33246816563449738 -0.1211806240550105 0 -0.34272140335036932 -0.124947120862287 0 -0.35433435295871402 -0.1214552484327875 0 -0.36893450279197471 -0.1249528869149899 0 -0.34272140335036932 -0.124947120862287 0 -0.36893450279197471 -0.1249528869149899 0 -0.3408437307210912 -0.1212858154318297 0 -0.35433435295871402 -0.1214552484327875 0 -0.3408437307210912 -0.1212858154318297 0 -0.35433435295871402 -0.1214552484327875 0 -0.34773438721257438 -0.1121772477149196 0 -0.34272140335036932 -0.124947120862287 0 -0.3408437307210912 -0.1212858154318297 0 -0.35433435295871402 -0.1214552484327875 0 -0.35433435295871402 -0.1214552484327875 0 -0.34773438721257438 -0.1121772477149196 0 -0.3623387343604032 -0.1125517513480446 0 -0.34773438721257438 -0.1121772477149196 0 -0.35038321981080389 -0.10179032851684799 0 -0.3623387343604032 -0.1125517513480446 0 -0.37380044498630338 -0.100392191664622 0 -0.3623387343604032 -0.1125517513480446 0 -0.3789649235099295 -0.11270856972454819 0 -0.35038321981080389 -0.10179032851684799 0 -0.37380044498630338 -0.100392191664622 0 -0.36747037526515469 -0.088210616938563927 0 -0.35038321981080389 -0.10179032851684799 0 -0.37380044498630338 -0.100392191664622 0 -0.3623387343604032 -0.1125517513480446 0 -0.3623387343604032 -0.1125517513480446 0 -0.36893450279197471 -0.1249528869149899 0 -0.3789649235099295 -0.11270856972454819 0 -0.35433435295871402 -0.1214552484327875 0 -0.3623387343604032 -0.1125517513480446 0 -0.36893450279197471 -0.1249528869149899 0 -0.34995192587724822 -0.070116192960804249 0 -0.35645509357982358 -0.081628608772215283 0 -0.36843110820579178 -0.075527255856609146 0 -0.34995192587724822 -0.070116192960804249 0 -0.36608399240098949 -0.063120758007335118 0 -0.35494834161021771 -0.06194377696909157 0 -0.34995192587724822 -0.070116192960804249 0 -0.36843110820579178 -0.075527255856609146 0 -0.34995192587724822 -0.070116192960804249 0 -0.36608399240098949 -0.063120758007335118 0 -0.34995192587724822 -0.070116192960804249 0 -0.34475717967991132 -0.068595070548471249 0 -0.35494834161021771 -0.06194377696909157 0 -0.34995192587724822 -0.070116192960804249 0 -0.34475717967991132 -0.068595070548471249 0 -0.34995192587724822 -0.070116192960804249 0 -0.34475717967991132 -0.068595070548471249 0 -0.3453529791357649 -0.07211045902320197 0 -0.34995192587724822 -0.070116192960804249 0 -0.3453529791357649 -0.07211045902320197 0 -0.34995192587724822 -0.070116192960804249 0 -0.3453529791357649 -0.07211045902320197 0 -0.35645509357982358 -0.081628608772215283 0 -0.34475717967991132 -0.068595070548471249 0 -0.3453529791357649 -0.07211045902320197 0 -0.35038321981080389 -0.10179032851684799 0 -0.35645509357982358 -0.081628608772215283 0 -0.36747037526515469 -0.088210616938563927 0 -0.35038321981080389 -0.10179032851684799 0 -0.3453529791357649 -0.07211045902320197 0 -0.35645509357982358 -0.081628608772215283 0 -0.33692687914299491 -0.089632102483736459 0 -0.35038321981080389 -0.10179032851684799 0 -0.3453529791357649 -0.07211045902320197 0 -0.35038321981080389 -0.10179032851684799 0 -0.3453529791357649 -0.07211045902320197 0 -0.36747037526515469 -0.088210616938563927 0 -0.36843110820579178 -0.075527255856609146 0 -0.38691029053433551 -0.080938318752413793 0 -0.35645509357982358 -0.081628608772215283 0 -0.36747037526515469 -0.088210616938563927 0 -0.36843110820579178 -0.075527255856609146 0 -0.34995192587724822 -0.070116192960804249 0 -0.36843110820579178 -0.075527255856609146 0 -0.36608399240098949 -0.063120758007335118 0 -0.36843110820579178 -0.075527255856609146 0 -0.36608399240098949 -0.063120758007335118 0 -0.37978412082390189 -0.068029865631836883 0 -0.36608399240098949 -0.063120758007335118 0 -0.37085155020467431 -0.050438611479832557 0 -0.38221605892473098 -0.056125323053866277 0 -0.36608399240098949 -0.063120758007335118 0 -0.38221605892473098 -0.056125323053866277 0 -0.37085155020467431 -0.050438611479832557 0 -0.36177701350261748 -0.054750595911384127 0 -0.36329546327126672 -0.041142767418341691 0 -0.36608399240098949 -0.063120758007335118 0 -0.36177701350261748 -0.054750595911384127 0 -0.35494834161021771 -0.06194377696909157 0 -0.36608399240098949 -0.063120758007335118 0 -0.37085155020467431 -0.050438611479832557 0 -0.36177701350261748 -0.054750595911384127 0 -0.36177701350261748 -0.054750595911384127 0 -0.35494834161021771 -0.06194377696909157 0 -0.35217159659032232 -0.05313626741746251 0 -0.34475717967991132 -0.068595070548471249 0 -0.35217159659032232 -0.05313626741746251 0 -0.34008173660725832 -0.04100860914713586 0 -0.36177701350261748 -0.054750595911384127 0 -0.35217159659032232 -0.05313626741746251 0 -0.36329546327126672 -0.041142767418341691 0 -0.34475717967991132 -0.068595070548471249 0 -0.35494834161021771 -0.06194377696909157 0 -0.35217159659032232 -0.05313626741746251 0 -0.35217159659032232 -0.05313626741746251 0 -0.35233090603521772 -0.034345905606361089 0 -0.36329546327126672 -0.041142767418341691 0 -0.35217159659032232 -0.05313626741746251 0 -0.35233090603521772 -0.034345905606361089 0 -0.34008173660725832 -0.04100860914713586 0 -0.35233090603521772 -0.034345905606361089 0 -0.34677261788783459 -0.022263095799622792 0 -0.34008173660725832 -0.04100860914713586 0 -0.35233090603521772 -0.034345905606361089 0 -0.36329546327126672 -0.041142767418341691 0 -0.36125368123050811 -0.029816691131076791 0 -0.36329546327126672 -0.041142767418341691 0 -0.37015544225173291 -0.03012439130571171 0 -0.36125368123050811 -0.029816691131076791 0 -0.37085155020467431 -0.050438611479832557 0 -0.36329546327126672 -0.041142767418341691 0 -0.37439980638912518 -0.038891661293645137 0 -0.36329546327126672 -0.041142767418341691 0 -0.37439980638912518 -0.038891661293645137 0 -0.37015544225173291 -0.03012439130571171 0 -0.37439980638912518 -0.038891661293645137 0 -0.37015544225173291 -0.03012439130571171 0 -0.37866743010551202 -0.02906954498465647 0 -0.37015544225173291 -0.03012439130571171 0 -0.37402384376206249 -0.023759624541515059 0 -0.37866743010551202 -0.02906954498465647 0 -0.37015544225173291 -0.03012439130571171 0 -0.37402384376206249 -0.023759624541515059 0 -0.36652472594663232 -0.022500501643346649 0 -0.37402384376206249 -0.023759624541515059 0 -0.37465439862472261 -0.016787835852634068 0 -0.36652472594663232 -0.022500501643346649 0 -0.37465439862472261 -0.016787835852634068 0 -0.36652472594663232 -0.022500501643346649 0 -0.3596530522362773 -0.017262546391789129 0 -0.36652472594663232 -0.022500501643346649 0 -0.3596530522362773 -0.017262546391789129 0 -0.35649867437881472 -0.022585523222405649 0 -0.36652472594663232 -0.022500501643346649 0 -0.36125368123050811 -0.029816691131076791 0 -0.35649867437881472 -0.022585523222405649 0 -0.37015544225173291 -0.03012439130571171 0 -0.36652472594663232 -0.022500501643346649 0 -0.36125368123050811 -0.029816691131076791 0 -0.37465439862472261 -0.016787835852634068 0 -0.3596530522362773 -0.017262546391789129 0 -0.34857824671955512 -0.007874197240844389 0 -0.37465439862472261 -0.016787835852634068 0 -0.3597652811465577 -0.0058215117475868012 0 -0.34857824671955512 -0.007874197240844389 0 -0.37465439862472261 -0.016787835852634068 0 -0.34857824671955512 -0.007874197240844389 0 -0.37126952376897032 -0.00085078512189483576 0 -0.36867541047690239 -0.006920070417115203 0 -0.36494834593608783 -0.001298186014321303 0 -0.37126952376897032 -0.00085078512189483576 0 -0.37464851222799189 -0.0076089195940836872 0 -0.37774077980655368 -0.001289555558904682 0 -0.37126952376897032 -0.00085078512189483576 0 -0.37464851222799189 -0.0076089195940836872 0 -0.36867541047690239 -0.006920070417115203 0 -0.37465439862472261 -0.016787835852634068 0 -0.36867541047690239 -0.006920070417115203 0 -0.3597652811465577 -0.0058215117475868012 0 -0.37465439862472261 -0.016787835852634068 0 -0.37464851222799189 -0.0076089195940836872 0 -0.36867541047690239 -0.006920070417115203 0 -0.36867541047690239 -0.006920070417115203 0 -0.3597652811465577 -0.0058215117475868012 0 -0.36494834593608783 -0.001298186014321303 0 -0.3597652811465577 -0.0058215117475868012 0 -0.36494834593608783 -0.001298186014321303 0 -0.35900139338342918 0.0020097317905480609 0 -0.3597652811465577 -0.0058215117475868012 0 -0.35221409618436439 -0.0049109655465913588 0 -0.34857824671955512 -0.007874197240844389 0 -0.3597652811465577 -0.0058215117475868012 0 -0.35509488683577939 -0.0004162838960613095 0 -0.35900139338342918 0.0020097317905480609 0 -0.3597652811465577 -0.0058215117475868012 0 -0.35509488683577939 -0.0004162838960613095 0 -0.35221409618436439 -0.0049109655465913588 0 -0.3596530522362773 -0.017262546391789129 0 -0.34857824671955512 -0.007874197240844389 0 -0.35200921551166209 -0.0165646739997149 0 -0.34857824671955512 -0.007874197240844389 0 -0.34618108527798752 -0.01472783018749277 0 -0.35200921551166209 -0.0165646739997149 0 -0.35233090603521772 -0.034345905606361089 0 -0.36125368123050811 -0.029816691131076791 0 -0.35649867437881472 -0.022585523222405649 0 -0.35233090603521772 -0.034345905606361089 0 -0.35649867437881472 -0.022585523222405649 0 -0.34677261788783459 -0.022263095799622792 0 -0.35649867437881472 -0.022585523222405649 0 -0.35200921551166209 -0.0165646739997149 0 -0.34677261788783459 -0.022263095799622792 0 -0.3596530522362773 -0.017262546391789129 0 -0.35649867437881472 -0.022585523222405649 0 -0.35200921551166209 -0.0165646739997149 0 -0.34618108527798752 -0.01472783018749277 0 -0.35200921551166209 -0.0165646739997149 0 -0.34677261788783459 -0.022263095799622792 0 -0.33540629353460438 -0.01342214774580049 0 -0.31718310516035308 -0.038172790333745737 0 -0.34008173660725832 -0.04100860914713586 0 -0.33540629353460438 -0.01342214774580049 0 -0.34008173660725832 -0.04100860914713586 0 -0.34677261788783459 -0.022263095799622792 0 -0.33540629353460438 -0.01342214774580049 0 -0.34008173660725832 -0.04100860914713586 0 -0.34618108527798752 -0.01472783018749277 0 -0.34677261788783459 -0.022263095799622792 0 -0.33540629353460438 -0.01342214774580049 0 -0.33540629353460438 -0.01342214774580049 0 -0.3204068892458079 -0.0014125807301150939 0 -0.33073085046195078 0.01416431365553468 0 -0.34857824671955512 -0.007874197240844389 0 -0.33540629353460438 -0.01342214774580049 0 -0.33073085046195078 0.01416431365553468 0 -0.34857824671955512 -0.007874197240844389 0 -0.34618108527798752 -0.01472783018749277 0 -0.33540629353460438 -0.01342214774580049 0 -0.3025805037907468 -0.0027432771802810229 0 -0.31459326366374579 -0.01532774276474733 0 -0.3204068892458079 -0.0014125807301150939 0 -0.33540629353460438 -0.01342214774580049 0 -0.31459326366374579 -0.01532774276474733 0 -0.3204068892458079 -0.0014125807301150939 0 -0.33540629353460438 -0.01342214774580049 0 -0.31459326366374579 -0.01532774276474733 0 -0.31718310516035308 -0.038172790333745737 0 -0.31718310516035308 -0.038172790333745737 0 -0.3268834079531176 -0.05023453433316457 0 -0.34008173660725832 -0.04100860914713586 0 -0.31718310516035308 -0.038172790333745737 0 -0.31370341578724742 -0.051143824177853653 0 -0.3268834079531176 -0.05023453433316457 0 -0.31370341578724742 -0.051143824177853653 0 -0.31629816603535338 -0.060261719535131632 0 -0.32352590008436471 -0.062378140209921912 0 -0.31629816603535338 -0.060261719535131632 0 -0.32352590008436471 -0.062378140209921912 0 -0.32352590008436471 -0.062378140209921912 0 -0.3268834079531176 -0.05023453433316457 0 -0.33381205608116321 -0.055554088559673351 0 -0.31370341578724742 -0.051143824177853653 0 -0.32352590008436471 -0.062378140209921912 0 -0.3268834079531176 -0.05023453433316457 0 -0.34475717967991132 -0.068595070548471249 0 -0.32352590008436471 -0.062378140209921912 0 -0.33381205608116321 -0.055554088559673351 0 -0.34475717967991132 -0.068595070548471249 0 -0.33381205608116321 -0.055554088559673351 0 -0.34008173660725832 -0.04100860914713586 0 -0.3268834079531176 -0.05023453433316457 0 -0.33381205608116321 -0.055554088559673351 0 -0.34008173660725832 -0.04100860914713586 0 -0.34475717967991132 -0.068595070548471249 0 -0.34008173660725832 -0.04100860914713586 0 -0.29131753467172561 -0.25675805269722002 0 -0.30769212114973271 -0.24578220261295139 0 -0.29241592956139478 -0.23974284613727589 0 -0.30769212114973271 -0.24578220261295139 0 -0.30829656048542242 -0.23127198481015249 0 -0.29241592956139478 -0.23974284613727589 0 -0.30829656048542242 -0.23127198481015249 0 -0.29279532374442052 -0.2217612167757172 0 -0.3129652712195421 -0.2114706657937139 0 -0.30829656048542242 -0.23127198481015249 0 -0.29279532374442052 -0.2217612167757172 0 -0.29241592956139478 -0.23974284613727589 0 -0.29279532374442052 -0.2217612167757172 0 -0.29241592956139478 -0.23974284613727589 0 -0.27798049023744681 -0.23352671123603991 0 -0.29279532374442052 -0.2217612167757172 0 -0.27798049023744681 -0.23352671123603991 0 -0.27449661508218531 -0.21747639879007349 0 -0.29131753467172561 -0.25675805269722002 0 -0.29241592956139478 -0.23974284613727589 0 -0.27722523139620658 -0.24922189107985179 0 -0.29241592956139478 -0.23974284613727589 0 -0.27722523139620658 -0.24922189107985179 0 -0.27798049023744681 -0.23352671123603991 0 -0.27722523139620658 -0.24922189107985179 0 -0.25992972331208369 -0.2410680052130979 0 -0.27798049023744681 -0.23352671123603991 0 -0.26398002587916253 -0.25656090854441049 0 -0.27722523139620658 -0.24922189107985179 0 -0.25992972331208369 -0.2410680052130979 0 -0.25992972331208369 -0.2410680052130979 0 -0.25674041691710447 -0.22108212323078871 0 -0.27798049023744681 -0.23352671123603991 0 -0.2377451423251814 -0.23136366228574551 0 -0.25992972331208369 -0.2410680052130979 0 -0.25674041691710447 -0.22108212323078871 0 -0.25674041691710447 -0.22108212323078871 0 -0.27798049023744681 -0.23352671123603991 0 -0.27449661508218531 -0.21747639879007349 0 -0.27449661508218531 -0.21747639879007349 0 -0.25644706280453389 -0.1995927939493197 0 -0.27817485521465529 -0.19463925610534399 0 -0.27449661508218531 -0.21747639879007349 0 -0.27817485521465529 -0.19463925610534399 0 -0.25674041691710447 -0.22108212323078871 0 -0.27449661508218531 -0.21747639879007349 0 -0.25644706280453389 -0.1995927939493197 0 -0.25644706280453389 -0.1995927939493197 0 -0.27817485521465529 -0.19463925610534399 0 -0.26629571781906192 -0.18034234132084431 0 -0.27817485521465529 -0.19463925610534399 0 -0.29367807880863189 -0.20345752952089671 0 -0.29386082525749962 -0.1848532680646672 0 -0.27449661508218531 -0.21747639879007349 0 -0.27817485521465529 -0.19463925610534399 0 -0.29367807880863189 -0.20345752952089671 0 -0.29279532374442052 -0.2217612167757172 0 -0.27449661508218531 -0.21747639879007349 0 -0.29367807880863189 -0.20345752952089671 0 -0.29279532374442052 -0.2217612167757172 0 -0.29367807880863189 -0.20345752952089671 0 -0.3129652712195421 -0.2114706657937139 0 -0.29367807880863189 -0.20345752952089671 0 -0.30717411826112789 -0.1920401195635244 0 -0.29386082525749962 -0.1848532680646672 0 -0.29367807880863189 -0.20345752952089671 0 -0.30717411826112789 -0.1920401195635244 0 -0.3129652712195421 -0.2114706657937139 0 -0.30551265723832022 -0.17938492804960809 0 -0.29677214667513702 -0.1677956617280158 0 -0.29386082525749962 -0.1848532680646672 0 -0.30717411826112789 -0.1920401195635244 0 -0.30551265723832022 -0.17938492804960809 0 -0.29386082525749962 -0.1848532680646672 0 -0.30717411826112789 -0.1920401195635244 0 -0.30551265723832022 -0.17938492804960809 0 -0.31489114071409963 -0.18333745750317351 0 -0.30551265723832022 -0.17938492804960809 0 -0.31220508881165993 -0.16846949012138551 0 -0.29677214667513702 -0.1677956617280158 0 -0.30551265723832022 -0.17938492804960809 0 -0.31220508881165993 -0.16846949012138551 0 -0.31489114071409963 -0.18333745750317351 0 -0.31220508881165993 -0.16846949012138551 0 -0.2949530938874384 -0.15245549241185349 0 -0.31498630483336881 -0.15987728715749039 0 -0.31220508881165993 -0.16846949012138551 0 -0.2949530938874384 -0.15245549241185349 0 -0.31220508881165993 -0.16846949012138551 0 -0.29677214667513702 -0.1677956617280158 0 -0.2949530938874384 -0.15245549241185349 0 -0.28185309534712533 -0.17180211342061449 0 -0.28553133547959519 -0.14896497073588499 0 -0.29677214667513702 -0.1677956617280158 0 -0.28185309534712533 -0.17180211342061449 0 -0.2949530938874384 -0.15245549241185349 0 -0.28185309534712533 -0.17180211342061449 0 -0.28553133547959519 -0.14896497073588499 0 -0.2949530938874384 -0.15245549241185349 0 -0.27817485521465529 -0.19463925610534399 0 -0.28185309534712533 -0.17180211342061449 0 -0.29386082525749962 -0.1848532680646672 0 -0.29677214667513702 -0.1677956617280158 0 -0.28185309534712533 -0.17180211342061449 0 -0.29386082525749962 -0.1848532680646672 0 -0.27817485521465529 -0.19463925610534399 0 -0.28185309534712533 -0.17180211342061449 0 -0.27817485521465529 -0.19463925610534399 0 -0.28185309534712533 -0.17180211342061449 0 -0.26629571781906192 -0.18034234132084431 0 -0.26629571781906192 -0.18034234132084431 0 -0.25029992488695979 -0.1782534950292988 0 -0.25761979100978533 -0.16665415002795461 0 -0.25644706280453389 -0.1995927939493197 0 -0.26629571781906192 -0.18034234132084431 0 -0.25029992488695979 -0.1782534950292988 0 -0.26629571781906192 -0.18034234132084431 0 -0.25761979100978533 -0.16665415002795461 0 -0.26933386928146391 -0.16300442301689841 0 -0.24825300788518309 -0.1555077779107997 0 -0.25761979100978533 -0.16665415002795461 0 -0.26108146703715113 -0.15708396540124031 0 -0.25761979100978533 -0.16665415002795461 0 -0.26108146703715113 -0.15708396540124031 0 -0.26933386928146391 -0.16300442301689841 0 -0.28185309534712533 -0.17180211342061449 0 -0.27598770130958522 -0.15333886838191951 0 -0.28553133547959519 -0.14896497073588499 0 -0.28185309534712533 -0.17180211342061449 0 -0.26629571781906192 -0.18034234132084431 0 -0.26933386928146391 -0.16300442301689841 0 -0.26108146703715113 -0.15708396540124031 0 -0.26933386928146391 -0.16300442301689841 0 -0.26726071412102442 -0.15087550168963329 0 -0.28185309534712533 -0.17180211342061449 0 -0.26933386928146391 -0.16300442301689841 0 -0.27598770130958522 -0.15333886838191951 0 -0.27598770130958522 -0.15333886838191951 0 -0.271177428866754 -0.14364721368904659 0 -0.28553133547959519 -0.14896497073588499 0 -0.271177428866754 -0.14364721368904659 0 -0.28662611268527088 -0.1421678116724244 0 -0.28553133547959519 -0.14896497073588499 0 -0.271177428866754 -0.14364721368904659 0 -0.28553133547959519 -0.14896497073588499 0 -0.271177428866754 -0.14364721368904659 0 -0.26726071412102442 -0.15087550168963329 0 -0.25891484533836889 -0.13910423861407881 0 -0.271177428866754 -0.14364721368904659 0 -0.26726071412102442 -0.15087550168963329 0 -0.27598770130958522 -0.15333886838191951 0 -0.271177428866754 -0.14364721368904659 0 -0.26726071412102442 -0.15087550168963329 0 -0.26933386928146391 -0.16300442301689841 0 -0.27598770130958522 -0.15333886838191951 0 -0.26726071412102442 -0.15087550168963329 0 -0.2405789555143194 -0.1375116727892334 0 -0.25601133851015478 -0.1487044986697981 0 -0.25891484533836889 -0.13910423861407881 0 -0.26108146703715113 -0.15708396540124031 0 -0.26726071412102442 -0.15087550168963329 0 -0.25601133851015478 -0.1487044986697981 0 -0.271177428866754 -0.14364721368904659 0 -0.25891484533836889 -0.13910423861407881 0 -0.26726071412102442 -0.15087550168963329 0 -0.25601133851015478 -0.1487044986697981 0 -0.25891484533836889 -0.13910423861407881 0 -0.24825300788518309 -0.1555077779107997 0 -0.26108146703715113 -0.15708396540124031 0 -0.25601133851015478 -0.1487044986697981 0 -0.26009747564537128 -0.1202716976192799 0 -0.25054446979338107 -0.12912519928877991 0 -0.26697405985724948 -0.1304210152969853 0 -0.25054446979338107 -0.12912519928877991 0 -0.25891484533836889 -0.13910423861407881 0 -0.26697405985724948 -0.1304210152969853 0 -0.2405789555143194 -0.1375116727892334 0 -0.25054446979338107 -0.12912519928877991 0 -0.25891484533836889 -0.13910423861407881 0 -0.28368315898475188 -0.1205679176925603 0 -0.271177428866754 -0.14364721368904659 0 -0.26697405985724948 -0.1304210152969853 0 -0.28368315898475188 -0.1205679176925603 0 -0.271177428866754 -0.14364721368904659 0 -0.28514813781506088 -0.1345929107172644 0 -0.28368315898475188 -0.1205679176925603 0 -0.271177428866754 -0.14364721368904659 0 -0.271177428866754 -0.14364721368904659 0 -0.25891484533836889 -0.13910423861407881 0 -0.26697405985724948 -0.1304210152969853 0 -0.271177428866754 -0.14364721368904659 0 -0.28514813781506088 -0.1345929107172644 0 -0.28662611268527088 -0.1421678116724244 0 -0.28368315898475188 -0.1205679176925603 0 -0.29492821592448881 -0.13453805291007029 0 -0.28514813781506088 -0.1345929107172644 0 -0.28368315898475188 -0.1205679176925603 0 -0.29492821592448881 -0.13453805291007029 0 -0.30140371581860798 -0.1292511186866305 0 -0.29492821592448881 -0.13453805291007029 0 -0.2912775948780732 -0.1389862943003273 0 -0.28514813781506088 -0.1345929107172644 0 -0.29657756063899582 -0.140013172184488 0 -0.29492821592448881 -0.13453805291007029 0 -0.2912775948780732 -0.1389862943003273 0 -0.2912775948780732 -0.1389862943003273 0 -0.28514813781506088 -0.1345929107172644 0 -0.28662611268527088 -0.1421678116724244 0 -0.28662611268527088 -0.1421678116724244 0 -0.28553133547959519 -0.14896497073588499 0 -0.28662611268527088 -0.1421678116724244 0 -0.28553133547959519 -0.14896497073588499 0 -0.28937009998544028 -0.14621975116982991 0 -0.28553133547959519 -0.14896497073588499 0 -0.2922536480049423 -0.1499497578362777 0 -0.28937009998544028 -0.14621975116982991 0 -0.28553133547959519 -0.14896497073588499 0 -0.2922536480049423 -0.1499497578362777 0 -0.2949530938874384 -0.15245549241185349 0 -0.28553133547959519 -0.14896497073588499 0 -0.2949530938874384 -0.15245549241185349 0 -0.2922536480049423 -0.1499497578362777 0 -0.2949530938874384 -0.15245549241185349 0 -0.29617843115691228 -0.14802272380236281 0 -0.2922536480049423 -0.1499497578362777 0 -0.2949530938874384 -0.15245549241185349 0 -0.2912775948780732 -0.1389862943003273 0 -0.28662611268527088 -0.1421678116724244 0 -0.29310794732654949 -0.1436195240173895 0 -0.28662611268527088 -0.1421678116724244 0 -0.28937009998544028 -0.14621975116982991 0 -0.29310794732654949 -0.1436195240173895 0 -0.2922536480049423 -0.1499497578362777 0 -0.28937009998544028 -0.14621975116982991 0 -0.29310794732654949 -0.1436195240173895 0 -0.29617843115691228 -0.14802272380236281 0 -0.29310794732654949 -0.1436195240173895 0 -0.29956135480037449 -0.14472193576336759 0 -0.2922536480049423 -0.1499497578362777 0 -0.29617843115691228 -0.14802272380236281 0 -0.29310794732654949 -0.1436195240173895 0 -0.29657756063899582 -0.140013172184488 0 -0.2912775948780732 -0.1389862943003273 0 -0.29310794732654949 -0.1436195240173895 0 -0.29657756063899582 -0.140013172184488 0 -0.29310794732654949 -0.1436195240173895 0 -0.29956135480037449 -0.14472193576336759 0 -0.29956135480037449 -0.14472193576336759 0 -0.30554397810907652 -0.146919348525368 0 -0.30456114821214081 -0.13888567554976469 0 -0.2949530938874384 -0.15245549241185349 0 -0.30620642865757891 -0.15285211384445899 0 -0.31498630483336881 -0.15987728715749039 0 -0.2949530938874384 -0.15245549241185349 0 -0.31498630483336881 -0.15987728715749039 0 -0.29657756063899582 -0.140013172184488 0 -0.29956135480037449 -0.14472193576336759 0 -0.30456114821214081 -0.13888567554976469 0 -0.29617843115691228 -0.14802272380236281 0 -0.29956135480037449 -0.14472193576336759 0 -0.30052761464898298 -0.14908162957255741 0 -0.29956135480037449 -0.14472193576336759 0 -0.30052761464898298 -0.14908162957255741 0 -0.30554397810907652 -0.146919348525368 0 -0.2949530938874384 -0.15245549241185349 0 -0.30052761464898298 -0.14908162957255741 0 -0.30620642865757891 -0.15285211384445899 0 -0.2949530938874384 -0.15245549241185349 0 -0.29617843115691228 -0.14802272380236281 0 -0.30052761464898298 -0.14908162957255741 0 -0.30052761464898298 -0.14908162957255741 0 -0.30620642865757891 -0.15285211384445899 0 -0.30554397810907652 -0.146919348525368 0 -0.30620642865757891 -0.15285211384445899 0 -0.31211863317072019 -0.1538765410016501 0 -0.31498630483336881 -0.15987728715749039 0 -0.30620642865757891 -0.15285211384445899 0 -0.31071230574427161 -0.15022116190891349 0 -0.30554397810907652 -0.146919348525368 0 -0.30620642865757891 -0.15285211384445899 0 -0.31071230574427161 -0.15022116190891349 0 -0.31211863317072019 -0.1538765410016501 0 -0.31246836027323899 -0.14497521722301901 0 -0.31246708178415561 -0.13872402753426441 0 -0.30456114821214081 -0.13888567554976469 0 -0.30554397810907652 -0.146919348525368 0 -0.31246836027323899 -0.14497521722301901 0 -0.30456114821214081 -0.13888567554976469 0 -0.31071230574427161 -0.15022116190891349 0 -0.30554397810907652 -0.146919348525368 0 -0.31246836027323899 -0.14497521722301901 0 -0.30140371581860798 -0.1292511186866305 0 -0.30456114821214081 -0.13888567554976469 0 -0.31280589771709483 -0.13181614145056869 0 -0.31246708178415561 -0.13872402753426441 0 -0.30456114821214081 -0.13888567554976469 0 -0.31280589771709483 -0.13181614145056869 0 -0.30807566230962469 -0.12087427087378499 0 -0.30140371581860798 -0.1292511186866305 0 -0.31280589771709483 -0.13181614145056869 0 -0.29657756063899582 -0.140013172184488 0 -0.29492821592448881 -0.13453805291007029 0 -0.30456114821214081 -0.13888567554976469 0 -0.29492821592448881 -0.13453805291007029 0 -0.30140371581860798 -0.1292511186866305 0 -0.30456114821214081 -0.13888567554976469 0 -0.3226930215385343 -0.13395567837890529 0 -0.31855308997834159 -0.13934265221991729 0 -0.32506280578504959 -0.14064102607364051 0 -0.3226930215385343 -0.13395567837890529 0 -0.32506280578504959 -0.14064102607364051 0 -0.33047387389575927 -0.1369340691945744 0 -0.3226930215385343 -0.13395567837890529 0 -0.32807010768985068 -0.12986880773923029 0 -0.33047387389575927 -0.1369340691945744 0 -0.32007374605487132 -0.12494213909402439 0 -0.33441303965894859 -0.1249452932850653 0 -0.32807010768985068 -0.12986880773923029 0 -0.32007374605487132 -0.12494213909402439 0 -0.3226930215385343 -0.13395567837890529 0 -0.32807010768985068 -0.12986880773923029 0 -0.32007374605487132 -0.12494213909402439 0 -0.3226930215385343 -0.13395567837890529 0 -0.31280589771709483 -0.13181614145056869 0 -0.30807566230962469 -0.12087427087378499 0 -0.32007374605487132 -0.12494213909402439 0 -0.31280589771709483 -0.13181614145056869 0 -0.3226930215385343 -0.13395567837890529 0 -0.31280589771709483 -0.13181614145056869 0 -0.31855308997834159 -0.13934265221991729 0 -0.31246708178415561 -0.13872402753426441 0 -0.31280589771709483 -0.13181614145056869 0 -0.31855308997834159 -0.13934265221991729 0 -0.31246836027323899 -0.14497521722301901 0 -0.31246708178415561 -0.13872402753426441 0 -0.31855308997834159 -0.13934265221991729 0 -0.31246836027323899 -0.14497521722301901 0 -0.31855308997834159 -0.13934265221991729 0 -0.32096396999162452 -0.14503749675666289 0 -0.31246836027323899 -0.14497521722301901 0 -0.31722412851074311 -0.15248258895007169 0 -0.32096396999162452 -0.14503749675666289 0 -0.31211863317072019 -0.1538765410016501 0 -0.31722412851074311 -0.15248258895007169 0 -0.31498630483336881 -0.15987728715749039 0 -0.31071230574427161 -0.15022116190891349 0 -0.31246836027323899 -0.14497521722301901 0 -0.31722412851074311 -0.15248258895007169 0 -0.31071230574427161 -0.15022116190891349 0 -0.31211863317072019 -0.1538765410016501 0 -0.31722412851074311 -0.15248258895007169 0 -0.32096396999162452 -0.14503749675666289 0 -0.32506280578504959 -0.14064102607364051 0 -0.33039285730051032 -0.1475567648151897 0 -0.31722412851074311 -0.15248258895007169 0 -0.32096396999162452 -0.14503749675666289 0 -0.33039285730051032 -0.1475567648151897 0 -0.31855308997834159 -0.13934265221991729 0 -0.32096396999162452 -0.14503749675666289 0 -0.32506280578504959 -0.14064102607364051 0 -0.33039285730051032 -0.1475567648151897 0 -0.33813688440009898 -0.15615522653291031 0 -0.34198145815712638 -0.1395953898376964 0 -0.32506280578504959 -0.14064102607364051 0 -0.33039285730051032 -0.1475567648151897 0 -0.33047387389575927 -0.1369340691945744 0 -0.31722412851074311 -0.15248258895007169 0 -0.33039285730051032 -0.1475567648151897 0 -0.33813688440009898 -0.15615522653291031 0 -0.33039285730051032 -0.1475567648151897 0 -0.34198145815712638 -0.1395953898376964 0 -0.33047387389575927 -0.1369340691945744 0 -0.33813688440009898 -0.15615522653291031 0 -0.34198145815712638 -0.1395953898376964 0 -0.34954987665533299 -0.15424548639031271 0 -0.34198145815712638 -0.1395953898376964 0 -0.3337346198504213 -0.1328358900141379 0 -0.33047387389575927 -0.1369340691945744 0 -0.32807010768985068 -0.12986880773923029 0 -0.3337346198504213 -0.1328358900141379 0 -0.33047387389575927 -0.1369340691945744 0 -0.33441303965894859 -0.1249452932850653 0 -0.32807010768985068 -0.12986880773923029 0 -0.3337346198504213 -0.1328358900141379 0 -0.33441303965894859 -0.1249452932850653 0 -0.34198145815712638 -0.1395953898376964 0 -0.34272140335036932 -0.124947120862287 0 -0.33441303965894859 -0.1249452932850653 0 -0.34198145815712638 -0.1395953898376964 0 -0.33441303965894859 -0.1249452932850653 0 -0.34198145815712638 -0.1395953898376964 0 -0.3337346198504213 -0.1328358900141379 0 -0.34272140335036932 -0.124947120862287 0 -0.35413341494744088 -0.14719959415449421 0 -0.34272140335036932 -0.124947120862287 0 -0.35599685079288468 -0.13305792836185981 0 -0.35413341494744088 -0.14719959415449421 0 -0.34272140335036932 -0.124947120862287 0 -0.34198145815712638 -0.1395953898376964 0 -0.35413341494744088 -0.14719959415449421 0 -0.34272140335036932 -0.124947120862287 0 -0.36893450279197471 -0.1249528869149899 0 -0.35599685079288468 -0.13305792836185981 0 -0.35599685079288468 -0.13305792836185981 0 -0.36484224068191412 -0.14157370685753851 0 -0.35413341494744088 -0.14719959415449421 0 -0.36893450279197471 -0.1249528869149899 0 -0.35599685079288468 -0.13305792836185981 0 -0.36484224068191412 -0.14157370685753851 0 -0.36893450279197471 -0.1249528869149899 0 -0.36484224068191412 -0.14157370685753851 0 -0.3777566452334315 -0.14913711856379011 0 -0.3679743334396014 -0.15408772885571331 0 -0.37696591512674532 -0.1609827341034305 0 -0.3777566452334315 -0.14913711856379011 0 -0.3679743334396014 -0.15408772885571331 0 -0.36484224068191412 -0.14157370685753851 0 -0.3777566452334315 -0.14913711856379011 0 -0.3679743334396014 -0.15408772885571331 0 -0.36484224068191412 -0.14157370685753851 0 -0.35413341494744088 -0.14719959415449421 0 -0.35413341494744088 -0.14719959415449421 0 -0.34954987665533299 -0.15424548639031271 0 -0.35445721343992059 -0.1619675590177023 0 -0.34198145815712638 -0.1395953898376964 0 -0.34954987665533299 -0.15424548639031271 0 -0.34198145815712638 -0.1395953898376964 0 -0.35413341494744088 -0.14719959415449421 0 -0.34954987665533299 -0.15424548639031271 0 -0.33813688440009898 -0.15615522653291031 0 -0.34954987665533299 -0.15424548639031271 0 -0.34648545334868369 -0.16311147615285329 0 -0.34648545334868369 -0.16311147615285329 0 -0.35788001493839611 -0.17576831496813999 0 -0.33501951577929873 -0.16729908190312789 0 -0.34954987665533299 -0.15424548639031271 0 -0.34648545334868369 -0.16311147615285329 0 -0.35445721343992059 -0.1619675590177023 0 -0.35413341494744088 -0.14719959415449421 0 -0.35445721343992059 -0.1619675590177023 0 -0.36554542654456429 -0.16945206744667471 0 -0.35788001493839611 -0.17576831496813999 0 -0.33501951577929873 -0.16729908190312789 0 -0.34648545334868369 -0.16311147615285329 0 -0.35445721343992059 -0.1619675590177023 0 -0.35788001493839611 -0.17576831496813999 0 -0.35445721343992059 -0.1619675590177023 0 -0.36554542654456429 -0.16945206744667471 0 -0.35788001493839611 -0.17576831496813999 0 -0.35413341494744088 -0.14719959415449421 0 -0.36554542654456429 -0.16945206744667471 0 -0.3679743334396014 -0.15408772885571331 0 -0.35413341494744088 -0.14719959415449421 0 -0.36554542654456429 -0.16945206744667471 0 -0.3679743334396014 -0.15408772885571331 0 -0.36554542654456429 -0.16945206744667471 0 -0.37696591512674532 -0.1609827341034305 0 -0.37016556171889331 -0.18126023377528719 0 -0.3536864721015115 -0.18284124587119119 0 -0.37235342842372432 -0.19838340983925429 0 -0.36554542654456429 -0.16945206744667471 0 -0.37016556171889331 -0.18126023377528719 0 -0.38426477739238413 -0.17192867897072969 0 -0.37016556171889331 -0.18126023377528719 0 -0.3536864721015115 -0.18284124587119119 0 -0.35788001493839611 -0.17576831496813999 0 -0.36554542654456429 -0.16945206744667471 0 -0.37016556171889331 -0.18126023377528719 0 -0.35788001493839611 -0.17576831496813999 0 -0.3536864721015115 -0.18284124587119119 0 -0.33501951577929873 -0.16729908190312789 0 -0.3536864721015115 -0.18284124587119119 0 -0.35788001493839611 -0.17576831496813999 0 -0.33501951577929873 -0.16729908190312789 0 -0.3536864721015115 -0.18284124587119119 0 -0.32945708373588178 -0.18448348783091689 0 -0.33501951577929873 -0.16729908190312789 0 -0.31722412851074311 -0.15248258895007169 0 -0.33813688440009898 -0.15615522653291031 0 -0.33501951577929873 -0.16729908190312789 0 -0.33813688440009898 -0.15615522653291031 0 -0.34648545334868369 -0.16311147615285329 0 -0.33501951577929873 -0.16729908190312789 0 -0.31722412851074311 -0.15248258895007169 0 -0.33501951577929873 -0.16729908190312789 0 -0.31722412851074311 -0.15248258895007169 0 -0.33501951577929873 -0.16729908190312789 0 -0.31498630483336881 -0.15987728715749039 0 -0.31220508881165993 -0.16846949012138551 0 -0.33501951577929873 -0.16729908190312789 0 -0.31498630483336881 -0.15987728715749039 0 -0.33501951577929873 -0.16729908190312789 0 -0.31498630483336881 -0.15987728715749039 0 -0.31220508881165993 -0.16846949012138551 0 -0.32945708373588178 -0.18448348783091689 0 -0.31489114071409963 -0.18333745750317351 0 -0.31220508881165993 -0.16846949012138551 0 -0.32945708373588178 -0.18448348783091689 0 -0.31220508881165993 -0.16846949012138551 0 -0.32945708373588178 -0.18448348783091689 0 -0.33501951577929873 -0.16729908190312789 0 -0.32945708373588178 -0.18448348783091689 0 -0.31489114071409963 -0.18333745750317351 0 -0.32010675552350842 -0.19230926195043291 0 -0.30717411826112789 -0.1920401195635244 0 -0.32010675552350842 -0.19230926195043291 0 -0.3129652712195421 -0.2114706657937139 0 -0.32945708373588178 -0.18448348783091689 0 -0.32010675552350842 -0.19230926195043291 0 -0.32566449460190838 -0.20326261146105551 0 -0.32010675552350842 -0.19230926195043291 0 -0.3129652712195421 -0.2114706657937139 0 -0.32566449460190838 -0.20326261146105551 0 -0.30717411826112789 -0.1920401195635244 0 -0.31489114071409963 -0.18333745750317351 0 -0.32010675552350842 -0.19230926195043291 0 -0.3129652712195421 -0.2114706657937139 0 -0.32566449460190838 -0.20326261146105551 0 -0.33208474862113468 -0.21873250337862821 0 -0.33208474862113468 -0.21873250337862821 0 -0.34670907866010381 -0.20049748554044841 0 -0.34896881396179619 -0.22434135344573131 0 -0.32566449460190838 -0.20326261146105551 0 -0.33208474862113468 -0.21873250337862821 0 -0.34670907866010381 -0.20049748554044841 0 -0.3536864721015115 -0.18284124587119119 0 -0.32945708373588178 -0.18448348783091689 0 -0.34670907866010381 -0.20049748554044841 0 -0.32945708373588178 -0.18448348783091689 0 -0.32566449460190838 -0.20326261146105551 0 -0.34670907866010381 -0.20049748554044841 0 -0.32945708373588178 -0.18448348783091689 0 -0.34670907866010381 -0.20049748554044841 0 -0.3536864721015115 -0.18284124587119119 0 -0.35917751319241631 -0.19955840612521841 0 -0.34670907866010381 -0.20049748554044841 0 -0.3536864721015115 -0.18284124587119119 0 -0.37235342842372432 -0.19838340983925429 0 -0.3536864721015115 -0.18284124587119119 0 -0.35917751319241631 -0.19955840612521841 0 -0.37235342842372432 -0.19838340983925429 0 -0.37235342842372432 -0.19838340983925429 0 -0.36396107358432572 -0.21651148324997979 0 -0.37772562505684643 -0.22219038377974651 0 -0.35917751319241631 -0.19955840612521841 0 -0.37235342842372432 -0.19838340983925429 0 -0.36396107358432572 -0.21651148324997979 0 -0.34670907866010381 -0.20049748554044841 0 -0.36396107358432572 -0.21651148324997979 0 -0.34896881396179619 -0.22434135344573131 0 -0.34670907866010381 -0.20049748554044841 0 -0.36396107358432572 -0.21651148324997979 0 -0.35917751319241631 -0.19955840612521841 0 -0.34670907866010381 -0.20049748554044841 0 -0.36396107358432572 -0.21651148324997979 0 -0.34896881396179619 -0.22434135344573131 0 -0.36764811873304098 -0.23322730847002751 0 -0.35305879752332059 -0.24486073726717009 0 -0.36396107358432572 -0.21651148324997979 0 -0.36764811873304098 -0.23322730847002751 0 -0.37772562505684643 -0.22219038377974651 0 -0.36396107358432572 -0.21651148324997979 0 -0.34896881396179619 -0.22434135344573131 0 -0.36764811873304098 -0.23322730847002751 0 -0.37533687834285862 -0.25417213976024849 0 -0.36764811873304098 -0.23322730847002751 0 -0.35305879752332059 -0.24486073726717009 0 -0.34896881396179619 -0.22434135344573131 0 -0.35305879752332059 -0.24486073726717009 0 -0.33568364413539042 -0.23615154195274179 0 -0.33623326073948312 -0.25365348176558788 0 -0.33568364413539042 -0.23615154195274179 0 -0.32213598881581812 -0.2442700999577708 0 -0.33623326073948312 -0.25365348176558788 0 -0.35305879752332059 -0.24486073726717009 0 -0.33568364413539042 -0.23615154195274179 0 -0.33208474862113468 -0.21873250337862821 0 -0.33568364413539042 -0.23615154195274179 0 -0.32219037366776621 -0.22897372759534659 0 -0.33208474862113468 -0.21873250337862821 0 -0.34896881396179619 -0.22434135344573131 0 -0.33568364413539042 -0.23615154195274179 0 -0.30829656048542242 -0.23127198481015249 0 -0.3129652712195421 -0.2114706657937139 0 -0.32219037366776621 -0.22897372759534659 0 -0.3129652712195421 -0.2114706657937139 0 -0.33208474862113468 -0.21873250337862821 0 -0.32219037366776621 -0.22897372759534659 0 -0.30769212114973271 -0.24578220261295139 0 -0.30829656048542242 -0.23127198481015249 0 -0.32213598881581812 -0.2442700999577708 0 -0.30829656048542242 -0.23127198481015249 0 -0.32219037366776621 -0.22897372759534659 0 -0.32213598881581812 -0.2442700999577708 0 -0.31968345090478489 -0.25798973640781447 0 -0.30769212114973271 -0.24578220261295139 0 -0.32213598881581812 -0.2442700999577708 0 -0.33568364413539042 -0.23615154195274179 0 -0.32219037366776621 -0.22897372759534659 0 -0.32213598881581812 -0.2442700999577708 0 -0.43598079583492633 -0.24721882136819351 0 -0.42311134176242837 -0.2304528026464861 0 -0.41615383063077721 -0.2466412503256647 0 -0.43598079583492633 -0.24721882136819351 0 -0.42311134176242837 -0.2304528026464861 0 -0.43908324849522451 -0.2287046610080686 0 -0.42311134176242837 -0.2304528026464861 0 -0.41411505562058892 -0.2091502018577929 0 -0.42948217154750851 -0.21815887616964899 0 -0.42311134176242837 -0.2304528026464861 0 -0.42948217154750851 -0.21815887616964899 0 -0.43908324849522451 -0.2287046610080686 0 -0.42948217154750851 -0.21815887616964899 0 -0.43955036875351089 -0.21658504913102711 0 -0.43908324849522451 -0.2287046610080686 0 -0.40619246279161347 -0.2313797712556602 0 -0.41411505562058892 -0.2091502018577929 0 -0.42311134176242837 -0.2304528026464861 0 -0.40619246279161347 -0.2313797712556602 0 -0.41411505562058892 -0.2091502018577929 0 -0.39826986996263802 -0.25360934065352753 0 -0.41615383063077721 -0.2466412503256647 0 -0.40619246279161347 -0.2313797712556602 0 -0.42311134176242837 -0.2304528026464861 0 -0.41615383063077721 -0.2466412503256647 0 -0.40619246279161347 -0.2313797712556602 0 -0.39826986996263802 -0.25360934065352753 0 -0.38632210934187061 -0.2364082567837591 0 -0.40619246279161347 -0.2313797712556602 0 -0.39826986996263802 -0.25360934065352753 0 -0.40619246279161347 -0.2313797712556602 0 -0.37533687834285862 -0.25417213976024849 0 -0.36764811873304098 -0.23322730847002751 0 -0.38632210934187061 -0.2364082567837591 0 -0.37533687834285862 -0.25417213976024849 0 -0.39826986996263802 -0.25360934065352753 0 -0.38632210934187061 -0.2364082567837591 0 -0.36764811873304098 -0.23322730847002751 0 -0.38632210934187061 -0.2364082567837591 0 -0.37772562505684643 -0.22219038377974651 0 -0.38632210934187061 -0.2364082567837591 0 -0.37772562505684643 -0.22219038377974651 0 -0.39102038474593709 -0.2139255738073175 0 -0.38632210934187061 -0.2364082567837591 0 -0.40619246279161347 -0.2313797712556602 0 -0.39102038474593709 -0.2139255738073175 0 -0.39102038474593709 -0.2139255738073175 0 -0.40351751052996843 -0.1957217498792192 0 -0.41411505562058892 -0.2091502018577929 0 -0.40619246279161347 -0.2313797712556602 0 -0.39102038474593709 -0.2139255738073175 0 -0.41411505562058892 -0.2091502018577929 0 -0.37235342842372432 -0.19838340983925429 0 -0.39102038474593709 -0.2139255738073175 0 -0.37235342842372432 -0.19838340983925429 0 -0.37772562505684643 -0.22219038377974651 0 -0.39102038474593709 -0.2139255738073175 0 -0.37016556171889331 -0.18126023377528719 0 -0.37235342842372432 -0.19838340983925429 0 -0.38726325091278008 -0.18918768555573329 0 -0.37235342842372432 -0.19838340983925429 0 -0.39102038474593709 -0.2139255738073175 0 -0.38726325091278008 -0.18918768555573329 0 -0.38726325091278008 -0.18918768555573329 0 -0.40351751052996843 -0.1957217498792192 0 -0.40315121292097328 -0.17942465571532731 0 -0.39102038474593709 -0.2139255738073175 0 -0.38726325091278008 -0.18918768555573329 0 -0.40351751052996843 -0.1957217498792192 0 -0.41411505562058892 -0.2091502018577929 0 -0.42203764844956237 -0.18692063245992491 0 -0.40351751052996843 -0.1957217498792192 0 -0.41411505562058892 -0.2091502018577929 0 -0.42203764844956237 -0.18692063245992491 0 -0.41411505562058892 -0.2091502018577929 0 -0.42948217154750851 -0.21815887616964899 0 -0.43155084310578928 -0.2059016662048701 0 -0.42948217154750851 -0.21815887616964899 0 -0.43155084310578928 -0.2059016662048701 0 -0.43955036875351089 -0.21658504913102711 0 -0.42203764844956237 -0.18692063245992491 0 -0.44484374680150301 -0.19597231310248839 0 -0.41411505562058892 -0.2091502018577929 0 -0.43155084310578928 -0.2059016662048701 0 -0.42203764844956237 -0.18692063245992491 0 -0.43155084310578928 -0.2059016662048701 0 -0.42203764844956237 -0.18692063245992491 0 -0.44484374680150301 -0.19597231310248839 0 -0.42203764844956237 -0.18692063245992491 0 -0.44134853753678083 -0.18159229851429221 0 -0.44484374680150301 -0.19597231310248839 0 -0.42203764844956237 -0.18692063245992491 0 -0.42880774722037651 -0.1679247830322266 0 -0.42203764844956237 -0.18692063245992491 0 -0.42880774722037651 -0.1679247830322266 0 -0.44134853753678083 -0.18159229851429221 0 -0.42880774722037651 -0.1679247830322266 0 -0.43557784599118871 -0.14892893360452769 0 -0.44631139980808621 -0.1631836851414229 0 -0.42880774722037651 -0.1679247830322266 0 -0.43557784599118871 -0.14892893360452769 0 -0.42880774722037651 -0.1679247830322266 0 -0.41236960909879722 -0.16540507401591409 0 -0.42079860369606048 -0.15043713941075901 0 -0.42203764844956237 -0.18692063245992491 0 -0.42880774722037651 -0.1679247830322266 0 -0.41236960909879722 -0.16540507401591409 0 -0.40351751052996843 -0.1957217498792192 0 -0.42203764844956237 -0.18692063245992491 0 -0.40315121292097328 -0.17942465571532731 0 -0.42203764844956237 -0.18692063245992491 0 -0.40315121292097328 -0.17942465571532731 0 -0.42203764844956237 -0.18692063245992491 0 -0.41236960909879722 -0.16540507401591409 0 -0.40315121292097328 -0.17942465571532731 0 -0.38726325091278008 -0.18918768555573329 0 -0.40315121292097328 -0.17942465571532731 0 -0.38426477739238413 -0.17192867897072969 0 -0.40315121292097328 -0.17942465571532731 0 -0.38426477739238413 -0.17192867897072969 0 -0.37016556171889331 -0.18126023377528719 0 -0.38726325091278008 -0.18918768555573329 0 -0.38426477739238413 -0.17192867897072969 0 -0.36554542654456429 -0.16945206744667471 0 -0.38426477739238413 -0.17192867897072969 0 -0.37696591512674532 -0.1609827341034305 0 -0.38426477739238413 -0.17192867897072969 0 -0.37696591512674532 -0.1609827341034305 0 -0.39230106084837368 -0.15838844905994759 0 -0.40315121292097328 -0.17942465571532731 0 -0.38426477739238413 -0.17192867897072969 0 -0.39230106084837368 -0.15838844905994759 0 -0.41236960909879722 -0.16540507401591409 0 -0.39230106084837368 -0.15838844905994759 0 -0.40587711449475489 -0.1449624873806776 0 -0.41236960909879722 -0.16540507401591409 0 -0.40315121292097328 -0.17942465571532731 0 -0.39230106084837368 -0.15838844905994759 0 -0.39230106084837368 -0.15838844905994759 0 -0.39162863389564362 -0.14105630786861159 0 -0.40587711449475489 -0.1449624873806776 0 -0.39230106084837368 -0.15838844905994759 0 -0.39162863389564362 -0.14105630786861159 0 -0.3777566452334315 -0.14913711856379011 0 -0.37696591512674532 -0.1609827341034305 0 -0.39230106084837368 -0.15838844905994759 0 -0.3777566452334315 -0.14913711856379011 0 -0.36893450279197471 -0.1249528869149899 0 -0.39162863389564362 -0.14105630786861159 0 -0.3777566452334315 -0.14913711856379011 0 -0.36893450279197471 -0.1249528869149899 0 -0.39162863389564362 -0.14105630786861159 0 -0.39514760223357998 -0.1249586529677193 0 -0.39162863389564362 -0.14105630786861159 0 -0.40587711449475489 -0.1449624873806776 0 -0.39514760223357998 -0.1249586529677193 0 -0.40587711449475489 -0.1449624873806776 0 -0.39514760223357998 -0.1249586529677193 0 -0.42136070167518519 -0.1249644190204488 0 -0.40587711449475489 -0.1449624873806776 0 -0.42079860369606048 -0.15043713941075901 0 -0.42136070167518519 -0.1249644190204488 0 -0.41236960909879722 -0.16540507401591409 0 -0.40587711449475489 -0.1449624873806776 0 -0.42079860369606048 -0.15043713941075901 0 -0.42079860369606048 -0.15043713941075901 0 -0.43557784599118871 -0.14892893360452769 0 -0.42136070167518519 -0.1249644190204488 0 -0.42880774722037651 -0.1679247830322266 0 -0.42079860369606048 -0.15043713941075901 0 -0.43557784599118871 -0.14892893360452769 0 -0.43557784599118871 -0.14892893360452769 0 -0.42136070167518519 -0.1249644190204488 0 -0.44757380111679052 -0.12497018507317829 0 -0.43557784599118871 -0.14892893360452769 0 -0.45596445488588 -0.14427568033770541 0 -0.44757380111679052 -0.12497018507317829 0 -0.43557784599118871 -0.14892893360452769 0 -0.45596445488588 -0.14427568033770541 0 -0.44631139980808621 -0.1631836851414229 0 -0.45596445488588 -0.14427568033770541 0 -0.46278066629215481 -0.1610158872753634 0 -0.44631139980808621 -0.1631836851414229 0 -0.45596445488588 -0.14427568033770541 0 -0.47930750267908417 -0.1480635854121114 0 -0.46278066629215481 -0.1610158872753634 0 -0.45596445488588 -0.14427568033770541 0 -0.44757380111679052 -0.12497018507317829 0 -0.47378690055839578 -0.1249759511259078 0 -0.48827360080937021 -0.13531742911399189 0 -0.47930750267908417 -0.1480635854121114 0 -0.47378690055839578 -0.1249759511259078 0 -0.45596445488588 -0.14427568033770541 0 -0.47930750267908417 -0.1480635854121114 0 -0.47378690055839578 -0.1249759511259078 0 -0.48827360080937021 -0.13531742911399189 0 -0.5 -0.14324846273931111 0 -0.50000000000000111 -0.12498171717863731 0 -0.48827360080937021 -0.13531742911399189 0 -0.47378690055839578 -0.1249759511259078 0 -0.50000000000000111 -0.12498171717863731 0 -0.5 -0.14324846273931111 0 -0.47930750267908417 -0.1480635854121114 0 -0.49999999999999961 -0.161515208299985 0 -0.48827360080937021 -0.13531742911399189 0 -0.5 -0.14324846273931111 0 -0.47930750267908417 -0.1480635854121114 0 -0.47930750267908417 -0.1480635854121114 0 -0.47738728335761421 -0.1682509267597351 0 -0.46278066629215481 -0.1610158872753634 0 -0.47738728335761421 -0.1682509267597351 0 -0.49999999999999961 -0.161515208299985 0 -0.48839409620634278 -0.18039624849769001 0 -0.49999999999999961 -0.161515208299985 0 -0.48839409620634278 -0.18039624849769001 0 -0.47930750267908417 -0.1480635854121114 0 -0.47738728335761421 -0.1682509267597351 0 -0.49999999999999961 -0.161515208299985 0 -0.49999999999999961 -0.161515208299985 0 -0.5 -0.18618779176616679 0 -0.48839409620634278 -0.18039624849769001 0 -0.5 -0.18618779176616679 0 -0.48839409620634278 -0.18039624849769001 0 -0.48957789370491162 -0.19386933705848941 0 -0.47738728335761421 -0.1682509267597351 0 -0.48839409620634278 -0.18039624849769001 0 -0.47328693949397721 -0.18411760774338479 0 -0.47738728335761421 -0.1682509267597351 0 -0.47328693949397721 -0.18411760774338479 0 -0.45860677246597031 -0.17520894370368309 0 -0.47328693949397721 -0.18411760774338479 0 -0.45860677246597031 -0.17520894370368309 0 -0.45906836497473352 -0.19043479360484361 0 -0.47738728335761421 -0.1682509267597351 0 -0.45860677246597031 -0.17520894370368309 0 -0.46278066629215481 -0.1610158872753634 0 -0.45860677246597031 -0.17520894370368309 0 -0.46278066629215481 -0.1610158872753634 0 -0.44631139980808621 -0.1631836851414229 0 -0.42880774722037651 -0.1679247830322266 0 -0.44631139980808621 -0.1631836851414229 0 -0.44134853753678083 -0.18159229851429221 0 -0.45860677246597031 -0.17520894370368309 0 -0.44631139980808621 -0.1631836851414229 0 -0.44134853753678083 -0.18159229851429221 0 -0.45860677246597031 -0.17520894370368309 0 -0.44134853753678083 -0.18159229851429221 0 -0.45906836497473352 -0.19043479360484361 0 -0.44134853753678083 -0.18159229851429221 0 -0.45906836497473352 -0.19043479360484361 0 -0.44134853753678083 -0.18159229851429221 0 -0.44484374680150301 -0.19597231310248839 0 -0.45906836497473352 -0.19043479360484361 0 -0.43155084310578928 -0.2059016662048701 0 -0.44484374680150301 -0.19597231310248839 0 -0.44343463088850471 -0.20721188330797369 0 -0.43155084310578928 -0.2059016662048701 0 -0.44343463088850471 -0.20721188330797369 0 -0.43955036875351089 -0.21658504913102711 0 -0.44343463088850471 -0.20721188330797369 0 -0.43955036875351089 -0.21658504913102711 0 -0.44966782191270221 -0.21345696714665749 0 -0.44966782191270221 -0.21345696714665749 0 -0.45691127413918359 -0.218140336649912 0 -0.44903912237987481 -0.22310222333220869 0 -0.43955036875351089 -0.21658504913102711 0 -0.44966782191270221 -0.21345696714665749 0 -0.44903912237987481 -0.22310222333220869 0 -0.44484374680150301 -0.19597231310248839 0 -0.44343463088850471 -0.20721188330797369 0 -0.45285363365211462 -0.2065344908709397 0 -0.44343463088850471 -0.20721188330797369 0 -0.44966782191270221 -0.21345696714665749 0 -0.45285363365211462 -0.2065344908709397 0 -0.45285363365211462 -0.2065344908709397 0 -0.4586721235044201 -0.2110072970525271 0 -0.46764984515344349 -0.20502399374505181 0 -0.44966782191270221 -0.21345696714665749 0 -0.45285363365211462 -0.2065344908709397 0 -0.4586721235044201 -0.2110072970525271 0 -0.44966782191270221 -0.21345696714665749 0 -0.4586721235044201 -0.2110072970525271 0 -0.45691127413918359 -0.218140336649912 0 -0.4586721235044201 -0.2110072970525271 0 -0.45691127413918359 -0.218140336649912 0 -0.46757130244775341 -0.21427176676618889 0 -0.4586721235044201 -0.2110072970525271 0 -0.46757130244775341 -0.21427176676618889 0 -0.46764984515344349 -0.20502399374505181 0 -0.44484374680150301 -0.19597231310248839 0 -0.46764984515344349 -0.20502399374505181 0 -0.45906836497473352 -0.19043479360484361 0 -0.44484374680150301 -0.19597231310248839 0 -0.45285363365211462 -0.2065344908709397 0 -0.46764984515344349 -0.20502399374505181 0 -0.45906836497473352 -0.19043479360484361 0 -0.47678819241268611 -0.1992772886953951 0 -0.44484374680150301 -0.19597231310248839 0 -0.46764984515344349 -0.20502399374505181 0 -0.46764984515344349 -0.20502399374505181 0 -0.45906836497473352 -0.19043479360484361 0 -0.47678819241268611 -0.1992772886953951 0 -0.47328693949397721 -0.18411760774338479 0 -0.45906836497473352 -0.19043479360484361 0 -0.47678819241268611 -0.1992772886953951 0 -0.48839409620634278 -0.18039624849769001 0 -0.47328693949397721 -0.18411760774338479 0 -0.47678819241268611 -0.1992772886953951 0 -0.48839409620634278 -0.18039624849769001 0 -0.47678819241268611 -0.1992772886953951 0 -0.47678819241268611 -0.1992772886953951 0 -0.48957789370491162 -0.19386933705848941 0 -0.50000000000000222 -0.21086037523234849 0 -0.48839409620634278 -0.18039624849769001 0 -0.47678819241268611 -0.1992772886953951 0 -0.48957789370491162 -0.19386933705848941 0 -0.5 -0.18618779176616679 0 -0.48957789370491162 -0.19386933705848941 0 -0.50000000000000222 -0.21086037523234849 0 -0.50000000000000222 -0.21086037523234849 0 -0.48101414991814051 -0.21220490785157131 0 -0.4775447229854059 -0.22535576830415929 0 -0.47678819241268611 -0.1992772886953951 0 -0.50000000000000222 -0.21086037523234849 0 -0.47678819241268611 -0.1992772886953951 0 -0.50000000000000222 -0.21086037523234849 0 -0.48101414991814051 -0.21220490785157131 0 -0.46757130244775341 -0.21427176676618889 0 -0.47678819241268611 -0.1992772886953951 0 -0.48101414991814051 -0.21220490785157131 0 -0.46757130244775341 -0.21427176676618889 0 -0.47678819241268611 -0.1992772886953951 0 -0.46757130244775341 -0.21427176676618889 0 -0.46764984515344349 -0.20502399374505181 0 -0.47678819241268611 -0.1992772886953951 0 -0.46757130244775341 -0.21427176676618889 0 -0.48101414991814051 -0.21220490785157131 0 -0.4775447229854059 -0.22535576830415929 0 -0.46757130244775341 -0.21427176676618889 0 -0.4775447229854059 -0.22535576830415929 0 -0.46571952953094348 -0.22577651025912229 0 -0.4775447229854059 -0.22535576830415929 0 -0.4726071657750785 -0.240360200228666 0 -0.45676275941016609 -0.23628729483617639 0 -0.50000000000000222 -0.21086037523234849 0 -0.4775447229854059 -0.22535576830415929 0 -0.48548116721245049 -0.23774912910784329 0 -0.50000000000000222 -0.21086037523234849 0 -0.5 -0.2401545466321974 0 -0.48548116721245049 -0.23774912910784329 0 -0.48050148842732221 -0.25523221810557922 0 -0.5 -0.2401545466321974 0 -0.48548116721245049 -0.23774912910784329 0 -0.48050148842732221 -0.25523221810557922 0 -0.4726071657750785 -0.240360200228666 0 -0.46267023581878858 -0.24817136713935201 0 -0.48050148842732221 -0.25523221810557922 0 -0.48548116721245049 -0.23774912910784329 0 -0.4726071657750785 -0.240360200228666 0 -0.4775447229854059 -0.22535576830415929 0 -0.48548116721245049 -0.23774912910784329 0 -0.4726071657750785 -0.240360200228666 0 -0.4726071657750785 -0.240360200228666 0 -0.46267023581878858 -0.24817136713935201 0 -0.45676275941016609 -0.23628729483617639 0 -0.46267023581878858 -0.24817136713935201 0 -0.45676275941016609 -0.23628729483617639 0 -0.45139902778349827 -0.24711062934306771 0 -0.4775447229854059 -0.22535576830415929 0 -0.45676275941016609 -0.23628729483617639 0 -0.46571952953094348 -0.22577651025912229 0 -0.4775447229854059 -0.22535576830415929 0 -0.45676275941016609 -0.23628729483617639 0 -0.46757130244775341 -0.21427176676618889 0 -0.45835441248282049 -0.22926624483698249 0 -0.45691127413918359 -0.218140336649912 0 -0.46757130244775341 -0.21427176676618889 0 -0.45835441248282049 -0.22926624483698249 0 -0.46757130244775341 -0.21427176676618889 0 -0.46571952953094348 -0.22577651025912229 0 -0.45835441248282049 -0.22926624483698249 0 -0.45691127413918359 -0.218140336649912 0 -0.45835441248282049 -0.22926624483698249 0 -0.44903912237987481 -0.22310222333220869 0 -0.45676275941016609 -0.23628729483617639 0 -0.46571952953094348 -0.22577651025912229 0 -0.45835441248282049 -0.22926624483698249 0 -0.45676275941016609 -0.23628729483617639 0 -0.45835441248282049 -0.22926624483698249 0 -0.44784406772060242 -0.23291584907632601 0 -0.45835441248282049 -0.22926624483698249 0 -0.44784406772060242 -0.23291584907632601 0 -0.44903912237987481 -0.22310222333220869 0 -0.44784406772060242 -0.23291584907632601 0 -0.44903912237987481 -0.22310222333220869 0 -0.43908324849522451 -0.2287046610080686 0 -0.43955036875351089 -0.21658504913102711 0 -0.44903912237987481 -0.22310222333220869 0 -0.43908324849522451 -0.2287046610080686 0 -0.43598079583492633 -0.24721882136819351 0 -0.44784406772060242 -0.23291584907632601 0 -0.43908324849522451 -0.2287046610080686 0 -0.43598079583492633 -0.24721882136819351 0 -0.45676275941016609 -0.23628729483617639 0 -0.45139902778349827 -0.24711062934306771 0 -0.43598079583492633 -0.24721882136819351 0 -0.45676275941016609 -0.23628729483617639 0 -0.44784406772060242 -0.23291584907632601 0 -0.43598079583492633 -0.24721882136819351 0 -0.45676275941016609 -0.23628729483617639 0 -0.41513049604948221 -0.033942569896895612 0 -0.42680670243505803 -0.034615113076212713 0 -0.40073055052989021 -0.025701474464423758 0 -0.41513049604948221 -0.033942569896895612 0 -0.42462943043776058 -0.041038039404546971 0 -0.40237332615973681 -0.030676944162886681 0 -0.42462943043776058 -0.041038039404546971 0 -0.40237332615973681 -0.030676944162886681 0 -0.41105872637709778 -0.041104419315527559 0 -0.42462943043776058 -0.041038039404546971 0 -0.40237332615973681 -0.030676944162886681 0 -0.41795689190558921 -0.046390941043723911 0 -0.41105872637709778 -0.041104419315527559 0 -0.42462943043776058 -0.041038039404546971 0 -0.41513049604948221 -0.033942569896895612 0 -0.42462943043776058 -0.041038039404546971 0 -0.4243569293735685 -0.037306081984415762 0 -0.41105872637709778 -0.041104419315527559 0 -0.4050251302254127 -0.045922345921936697 0 -0.40306291723554027 -0.039039715031688543 0 -0.41795689190558921 -0.046390941043723911 0 -0.41105872637709778 -0.041104419315527559 0 -0.41174405323292163 -0.047949206462353358 0 -0.41105872637709778 -0.041104419315527559 0 -0.41174405323292163 -0.047949206462353358 0 -0.4050251302254127 -0.045922345921936697 0 -0.41174405323292163 -0.047949206462353358 0 -0.4050251302254127 -0.045922345921936697 0 -0.40603099279739802 -0.054788986838451827 0 -0.41174405323292163 -0.047949206462353358 0 -0.4187470457232762 -0.053937065845881961 0 -0.40603099279739802 -0.054788986838451827 0 -0.4187470457232762 -0.053937065845881961 0 -0.40603099279739802 -0.054788986838451827 0 -0.41284572228237681 -0.064006668923108523 0 -0.4187470457232762 -0.053937065845881961 0 -0.41284572228237681 -0.064006668923108523 0 -0.42746868386642678 -0.066478460468227696 0 -0.41795689190558921 -0.046390941043723911 0 -0.41174405323292163 -0.047949206462353358 0 -0.4187470457232762 -0.053937065845881961 0 -0.41795689190558921 -0.046390941043723911 0 -0.4187470457232762 -0.053937065845881961 0 -0.42320145590089769 -0.048540393412862697 0 -0.42320145590089769 -0.048540393412862697 0 -0.43147245553696489 -0.05279552735729795 0 -0.42462943043776058 -0.041038039404546971 0 -0.4187470457232762 -0.053937065845881961 0 -0.42320145590089769 -0.048540393412862697 0 -0.43147245553696489 -0.05279552735729795 0 -0.43147245553696489 -0.05279552735729795 0 -0.42462943043776058 -0.041038039404546971 0 -0.44688553471578463 -0.051399134646207288 0 -0.4187470457232762 -0.053937065845881961 0 -0.43147245553696489 -0.05279552735729795 0 -0.42746868386642678 -0.066478460468227696 0 -0.43147245553696489 -0.05279552735729795 0 -0.42746868386642678 -0.066478460468227696 0 -0.43950717444435422 -0.063784996514660589 0 -0.42818951741271921 -0.038310772776573528 0 -0.43628267576141971 -0.035329403205585218 0 -0.44688553471578463 -0.051399134646207288 0 -0.42462943043776058 -0.041038039404546971 0 -0.42818951741271921 -0.038310772776573528 0 -0.44688553471578463 -0.051399134646207288 0 -0.42462943043776058 -0.041038039404546971 0 -0.44688553471578463 -0.051399134646207288 0 -0.41795689190558921 -0.046390941043723911 0 -0.42320145590089769 -0.048540393412862697 0 -0.42462943043776058 -0.041038039404546971 0 -0.41513049604948221 -0.033942569896895612 0 -0.4243569293735685 -0.037306081984415762 0 -0.42680670243505803 -0.034615113076212713 0 -0.42462943043776058 -0.041038039404546971 0 -0.4243569293735685 -0.037306081984415762 0 -0.42818951741271921 -0.038310772776573528 0 -0.42818951741271921 -0.038310772776573528 0 -0.42680670243505803 -0.034615113076212713 0 -0.4243569293735685 -0.037306081984415762 0 -0.42818951741271921 -0.038310772776573528 0 -0.42680670243505803 -0.034615113076212713 0 -0.42818951741271921 -0.038310772776573528 0 -0.42680670243505803 -0.034615113076212713 0 -0.42995577540377822 -0.032900560567165532 0 -0.42818951741271921 -0.038310772776573528 0 -0.42995577540377822 -0.032900560567165532 0 -0.43628267576141971 -0.035329403205585218 0 -0.42995577540377822 -0.032900560567165532 0 -0.43628267576141971 -0.035329403205585218 0 -0.4327931004709421 -0.029092843067932112 0 -0.42680670243505803 -0.034615113076212713 0 -0.4285090787839364 -0.025262373234060161 0 -0.41794895562780338 -0.01094222954485795 0 -0.42680670243505803 -0.034615113076212713 0 -0.41794895562780338 -0.01094222954485795 0 -0.43628267576141971 -0.035329403205585218 0 -0.4327931004709421 -0.029092843067932112 0 -0.43710875721387199 -0.026668229939385779 0 -0.42995577540377822 -0.032900560567165532 0 -0.4327931004709421 -0.029092843067932112 0 -0.4285090787839364 -0.025262373234060161 0 -0.43210921519170409 -0.025303648393463829 0 -0.43710875721387199 -0.026668229939385779 0 -0.43108579893039811 -0.01948839847471974 0 -0.4327931004709421 -0.029092843067932112 0 -0.43210921519170409 -0.025303648393463829 0 -0.4285090787839364 -0.025262373234060161 0 -0.4327931004709421 -0.029092843067932112 0 -0.43210921519170409 -0.025303648393463829 0 -0.43710875721387199 -0.026668229939385779 0 -0.43108579893039811 -0.01948839847471974 0 -0.43397544616601241 -0.014244232554068349 0 -0.43928417642389239 -0.017661557407765791 0 -0.43710875721387199 -0.026668229939385779 0 -0.43108579893039811 -0.01948839847471974 0 -0.43928417642389239 -0.017661557407765791 0 -0.43210921519170409 -0.025303648393463829 0 -0.43108579893039811 -0.01948839847471974 0 -0.4285090787839364 -0.025262373234060161 0 -0.43108579893039811 -0.01948839847471974 0 -0.4285090787839364 -0.025262373234060161 0 -0.41794895562780338 -0.01094222954485795 0 -0.42680670243505803 -0.034615113076212713 0 -0.42995577540377822 -0.032900560567165532 0 -0.4285090787839364 -0.025262373234060161 0 -0.43591977417237449 -0.008065469867085449 0 -0.42907061680018699 -0.010664914002041091 0 -0.42583279771702431 0.00046528033667210148 0 -0.43108579893039811 -0.01948839847471974 0 -0.43397544616601241 -0.014244232554068349 0 -0.42907061680018699 -0.010664914002041091 0 -0.43591977417237449 -0.008065469867085449 0 -0.43397544616601241 -0.014244232554068349 0 -0.43928417642389239 -0.017661557407765791 0 -0.43591977417237449 -0.008065469867085449 0 -0.43397544616601241 -0.014244232554068349 0 -0.42907061680018699 -0.010664914002041091 0 -0.43108579893039811 -0.01948839847471974 0 -0.42907061680018699 -0.010664914002041091 0 -0.41794895562780338 -0.01094222954485795 0 -0.42907061680018699 -0.010664914002041091 0 -0.41794895562780338 -0.01094222954485795 0 -0.42583279771702431 0.00046528033667210148 0 -0.41794895562780338 -0.01094222954485795 0 -0.4102220184461346 -0.019351118920435541 0 -0.40021295305484711 -0.013852611056198059 0 -0.41794895562780338 -0.01094222954485795 0 -0.40352261506359649 -0.001038070178381474 0 -0.40021295305484711 -0.013852611056198059 0 -0.42680670243505803 -0.034615113076212713 0 -0.41794895562780338 -0.01094222954485795 0 -0.4102220184461346 -0.019351118920435541 0 -0.42680670243505803 -0.034615113076212713 0 -0.4102220184461346 -0.019351118920435541 0 -0.40073055052989021 -0.025701474464423758 0 -0.42680670243505803 -0.034615113076212713 0 -0.40073055052989021 -0.025701474464423758 0 -0.41513049604948221 -0.033942569896895612 0 -0.40073055052989021 -0.025701474464423758 0 -0.40237332615973681 -0.030676944162886681 0 -0.40073055052989021 -0.025701474464423758 0 -0.40237332615973681 -0.030676944162886681 0 -0.38011722188171299 -0.020315848921226409 0 -0.40237332615973681 -0.030676944162886681 0 -0.38011722188171299 -0.020315848921226409 0 -0.4102220184461346 -0.019351118920435541 0 -0.40073055052989021 -0.025701474464423758 0 -0.40021295305484711 -0.013852611056198059 0 -0.40073055052989021 -0.025701474464423758 0 -0.40021295305484711 -0.013852611056198059 0 -0.38745402304870558 -0.01483805838738575 0 -0.40352261506359649 -0.001038070178381474 0 -0.40021295305484711 -0.013852611056198059 0 -0.39408165103759368 -0.0019794594859314238 0 -0.40021295305484711 -0.013852611056198059 0 -0.39408165103759368 -0.0019794594859314238 0 -0.39005949432245718 -0.0085411321607220259 0 -0.40021295305484711 -0.013852611056198059 0 -0.39005949432245718 -0.0085411321607220259 0 -0.38745402304870558 -0.01483805838738575 0 -0.39408165103759368 -0.0019794594859314238 0 -0.3848191179490616 -0.0027051675553946518 0 -0.39005949432245718 -0.0085411321607220259 0 -0.3848191179490616 -0.0027051675553946518 0 -0.38372972652207787 -0.0093303643187002475 0 -0.39005949432245718 -0.0085411321607220259 0 -0.38372972652207787 -0.0093303643187002475 0 -0.38745402304870558 -0.01483805838738575 0 -0.3791207175096093 -0.01135650732177081 0 -0.38372972652207787 -0.0093303643187002475 0 -0.39005949432245718 -0.0085411321607220259 0 -0.38745402304870558 -0.01483805838738575 0 -0.37465439862472261 -0.016787835852634068 0 -0.37464851222799189 -0.0076089195940836872 0 -0.3791207175096093 -0.01135650732177081 0 -0.37465439862472261 -0.016787835852634068 0 -0.38745402304870558 -0.01483805838738575 0 -0.3791207175096093 -0.01135650732177081 0 -0.37464851222799189 -0.0076089195940836872 0 -0.3791207175096093 -0.01135650732177081 0 -0.37960876280762101 -0.0064231604720931881 0 -0.38372972652207787 -0.0093303643187002475 0 -0.3791207175096093 -0.01135650732177081 0 -0.37960876280762101 -0.0064231604720931881 0 -0.3848191179490616 -0.0027051675553946518 0 -0.38372972652207787 -0.0093303643187002475 0 -0.37960876280762101 -0.0064231604720931881 0 -0.37464851222799189 -0.0076089195940836872 0 -0.37960876280762101 -0.0064231604720931881 0 -0.37774077980655368 -0.001289555558904682 0 -0.3848191179490616 -0.0027051675553946518 0 -0.37960876280762101 -0.0064231604720931881 0 -0.37774077980655368 -0.001289555558904682 0 -0.37465439862472261 -0.016787835852634068 0 -0.40073055052989021 -0.025701474464423758 0 -0.38745402304870558 -0.01483805838738575 0 -0.40237332615973681 -0.030676944162886681 0 -0.38781453024876661 -0.02996800237218563 0 -0.38011722188171299 -0.020315848921226409 0 -0.37465439862472261 -0.016787835852634068 0 -0.40073055052989021 -0.025701474464423758 0 -0.38011722188171299 -0.020315848921226409 0 -0.37465439862472261 -0.016787835852634068 0 -0.40073055052989021 -0.025701474464423758 0 -0.37402384376206249 -0.023759624541515059 0 -0.37465439862472261 -0.016787835852634068 0 -0.38011722188171299 -0.020315848921226409 0 -0.37402384376206249 -0.023759624541515059 0 -0.38011722188171299 -0.020315848921226409 0 -0.37866743010551202 -0.02906954498465647 0 -0.38781453024876661 -0.02996800237218563 0 -0.38011722188171299 -0.020315848921226409 0 -0.37866743010551202 -0.02906954498465647 0 -0.37439980638912518 -0.038891661293645137 0 -0.37866743010551202 -0.02906954498465647 0 -0.38394575501216083 -0.036535335565972972 0 -0.37439980638912518 -0.038891661293645137 0 -0.37993408630244868 -0.045501240077299353 0 -0.38394575501216083 -0.036535335565972972 0 -0.37085155020467431 -0.050438611479832557 0 -0.37439980638912518 -0.038891661293645137 0 -0.37993408630244868 -0.045501240077299353 0 -0.37993408630244868 -0.045501240077299353 0 -0.38895054345211377 -0.045335196083553769 0 -0.38394575501216083 -0.036535335565972972 0 -0.38895054345211377 -0.045335196083553769 0 -0.38394575501216083 -0.036535335565972972 0 -0.39396365166307989 -0.03445798481758762 0 -0.38781453024876661 -0.02996800237218563 0 -0.38394575501216083 -0.036535335565972972 0 -0.39396365166307989 -0.03445798481758762 0 -0.38781453024876661 -0.02996800237218563 0 -0.37866743010551202 -0.02906954498465647 0 -0.38394575501216083 -0.036535335565972972 0 -0.40237332615973681 -0.030676944162886681 0 -0.38781453024876661 -0.02996800237218563 0 -0.39396365166307989 -0.03445798481758762 0 -0.39396365166307989 -0.03445798481758762 0 -0.39750411751227832 -0.042292212187568533 0 -0.39928834571923882 -0.035924112998793431 0 -0.38895054345211377 -0.045335196083553769 0 -0.39396365166307989 -0.03445798481758762 0 -0.39750411751227832 -0.042292212187568533 0 -0.39750411751227832 -0.042292212187568533 0 -0.4050251302254127 -0.045922345921936697 0 -0.40306291723554027 -0.039039715031688543 0 -0.39750411751227832 -0.042292212187568533 0 -0.40306291723554027 -0.039039715031688543 0 -0.39928834571923882 -0.035924112998793431 0 -0.40237332615973681 -0.030676944162886681 0 -0.39396365166307989 -0.03445798481758762 0 -0.39928834571923882 -0.035924112998793431 0 -0.41105872637709778 -0.041104419315527559 0 -0.40237332615973681 -0.030676944162886681 0 -0.40306291723554027 -0.039039715031688543 0 -0.40237332615973681 -0.030676944162886681 0 -0.40306291723554027 -0.039039715031688543 0 -0.39928834571923882 -0.035924112998793431 0 -0.40603099279739802 -0.054788986838451827 0 -0.39527915405366182 -0.064437672488960096 0 -0.41284572228237681 -0.064006668923108523 0 -0.40603099279739802 -0.054788986838451827 0 -0.39443592701229091 -0.053019652188425637 0 -0.39527915405366182 -0.064437672488960096 0 -0.4050251302254127 -0.045922345921936697 0 -0.40603099279739802 -0.054788986838451827 0 -0.39443592701229091 -0.053019652188425637 0 -0.39750411751227832 -0.042292212187568533 0 -0.4050251302254127 -0.045922345921936697 0 -0.39443592701229091 -0.053019652188425637 0 -0.38895054345211377 -0.045335196083553769 0 -0.39750411751227832 -0.042292212187568533 0 -0.39443592701229091 -0.053019652188425637 0 -0.39443592701229091 -0.053019652188425637 0 -0.38221605892473098 -0.056125323053866277 0 -0.39527915405366182 -0.064437672488960096 0 -0.36608399240098949 -0.063120758007335118 0 -0.38221605892473098 -0.056125323053866277 0 -0.37978412082390189 -0.068029865631836883 0 -0.38895054345211377 -0.045335196083553769 0 -0.39443592701229091 -0.053019652188425637 0 -0.38221605892473098 -0.056125323053866277 0 -0.37993408630244868 -0.045501240077299353 0 -0.38895054345211377 -0.045335196083553769 0 -0.38221605892473098 -0.056125323053866277 0 -0.37085155020467431 -0.050438611479832557 0 -0.37993408630244868 -0.045501240077299353 0 -0.38221605892473098 -0.056125323053866277 0 -0.36843110820579178 -0.075527255856609146 0 -0.37978412082390189 -0.068029865631836883 0 -0.38691029053433551 -0.080938318752413793 0 -0.37978412082390189 -0.068029865631836883 0 -0.38691029053433551 -0.080938318752413793 0 -0.39527915405366182 -0.064437672488960096 0 -0.38221605892473098 -0.056125323053866277 0 -0.37978412082390189 -0.068029865631836883 0 -0.39527915405366182 -0.064437672488960096 0 -0.37380044498630338 -0.100392191664622 0 -0.36747037526515469 -0.088210616938563927 0 -0.38691029053433551 -0.080938318752413793 0 -0.36843110820579178 -0.075527255856609146 0 -0.38691029053433551 -0.080938318752413793 0 -0.40007542381043809 -0.086939242353532731 0 -0.39460333317738627 -0.1006873657273652 0 -0.41352047356827321 -0.0909948847898496 0 -0.38691029053433551 -0.080938318752413793 0 -0.40007542381043809 -0.086939242353532731 0 -0.40767355229219521 -0.074626636544090755 0 -0.38691029053433551 -0.080938318752413793 0 -0.40007542381043809 -0.086939242353532731 0 -0.39460333317738627 -0.1006873657273652 0 -0.38691029053433551 -0.080938318752413793 0 -0.39527915405366182 -0.064437672488960096 0 -0.40767355229219521 -0.074626636544090755 0 -0.39527915405366182 -0.064437672488960096 0 -0.41284572228237681 -0.064006668923108523 0 -0.40767355229219521 -0.074626636544090755 0 -0.36893450279197471 -0.1249528869149899 0 -0.3789649235099295 -0.11270856972454819 0 -0.39514760223357998 -0.1249586529677193 0 -0.36893450279197471 -0.1249528869149899 0 -0.39514760223357998 -0.1249586529677193 0 -0.3789649235099295 -0.11270856972454819 0 -0.39460333317738627 -0.1006873657273652 0 -0.39514760223357998 -0.1249586529677193 0 -0.37380044498630338 -0.100392191664622 0 -0.38691029053433551 -0.080938318752413793 0 -0.39460333317738627 -0.1006873657273652 0 -0.37380044498630338 -0.100392191664622 0 -0.3789649235099295 -0.11270856972454819 0 -0.39460333317738627 -0.1006873657273652 0 -0.39460333317738627 -0.1006873657273652 0 -0.39514760223357998 -0.1249586529677193 0 -0.4114708495464785 -0.1093321351213095 0 -0.42136070167518519 -0.1249644190204488 0 -0.4114708495464785 -0.1093321351213095 0 -0.43272213707796769 -0.1050553531011644 0 -0.39514760223357998 -0.1249586529677193 0 -0.42136070167518519 -0.1249644190204488 0 -0.39514760223357998 -0.1249586529677193 0 -0.42136070167518519 -0.1249644190204488 0 -0.4114708495464785 -0.1093321351213095 0 -0.39460333317738627 -0.1006873657273652 0 -0.4114708495464785 -0.1093321351213095 0 -0.41352047356827321 -0.0909948847898496 0 -0.4114708495464785 -0.1093321351213095 0 -0.43272213707796769 -0.1050553531011644 0 -0.41352047356827321 -0.0909948847898496 0 -0.42136070167518519 -0.1249644190204488 0 -0.43272213707796769 -0.1050553531011644 0 -0.44757380111679052 -0.12497018507317829 0 -0.42136070167518519 -0.1249644190204488 0 -0.44757380111679052 -0.12497018507317829 0 -0.42023793718526542 -0.076451056482049876 0 -0.41284572228237681 -0.064006668923108523 0 -0.42746868386642678 -0.066478460468227696 0 -0.42023793718526542 -0.076451056482049876 0 -0.41284572228237681 -0.064006668923108523 0 -0.40767355229219521 -0.074626636544090755 0 -0.42023793718526542 -0.076451056482049876 0 -0.40767355229219521 -0.074626636544090755 0 -0.41352047356827321 -0.0909948847898496 0 -0.40007542381043809 -0.086939242353532731 0 -0.40767355229219521 -0.074626636544090755 0 -0.41352047356827321 -0.0909948847898496 0 -0.42023793718526542 -0.076451056482049876 0 -0.41352047356827321 -0.0909948847898496 0 -0.43051036701793649 -0.083964229305721505 0 -0.43272213707796769 -0.1050553531011644 0 -0.41352047356827321 -0.0909948847898496 0 -0.43051036701793649 -0.083964229305721505 0 -0.43272213707796769 -0.1050553531011644 0 -0.43051036701793649 -0.083964229305721505 0 -0.44869793539396702 -0.090613631575090198 0 -0.43051036701793649 -0.083964229305721505 0 -0.42746868386642678 -0.066478460468227696 0 -0.43938561630945938 -0.075374003134316428 0 -0.42023793718526542 -0.076451056482049876 0 -0.43051036701793649 -0.083964229305721505 0 -0.42746868386642678 -0.066478460468227696 0 -0.42746868386642678 -0.066478460468227696 0 -0.43950717444435422 -0.063784996514660589 0 -0.43938561630945938 -0.075374003134316428 0 -0.43950717444435422 -0.063784996514660589 0 -0.45074392082461212 -0.072028697807882153 0 -0.43938561630945938 -0.075374003134316428 0 -0.43051036701793649 -0.083964229305721505 0 -0.43938561630945938 -0.075374003134316428 0 -0.44869793539396702 -0.090613631575090198 0 -0.45074392082461212 -0.072028697807882153 0 -0.43938561630945938 -0.075374003134316428 0 -0.44869793539396702 -0.090613631575090198 0 -0.45074392082461212 -0.072028697807882153 0 -0.44869793539396702 -0.090613631575090198 0 -0.4647336852437608 -0.080388630180202481 0 -0.44869793539396702 -0.090613631575090198 0 -0.4647336852437608 -0.080388630180202481 0 -0.47380622041468068 -0.096022360055862885 0 -0.4647336852437608 -0.080388630180202481 0 -0.46264955769922828 -0.069236149835977229 0 -0.47254815090776853 -0.069469283055039688 0 -0.45074392082461212 -0.072028697807882153 0 -0.46264955769922828 -0.069236149835977229 0 -0.44688553471578463 -0.051399134646207288 0 -0.46264955769922828 -0.069236149835977229 0 -0.47254815090776853 -0.069469283055039688 0 -0.46914163899380801 -0.061760229887868598 0 -0.45074392082461212 -0.072028697807882153 0 -0.4647336852437608 -0.080388630180202481 0 -0.46264955769922828 -0.069236149835977229 0 -0.43272213707796769 -0.1050553531011644 0 -0.44757380111679052 -0.12497018507317829 0 -0.46022938895027038 -0.10869066194517669 0 -0.43272213707796769 -0.1050553531011644 0 -0.44869793539396702 -0.090613631575090198 0 -0.46022938895027038 -0.10869066194517669 0 -0.44869793539396702 -0.090613631575090198 0 -0.46022938895027038 -0.10869066194517669 0 -0.47380622041468068 -0.096022360055862885 0 -0.44757380111679052 -0.12497018507317829 0 -0.47378690055839578 -0.1249759511259078 0 -0.44757380111679052 -0.12497018507317829 0 -0.46022938895027038 -0.10869066194517669 0 -0.47378690055839578 -0.1249759511259078 0 -0.46022938895027038 -0.10869066194517669 0 -0.47378690055839578 -0.1249759511259078 0 -0.48374478807960558 -0.1092121363906397 0 -0.46022938895027038 -0.10869066194517669 0 -0.48374478807960558 -0.1092121363906397 0 -0.47380622041468068 -0.096022360055862885 0 -0.48374478807960558 -0.1092121363906397 0 -0.47380622041468068 -0.096022360055862885 0 -0.48832582805197727 -0.092109142267116931 0 -0.48374478807960558 -0.1092121363906397 0 -0.5 -0.10055386622176241 0 -0.48832582805197727 -0.092109142267116931 0 -0.47378690055839578 -0.1249759511259078 0 -0.48374478807960558 -0.1092121363906397 0 -0.50000000000000111 -0.12498171717863731 0 -0.48374478807960558 -0.1092121363906397 0 -0.5 -0.10055386622176241 0 -0.50000000000000111 -0.12498171717863731 0 -0.47378690055839578 -0.1249759511259078 0 -0.50000000000000111 -0.12498171717863731 0 -0.47254815090776853 -0.069469283055039688 0 -0.47913967023945842 -0.082463322467565006 0 -0.48457081949690362 -0.068943122576377761 0 -0.47913967023945842 -0.082463322467565006 0 -0.48808502354595151 -0.080031310268457945 0 -0.48457081949690362 -0.068943122576377761 0 -0.48457081949690362 -0.068943122576377761 0 -0.46914163899380801 -0.061760229887868598 0 -0.48457081949690362 -0.068943122576377761 0 -0.48230491698392047 -0.057318093012348498 0 -0.46914163899380801 -0.061760229887868598 0 -0.47254815090776853 -0.069469283055039688 0 -0.48457081949690362 -0.068943122576377761 0 -0.46914163899380801 -0.061760229887868598 0 -0.47254815090776853 -0.069469283055039688 0 -0.46914163899380801 -0.061760229887868598 0 -0.4647336852437608 -0.080388630180202481 0 -0.47254815090776853 -0.069469283055039688 0 -0.47913967023945842 -0.082463322467565006 0 -0.4647336852437608 -0.080388630180202481 0 -0.47380622041468068 -0.096022360055862885 0 -0.47913967023945842 -0.082463322467565006 0 -0.47380622041468068 -0.096022360055862885 0 -0.47913967023945842 -0.082463322467565006 0 -0.48832582805197727 -0.092109142267116931 0 -0.5 -0.10055386622176241 0 -0.48832582805197727 -0.092109142267116931 0 -0.499999999999999 -0.07612601526488752 0 -0.48808502354595151 -0.080031310268457945 0 -0.48832582805197727 -0.092109142267116931 0 -0.499999999999999 -0.07612601526488752 0 -0.47913967023945842 -0.082463322467565006 0 -0.48808502354595151 -0.080031310268457945 0 -0.48832582805197727 -0.092109142267116931 0 -0.499999999999999 -0.07612601526488752 0 -0.48457081949690362 -0.068943122576377761 0 -0.499999999999999 -0.07612601526488752 0 -0.48457081949690362 -0.068943122576377761 0 -0.5 -0.055081012739928707 0 -0.48808502354595151 -0.080031310268457945 0 -0.499999999999999 -0.07612601526488752 0 -0.48457081949690362 -0.068943122576377761 0 -0.48457081949690362 -0.068943122576377761 0 -0.5 -0.055081012739928707 0 -0.48230491698392047 -0.057318093012348498 0 -0.5 -0.055081012739928707 0 -0.48157039955536241 -0.044558511477442143 0 -0.48230491698392047 -0.057318093012348498 0 -0.5 -0.055081012739928707 0 -0.500000000000004 -0.034036010214970061 0 -0.48157039955536241 -0.044558511477442143 0 -0.500000000000004 -0.034036010214970061 0 -0.48157039955536241 -0.044558511477442143 0 -0.48148290990478199 -0.029591545163434652 0 -0.48157039955536241 -0.044558511477442143 0 -0.45768975774058179 -0.035844230274481748 0 -0.48148290990478199 -0.029591545163434652 0 -0.48157039955536241 -0.044558511477442143 0 -0.46914163899380801 -0.061760229887868598 0 -0.45768975774058179 -0.035844230274481748 0 -0.48157039955536241 -0.044558511477442143 0 -0.48230491698392047 -0.057318093012348498 0 -0.46914163899380801 -0.061760229887868598 0 -0.46914163899380801 -0.061760229887868598 0 -0.45768975774058179 -0.035844230274481748 0 -0.44688553471578463 -0.051399134646207288 0 -0.46914163899380801 -0.061760229887868598 0 -0.45768975774058179 -0.035844230274481748 0 -0.46264955769922828 -0.069236149835977229 0 -0.46914163899380801 -0.061760229887868598 0 -0.44688553471578463 -0.051399134646207288 0 -0.46914163899380801 -0.061760229887868598 0 -0.44688553471578463 -0.051399134646207288 0 -0.43628267576141971 -0.035329403205585218 0 -0.44354830351403418 -0.034418653902415733 0 -0.44688553471578463 -0.051399134646207288 0 -0.45768975774058179 -0.035844230274481748 0 -0.44354830351403418 -0.034418653902415733 0 -0.44688553471578463 -0.051399134646207288 0 -0.45768975774058179 -0.035844230274481748 0 -0.44354830351403418 -0.034418653902415733 0 -0.44312252706978628 -0.024928407146411868 0 -0.43628267576141971 -0.035329403205585218 0 -0.43710875721387199 -0.026668229939385779 0 -0.44354830351403418 -0.034418653902415733 0 -0.43950717444435422 -0.063784996514660589 0 -0.45074392082461212 -0.072028697807882153 0 -0.44688553471578463 -0.051399134646207288 0 -0.43147245553696489 -0.05279552735729795 0 -0.43950717444435422 -0.063784996514660589 0 -0.44688553471578463 -0.051399134646207288 0 -0.43591977417237449 -0.008065469867085449 0 -0.44623787648735791 -0.0099282306610938807 0 -0.43740981058492812 0.01004998492246997 0 -0.43591977417237449 -0.008065469867085449 0 -0.44623787648735791 -0.0099282306610938807 0 -0.43928417642389239 -0.017661557407765791 0 -0.43591977417237449 -0.008065469867085449 0 -0.44623787648735791 -0.0099282306610938807 0 -0.43710875721387199 -0.026668229939385779 0 -0.43928417642389239 -0.017661557407765791 0 -0.44312252706978628 -0.024928407146411868 0 -0.45768975774058179 -0.035844230274481748 0 -0.44623787648735791 -0.0099282306610938807 0 -0.44312252706978628 -0.024928407146411868 0 -0.45768975774058179 -0.035844230274481748 0 -0.44623787648735791 -0.0099282306610938807 0 -0.44623787648735791 -0.0099282306610938807 0 -0.43928417642389239 -0.017661557407765791 0 -0.44312252706978628 -0.024928407146411868 0 -0.43710875721387199 -0.026668229939385779 0 -0.44354830351403418 -0.034418653902415733 0 -0.44312252706978628 -0.024928407146411868 0 -0.45768975774058179 -0.035844230274481748 0 -0.44623787648735791 -0.0099282306610938807 0 -0.47146408957177099 -0.01448240150379307 0 -0.44623787648735791 -0.0099282306610938807 0 -0.47146408957177099 -0.01448240150379307 0 -0.44623787648735791 -0.0099282306610938807 0 -0.47146408957177099 -0.01448240150379307 0 -0.46048772545436639 0.0043098071123656434 0 -0.47146408957177099 -0.01448240150379307 0 -0.47882554305316488 -0.0018417715126103191 0 -0.46048772545436639 0.0043098071123656434 0 -0.47146408957177099 -0.01448240150379307 0 -0.47882554305316488 -0.0018417715126103191 0 -0.49669030265618502 -0.01903657234648758 0 -0.47146408957177099 -0.01448240150379307 0 -0.49669030265618502 -0.01903657234648758 0 -0.47146408957177099 -0.01448240150379307 0 -0.48148290990478199 -0.029591545163434652 0 -0.49669030265618502 -0.01903657234648758 0 -0.45768975774058179 -0.035844230274481748 0 -0.47146408957177099 -0.01448240150379307 0 -0.48148290990478199 -0.029591545163434652 0 -0.500000000000004 -0.034036010214970061 0 -0.48148290990478199 -0.029591545163434652 0 -0.49669030265618502 -0.01903657234648758 0 -0.49669030265618502 -0.01903657234648758 0 -0.50000000000000056 -0.019634082844440681 0 -0.500000000000004 -0.034036010214970061 0 -0.49669030265618502 -0.01903657234648758 0 -0.500000000000004 -0.034036010214970061 0 -0.49669030265618502 -0.01903657234648758 0 -0.50000000000000056 -0.019634082844440681 0 -0.47882554305316488 -0.0018417715126103191 0 -0.49669030265618502 -0.01903657234648758 0 -0.49160980924365538 0.0039880541876541054 0 -0.49669030265618502 -0.01903657234648758 0 -0.49160980924365538 0.0039880541876541054 0 -0.49669030265618502 -0.01903657234648758 0 -0.50000000000000056 -0.019634082844440681 0 -0.49160980924365538 0.0039880541876541054 0 -0.50000000000000056 -0.019634082844440681 0 -0.49160980924365538 0.0039880541876541054 0 -0.50000000000000033 0.009303662189531537 0 -0.49160980924365538 0.0039880541876541054 0 -0.48652931583112352 0.027012680721795381 0 -0.49160980924365538 0.0039880541876541054 0 -0.50000000000000033 0.009303662189531537 0 -0.48652931583112352 0.027012680721795381 0 -0.50000000000000033 0.009303662189531537 0 -0.5 0.03611151152349279 0 -0.49175907743105379 0.031398254416965428 0 -0.50000000000000033 0.009303662189531537 0 -0.49175907743105379 0.031398254416965428 0 -0.50000000000000033 0.009303662189531537 0 -0.48652931583112352 0.027012680721795381 0 -0.49175907743105379 0.031398254416965428 0 -0.48652931583112352 0.027012680721795381 0 -0.47387578833984401 0.016012254987208822 0 -0.46815351836101687 0.031449839152918539 0 -0.49160980924365538 0.0039880541876541054 0 -0.48652931583112352 0.027012680721795381 0 -0.47387578833984401 0.016012254987208822 0 -0.47882554305316488 -0.0018417715126103191 0 -0.49160980924365538 0.0039880541876541054 0 -0.47387578833984401 0.016012254987208822 0 -0.47882554305316488 -0.0018417715126103191 0 -0.47387578833984401 0.016012254987208822 0 -0.46048772545436639 0.0043098071123656434 0 -0.49282352307895688 0.045257754500502748 0 -0.5 0.03611151152349279 0 -0.5 0.062919360857453976 0 -0.49282352307895688 0.045257754500502748 0 -0.48351815486210709 0.053492846644399093 0 -0.5 0.062919360857453976 0 -0.49175907743105379 0.031398254416965428 0 -0.48144882241859149 0.050037307255936581 0 -0.48351815486210709 0.053492846644399093 0 -0.48652931583112352 0.027012680721795381 0 -0.49175907743105379 0.031398254416965428 0 -0.48144882241859149 0.050037307255936581 0 -0.49175907743105379 0.031398254416965428 0 -0.48351815486210709 0.053492846644399093 0 -0.49282352307895688 0.045257754500502748 0 -0.49175907743105379 0.031398254416965428 0 -0.48351815486210709 0.053492846644399093 0 -0.49282352307895688 0.045257754500502748 0 -0.5 0.03611151152349279 0 -0.49175907743105379 0.031398254416965428 0 -0.48144882241859149 0.050037307255936581 0 -0.4639696453013944 0.043374392403556838 0 -0.46815351836101687 0.031449839152918539 0 -0.48652931583112352 0.027012680721795381 0 -0.48144882241859149 0.050037307255936581 0 -0.48652931583112352 0.027012680721795381 0 -0.48144882241859149 0.050037307255936581 0 -0.46815351836101687 0.031449839152918539 0 -0.48144882241859149 0.050037307255936581 0 -0.45709786057011947 0.055708105081253657 0 -0.47636832900606041 0.073061933790077832 0 -0.48144882241859149 0.050037307255936581 0 -0.48351815486210709 0.053492846644399093 0 -0.47636832900606041 0.073061933790077832 0 -0.48144882241859149 0.050037307255936581 0 -0.47636832900606041 0.073061933790077832 0 -0.48144882241859149 0.050037307255936581 0 -0.45709786057011947 0.055708105081253657 0 -0.4639696453013944 0.043374392403556838 0 -0.45709786057011947 0.055708105081253657 0 -0.4639696453013944 0.043374392403556838 0 -0.45299045524759751 0.034902057762674861 0 -0.4639696453013944 0.043374392403556838 0 -0.46815351836101687 0.031449839152918539 0 -0.45299045524759751 0.034902057762674861 0 -0.46815351836101687 0.031449839152918539 0 -0.45299045524759751 0.034902057762674861 0 -0.45709786057011947 0.055708105081253657 0 -0.45299045524759751 0.034902057762674861 0 -0.43782739213417787 0.038354276372430232 0 -0.45299045524759751 0.034902057762674861 0 -0.43782739213417787 0.038354276372430232 0 -0.45299045524759751 0.034902057762674861 0 -0.43782739213417787 0.038354276372430232 0 -0.44297011017848281 0.02707887027054981 0 -0.45709786057011947 0.055708105081253657 0 -0.43782739213417787 0.038354276372430232 0 -0.43187248081207541 0.055496176207803817 0 -0.45709786057011947 0.055708105081253657 0 -0.43782739213417787 0.038354276372430232 0 -0.45709786057011947 0.055708105081253657 0 -0.43187248081207541 0.055496176207803817 0 -0.43763284036668942 0.072255399145110422 0 -0.47387578833984401 0.016012254987208822 0 -0.46048772545436639 0.0043098071123656434 0 -0.45598123469437257 0.020633802368031268 0 -0.47387578833984401 0.016012254987208822 0 -0.46815351836101687 0.031449839152918539 0 -0.45598123469437257 0.020633802368031268 0 -0.46815351836101687 0.031449839152918539 0 -0.45299045524759751 0.034902057762674861 0 -0.45598123469437257 0.020633802368031268 0 -0.45598123469437257 0.020633802368031268 0 -0.44297011017848281 0.02707887027054981 0 -0.43740981058492812 0.01004998492246997 0 -0.45299045524759751 0.034902057762674861 0 -0.45598123469437257 0.020633802368031268 0 -0.44297011017848281 0.02707887027054981 0 -0.46048772545436639 0.0043098071123656434 0 -0.45598123469437257 0.020633802368031268 0 -0.43740981058492812 0.01004998492246997 0 -0.44623787648735791 -0.0099282306610938807 0 -0.46048772545436639 0.0043098071123656434 0 -0.43740981058492812 0.01004998492246997 0 -0.44623787648735791 -0.0099282306610938807 0 -0.43740981058492812 0.01004998492246997 0 -0.43591977417237449 -0.008065469867085449 0 -0.43740981058492812 0.01004998492246997 0 -0.42583279771702431 0.00046528033667210148 0 -0.43740981058492812 0.01004998492246997 0 -0.42292027786463471 0.01349413118407828 0 -0.42583279771702431 0.00046528033667210148 0 -0.41794895562780338 -0.01094222954485795 0 -0.40909120882054839 0.01273065398649661 0 -0.41794895562780338 -0.01094222954485795 0 -0.40352261506359649 -0.001038070178381474 0 -0.40909120882054839 0.01273065398649661 0 -0.42292027786463471 0.01349413118407828 0 -0.42583279771702431 0.00046528033667210148 0 -0.40909120882054839 0.01273065398649661 0 -0.41794895562780338 -0.01094222954485795 0 -0.42583279771702431 0.00046528033667210148 0 -0.40909120882054839 0.01273065398649661 0 -0.40909120882054839 0.01273065398649661 0 -0.41494363987246979 0.023236645495722939 0 -0.40023346201329341 0.036403537517851137 0 -0.41494363987246979 0.023236645495722939 0 -0.41436175989852531 0.033604495869393458 0 -0.40023346201329341 0.036403537517851137 0 -0.42292027786463471 0.01349413118407828 0 -0.41494363987246979 0.023236645495722939 0 -0.424969395700869 0.026775135554755129 0 -0.42292027786463471 0.01349413118407828 0 -0.40909120882054839 0.01273065398649661 0 -0.41494363987246979 0.023236645495722939 0 -0.41494363987246979 0.023236645495722939 0 -0.41896391809246269 0.029132761591660509 0 -0.41436175989852531 0.033604495869393458 0 -0.41494363987246979 0.023236645495722939 0 -0.41896391809246269 0.029132761591660509 0 -0.424969395700869 0.026775135554755129 0 -0.41896391809246269 0.029132761591660509 0 -0.424969395700869 0.026775135554755129 0 -0.42158087689798668 0.032914769446770492 0 -0.424969395700869 0.026775135554755129 0 -0.42858174468249838 0.030028200506033911 0 -0.42158087689798668 0.032914769446770492 0 -0.44297011017848281 0.02707887027054981 0 -0.43740981058492812 0.01004998492246997 0 -0.42858174468249838 0.030028200506033911 0 -0.43740981058492812 0.01004998492246997 0 -0.42292027786463471 0.01349413118407828 0 -0.424969395700869 0.026775135554755129 0 -0.43740981058492812 0.01004998492246997 0 -0.42858174468249838 0.030028200506033911 0 -0.43740981058492812 0.01004998492246997 0 -0.424969395700869 0.026775135554755129 0 -0.42858174468249838 0.030028200506033911 0 -0.424969395700869 0.026775135554755129 0 -0.42858174468249838 0.030028200506033911 0 -0.43782739213417787 0.038354276372430232 0 -0.44297011017848281 0.02707887027054981 0 -0.42858174468249838 0.030028200506033911 0 -0.43782739213417787 0.038354276372430232 0 -0.42858174468249838 0.030028200506033911 0 -0.42345682706553001 0.041626064651069543 0 -0.43782739213417787 0.038354276372430232 0 -0.42345682706553001 0.041626064651069543 0 -0.43187248081207541 0.055496176207803817 0 -0.43782739213417787 0.038354276372430232 0 -0.42858174468249838 0.030028200506033911 0 -0.43782739213417787 0.038354276372430232 0 -0.42345682706553001 0.041626064651069543 0 -0.42858174468249838 0.030028200506033911 0 -0.42345682706553001 0.041626064651069543 0 -0.42158087689798668 0.032914769446770492 0 -0.42858174468249838 0.030028200506033911 0 -0.42345682706553001 0.041626064651069543 0 -0.42345682706553001 0.041626064651069543 0 -0.43187248081207541 0.055496176207803817 0 -0.4177568865966339 0.054525225210098782 0 -0.43187248081207541 0.055496176207803817 0 -0.4177568865966339 0.054525225210098782 0 -0.41753301535116211 0.067129086497859855 0 -0.42345682706553001 0.041626064651069543 0 -0.4177568865966339 0.054525225210098782 0 -0.40276573021624068 0.046336866753853997 0 -0.4177568865966339 0.054525225210098782 0 -0.40750332447406851 0.057375884956624552 0 -0.41753301535116211 0.067129086497859855 0 -0.42345682706553001 0.041626064651069543 0 -0.4177568865966339 0.054525225210098782 0 -0.4177568865966339 0.054525225210098782 0 -0.40750332447406851 0.057375884956624552 0 -0.40276573021624068 0.046336866753853997 0 -0.42345682706553001 0.041626064651069543 0 -0.40276573021624068 0.046336866753853997 0 -0.42345682706553001 0.041626064651069543 0 -0.41020444479839763 0.039492741198042178 0 -0.40276573021624068 0.046336866753853997 0 -0.42345682706553001 0.041626064651069543 0 -0.41436175989852531 0.033604495869393458 0 -0.42158087689798668 0.032914769446770492 0 -0.42345682706553001 0.041626064651069543 0 -0.41436175989852531 0.033604495869393458 0 -0.41020444479839763 0.039492741198042178 0 -0.41896391809246269 0.029132761591660509 0 -0.41436175989852531 0.033604495869393458 0 -0.42158087689798668 0.032914769446770492 0 -0.41436175989852531 0.033604495869393458 0 -0.41020444479839763 0.039492741198042178 0 -0.40023346201329341 0.036403537517851137 0 -0.40276573021624068 0.046336866753853997 0 -0.38207463336695202 0.051047668856640811 0 -0.38772007791329738 0.03985096685417347 0 -0.41020444479839763 0.039492741198042178 0 -0.40023346201329341 0.036403537517851137 0 -0.40276573021624068 0.046336866753853997 0 -0.40023346201329341 0.036403537517851137 0 -0.40276573021624068 0.046336866753853997 0 -0.38772007791329738 0.03985096685417347 0 -0.40023346201329341 0.036403537517851137 0 -0.38772007791329738 0.03985096685417347 0 -0.38925836826538629 0.030805614435688099 0 -0.40276573021624068 0.046336866753853997 0 -0.38207463336695202 0.051047668856640811 0 -0.40276573021624068 0.046336866753853997 0 -0.39689466156197101 0.057407184083191301 0 -0.38207463336695202 0.051047668856640811 0 -0.40750332447406851 0.057375884956624552 0 -0.39689466156197101 0.057407184083191301 0 -0.40210564328563447 0.066115584712721373 0 -0.40750332447406851 0.057375884956624552 0 -0.40276573021624068 0.046336866753853997 0 -0.39689466156197101 0.057407184083191301 0 -0.38207463336695202 0.051047668856640811 0 -0.38848633305814179 0.065600711414542545 0 -0.36891219827968119 0.060077996683558232 0 -0.39689466156197101 0.057407184083191301 0 -0.38207463336695202 0.051047668856640811 0 -0.38848633305814179 0.065600711414542545 0 -0.38772007791329738 0.03985096685417347 0 -0.37937813184432773 0.031366277704107569 0 -0.38925836826538629 0.030805614435688099 0 -0.38207463336695202 0.051047668856640811 0 -0.38772007791329738 0.03985096685417347 0 -0.37261014177358448 0.043145835856899219 0 -0.38772007791329738 0.03985096685417347 0 -0.37937813184432773 0.031366277704107569 0 -0.37261014177358448 0.043145835856899219 0 -0.37937813184432773 0.031366277704107569 0 -0.38391758338059062 0.022870450659759161 0 -0.37479293228070759 0.022502646493578662 0 -0.37937813184432773 0.031366277704107569 0 -0.38925836826538629 0.030805614435688099 0 -0.38391758338059062 0.022870450659759161 0 -0.38925836826538629 0.030805614435688099 0 -0.38391758338059062 0.022870450659759161 0 -0.3946160130735708 0.021551959563878339 0 -0.38391758338059062 0.022870450659759161 0 -0.38667067902898572 0.013842153393714489 0 -0.3946160130735708 0.021551959563878339 0 -0.38391758338059062 0.022870450659759161 0 -0.3778438638662554 0.014761087644765769 0 -0.38667067902898572 0.013842153393714489 0 -0.38391758338059062 0.022870450659759161 0 -0.3778438638662554 0.014761087644765769 0 -0.37479293228070759 0.022502646493578662 0 -0.3778438638662554 0.014761087644765769 0 -0.38165634421242611 0.0056742618597281089 0 -0.38667067902898572 0.013842153393714489 0 -0.3778438638662554 0.014761087644765769 0 -0.38165634421242611 0.0056742618597281089 0 -0.37464316483836829 0.0066416053135349984 0 -0.37774077980655368 -0.001289555558904682 0 -0.38165634421242611 0.0056742618597281089 0 -0.37464316483836829 0.0066416053135349984 0 -0.3848191179490616 -0.0027051675553946518 0 -0.37774077980655368 -0.001289555558904682 0 -0.38165634421242611 0.0056742618597281089 0 -0.3848191179490616 -0.0027051675553946518 0 -0.38165634421242611 0.0056742618597281089 0 -0.38845980705381639 0.0057813395070211177 0 -0.39408165103759368 -0.0019794594859314238 0 -0.3848191179490616 -0.0027051675553946518 0 -0.38845980705381639 0.0057813395070211177 0 -0.38845980705381639 0.0057813395070211177 0 -0.38667067902898572 0.013842153393714489 0 -0.39627830677719 0.008853295208583448 0 -0.38165634421242611 0.0056742618597281089 0 -0.38845980705381639 0.0057813395070211177 0 -0.38667067902898572 0.013842153393714489 0 -0.38667067902898572 0.013842153393714489 0 -0.39627830677719 0.008853295208583448 0 -0.3946160130735708 0.021551959563878339 0 -0.39408165103759368 -0.0019794594859314238 0 -0.38845980705381639 0.0057813395070211177 0 -0.39627830677719 0.008853295208583448 0 -0.40352261506359649 -0.001038070178381474 0 -0.39408165103759368 -0.0019794594859314238 0 -0.39627830677719 0.008853295208583448 0 -0.40352261506359649 -0.001038070178381474 0 -0.40909120882054839 0.01273065398649661 0 -0.39627830677719 0.008853295208583448 0 -0.40909120882054839 0.01273065398649661 0 -0.39627830677719 0.008853295208583448 0 -0.3946160130735708 0.021551959563878339 0 -0.40909120882054839 0.01273065398649661 0 -0.40023346201329341 0.036403537517851137 0 -0.3946160130735708 0.021551959563878339 0 -0.40909120882054839 0.01273065398649661 0 -0.40023346201329341 0.036403537517851137 0 -0.40023346201329341 0.036403537517851137 0 -0.38925836826538629 0.030805614435688099 0 -0.3946160130735708 0.021551959563878339 0 -0.38696142946532958 0.1003701901717608 0 -0.40164011277457379 0.081352107660276216 0 -0.40864304721671202 0.1107171055473533 0 -0.38750957741872682 0.11885909540365321 0 -0.40864304721671202 0.1107171055473533 0 -0.39401402549175851 0.1361747599337243 0 -0.38750957741872682 0.11885909540365321 0 -0.38696142946532958 0.1003701901717608 0 -0.40864304721671202 0.1107171055473533 0 -0.38750957741872682 0.11885909540365321 0 -0.38696142946532958 0.1003701901717608 0 -0.36904533532088801 0.1177582563576956 0 -0.38696142946532958 0.1003701901717608 0 -0.37090825683648998 0.098456277756480637 0 -0.36904533532088801 0.1177582563576956 0 -0.37929074908003868 0.077603726490867345 0 -0.40164011277457379 0.081352107660276216 0 -0.38696142946532958 0.1003701901717608 0 -0.37929074908003868 0.077603726490867345 0 -0.40164011277457379 0.081352107660276216 0 -0.38696142946532958 0.1003701901717608 0 -0.37929074908003868 0.077603726490867345 0 -0.37090825683648998 0.098456277756480637 0 -0.37929074908003868 0.077603726490867345 0 -0.38848633305814179 0.065600711414542545 0 -0.36891219827968119 0.060077996683558232 0 -0.37929074908003868 0.077603726490867345 0 -0.38848633305814179 0.065600711414542545 0 -0.40164011277457379 0.081352107660276216 0 -0.38848633305814179 0.065600711414542545 0 -0.40210564328563447 0.066115584712721373 0 -0.40164011277457379 0.081352107660276216 0 -0.39689466156197101 0.057407184083191301 0 -0.38848633305814179 0.065600711414542545 0 -0.40210564328563447 0.066115584712721373 0 -0.40164011277457379 0.081352107660276216 0 -0.42398947646910912 0.085100488829685086 0 -0.40164011277457379 0.081352107660276216 0 -0.42398947646910912 0.085100488829685086 0 -0.40864304721671202 0.1107171055473533 0 -0.40210564328563447 0.066115584712721373 0 -0.40164011277457379 0.081352107660276216 0 -0.41753301535116211 0.067129086497859855 0 -0.40164011277457379 0.081352107660276216 0 -0.41753301535116211 0.067129086497859855 0 -0.42398947646910912 0.085100488829685086 0 -0.40750332447406851 0.057375884956624552 0 -0.40210564328563447 0.066115584712721373 0 -0.41753301535116211 0.067129086497859855 0 -0.41753301535116211 0.067129086497859855 0 -0.42398947646910912 0.085100488829685086 0 -0.43763284036668942 0.072255399145110422 0 -0.43187248081207541 0.055496176207803817 0 -0.41753301535116211 0.067129086497859855 0 -0.43763284036668942 0.072255399145110422 0 -0.42398947646910912 0.085100488829685086 0 -0.44633884016364428 0.088848869999093971 0 -0.42398947646910912 0.085100488829685086 0 -0.43763284036668942 0.072255399145110422 0 -0.44633884016364428 0.088848869999093971 0 -0.42398947646910912 0.085100488829685086 0 -0.42906186480059683 0.10519001099972999 0 -0.44633884016364428 0.088848869999093971 0 -0.42398947646910912 0.085100488829685086 0 -0.42906186480059683 0.10519001099972999 0 -0.40864304721671202 0.1107171055473533 0 -0.40864304721671202 0.1107171055473533 0 -0.43267942878230348 0.12559175737704789 0 -0.42906186480059683 0.10519001099972999 0 -0.40864304721671202 0.1107171055473533 0 -0.43267942878230348 0.12559175737704789 0 -0.42906186480059683 0.10519001099972999 0 -0.4489383204882843 0.11104189391905871 0 -0.43267942878230348 0.12559175737704789 0 -0.4489383204882843 0.11104189391905871 0 -0.45289828098281221 0.1241297055338681 0 -0.43267942878230348 0.12559175737704789 0 -0.4489383204882843 0.11104189391905871 0 -0.43267942878230348 0.12559175737704789 0 -0.42906186480059683 0.10519001099972999 0 -0.4489383204882843 0.11104189391905871 0 -0.44633884016364428 0.088848869999093971 0 -0.4489383204882843 0.11104189391905871 0 -0.44633884016364428 0.088848869999093971 0 -0.47121921728662652 0.096397536200283296 0 -0.46607010556719342 0.11973313861048911 0 -0.47121921728662652 0.096397536200283296 0 -0.4489383204882843 0.11104189391905871 0 -0.46607010556719342 0.11973313861048911 0 -0.47121921728662652 0.096397536200283296 0 -0.4489383204882843 0.11104189391905871 0 -0.45289828098281221 0.1241297055338681 0 -0.46607010556719342 0.11973313861048911 0 -0.45709786057011947 0.055708105081253657 0 -0.43763284036668942 0.072255399145110422 0 -0.45544766770060358 0.07348919590478746 0 -0.43763284036668942 0.072255399145110422 0 -0.44633884016364428 0.088848869999093971 0 -0.45544766770060358 0.07348919590478746 0 -0.44633884016364428 0.088848869999093971 0 -0.45544766770060358 0.07348919590478746 0 -0.47121921728662652 0.096397536200283296 0 -0.45544766770060358 0.07348919590478746 0 -0.47636832900606041 0.073061933790077832 0 -0.47121921728662652 0.096397536200283296 0 -0.45709786057011947 0.055708105081253657 0 -0.47636832900606041 0.073061933790077832 0 -0.45709786057011947 0.055708105081253657 0 -0.45544766770060358 0.07348919590478746 0 -0.47636832900606041 0.073061933790077832 0 -0.48351815486210709 0.053492846644399093 0 -0.47636832900606041 0.073061933790077832 0 -0.49140909277123612 0.074197219851226057 0 -0.47636832900606041 0.073061933790077832 0 -0.48274454235378189 0.091705374172880549 0 -0.47121921728662652 0.096397536200283296 0 -0.47636832900606041 0.073061933790077832 0 -0.47121921728662652 0.096397536200283296 0 -0.47636832900606041 0.073061933790077832 0 -0.49715897998801373 0.091784747772784503 0 -0.5 0.089727210191415163 0 -0.49715897998801373 0.091784747772784503 0 -0.49140909277123612 0.074197219851226057 0 -0.47636832900606041 0.073061933790077832 0 -0.48274454235378189 0.091705374172880549 0 -0.49715897998801373 0.091784747772784503 0 -0.47636832900606041 0.073061933790077832 0 -0.49715897998801373 0.091784747772784503 0 -0.49140909277123612 0.074197219851226057 0 -0.5 0.089727210191415163 0 -0.5 0.062919360857453976 0 -0.49140909277123612 0.074197219851226057 0 -0.48351815486210709 0.053492846644399093 0 -0.5 0.062919360857453976 0 -0.49140909277123612 0.074197219851226057 0 -0.46607010556719342 0.11973313861048911 0 -0.48623164313442779 0.1055772789283768 0 -0.48453668432005692 0.123143207324586 0 -0.46607010556719342 0.11973313861048911 0 -0.47121921728662652 0.096397536200283296 0 -0.48623164313442779 0.1055772789283768 0 -0.48274454235378189 0.091705374172880549 0 -0.47121921728662652 0.096397536200283296 0 -0.48623164313442779 0.1055772789283768 0 -0.5 0.089727210191415163 0 -0.49715897998801373 0.091784747772784503 0 -0.5 0.1165350595253765 0 -0.49715897998801373 0.091784747772784503 0 -0.48623164313442779 0.1055772789283768 0 -0.5 0.1165350595253765 0 -0.48274454235378189 0.091705374172880549 0 -0.49715897998801373 0.091784747772784503 0 -0.48623164313442779 0.1055772789283768 0 -0.48623164313442779 0.1055772789283768 0 -0.5 0.1165350595253765 0 -0.48453668432005692 0.123143207324586 0 -0.5 0.1165350595253765 0 -0.48453668432005692 0.123143207324586 0 -0.5 0.1433429088593379 0 -0.48453668432005692 0.123143207324586 0 -0.48049738108946538 0.1379484740379 0 -0.5 0.1433429088593379 0 -0.46607010556719342 0.11973313861048911 0 -0.48453668432005692 0.123143207324586 0 -0.48049738108946538 0.1379484740379 0 -0.46607010556719342 0.11973313861048911 0 -0.48049738108946538 0.1379484740379 0 -0.46092099384776192 0.14306874102069511 0 -0.48464943840857888 0.15775282940309851 0 -0.46990863904630059 0.1670362475492525 0 -0.46092099384776192 0.14306874102069511 0 -0.48464943840857888 0.15775282940309851 0 -0.46092099384776192 0.14306874102069511 0 -0.48049738108946538 0.1379484740379 0 -0.48464943840857888 0.15775282940309851 0 -0.46092099384776192 0.14306874102069511 0 -0.48049738108946538 0.1379484740379 0 -0.5 0.1433429088593379 0 -0.48464943840857888 0.15775282940309851 0 -0.48464943840857888 0.15775282940309851 0 -0.5 0.17015075819329931 0 -0.4898809761324775 0.17912292006808481 0 -0.5 0.1433429088593379 0 -0.48464943840857888 0.15775282940309851 0 -0.5 0.17015075819329931 0 -0.48464943840857888 0.15775282940309851 0 -0.4898809761324775 0.17912292006808481 0 -0.47865635922375932 0.17909963177513319 0 -0.5 0.17015075819329931 0 -0.4898809761324775 0.17912292006808481 0 -0.5 0.19695860752726069 0 -0.4898809761324775 0.17912292006808481 0 -0.47865635922375932 0.17909963177513319 0 -0.48609908303004917 0.1916527734416324 0 -0.47865635922375932 0.17909963177513319 0 -0.47279817792341111 0.1948006201282925 0 -0.47865635922375932 0.17909963177513319 0 -0.46589335310649882 0.18744802338852329 0 -0.47279817792341111 0.1948006201282925 0 -0.47865635922375932 0.17909963177513319 0 -0.46927870962167312 0.17493875400548389 0 -0.46990863904630059 0.1670362475492525 0 -0.47865635922375932 0.17909963177513319 0 -0.46927870962167312 0.17493875400548389 0 -0.46555461593459269 0.18128722400797501 0 -0.47865635922375932 0.17909963177513319 0 -0.46589335310649882 0.18744802338852329 0 -0.46555461593459269 0.18128722400797501 0 -0.48464943840857888 0.15775282940309851 0 -0.47865635922375932 0.17909963177513319 0 -0.46990863904630059 0.1670362475492525 0 -0.45742932361540911 0.15889287394486271 0 -0.45393765338305497 0.17471700686903011 0 -0.46990863904630059 0.1670362475492525 0 -0.45742932361540911 0.15889287394486271 0 -0.46092099384776192 0.14306874102069511 0 -0.45742932361540911 0.15889287394486271 0 -0.46299522428203971 0.17233191268957501 0 -0.45393765338305497 0.17471700686903011 0 -0.46927870962167312 0.17493875400548389 0 -0.46990863904630059 0.1670362475492525 0 -0.46299522428203971 0.17233191268957501 0 -0.46990863904630059 0.1670362475492525 0 -0.45742932361540911 0.15889287394486271 0 -0.46299522428203971 0.17233191268957501 0 -0.46589335310649882 0.18744802338852329 0 -0.46555461593459269 0.18128722400797501 0 -0.45393765338305497 0.17471700686903011 0 -0.46589335310649882 0.18744802338852329 0 -0.46555461593459269 0.18128722400797501 0 -0.46927870962167312 0.17493875400548389 0 -0.46555461593459269 0.18128722400797501 0 -0.46299522428203971 0.17233191268957501 0 -0.46555461593459269 0.18128722400797501 0 -0.46299522428203971 0.17233191268957501 0 -0.45393765338305497 0.17471700686903011 0 -0.46589335310649882 0.18744802338852329 0 -0.45393765338305497 0.17471700686903011 0 -0.45393765338305497 0.17471700686903011 0 -0.44047241453070329 0.18324079402305421 0 -0.44820564853932793 0.20069426145875721 0 -0.45393765338305497 0.17471700686903011 0 -0.44047241453070329 0.18324079402305421 0 -0.44174290600336708 0.16173144065936321 0 -0.45742932361540911 0.15889287394486271 0 -0.44174290600336708 0.16173144065936321 0 -0.44616928685712581 0.1494742970518641 0 -0.45742932361540911 0.15889287394486271 0 -0.45393765338305497 0.17471700686903011 0 -0.44174290600336708 0.16173144065936321 0 -0.45393765338305497 0.17471700686903011 0 -0.44174290600336708 0.16173144065936321 0 -0.44174290600336708 0.16173144065936321 0 -0.44616928685712581 0.1494742970518641 0 -0.43187713239064979 0.1573343508491826 0 -0.44616928685712581 0.1494742970518641 0 -0.43700896048386301 0.14249666109927989 0 -0.43187713239064979 0.1573343508491826 0 -0.44616928685712581 0.1494742970518641 0 -0.44680021131503311 0.13433024919887079 0 -0.46092099384776192 0.14306874102069511 0 -0.44616928685712581 0.1494742970518641 0 -0.44680021131503311 0.13433024919887079 0 -0.43700896048386301 0.14249666109927989 0 -0.45289828098281221 0.1241297055338681 0 -0.44680021131503311 0.13433024919887079 0 -0.43267942878230348 0.12559175737704789 0 -0.44680021131503311 0.13433024919887079 0 -0.43267942878230348 0.12559175737704789 0 -0.43700896048386301 0.14249666109927989 0 -0.44680021131503311 0.13433024919887079 0 -0.43267942878230348 0.12559175737704789 0 -0.45289828098281221 0.1241297055338681 0 -0.44680021131503311 0.13433024919887079 0 -0.46092099384776192 0.14306874102069511 0 -0.46607010556719342 0.11973313861048911 0 -0.46092099384776192 0.14306874102069511 0 -0.45289828098281221 0.1241297055338681 0 -0.46607010556719342 0.11973313861048911 0 -0.46092099384776192 0.14306874102069511 0 -0.44680021131503311 0.13433024919887079 0 -0.46092099384776192 0.14306874102069511 0 -0.45742932361540911 0.15889287394486271 0 -0.46092099384776192 0.14306874102069511 0 -0.45742932361540911 0.15889287394486271 0 -0.44616928685712581 0.1494742970518641 0 -0.46092099384776192 0.14306874102069511 0 -0.46853242371352971 0.23544625301742969 0 -0.46993231893463527 0.26090691788180947 0 -0.48177750529808522 0.24619974485466931 0 -0.46853242371352971 0.23544625301742969 0 -0.46993231893463527 0.26090691788180947 0 -0.48177750529808522 0.24619974485466931 0 -0.48375626182904402 0.22755154475287301 0 -0.46853242371352971 0.23544625301742969 0 -0.48177750529808522 0.24619974485466931 0 -0.5 0.2461359573144368 0 -0.48375626182904402 0.22755154475287301 0 -0.5 0.2461359573144368 0 -0.48375626182904402 0.22755154475287301 0 -0.49999999999999978 0.22376645686122221 0 -0.48375626182904402 0.22755154475287301 0 -0.48639908896170481 0.20928353849475789 0 -0.5 0.2461359573144368 0 -0.49999999999999978 0.22376645686122221 0 -0.48375626182904402 0.22755154475287301 0 -0.47173343442327142 0.22048762952866541 0 -0.46713252849242448 0.20998558815304991 0 -0.46853242371352971 0.23544625301742969 0 -0.48375626182904402 0.22755154475287301 0 -0.47173343442327142 0.22048762952866541 0 -0.4670472636537164 0.20843482960316059 0 -0.48375626182904402 0.22755154475287301 0 -0.47173343442327142 0.22048762952866541 0 -0.46853242371352971 0.23544625301742969 0 -0.48375626182904402 0.22755154475287301 0 -0.4670472636537164 0.20843482960316059 0 -0.48639908896170481 0.20928353849475789 0 -0.47279817792341111 0.1948006201282925 0 -0.4670472636537164 0.20843482960316059 0 -0.48375626182904402 0.22755154475287301 0 -0.48639908896170481 0.20928353849475789 0 -0.4670472636537164 0.20843482960316059 0 -0.49999999999999978 0.22376645686122221 0 -0.48639908896170481 0.20928353849475789 0 -0.5 0.19695860752726069 0 -0.49999999999999978 0.22376645686122221 0 -0.48639908896170481 0.20928353849475789 0 -0.48639908896170481 0.20928353849475789 0 -0.5 0.19695860752726069 0 -0.48609908303004917 0.1916527734416324 0 -0.4898809761324775 0.17912292006808481 0 -0.5 0.19695860752726069 0 -0.48609908303004917 0.1916527734416324 0 -0.48639908896170481 0.20928353849475789 0 -0.48609908303004917 0.1916527734416324 0 -0.47279817792341111 0.1948006201282925 0 -0.47865635922375932 0.17909963177513319 0 -0.48609908303004917 0.1916527734416324 0 -0.47279817792341111 0.1948006201282925 0 -0.48639908896170481 0.20928353849475789 0 -0.47279817792341111 0.1948006201282925 0 -0.47279817792341111 0.1948006201282925 0 -0.4670472636537164 0.20843482960316059 0 -0.46589335310649882 0.18744802338852329 0 -0.47279817792341111 0.1948006201282925 0 -0.46589335310649882 0.18744802338852329 0 -0.4603250720810298 0.20074399020462361 0 -0.4670472636537164 0.20843482960316059 0 -0.46589335310649882 0.18744802338852329 0 -0.45393765338305497 0.17471700686903011 0 -0.44820564853932793 0.20069426145875721 0 -0.46589335310649882 0.18744802338852329 0 -0.4603250720810298 0.20074399020462361 0 -0.44820564853932793 0.20069426145875721 0 -0.46589335310649882 0.18744802338852329 0 -0.47279817792341111 0.1948006201282925 0 -0.4670472636537164 0.20843482960316059 0 -0.46589335310649882 0.18744802338852329 0 -0.4670472636537164 0.20843482960316059 0 -0.45393765338305497 0.17471700686903011 0 -0.44820564853932793 0.20069426145875721 0 -0.44820564853932793 0.20069426145875721 0 -0.45427794118362658 0.21265328965042851 0 -0.44247364369559788 0.22667151604848371 0 -0.44820564853932793 0.20069426145875721 0 -0.44247364369559788 0.22667151604848371 0 -0.44820564853932793 0.20069426145875721 0 -0.44247364369559788 0.22667151604848371 0 -0.42336320141575168 0.21609666274764849 0 -0.45880341375183131 0.2186303689721085 0 -0.45427794118362658 0.21265328965042851 0 -0.46188137931700068 0.21002659871962689 0 -0.45880341375183131 0.2186303689721085 0 -0.45427794118362658 0.21265328965042851 0 -0.4536201791639074 0.2236252940046442 0 -0.4603250720810298 0.20074399020462361 0 -0.45427794118362658 0.21265328965042851 0 -0.46188137931700068 0.21002659871962689 0 -0.4603250720810298 0.20074399020462361 0 -0.44820564853932793 0.20069426145875721 0 -0.45427794118362658 0.21265328965042851 0 -0.4603250720810298 0.20074399020462361 0 -0.46188137931700068 0.21002659871962689 0 -0.4670472636537164 0.20843482960316059 0 -0.4603250720810298 0.20074399020462361 0 -0.4670472636537164 0.20843482960316059 0 -0.46188137931700068 0.21002659871962689 0 -0.4670472636537164 0.20843482960316059 0 -0.46713252849242448 0.20998558815304991 0 -0.4670472636537164 0.20843482960316059 0 -0.46713252849242448 0.20998558815304991 0 -0.47173343442327142 0.22048762952866541 0 -0.4670472636537164 0.20843482960316059 0 -0.46713252849242448 0.20998558815304991 0 -0.45880341375183131 0.2186303689721085 0 -0.46188137931700068 0.21002659871962689 0 -0.46713252849242448 0.20998558815304991 0 -0.46713252849242448 0.20998558815304991 0 -0.45710504060219709 0.23686107433279269 0 -0.46713252849242448 0.20998558815304991 0 -0.45710504060219709 0.23686107433279269 0 -0.46853242371352971 0.23544625301742969 0 -0.45880341375183131 0.2186303689721085 0 -0.46713252849242448 0.20998558815304991 0 -0.45710504060219709 0.23686107433279269 0 -0.45880341375183131 0.2186303689721085 0 -0.4536201791639074 0.2236252940046442 0 -0.45710504060219709 0.23686107433279269 0 -0.46713252849242448 0.20998558815304991 0 -0.46853242371352971 0.23544625301742969 0 -0.45427794118362658 0.21265328965042851 0 -0.4536201791639074 0.2236252940046442 0 -0.44247364369559788 0.22667151604848371 0 -0.4536201791639074 0.2236252940046442 0 -0.44247364369559788 0.22667151604848371 0 -0.45710504060219709 0.23686107433279269 0 -0.44247364369559788 0.22667151604848371 0 -0.4367416388518679 0.25264877063821017 0 -0.44247364369559788 0.22667151604848371 0 -0.45710504060219709 0.23686107433279269 0 -0.4367416388518679 0.25264877063821017 0 -0.45710504060219709 0.23686107433279269 0 -0.46853242371352971 0.23544625301742969 0 -0.46993231893463527 0.26090691788180947 0 -0.41931835140954682 0.23739665832436521 0 -0.40367044579520373 0.24132688110038639 0 -0.41175872593851298 0.2549478601346914 0 -0.41931835140954682 0.23739665832436521 0 -0.40790513800462019 0.22799805468035339 0 -0.40367044579520373 0.24132688110038639 0 -0.41931835140954682 0.23739665832436521 0 -0.4367416388518679 0.25264877063821017 0 -0.41175872593851298 0.2549478601346914 0 -0.44247364369559788 0.22667151604848371 0 -0.41931835140954682 0.23739665832436521 0 -0.4367416388518679 0.25264877063821017 0 -0.44247364369559788 0.22667151604848371 0 -0.41931835140954682 0.23739665832436521 0 -0.42336320141575168 0.21609666274764849 0 -0.41931835140954682 0.23739665832436521 0 -0.40790513800462019 0.22799805468035339 0 -0.42336320141575168 0.21609666274764849 0 -0.40790513800462019 0.22799805468035339 0 -0.42336320141575168 0.21609666274764849 0 -0.40538393777915788 0.2123952851453417 0 -0.42336320141575168 0.21609666274764849 0 -0.42071240458675369 0.1920614743917832 0 -0.40538393777915788 0.2123952851453417 0 -0.44820564853932793 0.20069426145875721 0 -0.42336320141575168 0.21609666274764849 0 -0.42071240458675369 0.1920614743917832 0 -0.44047241453070329 0.18324079402305421 0 -0.44820564853932793 0.20069426145875721 0 -0.42071240458675369 0.1920614743917832 0 -0.42071240458675369 0.1920614743917832 0 -0.40538393777915788 0.2123952851453417 0 -0.42071240458675369 0.1920614743917832 0 -0.4022878927449296 0.1970928012265635 0 -0.40298680868332198 0.18508216307238631 0 -0.42071240458675369 0.1920614743917832 0 -0.4022878927449296 0.1970928012265635 0 -0.40538393777915788 0.2123952851453417 0 -0.4022878927449296 0.1970928012265635 0 -0.39286614404695941 0.1920732104686422 0 -0.40298680868332198 0.18508216307238631 0 -0.4022878927449296 0.1970928012265635 0 -0.39286614404695941 0.1920732104686422 0 -0.39380007669083689 0.206464460861051 0 -0.38422654444444693 0.2008322729754812 0 -0.38088029112643113 0.1825210369279657 0 -0.38422654444444693 0.2008322729754812 0 -0.38088029112643113 0.1825210369279657 0 -0.36802074197771562 0.19700904511440151 0 -0.38422654444444693 0.2008322729754812 0 -0.37368745339656201 0.20924711939208951 0 -0.36802074197771562 0.19700904511440151 0 -0.39286614404695941 0.1920732104686422 0 -0.38422654444444693 0.2008322729754812 0 -0.38088029112643113 0.1825210369279657 0 -0.39286614404695941 0.1920732104686422 0 -0.38422654444444693 0.2008322729754812 0 -0.39380007669083689 0.206464460861051 0 -0.38422654444444693 0.2008322729754812 0 -0.38757279776246373 0.21914350902299659 0 -0.38757279776246373 0.21914350902299659 0 -0.36800338097472479 0.22147713987588341 0 -0.37368745339656201 0.20924711939208951 0 -0.38422654444444693 0.2008322729754812 0 -0.39380007669083689 0.206464460861051 0 -0.38757279776246373 0.21914350902299659 0 -0.38422654444444693 0.2008322729754812 0 -0.38757279776246373 0.21914350902299659 0 -0.37368745339656201 0.20924711939208951 0 -0.39141353052387118 0.2186855059784025 0 -0.39380007669083689 0.206464460861051 0 -0.38757279776246373 0.21914350902299659 0 -0.39141353052387118 0.2186855059784025 0 -0.39380007669083689 0.206464460861051 0 -0.40538393777915788 0.2123952851453417 0 -0.4022878927449296 0.1970928012265635 0 -0.39380007669083689 0.206464460861051 0 -0.40538393777915788 0.2123952851453417 0 -0.40790513800462019 0.22799805468035339 0 -0.39005547097156312 0.23272909589890109 0 -0.40367044579520373 0.24132688110038639 0 -0.39141353052387118 0.2186855059784025 0 -0.40538393777915788 0.2123952851453417 0 -0.39005547097156312 0.23272909589890109 0 -0.40790513800462019 0.22799805468035339 0 -0.40538393777915788 0.2123952851453417 0 -0.39005547097156312 0.23272909589890109 0 -0.40538393777915788 0.2123952851453417 0 -0.39005547097156312 0.23272909589890109 0 -0.38757279776246373 0.21914350902299659 0 -0.39005547097156312 0.23272909589890109 0 -0.38757279776246373 0.21914350902299659 0 -0.36800338097472479 0.22147713987588341 0 -0.39141353052387118 0.2186855059784025 0 -0.38757279776246373 0.21914350902299659 0 -0.39005547097156312 0.23272909589890109 0 -0.38757279776246373 0.21914350902299659 0 -0.37939186114838758 0.22424627805714001 0 -0.36800338097472479 0.22147713987588341 0 -0.38757279776246373 0.21914350902299659 0 -0.37939186114838758 0.22424627805714001 0 -0.39005547097156312 0.23272909589890109 0 -0.39141353052387118 0.2186855059784025 0 -0.38757279776246373 0.21914350902299659 0 -0.37939186114838758 0.22424627805714001 0 -0.37477717689163992 0.25299635056682518 0 -0.39005547097156312 0.23272909589890109 0 -0.39384597734802013 0.25347135609337229 0 -0.37477717689163992 0.25299635056682518 0 -0.37939186114838758 0.22424627805714001 0 -0.39005547097156312 0.23272909589890109 0 -0.37477717689163992 0.25299635056682518 0 -0.39005547097156312 0.23272909589890109 0 -0.37477717689163992 0.25299635056682518 0 -0.40367044579520373 0.24132688110038639 0 -0.41175872593851298 0.2549478601346914 0 -0.39384597734802013 0.25347135609337229 0 -0.39005547097156312 0.23272909589890109 0 -0.39384597734802013 0.25347135609337229 0 -0.39005547097156312 0.23272909589890109 0 -0.40367044579520373 0.24132688110038639 0 -0.39384597734802013 0.25347135609337229 0 -0.41485942150404181 0.14153864215909739 0 -0.41553858058260518 0.15317901213210369 0 -0.42574561826610652 0.14613969243370301 0 -0.41553858058260518 0.15317901213210369 0 -0.42574561826610652 0.14613969243370301 0 -0.42127399236650492 0.15770626544657529 0 -0.41485942150404181 0.14153864215909739 0 -0.41553858058260518 0.15317901213210369 0 -0.4044664398419977 0.15594807455379561 0 -0.40864304721671202 0.1107171055473533 0 -0.41485942150404181 0.14153864215909739 0 -0.43267942878230348 0.12559175737704789 0 -0.41485942150404181 0.14153864215909739 0 -0.43267942878230348 0.12559175737704789 0 -0.42574561826610652 0.14613969243370301 0 -0.43267942878230348 0.12559175737704789 0 -0.43700896048386301 0.14249666109927989 0 -0.42574561826610652 0.14613969243370301 0 -0.41485942150404181 0.14153864215909739 0 -0.43267942878230348 0.12559175737704789 0 -0.42574561826610652 0.14613969243370301 0 -0.43187713239064979 0.1573343508491826 0 -0.42127399236650492 0.15770626544657529 0 -0.43700896048386301 0.14249666109927989 0 -0.42574561826610652 0.14613969243370301 0 -0.43187713239064979 0.1573343508491826 0 -0.43187713239064979 0.1573343508491826 0 -0.42946357341586749 0.17496324995209989 0 -0.4216380035134229 0.16659483191912641 0 -0.44174290600336708 0.16173144065936321 0 -0.43187713239064979 0.1573343508491826 0 -0.42946357341586749 0.17496324995209989 0 -0.43187713239064979 0.1573343508491826 0 -0.42127399236650492 0.15770626544657529 0 -0.4216380035134229 0.16659483191912641 0 -0.44047241453070329 0.18324079402305421 0 -0.44174290600336708 0.16173144065936321 0 -0.42946357341586749 0.17496324995209989 0 -0.44047241453070329 0.18324079402305421 0 -0.42071240458675369 0.1920614743917832 0 -0.42946357341586749 0.17496324995209989 0 -0.42071240458675369 0.1920614743917832 0 -0.42946357341586749 0.17496324995209989 0 -0.41235879422937732 0.17543682721938669 0 -0.42071240458675369 0.1920614743917832 0 -0.41235879422937732 0.17543682721938669 0 -0.40298680868332198 0.18508216307238631 0 -0.42946357341586749 0.17496324995209989 0 -0.41235879422937732 0.17543682721938669 0 -0.4216380035134229 0.16659483191912641 0 -0.41553858058260518 0.15317901213210369 0 -0.42127399236650492 0.15770626544657529 0 -0.41302135350813218 0.1630654313638546 0 -0.42127399236650492 0.15770626544657529 0 -0.4216380035134229 0.16659483191912641 0 -0.41302135350813218 0.1630654313638546 0 -0.41235879422937732 0.17543682721938669 0 -0.4216380035134229 0.16659483191912641 0 -0.41302135350813218 0.1630654313638546 0 -0.41235879422937732 0.17543682721938669 0 -0.41302135350813218 0.1630654313638546 0 -0.40449990094882532 0.16792382984329149 0 -0.41302135350813218 0.1630654313638546 0 -0.40449990094882532 0.16792382984329149 0 -0.4044664398419977 0.15594807455379561 0 -0.41553858058260518 0.15317901213210369 0 -0.41302135350813218 0.1630654313638546 0 -0.4044664398419977 0.15594807455379561 0 -0.3926733654842145 0.1692345557408807 0 -0.4044664398419977 0.15594807455379561 0 -0.40449990094882532 0.16792382984329149 0 -0.3926733654842145 0.1692345557408807 0 -0.40078474618547688 0.17571320347163299 0 -0.40449990094882532 0.16792382984329149 0 -0.3926733654842145 0.1692345557408807 0 -0.4044664398419977 0.15594807455379561 0 -0.3926733654842145 0.1692345557408807 0 -0.39703941422577987 0.15748552694114659 0 -0.4044664398419977 0.15594807455379561 0 -0.40298680868332198 0.18508216307238631 0 -0.40078474618547688 0.17571320347163299 0 -0.39301525059178999 0.18044652774840561 0 -0.41235879422937732 0.17543682721938669 0 -0.40298680868332198 0.18508216307238631 0 -0.40078474618547688 0.17571320347163299 0 -0.41235879422937732 0.17543682721938669 0 -0.40449990094882532 0.16792382984329149 0 -0.40078474618547688 0.17571320347163299 0 -0.3926733654842145 0.1692345557408807 0 -0.40078474618547688 0.17571320347163299 0 -0.39301525059178999 0.18044652774840561 0 -0.39286614404695941 0.1920732104686422 0 -0.40298680868332198 0.18508216307238631 0 -0.39301525059178999 0.18044652774840561 0 -0.39286614404695941 0.1920732104686422 0 -0.39301525059178999 0.18044652774840561 0 -0.38088029112643113 0.1825210369279657 0 -0.3926733654842145 0.1692345557408807 0 -0.38088029112643113 0.1825210369279657 0 -0.3926733654842145 0.1692345557408807 0 -0.39301525059178999 0.18044652774840561 0 -0.38088029112643113 0.1825210369279657 0 -0.3926733654842145 0.1692345557408807 0 -0.37921940694751782 0.17343241172319571 0 -0.38088029112643113 0.1825210369279657 0 -0.37921940694751782 0.17343241172319571 0 -0.38088029112643113 0.1825210369279657 0 -0.37921940694751782 0.17343241172319571 0 -0.38088029112643113 0.1825210369279657 0 -0.37283571032282492 0.1791450959532255 0 -0.3784015845151173 0.16895715591276281 0 -0.37283571032282492 0.1791450959532255 0 -0.37921940694751782 0.17343241172319571 0 -0.3784015845151173 0.16895715591276281 0 -0.37283571032282492 0.1791450959532255 0 -0.37921940694751782 0.17343241172319571 0 -0.37283571032282492 0.1791450959532255 0 -0.39703941422577987 0.15748552694114659 0 -0.37921940694751782 0.17343241172319571 0 -0.38193020105096481 0.16249827228531991 0 -0.3784015845151173 0.16895715591276281 0 -0.38193020105096481 0.16249827228531991 0 -0.37372345991800282 0.14335770613522919 0 -0.39703941422577987 0.15748552694114659 0 -0.37921940694751782 0.17343241172319571 0 -0.3926733654842145 0.1692345557408807 0 -0.39703941422577987 0.15748552694114659 0 -0.37921940694751782 0.17343241172319571 0 -0.39703941422577987 0.15748552694114659 0 -0.38193020105096481 0.16249827228531991 0 -0.38598126975628672 0.1494316781992327 0 -0.37921940694751782 0.17343241172319571 0 -0.3784015845151173 0.16895715591276281 0 -0.38193020105096481 0.16249827228531991 0 -0.3784015845151173 0.16895715591276281 0 -0.38193020105096481 0.16249827228531991 0 -0.37921940694751782 0.17343241172319571 0 -0.3784015845151173 0.16895715591276281 0 -0.38598126975628672 0.1494316781992327 0 -0.39401402549175851 0.1361747599337243 0 -0.37372345991800282 0.14335770613522919 0 -0.38193020105096481 0.16249827228531991 0 -0.38598126975628672 0.1494316781992327 0 -0.37372345991800282 0.14335770613522919 0 -0.3784015845151173 0.16895715591276281 0 -0.37372345991800282 0.14335770613522919 0 -0.39703941422577987 0.15748552694114659 0 -0.38598126975628672 0.1494316781992327 0 -0.39401402549175851 0.1361747599337243 0 -0.41485942150404181 0.14153864215909739 0 -0.39703941422577987 0.15748552694114659 0 -0.39401402549175851 0.1361747599337243 0 -0.41485942150404181 0.14153864215909739 0 -0.39703941422577987 0.15748552694114659 0 -0.4044664398419977 0.15594807455379561 0 -0.41485942150404181 0.14153864215909739 0 -0.39703941422577987 0.15748552694114659 0 -0.40864304721671202 0.1107171055473533 0 -0.41485942150404181 0.14153864215909739 0 -0.39401402549175851 0.1361747599337243 0 -0.38750957741872682 0.11885909540365321 0 -0.37372345991800282 0.14335770613522919 0 -0.36904533532088801 0.1177582563576956 0 -0.38750957741872682 0.11885909540365321 0 -0.39401402549175851 0.1361747599337243 0 -0.37372345991800282 0.14335770613522919 0 -0.35823941519022368 0.13573745574644491 0 -0.37372345991800282 0.14335770613522919 0 -0.36904533532088801 0.1177582563576956 0 -0.37372345991800282 0.14335770613522919 0 -0.36904533532088801 0.1177582563576956 0 -0.35823941519022368 0.13573745574644491 0 -0.34455851703438989 0.13305210298766909 0 -0.35158166360451942 0.11704707172714621 0 -0.35823941519022368 0.13573745574644491 0 -0.34455851703438989 0.13305210298766909 0 -0.34873147585397152 0.15030858297792049 0 -0.35823941519022368 0.13573745574644491 0 -0.34873147585397152 0.15030858297792049 0 -0.36179603940957061 0.15290101429300901 0 -0.34873147585397152 0.15030858297792049 0 -0.34720568730415252 0.1616956217090188 0 -0.33647431770126862 0.14798842126345041 0 -0.34873147585397152 0.15030858297792049 0 -0.36179603940957061 0.15290101429300901 0 -0.35552330674067661 0.16014073544654131 0 -0.35823941519022368 0.13573745574644491 0 -0.36179603940957061 0.15290101429300901 0 -0.37372345991800282 0.14335770613522919 0 -0.3784015845151173 0.16895715591276281 0 -0.36179603940957061 0.15290101429300901 0 -0.37372345991800282 0.14335770613522919 0 -0.3784015845151173 0.16895715591276281 0 -0.36179603940957061 0.15290101429300901 0 -0.3628088848288224 0.16705289795690309 0 -0.3784015845151173 0.16895715591276281 0 -0.3628088848288224 0.16705289795690309 0 -0.36959790597703868 0.17377317275203899 0 -0.36179603940957061 0.15290101429300901 0 -0.3628088848288224 0.16705289795690309 0 -0.35552330674067661 0.16014073544654131 0 -0.38088029112643113 0.1825210369279657 0 -0.37283571032282492 0.1791450959532255 0 -0.36802074197771562 0.19700904511440151 0 -0.37283571032282492 0.1791450959532255 0 -0.36399845157591232 0.19532107462703119 0 -0.37283571032282492 0.1791450959532255 0 -0.36261880381503758 0.18828806813974089 0 -0.3784015845151173 0.16895715591276281 0 -0.36959790597703868 0.17377317275203899 0 -0.37283571032282492 0.1791450959532255 0 -0.36959790597703868 0.17377317275203899 0 -0.37283571032282492 0.1791450959532255 0 -0.36409588864576692 0.17933358541092431 0 -0.3628088848288224 0.16705289795690309 0 -0.36959790597703868 0.17377317275203899 0 -0.36409588864576692 0.17933358541092431 0 -0.3628088848288224 0.16705289795690309 0 -0.36409588864576692 0.17933358541092431 0 -0.35614161380151321 0.17761165346375071 0 -0.36409588864576692 0.17933358541092431 0 -0.35797279878738592 0.18411861580098379 0 -0.35614161380151321 0.17761165346375071 0 -0.36409588864576692 0.17933358541092431 0 -0.35797279878738592 0.18411861580098379 0 -0.36261880381503758 0.18828806813974089 0 -0.37283571032282492 0.1791450959532255 0 -0.36409588864576692 0.17933358541092431 0 -0.36261880381503758 0.18828806813974089 0 -0.35797279878738592 0.18411861580098379 0 -0.35614161380151321 0.17761165346375071 0 -0.35065229879255438 0.18593262723135329 0 -0.35797279878738592 0.18411861580098379 0 -0.35065229879255438 0.18593262723135329 0 -0.35645772166264922 0.19211102842263869 0 -0.35614161380151321 0.17761165346375071 0 -0.34811061985946878 0.17434540014992381 0 -0.35436851446084039 0.1683048517912053 0 -0.35614161380151321 0.17761165346375071 0 -0.34811061985946878 0.17434540014992381 0 -0.35065229879255438 0.18593262723135329 0 -0.35065229879255438 0.18593262723135329 0 -0.34227569468909552 0.1811403169530669 0 -0.33993633525554889 0.19055096072852831 0 -0.34811061985946878 0.17434540014992381 0 -0.35065229879255438 0.18593262723135329 0 -0.34227569468909552 0.1811403169530669 0 -0.35552330674067661 0.16014073544654131 0 -0.35436851446084039 0.1683048517912053 0 -0.34720568730415252 0.1616956217090188 0 -0.3628088848288224 0.16705289795690309 0 -0.35614161380151321 0.17761165346375071 0 -0.35436851446084039 0.1683048517912053 0 -0.3628088848288224 0.16705289795690309 0 -0.35552330674067661 0.16014073544654131 0 -0.35436851446084039 0.1683048517912053 0 -0.34811061985946878 0.17434540014992381 0 -0.34720568730415252 0.1616956217090188 0 -0.33801991010865667 0.17138732975114751 0 -0.34811061985946878 0.17434540014992381 0 -0.35436851446084039 0.1683048517912053 0 -0.34720568730415252 0.1616956217090188 0 -0.34873147585397152 0.15030858297792049 0 -0.35552330674067661 0.16014073544654131 0 -0.34720568730415252 0.1616956217090188 0 -0.34720568730415252 0.1616956217090188 0 -0.33801991010865667 0.17138732975114751 0 -0.33092539158612982 0.1609515407851054 0 -0.34720568730415252 0.1616956217090188 0 -0.33092539158612982 0.1609515407851054 0 -0.33647431770126862 0.14798842126345041 0 -0.33801991010865667 0.17138732975114751 0 -0.33092539158612982 0.1609515407851054 0 -0.3265778886375873 0.17202186172735501 0 -0.34227569468909552 0.1811403169530669 0 -0.33183788287013261 0.1831818366374682 0 -0.33993633525554889 0.19055096072852831 0 -0.34811061985946878 0.17434540014992381 0 -0.33801991010865667 0.17138732975114751 0 -0.34227569468909552 0.1811403169530669 0 -0.33801991010865667 0.17138732975114751 0 -0.34227569468909552 0.1811403169530669 0 -0.33183788287013261 0.1831818366374682 0 -0.33801991010865667 0.17138732975114751 0 -0.33183788287013261 0.1831818366374682 0 -0.3265778886375873 0.17202186172735501 0 -0.3265778886375873 0.17202186172735501 0 -0.31632076704925127 0.18575639557221951 0 -0.3167678101826048 0.16359462978275929 0 -0.33183788287013261 0.1831818366374682 0 -0.3265778886375873 0.17202186172735501 0 -0.31632076704925127 0.18575639557221951 0 -0.33092539158612982 0.1609515407851054 0 -0.3167678101826048 0.16359462978275929 0 -0.32050673558250908 0.1490213804769015 0 -0.33092539158612982 0.1609515407851054 0 -0.3265778886375873 0.17202186172735501 0 -0.3167678101826048 0.16359462978275929 0 -0.32050673558250908 0.1490213804769015 0 -0.30739524272803709 0.15185112365938391 0 -0.31211500736378339 0.1240031522641292 0 -0.3167678101826048 0.16359462978275929 0 -0.32050673558250908 0.1490213804769015 0 -0.30739524272803709 0.15185112365938391 0 -0.32050673558250908 0.1490213804769015 0 -0.30739524272803709 0.15185112365938391 0 -0.32919359534549508 0.13424827028365749 0 -0.31211500736378339 0.1240031522641292 0 -0.33231339904552459 0.1171762944261375 0 -0.32050673558250908 0.1490213804769015 0 -0.32919359534549508 0.13424827028365749 0 -0.31211500736378339 0.1240031522641292 0 -0.34455851703438989 0.13305210298766909 0 -0.32919359534549508 0.13424827028365749 0 -0.33231339904552459 0.1171762944261375 0 -0.34455851703438989 0.13305210298766909 0 -0.32919359534549508 0.13424827028365749 0 -0.33647431770126862 0.14798842126345041 0 -0.32050673558250908 0.1490213804769015 0 -0.32919359534549508 0.13424827028365749 0 -0.33647431770126862 0.14798842126345041 0 -0.33092539158612982 0.1609515407851054 0 -0.32050673558250908 0.1490213804769015 0 -0.33647431770126862 0.14798842126345041 0 -0.34455851703438989 0.13305210298766909 0 -0.34873147585397152 0.15030858297792049 0 -0.33647431770126862 0.14798842126345041 0 -0.35416421148584648 0.23888623464626721 0 -0.34843396418698602 0.22381077072877051 0 -0.33845336435013867 0.242079554605789 0 -0.35416421148584648 0.23888623464626721 0 -0.33845336435013867 0.242079554605789 0 -0.35464358931248319 0.25491115920099722 0 -0.37939186114838758 0.22424627805714001 0 -0.37013679196984273 0.23750613219799629 0 -0.37477717689163992 0.25299635056682518 0 -0.37013679196984273 0.23750613219799629 0 -0.35464358931248319 0.25491115920099722 0 -0.37477717689163992 0.25299635056682518 0 -0.35416421148584648 0.23888623464626721 0 -0.37013679196984273 0.23750613219799629 0 -0.35464358931248319 0.25491115920099722 0 -0.35416421148584648 0.23888623464626721 0 -0.37013679196984273 0.23750613219799629 0 -0.36148561266771267 0.2305011068434443 0 -0.36148561266771267 0.2305011068434443 0 -0.36975441169016687 0.228432664243616 0 -0.36800338097472479 0.22147713987588341 0 -0.37013679196984273 0.23750613219799629 0 -0.36148561266771267 0.2305011068434443 0 -0.36975441169016687 0.228432664243616 0 -0.37939186114838758 0.22424627805714001 0 -0.37013679196984273 0.23750613219799629 0 -0.36975441169016687 0.228432664243616 0 -0.37939186114838758 0.22424627805714001 0 -0.36975441169016687 0.228432664243616 0 -0.36800338097472479 0.22147713987588341 0 -0.36800338097472479 0.22147713987588341 0 -0.34843396418698602 0.22381077072877051 0 -0.35516119282899983 0.21149705330083701 0 -0.36148561266771267 0.2305011068434443 0 -0.36800338097472479 0.22147713987588341 0 -0.34843396418698602 0.22381077072877051 0 -0.36800338097472479 0.22147713987588341 0 -0.34843396418698602 0.22381077072877051 0 -0.35416421148584648 0.23888623464626721 0 -0.36148561266771267 0.2305011068434443 0 -0.34843396418698602 0.22381077072877051 0 -0.34843396418698602 0.22381077072877051 0 -0.34802604401402371 0.21953575615482759 0 -0.33982416592956399 0.21665757569738961 0 -0.34802604401402371 0.21953575615482759 0 -0.34581283434165899 0.20861347152532789 0 -0.33982416592956399 0.21665757569738961 0 -0.34802604401402371 0.21953575615482759 0 -0.34581283434165899 0.20861347152532789 0 -0.35516119282899983 0.21149705330083701 0 -0.34843396418698602 0.22381077072877051 0 -0.34802604401402371 0.21953575615482759 0 -0.35516119282899983 0.21149705330083701 0 -0.34581283434165899 0.20861347152532789 0 -0.35516119282899983 0.21149705330083701 0 -0.35389383475621161 0.20092716755479181 0 -0.34802604401402371 0.21953575615482759 0 -0.35516119282899983 0.21149705330083701 0 -0.34843396418698602 0.22381077072877051 0 -0.35516119282899983 0.21149705330083701 0 -0.36800338097472479 0.22147713987588341 0 -0.35516119282899983 0.21149705330083701 0 -0.37368745339656201 0.20924711939208951 0 -0.35516119282899983 0.21149705330083701 0 -0.37368745339656201 0.20924711939208951 0 -0.36802074197771562 0.19700904511440151 0 -0.35516119282899983 0.21149705330083701 0 -0.36399845157591232 0.19532107462703119 0 -0.35516119282899983 0.21149705330083701 0 -0.36802074197771562 0.19700904511440151 0 -0.37283571032282492 0.1791450959532255 0 -0.36399845157591232 0.19532107462703119 0 -0.36261880381503758 0.18828806813974089 0 -0.37283571032282492 0.1791450959532255 0 -0.36399845157591232 0.19532107462703119 0 -0.36802074197771562 0.19700904511440151 0 -0.35516119282899983 0.21149705330083701 0 -0.36399845157591232 0.19532107462703119 0 -0.36802074197771562 0.19700904511440151 0 -0.38088029112643113 0.1825210369279657 0 -0.36802074197771562 0.19700904511440151 0 -0.36399845157591232 0.19532107462703119 0 -0.36261880381503758 0.18828806813974089 0 -0.35645772166264922 0.19211102842263869 0 -0.35797279878738592 0.18411861580098379 0 -0.36261880381503758 0.18828806813974089 0 -0.35645772166264922 0.19211102842263869 0 -0.35065229879255438 0.18593262723135329 0 -0.35645772166264922 0.19211102842263869 0 -0.34803897337183792 0.19709320989812409 0 -0.35516119282899983 0.21149705330083701 0 -0.36399845157591232 0.19532107462703119 0 -0.35389383475621161 0.20092716755479181 0 -0.35645772166264922 0.19211102842263869 0 -0.35389383475621161 0.20092716755479181 0 -0.34803897337183792 0.19709320989812409 0 -0.36399845157591232 0.19532107462703119 0 -0.35645772166264922 0.19211102842263869 0 -0.35389383475621161 0.20092716755479181 0 -0.34581283434165899 0.20861347152532789 0 -0.35389383475621161 0.20092716755479181 0 -0.34803897337183792 0.19709320989812409 0 -0.34581283434165899 0.20861347152532789 0 -0.34803897337183792 0.19709320989812409 0 -0.33933674095816863 0.19971543786353729 0 -0.35065229879255438 0.18593262723135329 0 -0.34803897337183792 0.19709320989812409 0 -0.33993633525554889 0.19055096072852831 0 -0.33993633525554889 0.19055096072852831 0 -0.33933674095816863 0.19971543786353729 0 -0.33069942903629101 0.19625725860753851 0 -0.34803897337183792 0.19709320989812409 0 -0.33993633525554889 0.19055096072852831 0 -0.33933674095816863 0.19971543786353729 0 -0.33933674095816863 0.19971543786353729 0 -0.33069942903629101 0.19625725860753851 0 -0.33422481296465362 0.2080963853910347 0 -0.33183788287013261 0.1831818366374682 0 -0.33993633525554889 0.19055096072852831 0 -0.33069942903629101 0.19625725860753851 0 -0.31632076704925127 0.18575639557221951 0 -0.33069942903629101 0.19625725860753851 0 -0.32036655352850157 0.2095523693350691 0 -0.33183788287013261 0.1831818366374682 0 -0.31632076704925127 0.18575639557221951 0 -0.33069942903629101 0.19625725860753851 0 -0.32036655352850157 0.2095523693350691 0 -0.32458589997660492 0.2266546254550818 0 -0.30779163400160159 0.21927945841494459 0 -0.32036655352850157 0.2095523693350691 0 -0.32934906837639222 0.21536895119528529 0 -0.32458589997660492 0.2266546254550818 0 -0.32036655352850157 0.2095523693350691 0 -0.32934906837639222 0.21536895119528529 0 -0.33422481296465362 0.2080963853910347 0 -0.32934906837639222 0.21536895119528529 0 -0.33422481296465362 0.2080963853910347 0 -0.33982416592956399 0.21665757569738961 0 -0.33069942903629101 0.19625725860753851 0 -0.32036655352850157 0.2095523693350691 0 -0.33422481296465362 0.2080963853910347 0 -0.34581283434165899 0.20861347152532789 0 -0.33933674095816863 0.19971543786353729 0 -0.33422481296465362 0.2080963853910347 0 -0.34581283434165899 0.20861347152532789 0 -0.33422481296465362 0.2080963853910347 0 -0.33982416592956399 0.21665757569738961 0 -0.34843396418698602 0.22381077072877051 0 -0.33982416592956399 0.21665757569738961 0 -0.32458589997660492 0.2266546254550818 0 -0.34843396418698602 0.22381077072877051 0 -0.32458589997660492 0.2266546254550818 0 -0.34843396418698602 0.22381077072877051 0 -0.32458589997660492 0.2266546254550818 0 -0.33845336435013867 0.242079554605789 0 -0.34843396418698602 0.22381077072877051 0 -0.33845336435013867 0.242079554605789 0 -0.32934906837639222 0.21536895119528529 0 -0.33982416592956399 0.21665757569738961 0 -0.32458589997660492 0.2266546254550818 0 -0.32458589997660492 0.2266546254550818 0 -0.30073783576622393 0.22949848018139329 0 -0.32458589997660492 0.2266546254550818 0 -0.32455092720978362 0.24357057421839101 0 -0.31122576982003303 0.23714335435801151 0 -0.32455092720978362 0.24357057421839101 0 -0.311575650220281 0.24878047680599949 0 -0.31122576982003303 0.23714335435801151 0 -0.32458589997660492 0.2266546254550818 0 -0.32455092720978362 0.24357057421839101 0 -0.33845336435013867 0.242079554605789 0 -0.32455092720978362 0.24357057421839101 0 -0.33845336435013867 0.242079554605789 0 -0.32847276451329022 0.26034833848280681 0 -0.29310990672191722 0.23613872254877591 0 -0.29467853592727078 0.23721261512919359 0 -0.28985028671148488 0.25537141990030859 0 -0.29310990672191722 0.23613872254877591 0 -0.27131573767068418 0.22826101281380451 0 -0.28058301219108422 0.24181621635705669 0 -0.29310990672191722 0.23613872254877591 0 -0.28985028671148488 0.25537141990030859 0 -0.29310990672191722 0.23613872254877591 0 -0.28058301219108422 0.24181621635705669 0 -0.28985028671148488 0.25537141990030859 0 -0.28058301219108422 0.24181621635705669 0 -0.28985028671148488 0.25537141990030859 0 -0.29310990672191722 0.23613872254877591 0 -0.29467853592727078 0.23721261512919359 0 -0.29467853592727078 0.23721261512919359 0 -0.31122576982003303 0.23714335435801151 0 -0.30073783576622393 0.22949848018139329 0 -0.29467853592727078 0.23721261512919359 0 -0.311575650220281 0.24878047680599949 0 -0.31122576982003303 0.23714335435801151 0 -0.29467853592727078 0.23721261512919359 0 -0.311575650220281 0.24878047680599949 0 -0.29467853592727078 0.23721261512919359 0 -0.311575650220281 0.24878047680599949 0 -0.29523766041035199 0.26325150879709891 0 -0.32458589997660492 0.2266546254550818 0 -0.30073783576622393 0.22949848018139329 0 -0.30779163400160159 0.21927945841494459 0 -0.32458589997660492 0.2266546254550818 0 -0.31122576982003303 0.23714335435801151 0 -0.30073783576622393 0.22949848018139329 0 -0.30073783576622393 0.22949848018139329 0 -0.30779163400160159 0.21927945841494459 0 -0.29448167989639912 0.22804486553003031 0 -0.29310990672191722 0.23613872254877591 0 -0.29448167989639912 0.22804486553003031 0 -0.27369133376421262 0.22284465576077489 0 -0.29448167989639912 0.22804486553003031 0 -0.2838712618875629 0.21479465795795599 0 -0.27369133376421262 0.22284465576077489 0 -0.29448167989639912 0.22804486553003031 0 -0.29413635243235581 0.21196267741475219 0 -0.29310990672191722 0.23613872254877591 0 -0.27369133376421262 0.22284465576077489 0 -0.29467853592727078 0.23721261512919359 0 -0.30073783576622393 0.22949848018139329 0 -0.29448167989639912 0.22804486553003031 0 -0.29310990672191722 0.23613872254877591 0 -0.29467853592727078 0.23721261512919359 0 -0.29448167989639912 0.22804486553003031 0 -0.29467853592727078 0.23721261512919359 0 -0.29448167989639912 0.22804486553003031 0 -0.29310990672191722 0.23613872254877591 0 -0.29448167989639912 0.22804486553003031 0 -0.29413635243235581 0.21196267741475219 0 -0.29878620084027852 0.20264695157314819 0 -0.29379102496831272 0.19588048929947419 0 -0.29448167989639912 0.22804486553003031 0 -0.29413635243235581 0.21196267741475219 0 -0.29878620084027852 0.20264695157314819 0 -0.29448167989639912 0.22804486553003031 0 -0.29878620084027852 0.20264695157314819 0 -0.29413635243235581 0.21196267741475219 0 -0.29379102496831272 0.19588048929947419 0 -0.28522308967114912 0.20452327137286261 0 -0.29413635243235581 0.21196267741475219 0 -0.29379102496831272 0.19588048929947419 0 -0.29448167989639912 0.22804486553003031 0 -0.2838712618875629 0.21479465795795599 0 -0.29413635243235581 0.21196267741475219 0 -0.2838712618875629 0.21479465795795599 0 -0.28522308967114912 0.20452327137286261 0 -0.29413635243235581 0.21196267741475219 0 -0.32036655352850157 0.2095523693350691 0 -0.30779163400160159 0.21927945841494459 0 -0.29878620084027852 0.20264695157314819 0 -0.30779163400160159 0.21927945841494459 0 -0.29448167989639912 0.22804486553003031 0 -0.29878620084027852 0.20264695157314819 0 -0.29878620084027852 0.20264695157314819 0 -0.29379102496831272 0.19588048929947419 0 -0.30309072178415769 0.17724903761626601 0 -0.31632076704925127 0.18575639557221951 0 -0.29878620084027852 0.20264695157314819 0 -0.30309072178415769 0.17724903761626601 0 -0.31632076704925127 0.18575639557221951 0 -0.32036655352850157 0.2095523693350691 0 -0.29878620084027852 0.20264695157314819 0 -0.29878620084027852 0.20264695157314819 0 -0.30309072178415769 0.17724903761626601 0 -0.28522308967114912 0.20452327137286261 0 -0.29379102496831272 0.19588048929947419 0 -0.28124953787461371 0.1935735916895788 0 -0.29379102496831272 0.19588048929947419 0 -0.28124953787461371 0.1935735916895788 0 -0.28752446549241689 0.1832489647230989 0 -0.28124953787461371 0.1935735916895788 0 -0.2659766044530758 0.19238405035351089 0 -0.27494974420821611 0.1793112011395637 0 -0.28522308967114912 0.20452327137286261 0 -0.28124953787461371 0.1935735916895788 0 -0.27431068871210279 0.20621206129374381 0 -0.28124953787461371 0.1935735916895788 0 -0.2659766044530758 0.19238405035351089 0 -0.27431068871210279 0.20621206129374381 0 -0.25427276080650663 0.20955058897277601 0 -0.24947341468037071 0.1874691479585941 0 -0.2659766044530758 0.19238405035351089 0 -0.25427276080650663 0.20955058897277601 0 -0.24947341468037071 0.1874691479585941 0 -0.2659766044530758 0.19238405035351089 0 -0.25427276080650663 0.20955058897277601 0 -0.27431068871210279 0.20621206129374381 0 -0.25427276080650663 0.20955058897277601 0 -0.27369133376421262 0.22284465576077489 0 -0.25427276080650663 0.20955058897277601 0 -0.25977281016601761 0.2185578892770178 0 -0.27369133376421262 0.22284465576077489 0 -0.25427276080650663 0.20955058897277601 0 -0.25561524088587501 0.21572724177218369 0 -0.25977281016601761 0.2185578892770178 0 -0.25427276080650663 0.20955058897277601 0 -0.25561524088587501 0.21572724177218369 0 -0.24333230173327219 0.21221501244476959 0 -0.25427276080650663 0.20955058897277601 0 -0.25561524088587501 0.21572724177218369 0 -0.25427276080650663 0.20955058897277601 0 -0.27431068871210279 0.20621206129374381 0 -0.27369133376421262 0.22284465576077489 0 -0.2838712618875629 0.21479465795795599 0 -0.27431068871210279 0.20621206129374381 0 -0.27369133376421262 0.22284465576077489 0 -0.2838712618875629 0.21479465795795599 0 -0.28522308967114912 0.20452327137286261 0 -0.27431068871210279 0.20621206129374381 0 -0.29310990672191722 0.23613872254877591 0 -0.27369133376421262 0.22284465576077489 0 -0.27131573767068418 0.22826101281380451 0 -0.27131573767068418 0.22826101281380451 0 -0.26439065681250729 0.2289784260688752 0 -0.26819560602517328 0.23507842756581021 0 -0.27131573767068418 0.22826101281380451 0 -0.26675876456119929 0.22568570462696191 0 -0.26439065681250729 0.2289784260688752 0 -0.27369133376421262 0.22284465576077489 0 -0.26675876456119929 0.22568570462696191 0 -0.26371349664181459 0.22286429712754721 0 -0.25977281016601761 0.2185578892770178 0 -0.27369133376421262 0.22284465576077489 0 -0.26371349664181459 0.22286429712754721 0 -0.27369133376421262 0.22284465576077489 0 -0.27131573767068418 0.22826101281380451 0 -0.26675876456119929 0.22568570462696191 0 -0.26675876456119929 0.22568570462696191 0 -0.26371349664181459 0.22286429712754721 0 -0.26068259791677789 0.22548013136380779 0 -0.26068259791677789 0.22548013136380779 0 -0.25678634991227811 0.22260498734460241 0 -0.2574101570832959 0.22971939663687391 0 -0.26371349664181459 0.22286429712754721 0 -0.26068259791677789 0.22548013136380779 0 -0.25678634991227811 0.22260498734460241 0 -0.25977281016601761 0.2185578892770178 0 -0.26371349664181459 0.22286429712754721 0 -0.25678634991227811 0.22260498734460241 0 -0.25561524088587501 0.21572724177218369 0 -0.25977281016601761 0.2185578892770178 0 -0.25678634991227811 0.22260498734460241 0 -0.25678634991227811 0.22260498734460241 0 -0.249817319625419 0.2274340479663062 0 -0.24904636230289101 0.22050689045355901 0 -0.25561524088587501 0.21572724177218369 0 -0.25678634991227811 0.22260498734460241 0 -0.24904636230289101 0.22050689045355901 0 -0.25109603964961891 0.234366577265785 0 -0.2574101570832959 0.22971939663687391 0 -0.249817319625419 0.2274340479663062 0 -0.25678634991227811 0.22260498734460241 0 -0.2574101570832959 0.22971939663687391 0 -0.249817319625419 0.2274340479663062 0 -0.2574101570832959 0.22971939663687391 0 -0.26439065681250729 0.2289784260688752 0 -0.26193406046231932 0.2344272911270443 0 -0.26068259791677789 0.22548013136380779 0 -0.2574101570832959 0.22971939663687391 0 -0.26439065681250729 0.2289784260688752 0 -0.26675876456119929 0.22568570462696191 0 -0.26068259791677789 0.22548013136380779 0 -0.26439065681250729 0.2289784260688752 0 -0.26439065681250729 0.2289784260688752 0 -0.26193406046231932 0.2344272911270443 0 -0.26819560602517328 0.23507842756581021 0 -0.26193406046231932 0.2344272911270443 0 -0.26614348890836192 0.24293385421211869 0 -0.26819560602517328 0.23507842756581021 0 -0.2574101570832959 0.22971939663687391 0 -0.26193406046231932 0.2344272911270443 0 -0.25699538715464082 0.23905233796863981 0 -0.26193406046231932 0.2344272911270443 0 -0.25699538715464082 0.23905233796863981 0 -0.26614348890836192 0.24293385421211869 0 -0.25109603964961891 0.234366577265785 0 -0.25699538715464082 0.23905233796863981 0 -0.2470081454867771 0.2422065880623451 0 -0.25109603964961891 0.234366577265785 0 -0.2574101570832959 0.22971939663687391 0 -0.25699538715464082 0.23905233796863981 0 -0.25699538715464082 0.23905233796863981 0 -0.25693865295534157 0.25278860643768353 0 -0.2470081454867771 0.2422065880623451 0 -0.25699538715464082 0.23905233796863981 0 -0.26614348890836192 0.24293385421211869 0 -0.25693865295534157 0.25278860643768353 0 -0.26614348890836192 0.24293385421211869 0 -0.2724296921133022 0.25217156250687062 0 -0.25693865295534157 0.25278860643768353 0 -0.26614348890836192 0.24293385421211869 0 -0.28058301219108422 0.24181621635705669 0 -0.2724296921133022 0.25217156250687062 0 -0.28058301219108422 0.24181621635705669 0 -0.28985028671148488 0.25537141990030859 0 -0.2724296921133022 0.25217156250687062 0 -0.26614348890836192 0.24293385421211869 0 -0.26819560602517328 0.23507842756581021 0 -0.28058301219108422 0.24181621635705669 0 -0.27131573767068418 0.22826101281380451 0 -0.26819560602517328 0.23507842756581021 0 -0.28058301219108422 0.24181621635705669 0 -0.27131573767068418 0.22826101281380451 0 -0.28058301219108422 0.24181621635705669 0 -0.29326612220823411 0.13512644163735801 0 -0.28648818467010168 0.15636331808772699 0 -0.27141175194646833 0.1445184244171912 0 -0.29326612220823411 0.13512644163735801 0 -0.30739524272803709 0.15185112365938391 0 -0.28648818467010168 0.15636331808772699 0 -0.30739524272803709 0.15185112365938391 0 -0.31211500736378339 0.1240031522641292 0 -0.29326612220823411 0.13512644163735801 0 -0.30739524272803709 0.15185112365938391 0 -0.31211500736378339 0.1240031522641292 0 -0.30739524272803709 0.15185112365938391 0 -0.28648818467010168 0.15636331808772699 0 -0.30739524272803709 0.15185112365938391 0 -0.30309072178415769 0.17724903761626601 0 -0.3167678101826048 0.16359462978275929 0 -0.30739524272803709 0.15185112365938391 0 -0.30309072178415769 0.17724903761626601 0 -0.30739524272803709 0.15185112365938391 0 -0.30309072178415769 0.17724903761626601 0 -0.28648818467010168 0.15636331808772699 0 -0.31632076704925127 0.18575639557221951 0 -0.3167678101826048 0.16359462978275929 0 -0.30309072178415769 0.17724903761626601 0 -0.30309072178415769 0.17724903761626601 0 -0.28752446549241689 0.1832489647230989 0 -0.28381669143151822 0.17107272026056419 0 -0.29379102496831272 0.19588048929947419 0 -0.30309072178415769 0.17724903761626601 0 -0.28752446549241689 0.1832489647230989 0 -0.28752446549241689 0.1832489647230989 0 -0.28381669143151822 0.17107272026056419 0 -0.27494974420821611 0.1793112011395637 0 -0.30309072178415769 0.17724903761626601 0 -0.28648818467010168 0.15636331808772699 0 -0.28381669143151822 0.17107272026056419 0 -0.28648818467010168 0.15636331808772699 0 -0.28381669143151822 0.17107272026056419 0 -0.26558112661216632 0.16087551251606999 0 -0.28381669143151822 0.17107272026056419 0 -0.27494974420821611 0.1793112011395637 0 -0.26558112661216632 0.16087551251606999 0 -0.28648818467010168 0.15636331808772699 0 -0.26558112661216632 0.16087551251606999 0 -0.27494974420821611 0.1793112011395637 0 -0.26084394980388648 0.17618123618614701 0 -0.26558112661216632 0.16087551251606999 0 -0.2659766044530758 0.19238405035351089 0 -0.27494974420821611 0.1793112011395637 0 -0.26084394980388648 0.17618123618614701 0 -0.28124953787461371 0.1935735916895788 0 -0.28752446549241689 0.1832489647230989 0 -0.27494974420821611 0.1793112011395637 0 -0.2659766044530758 0.19238405035351089 0 -0.26084394980388648 0.17618123618614701 0 -0.24947341468037071 0.1874691479585941 0 -0.26084394980388648 0.17618123618614701 0 -0.24467406855423091 0.1653877069444131 0 -0.24947341468037071 0.1874691479585941 0 -0.26558112661216632 0.16087551251606999 0 -0.24467406855423091 0.1653877069444131 0 -0.26558112661216632 0.16087551251606999 0 -0.2543915534089356 0.15018751405662761 0 -0.24467406855423091 0.1653877069444131 0 -0.26084394980388648 0.17618123618614701 0 -0.26558112661216632 0.16087551251606999 0 -0.24467406855423091 0.1653877069444131 0 -0.26558112661216632 0.16087551251606999 0 -0.2543915534089356 0.15018751405662761 0 -0.27141175194646833 0.1445184244171912 0 -0.2543915534089356 0.15018751405662761 0 -0.27141175194646833 0.1445184244171912 0 -0.25477231595188199 0.13792181725732239 0 -0.28648818467010168 0.15636331808772699 0 -0.26558112661216632 0.16087551251606999 0 -0.27141175194646833 0.1445184244171912 0 -0.29326612220823411 0.13512644163735801 0 -0.27141175194646833 0.1445184244171912 0 -0.27545980130109921 0.1239996051278405 0 -0.27141175194646833 0.1445184244171912 0 -0.25477231595188199 0.13792181725732239 0 -0.27545980130109921 0.1239996051278405 0 -0.25477231595188199 0.13792181725732239 0 -0.27545980130109921 0.1239996051278405 0 -0.25477231595188199 0.13792181725732239 0 -0.27545980130109921 0.1239996051278405 0 -0.2495823492922267 0.12121763785839371 0 -0.25610310449345419 0.1041046972302731 0 -0.27545980130109921 0.1239996051278405 0 -0.2495823492922267 0.12121763785839371 0 -0.25610310449345419 0.1041046972302731 0 -0.25413031243694739 0.089521027236778197 0 -0.2427234934652894 0.090762762990284518 0 -0.25610310449345419 0.1041046972302731 0 -0.26471001572300679 0.091779207982481292 0 -0.25413031243694739 0.089521027236778197 0 -0.25610310449345419 0.1041046972302731 0 -0.27632390472144541 0.10600366135062909 0 -0.26471001572300679 0.091779207982481292 0 -0.27632390472144541 0.10600366135062909 0 -0.27815219556391091 0.091433986845849968 0 -0.26471001572300679 0.091779207982481292 0 -0.27632390472144541 0.10600366135062909 0 -0.28783094919658059 0.096999283795453681 0 -0.27815219556391091 0.091433986845849968 0 -0.25610310449345419 0.1041046972302731 0 -0.27632390472144541 0.10600366135062909 0 -0.27545980130109921 0.1239996051278405 0 -0.27545980130109921 0.1239996051278405 0 -0.29614728665031642 0.1100773929983587 0 -0.29326612220823411 0.13512644163735801 0 -0.27545980130109921 0.1239996051278405 0 -0.29614728665031642 0.1100773929983587 0 -0.27632390472144541 0.10600366135062909 0 -0.27545980130109921 0.1239996051278405 0 -0.29614728665031642 0.1100773929983587 0 -0.27632390472144541 0.10600366135062909 0 -0.29614728665031642 0.1100773929983587 0 -0.28783094919658059 0.096999283795453681 0 -0.29614728665031642 0.1100773929983587 0 -0.28783094919658059 0.096999283795453681 0 -0.29903425758953422 0.090155638130954882 0 -0.29614728665031642 0.1100773929983587 0 -0.29903425758953422 0.090155638130954882 0 -0.31683477199953253 0.096155180868875256 0 -0.29614728665031642 0.1100773929983587 0 -0.31683477199953253 0.096155180868875256 0 -0.29614728665031642 0.1100773929983587 0 -0.31211500736378339 0.1240031522641292 0 -0.31683477199953253 0.096155180868875256 0 -0.29326612220823411 0.13512644163735801 0 -0.29614728665031642 0.1100773929983587 0 -0.31211500736378339 0.1240031522641292 0 -0.30635830999651792 0.07761242167179265 0 -0.30189037325813839 0.060543452134012458 0 -0.32146679815367007 0.068824891797761426 0 -0.30635830999651792 0.07761242167179265 0 -0.29256534898171721 0.072382945427359638 0 -0.30189037325813839 0.060543452134012458 0 -0.30635830999651792 0.07761242167179265 0 -0.29903425758953422 0.090155638130954882 0 -0.29256534898171721 0.072382945427359638 0 -0.30635830999651792 0.07761242167179265 0 -0.29903425758953422 0.090155638130954882 0 -0.31683477199953253 0.096155180868875256 0 -0.29903425758953422 0.090155638130954882 0 -0.28572263353681682 0.08337299634339973 0 -0.29256534898171721 0.072382945427359638 0 -0.28783094919658059 0.096999283795453681 0 -0.29903425758953422 0.090155638130954882 0 -0.28572263353681682 0.08337299634339973 0 -0.28783094919658059 0.096999283795453681 0 -0.28572263353681682 0.08337299634339973 0 -0.27815219556391091 0.091433986845849968 0 -0.28572263353681682 0.08337299634339973 0 -0.29256534898171721 0.072382945427359638 0 -0.28059357561043269 0.073644623599786935 0 -0.29256534898171721 0.072382945427359638 0 -0.29088471103165969 0.062671374321780771 0 -0.30189037325813839 0.060543452134012458 0 -0.29256534898171721 0.072382945427359638 0 -0.29088471103165969 0.062671374321780771 0 -0.28261649390190829 0.064291953838756216 0 -0.29256534898171721 0.072382945427359638 0 -0.28261649390190829 0.064291953838756216 0 -0.28059357561043269 0.073644623599786935 0 -0.28261649390190829 0.064291953838756216 0 -0.27678196032587499 0.069585006034529676 0 -0.27195195811963518 0.06635492754641531 0 -0.26855373331756138 0.063547936276670339 0 -0.27195195811963518 0.06635492754641531 0 -0.25743728825439521 0.07924270920583569 0 -0.28261649390190829 0.064291953838756216 0 -0.27678196032587499 0.069585006034529676 0 -0.28059357561043269 0.073644623599786935 0 -0.27678196032587499 0.069585006034529676 0 -0.27196581367152378 0.074048519153160283 0 -0.27195195811963518 0.06635492754641531 0 -0.27678196032587499 0.069585006034529676 0 -0.28059357561043269 0.073644623599786935 0 -0.27196581367152378 0.074048519153160283 0 -0.28059357561043269 0.073644623599786935 0 -0.27196581367152378 0.074048519153160283 0 -0.27303575277029413 0.081855029780232597 0 -0.27196581367152378 0.074048519153160283 0 -0.27195195811963518 0.06635492754641531 0 -0.25743728825439521 0.07924270920583569 0 -0.28572263353681682 0.08337299634339973 0 -0.27815219556391091 0.091433986845849968 0 -0.27303575277029413 0.081855029780232597 0 -0.28572263353681682 0.08337299634339973 0 -0.28059357561043269 0.073644623599786935 0 -0.27303575277029413 0.081855029780232597 0 -0.27196581367152378 0.074048519153160283 0 -0.27303575277029413 0.081855029780232597 0 -0.25743728825439521 0.07924270920583569 0 -0.27815219556391091 0.091433986845849968 0 -0.27303575277029413 0.081855029780232597 0 -0.26471001572300679 0.091779207982481292 0 -0.26471001572300679 0.091779207982481292 0 -0.25743728825439521 0.07924270920583569 0 -0.25413031243694739 0.089521027236778197 0 -0.27303575277029413 0.081855029780232597 0 -0.26471001572300679 0.091779207982481292 0 -0.25743728825439521 0.07924270920583569 0 -0.25743728825439521 0.07924270920583569 0 -0.25064083865024739 0.073628726666345984 0 -0.24857020570659841 0.081659589420377987 0 -0.25743728825439521 0.07924270920583569 0 -0.25413031243694739 0.089521027236778197 0 -0.24857020570659841 0.081659589420377987 0 -0.26855373331756138 0.063547936276670339 0 -0.25743728825439521 0.07924270920583569 0 -0.25064083865024739 0.073628726666345984 0 -0.26855373331756138 0.063547936276670339 0 -0.25064083865024739 0.073628726666345984 0 -0.2562734301216873 0.062061687155910393 0 -0.26855373331756138 0.063547936276670339 0 -0.25064083865024739 0.073628726666345984 0 -0.27195195811963518 0.06635492754641531 0 -0.25743728825439521 0.07924270920583569 0 -0.25064083865024739 0.073628726666345984 0 -0.2562734301216873 0.062061687155910393 0 -0.24829977196364941 0.065213336215906109 0 -0.2623477931936597 0.053657636987073307 0 -0.25116276906762952 0.054241108780248931 0 -0.26153642505613889 0.036367366133998442 0 -0.2562734301216873 0.062061687155910393 0 -0.2623477931936597 0.053657636987073307 0 -0.25116276906762952 0.054241108780248931 0 -0.2562734301216873 0.062061687155910393 0 -0.25116276906762952 0.054241108780248931 0 -0.24829977196364941 0.065213336215906109 0 -0.26855373331756138 0.063547936276670339 0 -0.2562734301216873 0.062061687155910393 0 -0.2623477931936597 0.053657636987073307 0 -0.25116276906762952 0.054241108780248931 0 -0.26153642505613889 0.036367366133998442 0 -0.239388393447095 0.04766651035075449 0 -0.2623477931936597 0.053657636987073307 0 -0.26153642505613889 0.036367366133998442 0 -0.27323710809808138 0.049716314049096537 0 -0.26153642505613889 0.036367366133998442 0 -0.28732673365434691 0.040933413293477772 0 -0.26153642505613889 0.036367366133998442 0 -0.2825074511423824 0.030310297232740709 0 -0.28732673365434691 0.040933413293477772 0 -0.26153642505613889 0.036367366133998442 0 -0.27323710809808138 0.049716314049096537 0 -0.28732673365434691 0.040933413293477772 0 -0.26855373331756138 0.063547936276670339 0 -0.27195195811963518 0.06635492754641531 0 -0.28646662798487532 0.053467145886994819 0 -0.26855373331756138 0.063547936276670339 0 -0.28646662798487532 0.053467145886994819 0 -0.26855373331756138 0.063547936276670339 0 -0.27323710809808138 0.049716314049096537 0 -0.28646662798487532 0.053467145886994819 0 -0.27195195811963518 0.06635492754641531 0 -0.28646662798487532 0.053467145886994819 0 -0.28261649390190829 0.064291953838756216 0 -0.27195195811963518 0.06635492754641531 0 -0.28646662798487532 0.053467145886994819 0 -0.26855373331756138 0.063547936276670339 0 -0.2623477931936597 0.053657636987073307 0 -0.27323710809808138 0.049716314049096537 0 -0.26176261374782622 0.0098260211376069873 0 -0.24854849079604721 0.020569936005881421 0 -0.24598119983726671 0.0037338506766126851 0 -0.26003022337954462 -0.0038093911555793728 0 -0.26176261374782622 0.0098260211376069873 0 -0.24598119983726671 0.0037338506766126851 0 -0.26003022337954462 -0.0038093911555793728 0 -0.27433688946420332 -0.0007833753365484626 0 -0.26176261374782622 0.0098260211376069873 0 -0.26153642505613889 0.036367366133998442 0 -0.26176261374782622 0.0098260211376069873 0 -0.24854849079604721 0.020569936005881421 0 -0.26153642505613889 0.036367366133998442 0 -0.26176261374782622 0.0098260211376069873 0 -0.27684491432135683 0.017453585025194441 0 -0.26153642505613889 0.036367366133998442 0 -0.27684491432135683 0.017453585025194441 0 -0.2825074511423824 0.030310297232740709 0 -0.27433688946420332 -0.0007833753365484626 0 -0.26176261374782622 0.0098260211376069873 0 -0.27684491432135683 0.017453585025194441 0 -0.27433688946420332 -0.0007833753365484626 0 -0.27684491432135683 0.017453585025194441 0 -0.28842838408131971 0.0076205693905790281 0 -0.28842838408131971 0.0076205693905790281 0 -0.29131927560690712 0.022062190579302341 0 -0.29989828236451899 0.011495108916467369 0 -0.27684491432135683 0.017453585025194441 0 -0.29131927560690712 0.022062190579302341 0 -0.2825074511423824 0.030310297232740709 0 -0.27684491432135683 0.017453585025194441 0 -0.28842838408131971 0.0076205693905790281 0 -0.29131927560690712 0.022062190579302341 0 -0.29131927560690712 0.022062190579302341 0 -0.2825074511423824 0.030310297232740709 0 -0.29550990707316249 0.034734931131730561 0 -0.29131927560690712 0.022062190579302341 0 -0.30587597075389272 0.02137954460474218 0 -0.29550990707316249 0.034734931131730561 0 -0.30587597075389272 0.02137954460474218 0 -0.29550990707316249 0.034734931131730561 0 -0.30859873922341308 0.03381572977126493 0 -0.29131927560690712 0.022062190579302341 0 -0.30587597075389272 0.02137954460474218 0 -0.29989828236451899 0.011495108916467369 0 -0.3025805037907468 -0.0027432771802810229 0 -0.3204068892458079 -0.0014125807301150939 0 -0.31128727758972891 0.0091565171879943417 0 -0.30587597075389272 0.02137954460474218 0 -0.29989828236451899 0.011495108916467369 0 -0.31128727758972891 0.0091565171879943417 0 -0.3025805037907468 -0.0027432771802810229 0 -0.29989828236451899 0.011495108916467369 0 -0.31128727758972891 0.0091565171879943417 0 -0.3025805037907468 -0.0027432771802810229 0 -0.28842838408131971 0.0076205693905790281 0 -0.29989828236451899 0.011495108916467369 0 -0.28646662798487532 0.053467145886994819 0 -0.304010183261538 0.043594207608826187 0 -0.29088471103165969 0.062671374321780771 0 -0.28646662798487532 0.053467145886994819 0 -0.30189037325813839 0.060543452134012458 0 -0.29088471103165969 0.062671374321780771 0 -0.28261649390190829 0.064291953838756216 0 -0.28646662798487532 0.053467145886994819 0 -0.27323710809808138 0.049716314049096537 0 -0.28646662798487532 0.053467145886994819 0 -0.28732673365434691 0.040933413293477772 0 -0.28646662798487532 0.053467145886994819 0 -0.29550990707316249 0.034734931131730561 0 -0.30859873922341308 0.03381572977126493 0 -0.28646662798487532 0.053467145886994819 0 -0.28732673365434691 0.040933413293477772 0 -0.29550990707316249 0.034734931131730561 0 -0.2825074511423824 0.030310297232740709 0 -0.28732673365434691 0.040933413293477772 0 -0.29550990707316249 0.034734931131730561 0 -0.28646662798487532 0.053467145886994819 0 -0.30859873922341308 0.03381572977126493 0 -0.28646662798487532 0.053467145886994819 0 -0.304010183261538 0.043594207608826187 0 -0.30859873922341308 0.03381572977126493 0 -0.304010183261538 0.043594207608826187 0 -0.30859873922341308 0.03381572977126493 0 -0.32155373853820057 0.033721269330657687 0 -0.304010183261538 0.043594207608826187 0 -0.3137915997446068 0.051476736654279882 0 -0.31549181974187701 0.042926529004151233 0 -0.28646662798487532 0.053467145886994819 0 -0.304010183261538 0.043594207608826187 0 -0.30189037325813839 0.060543452134012458 0 -0.30189037325813839 0.060543452134012458 0 -0.3137915997446068 0.051476736654279882 0 -0.32146679815367007 0.068824891797761426 0 -0.304010183261538 0.043594207608826187 0 -0.30189037325813839 0.060543452134012458 0 -0.3137915997446068 0.051476736654279882 0 -0.3137915997446068 0.051476736654279882 0 -0.32609882430781029 0.041494602726648067 0 -0.32146679815367007 0.068824891797761426 0 -0.32609882430781029 0.041494602726648067 0 -0.32146679815367007 0.068824891797761426 0 -0.3137915997446068 0.051476736654279882 0 -0.31549181974187701 0.042926529004151233 0 -0.32609882430781029 0.041494602726648067 0 -0.304010183261538 0.043594207608826187 0 -0.31549181974187701 0.042926529004151233 0 -0.32155373853820057 0.033721269330657687 0 -0.304010183261538 0.043594207608826187 0 -0.32155373853820057 0.033721269330657687 0 -0.31549181974187701 0.042926529004151233 0 -0.32155373853820057 0.033721269330657687 0 -0.32609882430781029 0.041494602726648067 0 -0.32609882430781029 0.041494602726648067 0 -0.34385517732675519 0.031131612817745031 0 -0.35163198926140088 0.046228739452983239 0 -0.32609882430781029 0.041494602726648067 0 -0.338272543408071 0.060603673933957783 0 -0.32146679815367007 0.068824891797761426 0 -0.32609882430781029 0.041494602726648067 0 -0.338272543408071 0.060603673933957783 0 -0.35163198926140088 0.046228739452983239 0 -0.3204068892458079 -0.0014125807301150939 0 -0.31128727758972891 0.0091565171879943417 0 -0.33073085046195078 0.01416431365553468 0 -0.30587597075389272 0.02137954460474218 0 -0.31128727758972891 0.0091565171879943417 0 -0.33073085046195078 0.01416431365553468 0 -0.30859873922341308 0.03381572977126493 0 -0.33073085046195078 0.01416431365553468 0 -0.30587597075389272 0.02137954460474218 0 -0.30859873922341308 0.03381572977126493 0 -0.33073085046195078 0.01416431365553468 0 -0.32155373853820057 0.033721269330657687 0 -0.32609882430781029 0.041494602726648067 0 -0.33073085046195078 0.01416431365553468 0 -0.30859873922341308 0.03381572977126493 0 -0.32155373853820057 0.033721269330657687 0 -0.33073085046195078 0.01416431365553468 0 -0.32609882430781029 0.041494602726648067 0 -0.33073085046195078 0.01416431365553468 0 -0.33073085046195078 0.01416431365553468 0 -0.34385517732675519 0.031131612817745031 0 -0.35381837275022032 0.01853105722209741 0 -0.32609882430781029 0.041494602726648067 0 -0.33073085046195078 0.01416431365553468 0 -0.34385517732675519 0.031131612817745031 0 -0.33540629353460438 -0.01342214774580049 0 -0.33073085046195078 0.01416431365553468 0 -0.35221409618436439 -0.0049109655465913588 0 -0.33073085046195078 0.01416431365553468 0 -0.35221409618436439 -0.0049109655465913588 0 -0.34857824671955512 -0.007874197240844389 0 -0.33073085046195078 0.01416431365553468 0 -0.35221409618436439 -0.0049109655465913588 0 -0.33073085046195078 0.01416431365553468 0 -0.34939877662876639 0.0070576099193848619 0 -0.33073085046195078 0.01416431365553468 0 -0.34939877662876639 0.0070576099193848619 0 -0.35381837275022032 0.01853105722209741 0 -0.35900139338342918 0.0020097317905480609 0 -0.34939877662876639 0.0070576099193848619 0 -0.35834074471334648 0.0096788928264882005 0 -0.35509488683577939 -0.0004162838960613095 0 -0.35900139338342918 0.0020097317905480609 0 -0.34939877662876639 0.0070576099193848619 0 -0.35509488683577939 -0.0004162838960613095 0 -0.35221409618436439 -0.0049109655465913588 0 -0.34939877662876639 0.0070576099193848619 0 -0.34939877662876639 0.0070576099193848619 0 -0.35834074471334648 0.0096788928264882005 0 -0.35381837275022032 0.01853105722209741 0 -0.34385517732675519 0.031131612817745031 0 -0.35381837275022032 0.01853105722209741 0 -0.36551724687399623 0.028318485711261141 0 -0.37937813184432773 0.031366277704107569 0 -0.36551724687399623 0.028318485711261141 0 -0.37479293228070759 0.022502646493578662 0 -0.36551724687399623 0.028318485711261141 0 -0.37479293228070759 0.022502646493578662 0 -0.36730783543836809 0.01519693074799966 0 -0.3778438638662554 0.014761087644765769 0 -0.37479293228070759 0.022502646493578662 0 -0.36730783543836809 0.01519693074799966 0 -0.35381837275022032 0.01853105722209741 0 -0.36551724687399623 0.028318485711261141 0 -0.36730783543836809 0.01519693074799966 0 -0.35834074471334648 0.0096788928264882005 0 -0.36730783543836809 0.01519693074799966 0 -0.36603012090457948 0.0050917054244422654 0 -0.35834074471334648 0.0096788928264882005 0 -0.35381837275022032 0.01853105722209741 0 -0.36730783543836809 0.01519693074799966 0 -0.36730783543836809 0.01519693074799966 0 -0.37464316483836829 0.0066416053135349984 0 -0.36603012090457948 0.0050917054244422654 0 -0.3778438638662554 0.014761087644765769 0 -0.36730783543836809 0.01519693074799966 0 -0.37464316483836829 0.0066416053135349984 0 -0.37126952376897032 -0.00085078512189483576 0 -0.37774077980655368 -0.001289555558904682 0 -0.37464316483836829 0.0066416053135349984 0 -0.37126952376897032 -0.00085078512189483576 0 -0.37464316483836829 0.0066416053135349984 0 -0.36603012090457948 0.0050917054244422654 0 -0.37126952376897032 -0.00085078512189483576 0 -0.36494834593608783 -0.001298186014321303 0 -0.36603012090457948 0.0050917054244422654 0 -0.36494834593608783 -0.001298186014321303 0 -0.35900139338342918 0.0020097317905480609 0 -0.36603012090457948 0.0050917054244422654 0 -0.35900139338342918 0.0020097317905480609 0 -0.35834074471334648 0.0096788928264882005 0 -0.36603012090457948 0.0050917054244422654 0 -0.35163198926140088 0.046228739452983239 0 -0.36891219827968119 0.060077996683558232 0 -0.35298131256760962 0.063034912088641357 0 -0.338272543408071 0.060603673933957783 0 -0.35163198926140088 0.046228739452983239 0 -0.35298131256760962 0.063034912088641357 0 -0.34385517732675519 0.031131612817745031 0 -0.36551724687399623 0.028318485711261141 0 -0.35163198926140088 0.046228739452983239 0 -0.36551724687399623 0.028318485711261141 0 -0.35163198926140088 0.046228739452983239 0 -0.37261014177358448 0.043145835856899219 0 -0.37937813184432773 0.031366277704107569 0 -0.36551724687399623 0.028318485711261141 0 -0.37261014177358448 0.043145835856899219 0 -0.35163198926140088 0.046228739452983239 0 -0.37261014177358448 0.043145835856899219 0 -0.36891219827968119 0.060077996683558232 0 -0.38207463336695202 0.051047668856640811 0 -0.37261014177358448 0.043145835856899219 0 -0.36891219827968119 0.060077996683558232 0 -0.37929074908003868 0.077603726490867345 0 -0.35694138538550352 0.073855345321458488 0 -0.37929074908003868 0.077603726490867345 0 -0.36891219827968119 0.060077996683558232 0 -0.35694138538550352 0.073855345321458488 0 -0.36891219827968119 0.060077996683558232 0 -0.35298131256760962 0.063034912088641357 0 -0.35694138538550352 0.073855345321458488 0 -0.35298131256760962 0.063034912088641357 0 -0.35694138538550352 0.073855345321458488 0 -0.34914844650339177 0.074408805051249083 0 -0.35694138538550352 0.073855345321458488 0 -0.34914844650339177 0.074408805051249083 0 -0.35387282561504041 0.085789381247760657 0 -0.338272543408071 0.060603673933957783 0 -0.35298131256760962 0.063034912088641357 0 -0.34914844650339177 0.074408805051249083 0 -0.34914844650339177 0.074408805051249083 0 -0.35387282561504041 0.085789381247760657 0 -0.33299160925146271 0.085281992960062933 0 -0.35694138538550352 0.073855345321458488 0 -0.35387282561504041 0.085789381247760657 0 -0.36438159895332511 0.085691586513687634 0 -0.35387282561504041 0.085789381247760657 0 -0.36438159895332511 0.085691586513687634 0 -0.35579278546844412 0.098564625017930646 0 -0.37929074908003868 0.077603726490867345 0 -0.35694138538550352 0.073855345321458488 0 -0.36438159895332511 0.085691586513687634 0 -0.37929074908003868 0.077603726490867345 0 -0.36438159895332511 0.085691586513687634 0 -0.37090825683648998 0.098456277756480637 0 -0.37090825683648998 0.098456277756480637 0 -0.36904533532088801 0.1177582563576956 0 -0.35579278546844412 0.098564625017930646 0 -0.36438159895332511 0.085691586513687634 0 -0.37090825683648998 0.098456277756480637 0 -0.35579278546844412 0.098564625017930646 0 -0.35823941519022368 0.13573745574644491 0 -0.36904533532088801 0.1177582563576956 0 -0.35158166360451942 0.11704707172714621 0 -0.36904533532088801 0.1177582563576956 0 -0.35158166360451942 0.11704707172714621 0 -0.35579278546844412 0.098564625017930646 0 -0.35158166360451942 0.11704707172714621 0 -0.35579278546844412 0.098564625017930646 0 -0.34047962299512569 0.099373871294989508 0 -0.35387282561504041 0.085789381247760657 0 -0.35579278546844412 0.098564625017930646 0 -0.34047962299512569 0.099373871294989508 0 -0.34047962299512569 0.099373871294989508 0 -0.33231339904552459 0.1171762944261375 0 -0.31683477199953253 0.096155180868875256 0 -0.34455851703438989 0.13305210298766909 0 -0.35158166360451942 0.11704707172714621 0 -0.33231339904552459 0.1171762944261375 0 -0.35158166360451942 0.11704707172714621 0 -0.34047962299512569 0.099373871294989508 0 -0.33231339904552459 0.1171762944261375 0 -0.31211500736378339 0.1240031522641292 0 -0.31683477199953253 0.096155180868875256 0 -0.31211500736378339 0.1240031522641292 0 -0.33231339904552459 0.1171762944261375 0 -0.31683477199953253 0.096155180868875256 0 -0.30635830999651792 0.07761242167179265 0 -0.31683477199953253 0.096155180868875256 0 -0.32146679815367007 0.068824891797761426 0 -0.31683477199953253 0.096155180868875256 0 -0.32146679815367007 0.068824891797761426 0 -0.33299160925146271 0.085281992960062933 0 -0.31683477199953253 0.096155180868875256 0 -0.32146679815367007 0.068824891797761426 0 -0.31683477199953253 0.096155180868875256 0 -0.33299160925146271 0.085281992960062933 0 -0.338272543408071 0.060603673933957783 0 -0.32146679815367007 0.068824891797761426 0 -0.33576809196089219 0.072507027900731907 0 -0.32146679815367007 0.068824891797761426 0 -0.33576809196089219 0.072507027900731907 0 -0.33299160925146271 0.085281992960062933 0 -0.34914844650339177 0.074408805051249083 0 -0.33576809196089219 0.072507027900731907 0 -0.33299160925146271 0.085281992960062933 0 -0.338272543408071 0.060603673933957783 0 -0.34914844650339177 0.074408805051249083 0 -0.33576809196089219 0.072507027900731907 0 -0.35387282561504041 0.085789381247760657 0 -0.34047962299512569 0.099373871294989508 0 -0.33299160925146271 0.085281992960062933 0 -0.34914844650339177 0.074408805051249083 0 -0.33299160925146271 0.085281992960062933 0 -0.34047962299512569 0.099373871294989508 0 -0.31683477199953253 0.096155180868875256 0 -0.33299160925146271 0.085281992960062933 0 -0.3938434845513461 0.48000301234504228 0 -0.4154786193197833 0.47000451851756458 0 -0.40908183102320411 0.4845696213484928 0 -0.3938434845513461 0.48000301234504228 0 -0.40110135887996978 0.47332954189399812 0 -0.4154786193197833 0.47000451851756458 0 -0.3938434845513461 0.48000301234504228 0 -0.4154786193197833 0.47000451851756458 0 -0.3938434845513461 0.48000301234504228 0 -0.40110135887996978 0.47332954189399812 0 -0.38930270813857232 0.46778113184491188 0 -0.3938434845513461 0.48000301234504228 0 -0.39546946259238258 0.49128185561313598 0 -0.40908183102320411 0.4845696213484928 0 -0.40521342881326272 0.5 0 -0.39546946259238258 0.49128185561313598 0 -0.37789332191386737 0.5 0 -0.40521342881326272 0.5 0 -0.39546946259238258 0.49128185561313598 0 -0.40908183102320411 0.4845696213484928 0 -0.3938434845513461 0.48000301234504228 0 -0.39546946259238258 0.49128185561313598 0 -0.38517353549973538 0.49039659604947999 0 -0.3938434845513461 0.48000301234504228 0 -0.37220834978290879 0.49000150617251997 0 -0.39546946259238258 0.49128185561313598 0 -0.38517353549973538 0.49039659604947999 0 -0.37789332191386737 0.5 0 -0.3938434845513461 0.48000301234504228 0 -0.38517353549973538 0.49039659604947999 0 -0.37220834978290879 0.49000150617251997 0 -0.38517353549973538 0.49039659604947999 0 -0.37789332191386737 0.5 0 -0.37220834978290879 0.49000150617251997 0 -0.3938434845513461 0.48000301234504228 0 -0.37805640255927542 0.47903421333972468 0 -0.3842367001720054 0.47454362448235632 0 -0.3938434845513461 0.48000301234504228 0 -0.37805640255927542 0.47903421333972468 0 -0.37220834978290879 0.49000150617251997 0 -0.3842367001720054 0.47454362448235632 0 -0.37701653082709469 0.46900635458093531 0 -0.38930270813857232 0.46778113184491188 0 -0.3938434845513461 0.48000301234504228 0 -0.3842367001720054 0.47454362448235632 0 -0.38930270813857232 0.46778113184491188 0 -0.37805640255927542 0.47903421333972468 0 -0.3842367001720054 0.47454362448235632 0 -0.37701653082709469 0.46900635458093531 0 -0.37701653082709469 0.46900635458093531 0 -0.38677844954541418 0.45747132953460651 0 -0.37376195539900242 0.45249759326054367 0 -0.37701653082709469 0.46900635458093531 0 -0.38677844954541418 0.45747132953460651 0 -0.38930270813857232 0.46778113184491188 0 -0.38473584783684761 0.44354080077547992 0 -0.36778315087773072 0.43214877602771662 0 -0.37376195539900242 0.45249759326054367 0 -0.38677844954541418 0.45747132953460651 0 -0.38473584783684761 0.44354080077547992 0 -0.37376195539900242 0.45249759326054367 0 -0.38677844954541418 0.45747132953460651 0 -0.38473584783684761 0.44354080077547992 0 -0.39843898125590987 0.45231631840454728 0 -0.39843898125590987 0.45231631840454728 0 -0.4072920944712265 0.44499890251068641 0 -0.39856520721893041 0.43647578570475237 0 -0.38473584783684761 0.44354080077547992 0 -0.39843898125590987 0.45231631840454728 0 -0.39856520721893041 0.43647578570475237 0 -0.39843898125590987 0.45231631840454728 0 -0.39841490533913748 0.46178879282826651 0 -0.41709791082295028 0.45456801136960878 0 -0.40110135887996978 0.47332954189399812 0 -0.39841490533913748 0.46178879282826651 0 -0.41709791082295028 0.45456801136960878 0 -0.38677844954541418 0.45747132953460651 0 -0.38930270813857232 0.46778113184491188 0 -0.39841490533913748 0.46178879282826651 0 -0.40110135887996978 0.47332954189399812 0 -0.38930270813857232 0.46778113184491188 0 -0.39841490533913748 0.46178879282826651 0 -0.38677844954541418 0.45747132953460651 0 -0.39843898125590987 0.45231631840454728 0 -0.39841490533913748 0.46178879282826651 0 -0.40110135887996978 0.47332954189399812 0 -0.41709791082295028 0.45456801136960878 0 -0.4154786193197833 0.47000451851756458 0 -0.40110135887996978 0.47332954189399812 0 -0.41709791082295028 0.45456801136960878 0 -0.41709791082295028 0.45456801136960878 0 -0.42692569345801529 0.46340213249295897 0 -0.4154786193197833 0.47000451851756458 0 -0.41709791082295028 0.45456801136960878 0 -0.43309446276593089 0.43580648084521972 0 -0.41506627858711548 0.4366354945638371 0 -0.39843898125590987 0.45231631840454728 0 -0.41709791082295028 0.45456801136960878 0 -0.4072920944712265 0.44499890251068641 0 -0.4072920944712265 0.44499890251068641 0 -0.41506627858711548 0.4366354945638371 0 -0.39856520721893041 0.43647578570475237 0 -0.41709791082295028 0.45456801136960878 0 -0.4072920944712265 0.44499890251068641 0 -0.41506627858711548 0.4366354945638371 0 -0.41709791082295028 0.45456801136960878 0 -0.43251943231727258 0.45189802077753072 0 -0.43309446276593089 0.43580648084521972 0 -0.41709791082295028 0.45456801136960878 0 -0.43309446276593089 0.43580648084521972 0 -0.43251943231727258 0.45189802077753072 0 -0.44285055445462801 0.44408738363144917 0 -0.43309446276593089 0.43580648084521972 0 -0.43251943231727258 0.45189802077753072 0 -0.42692569345801529 0.46340213249295897 0 -0.44262854008483871 0.46162609554841733 0 -0.42692569345801529 0.46340213249295897 0 -0.43014133963940671 0.47900644757454591 0 -0.44262854008483871 0.46162609554841733 0 -0.41709791082295028 0.45456801136960878 0 -0.43251943231727258 0.45189802077753072 0 -0.42692569345801529 0.46340213249295897 0 -0.42692569345801529 0.46340213249295897 0 -0.43014133963940671 0.47900644757454591 0 -0.4154786193197833 0.47000451851756458 0 -0.43014133963940671 0.47900644757454591 0 -0.4154786193197833 0.47000451851756458 0 -0.40908183102320411 0.4845696213484928 0 -0.40521342881326272 0.5 0 -0.40908183102320411 0.4845696213484928 0 -0.43253353571265801 0.5 0 -0.43014133963940671 0.47900644757454591 0 -0.40908183102320411 0.4845696213484928 0 -0.43253353571265801 0.5 0 -0.43014133963940671 0.47900644757454591 0 -0.43253353571265801 0.5 0 -0.44984012809851409 0.48033494727474779 0 -0.43253353571265801 0.5 0 -0.44984012809851409 0.48033494727474779 0 -0.45985364261205308 0.50000000000000111 0 -0.43014133963940671 0.47900644757454591 0 -0.44984012809851409 0.48033494727474779 0 -0.44262854008483871 0.46162609554841733 0 -0.44984012809851409 0.48033494727474779 0 -0.47312811744354261 0.47395110078869013 0 -0.45820768181792781 0.46325373185340701 0 -0.45985364261205308 0.50000000000000111 0 -0.47312811744354261 0.47395110078869013 0 -0.44984012809851409 0.48033494727474779 0 -0.45985364261205308 0.50000000000000111 0 -0.47312811744354261 0.47395110078869013 0 -0.5 0.5 0 -0.47312811744354261 0.47395110078869013 0 -0.49999999999999972 0.44664233614409321 0 -0.45985364261205308 0.50000000000000111 0 -0.5 0.5 0 -0.47312811744354261 0.47395110078869013 0 -0.48640259227503152 0.44790220157737892 0 -0.49999999999999972 0.44664233614409321 0 -0.47883616718389621 0.43347798499105172 0 -0.49999999999999972 0.44664233614409321 0 -0.47883616718389621 0.43347798499105172 0 -0.47312811744354261 0.47395110078869013 0 -0.48640259227503152 0.44790220157737892 0 -0.49999999999999972 0.44664233614409321 0 -0.47312811744354261 0.47395110078869013 0 -0.48640259227503152 0.44790220157737892 0 -0.47312811744354261 0.47395110078869013 0 -0.48640259227503152 0.44790220157737892 0 -0.46932328621444303 0.45009797021529852 0 -0.46932328621444303 0.45009797021529852 0 -0.46288197751253979 0.435741310408158 0 -0.47883616718389621 0.43347798499105172 0 -0.48640259227503152 0.44790220157737892 0 -0.46932328621444303 0.45009797021529852 0 -0.47883616718389621 0.43347798499105172 0 -0.46932328621444303 0.45009797021529852 0 -0.45653044061400749 0.44574373859450739 0 -0.46288197751253979 0.435741310408158 0 -0.46932328621444303 0.45009797021529852 0 -0.45653044061400749 0.44574373859450739 0 -0.45820768181792781 0.46325373185340701 0 -0.45653044061400749 0.44574373859450739 0 -0.44988321330808601 0.43264183945635343 0 -0.46288197751253979 0.435741310408158 0 -0.47312811744354261 0.47395110078869013 0 -0.46932328621444303 0.45009797021529852 0 -0.45820768181792781 0.46325373185340701 0 -0.45653044061400749 0.44574373859450739 0 -0.45820768181792781 0.46325373185340701 0 -0.44262854008483871 0.46162609554841733 0 -0.44984012809851409 0.48033494727474779 0 -0.45820768181792781 0.46325373185340701 0 -0.44262854008483871 0.46162609554841733 0 -0.43251943231727258 0.45189802077753072 0 -0.44262854008483871 0.46162609554841733 0 -0.44285055445462801 0.44408738363144917 0 -0.45653044061400749 0.44574373859450739 0 -0.44262854008483871 0.46162609554841733 0 -0.44285055445462801 0.44408738363144917 0 -0.44285055445462801 0.44408738363144917 0 -0.44988321330808601 0.43264183945635343 0 -0.43309446276593089 0.43580648084521972 0 -0.45653044061400749 0.44574373859450739 0 -0.44285055445462801 0.44408738363144917 0 -0.44988321330808601 0.43264183945635343 0 -0.44909101470891138 0.41704495032083061 0 -0.43309446276593089 0.43580648084521972 0 -0.44988321330808601 0.43264183945635343 0 -0.44909101470891138 0.41704495032083061 0 -0.43309446276593089 0.43580648084521972 0 -0.44988321330808601 0.43264183945635343 0 -0.44909101470891138 0.41704495032083061 0 -0.45767233436779298 0.42031363383801013 0 -0.44909101470891138 0.41704495032083061 0 -0.43642708593841462 0.41129790334070748 0 -0.43309446276593089 0.43580648084521972 0 -0.44909101470891138 0.41704495032083061 0 -0.44923652684218601 0.40651161443480333 0 -0.43642708593841462 0.41129790334070748 0 -0.44909101470891138 0.41704495032083061 0 -0.46310762304278369 0.4136785712167641 0 -0.46508756665189233 0.39828341979644161 0 -0.44909101470891138 0.41704495032083061 0 -0.46508756665189233 0.39828341979644161 0 -0.44909101470891138 0.41704495032083061 0 -0.44923652684218601 0.40651161443480333 0 -0.46508756665189233 0.39828341979644161 0 -0.44909101470891138 0.41704495032083061 0 -0.45767233436779298 0.42031363383801013 0 -0.46310762304278369 0.4136785712167641 0 -0.45767233436779298 0.42031363383801013 0 -0.46310762304278369 0.4136785712167641 0 -0.4689935185142321 0.42014913325858988 0 -0.46310762304278369 0.4136785712167641 0 -0.47635794946245552 0.41312634298853379 0 -0.46508756665189233 0.39828341979644161 0 -0.45767233436779298 0.42031363383801013 0 -0.47883616718389621 0.43347798499105172 0 -0.4689935185142321 0.42014913325858988 0 -0.45767233436779298 0.42031363383801013 0 -0.46288197751253979 0.435741310408158 0 -0.47883616718389621 0.43347798499105172 0 -0.45767233436779298 0.42031363383801013 0 -0.47883616718389621 0.43347798499105172 0 -0.44988321330808601 0.43264183945635343 0 -0.45767233436779298 0.42031363383801013 0 -0.46288197751253979 0.435741310408158 0 -0.47883616718389621 0.43347798499105172 0 -0.47635794946245552 0.41312634298853379 0 -0.48714440641974271 0.42351608680749347 0 -0.47883616718389621 0.43347798499105172 0 -0.4689935185142321 0.42014913325858988 0 -0.47635794946245552 0.41312634298853379 0 -0.46310762304278369 0.4136785712167641 0 -0.4689935185142321 0.42014913325858988 0 -0.47635794946245552 0.41312634298853379 0 -0.47635794946245552 0.41312634298853379 0 -0.48901457958177968 0.41012265573874179 0 -0.48254378332594611 0.39722493186941499 0 -0.47635794946245552 0.41312634298853379 0 -0.48901457958177968 0.41012265573874179 0 -0.48714440641974271 0.42351608680749347 0 -0.48901457958177968 0.41012265573874179 0 -0.5 0.42140439004324071 0 -0.49999999999999978 0.39616644394238798 0 -0.48901457958177968 0.41012265573874179 0 -0.5 0.42140439004324071 0 -0.48714440641974271 0.42351608680749347 0 -0.49999999999999972 0.44664233614409321 0 -0.47883616718389621 0.43347798499105172 0 -0.48714440641974271 0.42351608680749347 0 -0.49999999999999972 0.44664233614409321 0 -0.5 0.42140439004324071 0 -0.48714440641974271 0.42351608680749347 0 -0.49007778645481631 0.38142997617552599 0 -0.49999999999999978 0.39616644394238798 0 -0.50000000000000311 0.3685517992903854 0 -0.49007778645481631 0.38142997617552599 0 -0.47611467569506138 0.38535029247959018 0 -0.48714178473823078 0.37241716516273898 0 -0.49999999999999978 0.39616644394238798 0 -0.48254378332594611 0.39722493186941499 0 -0.48901457958177968 0.41012265573874179 0 -0.49999999999999978 0.39616644394238798 0 -0.48254378332594611 0.39722493186941499 0 -0.49007778645481631 0.38142997617552599 0 -0.49999999999999978 0.39616644394238798 0 -0.48254378332594611 0.39722493186941499 0 -0.48254378332594611 0.39722493186941499 0 -0.46508756665189233 0.39828341979644161 0 -0.47635794946245552 0.41312634298853379 0 -0.48254378332594611 0.39722493186941499 0 -0.46508756665189233 0.39828341979644161 0 -0.48254378332594611 0.39722493186941499 0 -0.47611467569506138 0.38535029247959018 0 -0.46508756665189233 0.39828341979644161 0 -0.47611467569506138 0.38535029247959018 0 -0.46508756665189233 0.39828341979644161 0 -0.49007778645481631 0.38142997617552599 0 -0.48254378332594611 0.39722493186941499 0 -0.47611467569506138 0.38535029247959018 0 -0.47611467569506138 0.38535029247959018 0 -0.47397397291215421 0.37493689296344251 0 -0.48714178473823078 0.37241716516273898 0 -0.47611467569506138 0.38535029247959018 0 -0.48714178473823078 0.37241716516273898 0 -0.46871814716203669 0.37906981455344119 0 -0.46360543106569913 0.37231654924431878 0 -0.47397397291215421 0.37493689296344251 0 -0.47611467569506138 0.38535029247959018 0 -0.46871814716203669 0.37906981455344119 0 -0.47397397291215421 0.37493689296344251 0 -0.46871814716203669 0.37906981455344119 0 -0.46117850897523233 0.38367552352641338 0 -0.46360543106569913 0.37231654924431878 0 -0.47611467569506138 0.38535029247959018 0 -0.46871814716203669 0.37906981455344119 0 -0.46117850897523233 0.38367552352641338 0 -0.47611467569506138 0.38535029247959018 0 -0.46117850897523233 0.38367552352641338 0 -0.46508756665189233 0.39828341979644161 0 -0.46117850897523233 0.38367552352641338 0 -0.45400385251667602 0.39093091030285698 0 -0.45110956684876158 0.38402681738971201 0 -0.46117850897523233 0.38367552352641338 0 -0.45110956684876158 0.38402681738971201 0 -0.44813402172652672 0.37354371539476261 0 -0.46117850897523233 0.38367552352641338 0 -0.44813402172652672 0.37354371539476261 0 -0.46360543106569913 0.37231654924431878 0 -0.44923652684218601 0.40651161443480333 0 -0.46508756665189233 0.39828341979644161 0 -0.44634044006952572 0.39942018428123321 0 -0.46508756665189233 0.39828341979644161 0 -0.45400385251667602 0.39093091030285698 0 -0.44634044006952572 0.39942018428123321 0 -0.46508756665189233 0.39828341979644161 0 -0.44634044006952572 0.39942018428123321 0 -0.46117850897523233 0.38367552352641338 0 -0.46508756665189233 0.39828341979644161 0 -0.45400385251667602 0.39093091030285698 0 -0.45400385251667602 0.39093091030285698 0 -0.44634044006952572 0.39942018428123321 0 -0.44518347515021223 0.38837251913440451 0 -0.44634044006952572 0.39942018428123321 0 -0.44518347515021223 0.38837251913440451 0 -0.43728617553129168 0.39370672697544878 0 -0.44923652684218601 0.40651161443480333 0 -0.44634044006952572 0.39942018428123321 0 -0.43642708593841462 0.41129790334070748 0 -0.45110956684876158 0.38402681738971201 0 -0.44480856609964842 0.38185924381796288 0 -0.44813402172652672 0.37354371539476261 0 -0.45400385251667602 0.39093091030285698 0 -0.45110956684876158 0.38402681738971201 0 -0.44518347515021223 0.38837251913440451 0 -0.45110956684876158 0.38402681738971201 0 -0.44518347515021223 0.38837251913440451 0 -0.44480856609964842 0.38185924381796288 0 -0.44518347515021223 0.38837251913440451 0 -0.43913693036841173 0.38484964203092692 0 -0.43002747341826991 0.3864772557201327 0 -0.44518347515021223 0.38837251913440451 0 -0.43002747341826991 0.3864772557201327 0 -0.44518347515021223 0.38837251913440451 0 -0.43913693036841173 0.38484964203092692 0 -0.44480856609964842 0.38185924381796288 0 -0.44480856609964842 0.38185924381796288 0 -0.4393591315165738 0.37762743775392832 0 -0.44813402172652672 0.37354371539476261 0 -0.43913693036841173 0.38484964203092692 0 -0.44480856609964842 0.38185924381796288 0 -0.4393591315165738 0.37762743775392832 0 -0.43913693036841173 0.38484964203092692 0 -0.43173797726570751 0.37658334167695551 0 -0.43913693036841173 0.38484964203092692 0 -0.43173797726570751 0.37658334167695551 0 -0.43002747341826991 0.3864772557201327 0 -0.43913693036841173 0.38484964203092692 0 -0.4393591315165738 0.37762743775392832 0 -0.43173797726570751 0.37658334167695551 0 -0.4393591315165738 0.37762743775392832 0 -0.43173797726570751 0.37658334167695551 0 -0.4325639091043616 0.37180597819459837 0 -0.43173797726570751 0.37658334167695551 0 -0.43002747341826991 0.3864772557201327 0 -0.44518347515021223 0.38837251913440451 0 -0.43002747341826991 0.3864772557201327 0 -0.43728617553129168 0.39370672697544878 0 -0.43002747341826991 0.3864772557201327 0 -0.41472776448615789 0.38456402166930481 0 -0.42117367656598032 0.39254991666010941 0 -0.43002747341826991 0.3864772557201327 0 -0.41472776448615789 0.38456402166930481 0 -0.43002747341826991 0.3864772557201327 0 -0.42328890360694349 0.38021744503538613 0 -0.41472776448615789 0.38456402166930481 0 -0.43173797726570751 0.37658334167695551 0 -0.43002747341826991 0.3864772557201327 0 -0.42328890360694349 0.38021744503538613 0 -0.43173797726570751 0.37658334167695551 0 -0.42328890360694349 0.38021744503538613 0 -0.42689564018809201 0.37117335838025439 0 -0.40881671944059661 0.37920357314115732 0 -0.42689564018809201 0.37117335838025439 0 -0.42328890360694349 0.38021744503538613 0 -0.40881671944059661 0.37920357314115732 0 -0.42689564018809201 0.37117335838025439 0 -0.42328890360694349 0.38021744503538613 0 -0.41472776448615789 0.38456402166930481 0 -0.40881671944059661 0.37920357314115732 0 -0.41472776448615789 0.38456402166930481 0 -0.40724106840129259 0.39428871981441299 0 -0.42117367656598032 0.39254991666010941 0 -0.41472776448615789 0.38456402166930481 0 -0.40826438028753348 0.3817067557430866 0 -0.39942805555404642 0.38265078761847338 0 -0.41472776448615789 0.38456402166930481 0 -0.40724106840129259 0.39428871981441299 0 -0.39942805555404642 0.38265078761847338 0 -0.41472776448615789 0.38456402166930481 0 -0.39942805555404642 0.38265078761847338 0 -0.40881671944059661 0.37920357314115732 0 -0.39942805555404642 0.38265078761847338 0 -0.41098055992701871 0.3693971202961519 0 -0.40826438028753348 0.3817067557430866 0 -0.40881671944059661 0.37920357314115732 0 -0.41472776448615789 0.38456402166930481 0 -0.40826438028753348 0.3817067557430866 0 -0.40881671944059661 0.37920357314115732 0 -0.40724106840129259 0.39428871981441299 0 -0.4157685575788832 0.40127396331749671 0 -0.40157856791931718 0.40704460823596672 0 -0.42117367656598032 0.39254991666010941 0 -0.4157685575788832 0.40127396331749671 0 -0.42759331348715912 0.40055694876602499 0 -0.40724106840129259 0.39428871981441299 0 -0.42117367656598032 0.39254991666010941 0 -0.4157685575788832 0.40127396331749671 0 -0.4157685575788832 0.40127396331749671 0 -0.42759331348715912 0.40055694876602499 0 -0.44634044006952572 0.39942018428123321 0 -0.42759331348715912 0.40055694876602499 0 -0.44634044006952572 0.39942018428123321 0 -0.42759331348715912 0.40055694876602499 0 -0.43728617553129168 0.39370672697544878 0 -0.44634044006952572 0.39942018428123321 0 -0.42759331348715912 0.40055694876602499 0 -0.43642708593841462 0.41129790334070748 0 -0.43002747341826991 0.3864772557201327 0 -0.42117367656598032 0.39254991666010941 0 -0.42759331348715912 0.40055694876602499 0 -0.43002747341826991 0.3864772557201327 0 -0.42759331348715912 0.40055694876602499 0 -0.43002747341826991 0.3864772557201327 0 -0.42759331348715912 0.40055694876602499 0 -0.43728617553129168 0.39370672697544878 0 -0.43642708593841462 0.41129790334070748 0 -0.42449994900394461 0.41844961959922572 0 -0.43309446276593089 0.43580648084521972 0 -0.42759331348715912 0.40055694876602499 0 -0.43642708593841462 0.41129790334070748 0 -0.42449994900394461 0.41844961959922572 0 -0.4157685575788832 0.40127396331749671 0 -0.42759331348715912 0.40055694876602499 0 -0.42449994900394461 0.41844961959922572 0 -0.42759331348715912 0.40055694876602499 0 -0.42449994900394461 0.41844961959922572 0 -0.42449994900394461 0.41844961959922572 0 -0.43309446276593089 0.43580648084521972 0 -0.41506627858711548 0.4366354945638371 0 -0.42449994900394461 0.41844961959922572 0 -0.41506627858711548 0.4366354945638371 0 -0.40746949035714619 0.42222882353716701 0 -0.41506627858711548 0.4366354945638371 0 -0.40746949035714619 0.42222882353716701 0 -0.39856520721893041 0.43647578570475237 0 -0.42449994900394461 0.41844961959922572 0 -0.40746949035714619 0.42222882353716701 0 -0.41232914121482278 0.41224925367246401 0 -0.4157685575788832 0.40127396331749671 0 -0.42449994900394461 0.41844961959922572 0 -0.41232914121482278 0.41224925367246401 0 -0.4157685575788832 0.40127396331749671 0 -0.41232914121482278 0.41224925367246401 0 -0.40157856791931718 0.40704460823596672 0 -0.40746949035714619 0.42222882353716701 0 -0.41232914121482278 0.41224925367246401 0 -0.40157856791931718 0.40704460823596672 0 -0.40746949035714619 0.42222882353716701 0 -0.40157856791931718 0.40704460823596672 0 -0.39298749241221759 0.42119507937603923 0 -0.40746949035714619 0.42222882353716701 0 -0.39298749241221759 0.42119507937603923 0 -0.39856520721893041 0.43647578570475237 0 -0.39298749241221759 0.42119507937603923 0 -0.39856520721893041 0.43647578570475237 0 -0.38373994498284608 0.43043669407259588 0 -0.38373994498284608 0.43043669407259588 0 -0.37668454372729859 0.41206883315114529 0 -0.36778315087773072 0.43214877602771662 0 -0.38473584783684761 0.44354080077547992 0 -0.38373994498284608 0.43043669407259588 0 -0.36778315087773072 0.43214877602771662 0 -0.38473584783684761 0.44354080077547992 0 -0.39856520721893041 0.43647578570475237 0 -0.38373994498284608 0.43043669407259588 0 -0.40157856791931718 0.40704460823596672 0 -0.39298749241221759 0.42119507937603923 0 -0.37668454372729859 0.41206883315114529 0 -0.39298749241221759 0.42119507937603923 0 -0.38373994498284608 0.43043669407259588 0 -0.37668454372729859 0.41206883315114529 0 -0.40157856791931718 0.40704460823596672 0 -0.37668454372729859 0.41206883315114529 0 -0.37668454372729859 0.41206883315114529 0 -0.37844474563582792 0.390355182046278 0 -0.39076978830337122 0.39764902138512792 0 -0.40157856791931718 0.40704460823596672 0 -0.37668454372729859 0.41206883315114529 0 -0.39076978830337122 0.39764902138512792 0 -0.38141148745950948 0.38039780936179463 0 -0.39942805555404642 0.38265078761847338 0 -0.37844474563582792 0.390355182046278 0 -0.39942805555404642 0.38265078761847338 0 -0.38141148745950948 0.38039780936179463 0 -0.37844474563582792 0.390355182046278 0 -0.39942805555404642 0.38265078761847338 0 -0.37844474563582792 0.390355182046278 0 -0.39942805555404642 0.38265078761847338 0 -0.39076978830337122 0.39764902138512792 0 -0.38141148745950948 0.38039780936179463 0 -0.39942805555404642 0.38265078761847338 0 -0.39128338495032239 0.36719877308275878 0 -0.40826438028753348 0.3817067557430866 0 -0.40881671944059661 0.37920357314115732 0 -0.39942805555404642 0.38265078761847338 0 -0.40881671944059661 0.37920357314115732 0 -0.39942805555404642 0.38265078761847338 0 -0.40724106840129259 0.39428871981441299 0 -0.40157856791931718 0.40704460823596672 0 -0.39076978830337122 0.39764902138512792 0 -0.40724106840129259 0.39428871981441299 0 -0.39942805555404642 0.38265078761847338 0 -0.39076978830337122 0.39764902138512792 0 -0.39259889148010241 0.34864188780489069 0 -0.39999637464883392 0.35559476271013252 0 -0.38966798311544332 0.35610238881872369 0 -0.39259889148010241 0.34864188780489069 0 -0.39999637464883392 0.35559476271013252 0 -0.40046159691170069 0.34164056661102238 0 -0.39999637464883392 0.35559476271013252 0 -0.40046159691170069 0.34164056661102238 0 -0.41381361947694889 0.35655778899711688 0 -0.39999637464883392 0.35559476271013252 0 -0.40397412088998857 0.3623881668075713 0 -0.41381361947694889 0.35655778899711688 0 -0.39128338495032239 0.36719877308275878 0 -0.41098055992701871 0.3693971202961519 0 -0.40397412088998857 0.3623881668075713 0 -0.39128338495032239 0.36719877308275878 0 -0.41098055992701871 0.3693971202961519 0 -0.39942805555404642 0.38265078761847338 0 -0.39128338495032239 0.36719877308275878 0 -0.41098055992701871 0.3693971202961519 0 -0.39999637464883392 0.35559476271013252 0 -0.39128338495032239 0.36719877308275878 0 -0.38966798311544332 0.35610238881872369 0 -0.39999637464883392 0.35559476271013252 0 -0.40397412088998857 0.3623881668075713 0 -0.39128338495032239 0.36719877308275878 0 -0.39128338495032239 0.36719877308275878 0 -0.38070440212728118 0.35956436367519867 0 -0.38966798311544332 0.35610238881872369 0 -0.39128338495032239 0.36719877308275878 0 -0.38070440212728118 0.35956436367519867 0 -0.37158620997362618 0.36500042586936587 0 -0.39128338495032239 0.36719877308275878 0 -0.37158620997362618 0.36500042586936587 0 -0.38141148745950948 0.38039780936179463 0 -0.39128338495032239 0.36719877308275878 0 -0.37158620997362618 0.36500042586936587 0 -0.38070440212728118 0.35956436367519867 0 -0.38259242285128608 0.34975193996759602 0 -0.36960199921418602 0.35731180584905542 0 -0.38259242285128608 0.34975193996759602 0 -0.37580907906339922 0.33647878059299557 0 -0.36960199921418602 0.35731180584905542 0 -0.38070440212728118 0.35956436367519867 0 -0.38966798311544332 0.35610238881872369 0 -0.38259242285128608 0.34975193996759602 0 -0.39259889148010241 0.34864188780489069 0 -0.38966798311544332 0.35610238881872369 0 -0.38259242285128608 0.34975193996759602 0 -0.39259889148010241 0.34864188780489069 0 -0.38259242285128608 0.34975193996759602 0 -0.38794720083446621 0.34059934721089508 0 -0.38259242285128608 0.34975193996759602 0 -0.37580907906339922 0.33647878059299557 0 -0.38794720083446621 0.34059934721089508 0 -0.37580907906339922 0.33647878059299557 0 -0.38794720083446621 0.34059934721089508 0 -0.38710957434645199 0.32672334422492838 0 -0.37580907906339922 0.33647878059299557 0 -0.38201615891261242 0.31564575533693578 0 -0.38201615891261242 0.31564575533693578 0 -0.38336946241093189 0.30974931290420182 0 -0.36531193472093021 0.32454274932608829 0 -0.37580907906339922 0.33647878059299557 0 -0.38201615891261242 0.31564575533693578 0 -0.38710957434645199 0.32672334422492838 0 -0.38201615891261242 0.31564575533693578 0 -0.39350880394476312 0.31593875705230262 0 -0.38336946241093189 0.30974931290420182 0 -0.38201615891261242 0.31564575533693578 0 -0.38710957434645199 0.32672334422492838 0 -0.39350880394476312 0.31593875705230262 0 -0.38710957434645199 0.32672334422492838 0 -0.39350880394476312 0.31593875705230262 0 -0.39921774374196328 0.327754485124091 0 -0.39350880394476312 0.31593875705230262 0 -0.39921774374196328 0.327754485124091 0 -0.40602554896887638 0.32011992980008452 0 -0.39921774374196328 0.327754485124091 0 -0.40602554896887638 0.32011992980008452 0 -0.40814721749945931 0.33505042297199122 0 -0.38794720083446621 0.34059934721089508 0 -0.38710957434645199 0.32672334422492838 0 -0.40046159691170069 0.34164056661102238 0 -0.39259889148010241 0.34864188780489069 0 -0.38794720083446621 0.34059934721089508 0 -0.40046159691170069 0.34164056661102238 0 -0.38710957434645199 0.32672334422492838 0 -0.39921774374196328 0.327754485124091 0 -0.40046159691170069 0.34164056661102238 0 -0.38710957434645199 0.32672334422492838 0 -0.40046159691170069 0.34164056661102238 0 -0.39921774374196328 0.327754485124091 0 -0.40046159691170069 0.34164056661102238 0 -0.40814721749945931 0.33505042297199122 0 -0.40814721749945931 0.33505042297199122 0 -0.41954562432067788 0.33058053440738988 0 -0.41381361947694889 0.35655778899711688 0 -0.41954562432067788 0.33058053440738988 0 -0.41381361947694889 0.35655778899711688 0 -0.40602554896887638 0.32011992980008452 0 -0.40814721749945931 0.33505042297199122 0 -0.41954562432067788 0.33058053440738988 0 -0.40602554896887638 0.32011992980008452 0 -0.41954562432067788 0.33058053440738988 0 -0.42527762916440792 0.30460327981766322 0 -0.41954562432067788 0.33058053440738988 0 -0.42527762916440792 0.30460327981766322 0 -0.41954562432067788 0.33058053440738988 0 -0.44001701522470671 0.31606260091672289 0 -0.42527762916440792 0.30460327981766322 0 -0.41954562432067788 0.33058053440738988 0 -0.42420657124029282 0.3485159257420361 0 -0.43843079740841773 0.33787066219507811 0 -0.41954562432067788 0.33058053440738988 0 -0.43843079740841773 0.33787066219507811 0 -0.44001701522470671 0.31606260091672289 0 -0.42420657124029282 0.3485159257420361 0 -0.43459164588172849 0.36007712215754689 0 -0.43843079740841773 0.33787066219507811 0 -0.42420657124029282 0.3485159257420361 0 -0.41381361947694889 0.35655778899711688 0 -0.43459164588172849 0.36007712215754689 0 -0.41381361947694889 0.35655778899711688 0 -0.43459164588172849 0.36007712215754689 0 -0.43459164588172849 0.36007712215754689 0 -0.43843079740841773 0.33787066219507811 0 -0.40046159691170069 0.34164056661102238 0 -0.40814721749945931 0.33505042297199122 0 -0.41381361947694889 0.35655778899711688 0 -0.41954562432067788 0.33058053440738988 0 -0.42420657124029282 0.3485159257420361 0 -0.41381361947694889 0.35655778899711688 0 -0.39999637464883392 0.35559476271013252 0 -0.41381361947694889 0.35655778899711688 0 -0.40046159691170069 0.34164056661102238 0 -0.41381361947694889 0.35655778899711688 0 -0.41381361947694889 0.35655778899711688 0 -0.41098055992701871 0.3693971202961519 0 -0.42689564018809201 0.37117335838025439 0 -0.41098055992701871 0.3693971202961519 0 -0.42689564018809201 0.37117335838025439 0 -0.40881671944059661 0.37920357314115732 0 -0.41098055992701871 0.3693971202961519 0 -0.42689564018809201 0.37117335838025439 0 -0.40881671944059661 0.37920357314115732 0 -0.41098055992701871 0.3693971202961519 0 -0.40397412088998857 0.3623881668075713 0 -0.41381361947694889 0.35655778899711688 0 -0.41098055992701871 0.3693971202961519 0 -0.41381361947694889 0.35655778899711688 0 -0.41098055992701871 0.3693971202961519 0 -0.41381361947694889 0.35655778899711688 0 -0.42689564018809201 0.37117335838025439 0 -0.41381361947694889 0.35655778899711688 0 -0.42907199843085347 0.36486274908666949 0 -0.43459164588172849 0.36007712215754689 0 -0.42689564018809201 0.37117335838025439 0 -0.42907199843085347 0.36486274908666949 0 -0.42980351636605002 0.37149789839679431 0 -0.43173797726570751 0.37658334167695551 0 -0.42689564018809201 0.37117335838025439 0 -0.43173797726570751 0.37658334167695551 0 -0.42689564018809201 0.37117335838025439 0 -0.42980351636605002 0.37149789839679431 0 -0.42689564018809201 0.37117335838025439 0 -0.42980351636605002 0.37149789839679431 0 -0.41381361947694889 0.35655778899711688 0 -0.42689564018809201 0.37117335838025439 0 -0.42907199843085347 0.36486274908666949 0 -0.43459164588172849 0.36007712215754689 0 -0.4325639091043616 0.37180597819459837 0 -0.42907199843085347 0.36486274908666949 0 -0.43459164588172849 0.36007712215754689 0 -0.4325639091043616 0.37180597819459837 0 -0.43173797726570751 0.37658334167695551 0 -0.4325639091043616 0.37180597819459837 0 -0.43173797726570751 0.37658334167695551 0 -0.4325639091043616 0.37180597819459837 0 -0.42980351636605002 0.37149789839679431 0 -0.4325639091043616 0.37180597819459837 0 -0.42980351636605002 0.37149789839679431 0 -0.42907199843085347 0.36486274908666949 0 -0.4325639091043616 0.37180597819459837 0 -0.42980351636605002 0.37149789839679431 0 -0.4393591315165738 0.37762743775392832 0 -0.4325639091043616 0.37180597819459837 0 -0.44813402172652672 0.37354371539476261 0 -0.4325639091043616 0.37180597819459837 0 -0.44813402172652672 0.37354371539476261 0 -0.4325639091043616 0.37180597819459837 0 -0.44813402172652672 0.37354371539476261 0 -0.45404419213644692 0.3625975043188554 0 -0.43459164588172849 0.36007712215754689 0 -0.45404419213644692 0.3625975043188554 0 -0.43459164588172849 0.36007712215754689 0 -0.4325639091043616 0.37180597819459837 0 -0.45404419213644692 0.3625975043188554 0 -0.4325639091043616 0.37180597819459837 0 -0.45404419213644692 0.3625975043188554 0 -0.43459164588172849 0.36007712215754689 0 -0.44549025602952702 0.35300777224981977 0 -0.45404419213644692 0.3625975043188554 0 -0.44549025602952702 0.35300777224981977 0 -0.45575207180717081 0.34762579988211101 0 -0.43843079740841773 0.33787066219507811 0 -0.43459164588172849 0.36007712215754689 0 -0.44549025602952702 0.35300777224981977 0 -0.43843079740841773 0.33787066219507811 0 -0.44549025602952702 0.35300777224981977 0 -0.45575207180717081 0.34762579988211101 0 -0.45404419213644692 0.3625975043188554 0 -0.45575207180717081 0.34762579988211101 0 -0.46674234051517471 0.35793515390827568 0 -0.45404419213644692 0.3625975043188554 0 -0.45575207180717081 0.34762579988211101 0 -0.46674234051517471 0.35793515390827568 0 -0.46933267881425472 0.34565439271282838 0 -0.45404419213644692 0.3625975043188554 0 -0.47441064506165659 0.36523629740895902 0 -0.46674234051517471 0.35793515390827568 0 -0.45404419213644692 0.3625975043188554 0 -0.47441064506165659 0.36523629740895902 0 -0.45404419213644692 0.3625975043188554 0 -0.46360543106569913 0.37231654924431878 0 -0.47441064506165659 0.36523629740895902 0 -0.44813402172652672 0.37354371539476261 0 -0.45404419213644692 0.3625975043188554 0 -0.46360543106569913 0.37231654924431878 0 -0.46674234051517471 0.35793515390827568 0 -0.45404419213644692 0.3625975043188554 0 -0.46360543106569913 0.37231654924431878 0 -0.47397397291215421 0.37493689296344251 0 -0.47441064506165659 0.36523629740895902 0 -0.47441064506165659 0.36523629740895902 0 -0.48058358620238051 0.35168401037216412 0 -0.49477709798686631 0.36787509049906381 0 -0.47397397291215421 0.37493689296344251 0 -0.47441064506165659 0.36523629740895902 0 -0.48714178473823078 0.37241716516273898 0 -0.46674234051517471 0.35793515390827568 0 -0.47441064506165659 0.36523629740895902 0 -0.48058358620238051 0.35168401037216412 0 -0.46674234051517471 0.35793515390827568 0 -0.46933267881425472 0.34565439271282838 0 -0.48058358620238051 0.35168401037216412 0 -0.46933267881425472 0.34565439271282838 0 -0.48058358620238051 0.35168401037216412 0 -0.48121002056386808 0.3369363626790518 0 -0.48058358620238051 0.35168401037216412 0 -0.49703354506598713 0.34759711953555122 0 -0.48121002056386808 0.3369363626790518 0 -0.49703354506598713 0.34759711953555122 0 -0.5 0.34812631329607491 0 -0.49477709798686631 0.36787509049906381 0 -0.48058358620238051 0.35168401037216412 0 -0.49703354506598713 0.34759711953555122 0 -0.49477709798686631 0.36787509049906381 0 -0.49703354506598713 0.34759711953555122 0 -0.49477709798686631 0.36787509049906381 0 -0.5 0.34812631329607491 0 -0.50000000000000311 0.3685517992903854 0 -0.49477709798686631 0.36787509049906381 0 -0.47441064506165659 0.36523629740895902 0 -0.49477709798686631 0.36787509049906381 0 -0.48714178473823078 0.37241716516273898 0 -0.47441064506165659 0.36523629740895902 0 -0.49477709798686631 0.36787509049906381 0 -0.49007778645481631 0.38142997617552599 0 -0.50000000000000311 0.3685517992903854 0 -0.49477709798686631 0.36787509049906381 0 -0.50000000000000311 0.3685517992903854 0 -0.49477709798686631 0.36787509049906381 0 -0.49007778645481631 0.38142997617552599 0 -0.49477709798686631 0.36787509049906381 0 -0.48714178473823078 0.37241716516273898 0 -0.4992899921451075 0.32731914857203848 0 -0.47890896772952718 0.31636292681222472 0 -0.4992899921451075 0.32731914857203848 0 -0.48121002056386808 0.3369363626790518 0 -0.47890896772952718 0.31636292681222472 0 -0.49999999999999989 0.32093853419885771 0 -0.47890896772952718 0.31636292681222472 0 -0.48920120729889771 0.30786362236022019 0 -0.49999999999999989 0.32093853419885771 0 -0.4992899921451075 0.32731914857203848 0 -0.47890896772952718 0.31636292681222472 0 -0.49999999999999989 0.32093853419885771 0 -0.4992899921451075 0.32731914857203848 0 -0.49703354506598713 0.34759711953555122 0 -0.4992899921451075 0.32731914857203848 0 -0.49703354506598713 0.34759711953555122 0 -0.4992899921451075 0.32731914857203848 0 -0.48121002056386808 0.3369363626790518 0 -0.49703354506598713 0.34759711953555122 0 -0.5 0.34812631329607491 0 -0.4992899921451075 0.32731914857203848 0 -0.46933267881425472 0.34565439271282838 0 -0.48121002056386808 0.3369363626790518 0 -0.46237537498267961 0.3340906367225393 0 -0.48121002056386808 0.3369363626790518 0 -0.47890896772952718 0.31636292681222472 0 -0.46237537498267961 0.3340906367225393 0 -0.47890896772952718 0.31636292681222472 0 -0.45636509730576869 0.32029680939338251 0 -0.45852794331394758 0.30540670505240958 0 -0.47890896772952718 0.31636292681222472 0 -0.45636509730576869 0.32029680939338251 0 -0.46237537498267961 0.3340906367225393 0 -0.45575207180717081 0.34762579988211101 0 -0.46933267881425472 0.34565439271282838 0 -0.46237537498267961 0.3340906367225393 0 -0.45575207180717081 0.34762579988211101 0 -0.46237537498267961 0.3340906367225393 0 -0.43843079740841773 0.33787066219507811 0 -0.45636509730576869 0.32029680939338251 0 -0.46237537498267961 0.3340906367225393 0 -0.43843079740841773 0.33787066219507811 0 -0.45636509730576869 0.32029680939338251 0 -0.43843079740841773 0.33787066219507811 0 -0.44001701522470671 0.31606260091672289 0 -0.45636509730576869 0.32029680939338251 0 -0.44001701522470671 0.31606260091672289 0 -0.45852794331394758 0.30540670505240958 0 -0.4381469188983681 0.2944504832925946 0 -0.45852794331394758 0.30540670505240958 0 -0.44001701522470671 0.31606260091672289 0 -0.4381469188983681 0.2944504832925946 0 -0.45852794331394758 0.30540670505240958 0 -0.4381469188983681 0.2944504832925946 0 -0.4447805513699985 0.27737231294201392 0 -0.43100963400813791 0.27862602522793672 0 -0.4381469188983681 0.2944504832925946 0 -0.45724976864254441 0.28334965182257721 0 -0.4447805513699985 0.27737231294201392 0 -0.4381469188983681 0.2944504832925946 0 -0.45724976864254441 0.28334965182257721 0 -0.45852794331394758 0.30540670505240958 0 -0.45724976864254441 0.28334965182257721 0 -0.45852794331394758 0.30540670505240958 0 -0.47789586146606378 0.29814868652574811 0 -0.47890896772952718 0.31636292681222472 0 -0.45852794331394758 0.30540670505240958 0 -0.47890896772952718 0.31636292681222472 0 -0.47789586146606378 0.29814868652574811 0 -0.48920120729889771 0.30786362236022019 0 -0.47890896772952718 0.31636292681222472 0 -0.45852794331394758 0.30540670505240958 0 -0.47789586146606378 0.29814868652574811 0 -0.45724976864254441 0.28334965182257721 0 -0.47789586146606378 0.29814868652574811 0 -0.48102565218130672 0.27929705551177292 0 -0.5 0.29600434190405073 0 -0.5 0.27107014960924369 0 -0.48102565218130672 0.27929705551177292 0 -0.47789586146606378 0.29814868652574811 0 -0.5 0.29600434190405073 0 -0.48102565218130672 0.27929705551177292 0 -0.47789586146606378 0.29814868652574811 0 -0.5 0.29600434190405073 0 -0.48920120729889771 0.30786362236022019 0 -0.49999999999999989 0.32093853419885771 0 -0.5 0.29600434190405073 0 -0.48920120729889771 0.30786362236022019 0 -0.48177750529808522 0.24619974485466931 0 -0.5 0.2461359573144368 0 -0.48654709528280549 0.26072196503438649 0 -0.5 0.2461359573144368 0 -0.48654709528280549 0.26072196503438649 0 -0.5 0.27107014960924369 0 -0.48654709528280549 0.26072196503438649 0 -0.5 0.27107014960924369 0 -0.48102565218130672 0.27929705551177292 0 -0.48654709528280549 0.26072196503438649 0 -0.48102565218130672 0.27929705551177292 0 -0.46993231893463527 0.26090691788180947 0 -0.45724976864254441 0.28334965182257721 0 -0.48102565218130672 0.27929705551177292 0 -0.46993231893463527 0.26090691788180947 0 -0.48177750529808522 0.24619974485466931 0 -0.48654709528280549 0.26072196503438649 0 -0.46993231893463527 0.26090691788180947 0 -0.45710504060219709 0.23686107433279269 0 -0.46993231893463527 0.26090691788180947 0 -0.44707755271196942 0.2637365605125353 0 -0.45724976864254441 0.28334965182257721 0 -0.46993231893463527 0.26090691788180947 0 -0.44707755271196942 0.2637365605125353 0 -0.45724976864254441 0.28334965182257721 0 -0.4447805513699985 0.27737231294201392 0 -0.44707755271196942 0.2637365605125353 0 -0.4447805513699985 0.27737231294201392 0 -0.44707755271196942 0.2637365605125353 0 -0.43100963400813791 0.27862602522793672 0 -0.45710504060219709 0.23686107433279269 0 -0.44707755271196942 0.2637365605125353 0 -0.44707755271196942 0.2637365605125353 0 -0.4367416388518679 0.25264877063821017 0 -0.43100963400813791 0.27862602522793672 0 -0.45710504060219709 0.23686107433279269 0 -0.44707755271196942 0.2637365605125353 0 -0.4367416388518679 0.25264877063821017 0 -0.4367416388518679 0.25264877063821017 0 -0.41175872593851298 0.2549478601346914 0 -0.41885046316002428 0.26850948483906401 0 -0.41175872593851298 0.2549478601346914 0 -0.41885046316002428 0.26850948483906401 0 -0.3976364837244763 0.27421361628784369 0 -0.41885046316002428 0.26850948483906401 0 -0.41710583327712653 0.28211115190663788 0 -0.3976364837244763 0.27421361628784369 0 -0.41885046316002428 0.26850948483906401 0 -0.43100963400813791 0.27862602522793672 0 -0.41710583327712653 0.28211115190663788 0 -0.4367416388518679 0.25264877063821017 0 -0.43100963400813791 0.27862602522793672 0 -0.4367416388518679 0.25264877063821017 0 -0.41885046316002428 0.26850948483906401 0 -0.43100963400813791 0.27862602522793672 0 -0.4381469188983681 0.2944504832925946 0 -0.43100963400813791 0.27862602522793672 0 -0.42527762916440792 0.30460327981766322 0 -0.43100963400813791 0.27862602522793672 0 -0.42527762916440792 0.30460327981766322 0 -0.41710583327712653 0.28211115190663788 0 -0.43100963400813791 0.27862602522793672 0 -0.42527762916440792 0.30460327981766322 0 -0.44001701522470671 0.31606260091672289 0 -0.4381469188983681 0.2944504832925946 0 -0.42527762916440792 0.30460327981766322 0 -0.40602554896887638 0.32011992980008452 0 -0.42527762916440792 0.30460327981766322 0 -0.4014269901009333 0.29495587648231503 0 -0.41710583327712653 0.28211115190663788 0 -0.4014269901009333 0.29495587648231503 0 -0.42527762916440792 0.30460327981766322 0 -0.41710583327712653 0.28211115190663788 0 -0.4014269901009333 0.29495587648231503 0 -0.41710583327712653 0.28211115190663788 0 -0.4014269901009333 0.29495587648231503 0 -0.3976364837244763 0.27421361628784369 0 -0.4014269901009333 0.29495587648231503 0 -0.38389766901197209 0.2919764357376447 0 -0.3976364837244763 0.27421361628784369 0 -0.4014269901009333 0.29495587648231503 0 -0.3976364837244763 0.27421361628784369 0 -0.39350880394476312 0.31593875705230262 0 -0.40602554896887638 0.32011992980008452 0 -0.4014269901009333 0.29495587648231503 0 -0.4014269901009333 0.29495587648231503 0 -0.38336946241093189 0.30974931290420182 0 -0.40602554896887638 0.32011992980008452 0 -0.4014269901009333 0.29495587648231503 0 -0.39350880394476312 0.31593875705230262 0 -0.4014269901009333 0.29495587648231503 0 -0.38336946241093189 0.30974931290420182 0 -0.38336946241093189 0.30974931290420182 0 -0.38389766901197209 0.2919764357376447 0 -0.36596935852520629 0.30787018431111951 0 -0.4014269901009333 0.29495587648231503 0 -0.38336946241093189 0.30974931290420182 0 -0.38389766901197209 0.2919764357376447 0 -0.38389766901197209 0.2919764357376447 0 -0.3839238193794226 0.27871888045260418 0 -0.3976364837244763 0.27421361628784369 0 -0.38389766901197209 0.2919764357376447 0 -0.3839238193794226 0.27871888045260418 0 -0.3703732677084236 0.2804332674389724 0 -0.3839238193794226 0.27871888045260418 0 -0.38378785707281859 0.2682522023459562 0 -0.3703732677084236 0.2804332674389724 0 -0.38378785707281859 0.2682522023459562 0 -0.37477717689163992 0.25299635056682518 0 -0.3703732677084236 0.2804332674389724 0 -0.3839238193794226 0.27871888045260418 0 -0.38378785707281859 0.2682522023459562 0 -0.3976364837244763 0.27421361628784369 0 -0.38378785707281859 0.2682522023459562 0 -0.39384597734802013 0.25347135609337229 0 -0.37477717689163992 0.25299635056682518 0 -0.39384597734802013 0.25347135609337229 0 -0.3976364837244763 0.27421361628784369 0 -0.41175872593851298 0.2549478601346914 0 -0.39384597734802013 0.25347135609337229 0 -0.3976364837244763 0.27421361628784369 0 -0.38378785707281859 0.2682522023459562 0 -0.39384597734802013 0.25347135609337229 0 -0.3976364837244763 0.27421361628784369 0 -0.35834524103505527 0.27479395617319979 0 -0.34490227433735798 0.27909378963084902 0 -0.35045174428906722 0.28677843618767362 0 -0.35834524103505527 0.27479395617319979 0 -0.34490227433735798 0.27909378963084902 0 -0.34728570068091402 0.2661688508290645 0 -0.34728570068091402 0.2661688508290645 0 -0.35464358931248319 0.25491115920099722 0 -0.34150965816976359 0.25817059719828012 0 -0.33845336435013867 0.242079554605789 0 -0.35464358931248319 0.25491115920099722 0 -0.34150965816976359 0.25817059719828012 0 -0.35834524103505527 0.27479395617319979 0 -0.34728570068091402 0.2661688508290645 0 -0.35464358931248319 0.25491115920099722 0 -0.35834524103505527 0.27479395617319979 0 -0.37477717689163992 0.25299635056682518 0 -0.35834524103505527 0.27479395617319979 0 -0.35464358931248319 0.25491115920099722 0 -0.37477717689163992 0.25299635056682518 0 -0.37477717689163992 0.25299635056682518 0 -0.3703732677084236 0.2804332674389724 0 -0.35834524103505527 0.27479395617319979 0 -0.37477717689163992 0.25299635056682518 0 -0.3703732677084236 0.2804332674389724 0 -0.3703732677084236 0.2804332674389724 0 -0.36596935852520629 0.30787018431111951 0 -0.38389766901197209 0.2919764357376447 0 -0.3703732677084236 0.2804332674389724 0 -0.36596935852520629 0.30787018431111951 0 -0.35834524103505527 0.27479395617319979 0 -0.3703732677084236 0.2804332674389724 0 -0.35925388220638338 0.290827281626163 0 -0.3703732677084236 0.2804332674389724 0 -0.36596935852520629 0.30787018431111951 0 -0.35925388220638338 0.290827281626163 0 -0.36596935852520629 0.30787018431111951 0 -0.35645499353340299 0.30154574554434233 0 -0.35925388220638338 0.290827281626163 0 -0.36596935852520629 0.30787018431111951 0 -0.35645499353340299 0.30154574554434233 0 -0.35774913989266272 0.31391262040183171 0 -0.35645499353340299 0.30154574554434233 0 -0.35013945535461871 0.3105838988596446 0 -0.35774913989266272 0.31391262040183171 0 -0.35645499353340299 0.30154574554434233 0 -0.34780240298166087 0.30288468022079579 0 -0.35285886900803182 0.29452238055293539 0 -0.34780240298166087 0.30288468022079579 0 -0.34622635383862083 0.29383585221412489 0 -0.33932813284697128 0.29730713825443927 0 -0.34780240298166087 0.30288468022079579 0 -0.35285886900803182 0.29452238055293539 0 -0.34622635383862083 0.29383585221412489 0 -0.34780240298166087 0.30288468022079579 0 -0.34514961405368982 0.30758965292055213 0 -0.33997231501418312 0.30473657218964828 0 -0.35645499353340299 0.30154574554434233 0 -0.34780240298166087 0.30288468022079579 0 -0.35013945535461871 0.3105838988596446 0 -0.34780240298166087 0.30288468022079579 0 -0.34514961405368982 0.30758965292055213 0 -0.35013945535461871 0.3105838988596446 0 -0.34514961405368982 0.30758965292055213 0 -0.35013945535461871 0.3105838988596446 0 -0.34268428286429659 0.31215346041211978 0 -0.35834524103505527 0.27479395617319979 0 -0.35925388220638338 0.290827281626163 0 -0.35045174428906722 0.28677843618767362 0 -0.35645499353340299 0.30154574554434233 0 -0.35925388220638338 0.290827281626163 0 -0.35285886900803182 0.29452238055293539 0 -0.35925388220638338 0.290827281626163 0 -0.35285886900803182 0.29452238055293539 0 -0.35045174428906722 0.28677843618767362 0 -0.35285886900803182 0.29452238055293539 0 -0.34622635383862083 0.29383585221412489 0 -0.35045174428906722 0.28677843618767362 0 -0.34622635383862083 0.29383585221412489 0 -0.35045174428906722 0.28677843618767362 0 -0.34088660642111013 0.2879281286912172 0 -0.34490227433735798 0.27909378963084902 0 -0.35045174428906722 0.28677843618767362 0 -0.34088660642111013 0.2879281286912172 0 -0.34490227433735798 0.27909378963084902 0 -0.34088660642111013 0.2879281286912172 0 -0.33262910378125132 0.278293493462413 0 -0.34088660642111013 0.2879281286912172 0 -0.33227483086849752 0.29261385498347509 0 -0.33932813284697128 0.29730713825443927 0 -0.34622635383862083 0.29383585221412489 0 -0.34088660642111013 0.2879281286912172 0 -0.33932813284697128 0.29730713825443927 0 -0.33227483086849752 0.29261385498347509 0 -0.32398535199451511 0.28524421774589648 0 -0.33262910378125132 0.278293493462413 0 -0.34088660642111013 0.2879281286912172 0 -0.33227483086849752 0.29261385498347509 0 -0.33262910378125132 0.278293493462413 0 -0.33718535734333338 0.30882123026638569 0 -0.34268428286429659 0.31215346041211978 0 -0.33477104767585758 0.31524888829805342 0 -0.33718535734333338 0.30882123026638569 0 -0.34268428286429659 0.31215346041211978 0 -0.33997231501418312 0.30473657218964828 0 -0.34514961405368982 0.30758965292055213 0 -0.34268428286429659 0.31215346041211978 0 -0.33997231501418312 0.30473657218964828 0 -0.33718535734333338 0.30882123026638569 0 -0.33997231501418312 0.30473657218964828 0 -0.33396296217470239 0.30554582684384218 0 -0.33997231501418312 0.30473657218964828 0 -0.33932813284697128 0.29730713825443927 0 -0.33396296217470239 0.30554582684384218 0 -0.34780240298166087 0.30288468022079579 0 -0.33997231501418312 0.30473657218964828 0 -0.33932813284697128 0.29730713825443927 0 -0.33227483086849752 0.29261385498347509 0 -0.33396296217470239 0.30554582684384218 0 -0.32251037119006698 0.3031431883822347 0 -0.33227483086849752 0.29261385498347509 0 -0.33932813284697128 0.29730713825443927 0 -0.33396296217470239 0.30554582684384218 0 -0.33718535734333338 0.30882123026638569 0 -0.33396296217470239 0.30554582684384218 0 -0.33477104767585758 0.31524888829805342 0 -0.33396296217470239 0.30554582684384218 0 -0.32251037119006698 0.3031431883822347 0 -0.33219148171911272 0.31730370811833031 0 -0.32251037119006698 0.3031431883822347 0 -0.31456388983813333 0.31636814557902659 0 -0.33219148171911272 0.31730370811833031 0 -0.32251037119006698 0.3031431883822347 0 -0.31282926066102218 0.28898266864613842 0 -0.30402337591517081 0.3051012194244167 0 -0.32251037119006698 0.3031431883822347 0 -0.30402337591517081 0.3051012194244167 0 -0.31456388983813333 0.31636814557902659 0 -0.32251037119006698 0.3031431883822347 0 -0.33219148171911272 0.31730370811833031 0 -0.33227483086849752 0.29261385498347509 0 -0.32251037119006698 0.3031431883822347 0 -0.32398535199451511 0.28524421774589648 0 -0.32251037119006698 0.3031431883822347 0 -0.32398535199451511 0.28524421774589648 0 -0.31282926066102218 0.28898266864613842 0 -0.32251037119006698 0.3031431883822347 0 -0.31282926066102218 0.28898266864613842 0 -0.31282926066102218 0.28898266864613842 0 -0.32065101258715689 0.274665503564473 0 -0.32398535199451511 0.28524421774589648 0 -0.31282926066102218 0.28898266864613842 0 -0.32065101258715689 0.274665503564473 0 -0.32065101258715689 0.274665503564473 0 -0.32847276451329022 0.26034833848280681 0 -0.31199410965335322 0.26463258327439948 0 -0.32065101258715689 0.274665503564473 0 -0.33262910378125132 0.278293493462413 0 -0.32847276451329022 0.26034833848280681 0 -0.31282926066102218 0.28898266864613842 0 -0.32065101258715689 0.274665503564473 0 -0.30403346053568642 0.27611708872161922 0 -0.32065101258715689 0.274665503564473 0 -0.32847276451329022 0.26034833848280681 0 -0.32398535199451511 0.28524421774589648 0 -0.32065101258715689 0.274665503564473 0 -0.33262910378125132 0.278293493462413 0 -0.33262910378125132 0.278293493462413 0 -0.33869287199199061 0.26734508287274228 0 -0.32847276451329022 0.26034833848280681 0 -0.34490227433735798 0.27909378963084902 0 -0.34728570068091402 0.2661688508290645 0 -0.33869287199199061 0.26734508287274228 0 -0.34490227433735798 0.27909378963084902 0 -0.33262910378125132 0.278293493462413 0 -0.33869287199199061 0.26734508287274228 0 -0.33845336435013867 0.242079554605789 0 -0.34150965816976359 0.25817059719828012 0 -0.32847276451329022 0.26034833848280681 0 -0.33845336435013867 0.242079554605789 0 -0.32847276451329022 0.26034833848280681 0 -0.34728570068091402 0.2661688508290645 0 -0.33869287199199061 0.26734508287274228 0 -0.34150965816976359 0.25817059719828012 0 -0.33869287199199061 0.26734508287274228 0 -0.34150965816976359 0.25817059719828012 0 -0.32847276451329022 0.26034833848280681 0 -0.33869287199199061 0.26734508287274228 0 -0.32847276451329022 0.26034833848280681 0 -0.311575650220281 0.24878047680599949 0 -0.32847276451329022 0.26034833848280681 0 -0.311575650220281 0.24878047680599949 0 -0.32847276451329022 0.26034833848280681 0 -0.31199410965335322 0.26463258327439948 0 -0.32455092720978362 0.24357057421839101 0 -0.311575650220281 0.24878047680599949 0 -0.32847276451329022 0.26034833848280681 0 -0.311575650220281 0.24878047680599949 0 -0.31199410965335322 0.26463258327439948 0 -0.29523766041035199 0.26325150879709891 0 -0.30403346053568642 0.27611708872161922 0 -0.29523766041035199 0.26325150879709891 0 -0.29574151564778611 0.28671646758259889 0 -0.31199410965335322 0.26463258327439948 0 -0.30403346053568642 0.27611708872161922 0 -0.29523766041035199 0.26325150879709891 0 -0.32065101258715689 0.274665503564473 0 -0.31199410965335322 0.26463258327439948 0 -0.30403346053568642 0.27611708872161922 0 -0.30403346053568642 0.27611708872161922 0 -0.29523766041035199 0.26325150879709891 0 -0.28985028671148488 0.25537141990030859 0 -0.26863301980023729 0.26794771562718522 0 -0.28534189936007232 0.28197220440765719 0 -0.29523766041035199 0.26325150879709891 0 -0.29574151564778611 0.28671646758259889 0 -0.29523766041035199 0.26325150879709891 0 -0.29574151564778611 0.28671646758259889 0 -0.28534189936007232 0.28197220440765719 0 -0.28985028671148488 0.25537141990030859 0 -0.29523766041035199 0.26325150879709891 0 -0.28534189936007232 0.28197220440765719 0 -0.28985028671148488 0.25537141990030859 0 -0.28534189936007232 0.28197220440765719 0 -0.29467853592727078 0.23721261512919359 0 -0.29523766041035199 0.26325150879709891 0 -0.29467853592727078 0.23721261512919359 0 -0.28985028671148488 0.25537141990030859 0 -0.29523766041035199 0.26325150879709891 0 -0.28985028671148488 0.25537141990030859 0 -0.29523766041035199 0.26325150879709891 0 -0.28985028671148488 0.25537141990030859 0 -0.2724296921133022 0.25217156250687062 0 -0.26863301980023729 0.26794771562718522 0 -0.2724296921133022 0.25217156250687062 0 -0.26863301980023729 0.26794771562718522 0 -0.25693865295534157 0.25278860643768353 0 -0.26863301980023729 0.26794771562718522 0 -0.26277913973510902 0.29023342414179659 0 -0.28534189936007232 0.28197220440765719 0 -0.26277913973510902 0.29023342414179659 0 -0.2447247674615598 0.2718938593685879 0 -0.26863301980023729 0.26794771562718522 0 -0.26277913973510902 0.29023342414179659 0 -0.2447247674615598 0.2718938593685879 0 -0.26863301980023729 0.26794771562718522 0 -0.25693865295534157 0.25278860643768353 0 -0.2447247674615598 0.2718938593685879 0 -0.26277913973510902 0.29023342414179659 0 -0.25757488899104952 0.31786411623381933 0 -0.2366570207200871 0.30010935915934539 0 -0.26277913973510902 0.29023342414179659 0 -0.28083351200865853 0.30857298891500562 0 -0.28534189936007232 0.28197220440765719 0 -0.26277913973510902 0.29023342414179659 0 -0.28083351200865853 0.30857298891500562 0 -0.26277913973510902 0.29023342414179659 0 -0.28083351200865853 0.30857298891500562 0 -0.25757488899104952 0.31786411623381933 0 -0.28083351200865853 0.30857298891500562 0 -0.29574151564778611 0.28671646758259889 0 -0.30402337591517081 0.3051012194244167 0 -0.28083351200865853 0.30857298891500562 0 -0.29574151564778611 0.28671646758259889 0 -0.28534189936007232 0.28197220440765719 0 -0.28083351200865853 0.30857298891500562 0 -0.28534189936007232 0.28197220440765719 0 -0.31282926066102218 0.28898266864613842 0 -0.29574151564778611 0.28671646758259889 0 -0.30402337591517081 0.3051012194244167 0 -0.31282926066102218 0.28898266864613842 0 -0.30403346053568642 0.27611708872161922 0 -0.29574151564778611 0.28671646758259889 0 -0.31282926066102218 0.28898266864613842 0 -0.30403346053568642 0.27611708872161922 0 -0.31282926066102218 0.28898266864613842 0 -0.30402337591517081 0.3051012194244167 0 -0.30402337591517081 0.3051012194244167 0 -0.29932851783868691 0.32736014762988469 0 -0.31456388983813333 0.31636814557902659 0 -0.29932851783868691 0.32736014762988469 0 -0.31400963374603508 0.33178692824556621 0 -0.31456388983813333 0.31636814557902659 0 -0.29582778577295937 0.3462701483728044 0 -0.31354931950312093 0.34747342072874071 0 -0.31400963374603508 0.33178692824556621 0 -0.29582778577295937 0.3462701483728044 0 -0.31400963374603508 0.33178692824556621 0 -0.29932851783868691 0.32736014762988469 0 -0.29582778577295937 0.3462701483728044 0 -0.31400963374603508 0.33178692824556621 0 -0.29932851783868691 0.32736014762988469 0 -0.27670802547122531 0.33291454828341721 0 -0.29582778577295937 0.3462701483728044 0 -0.27670802547122531 0.33291454828341721 0 -0.29582778577295937 0.3462701483728044 0 -0.28186865011063378 0.34863084123191301 0 -0.28083351200865853 0.30857298891500562 0 -0.30402337591517081 0.3051012194244167 0 -0.29932851783868691 0.32736014762988469 0 -0.28083351200865853 0.30857298891500562 0 -0.29932851783868691 0.32736014762988469 0 -0.28083351200865853 0.30857298891500562 0 -0.29932851783868691 0.32736014762988469 0 -0.27670802547122531 0.33291454828341721 0 -0.28083351200865853 0.30857298891500562 0 -0.27670802547122531 0.33291454828341721 0 -0.25757488899104952 0.31786411623381933 0 -0.28083351200865853 0.30857298891500562 0 -0.27670802547122531 0.33291454828341721 0 -0.27670802547122531 0.33291454828341721 0 -0.25757488899104952 0.31786411623381933 0 -0.25368472498167011 0.34420349485172652 0 -0.2613799420943046 0.36179346951182628 0 -0.25453646971320443 0.37462232419521813 0 -0.26689531734350652 0.36931705260985792 0 -0.2613799420943046 0.36179346951182628 0 -0.25453646971320443 0.37462232419521813 0 -0.24822911175635759 0.36217347122335058 0 -0.25368472498167011 0.34420349485172652 0 -0.27258253893379292 0.35725610765182902 0 -0.2613799420943046 0.36179346951182628 0 -0.25368472498167011 0.34420349485172652 0 -0.24822911175635759 0.36217347122335058 0 -0.2613799420943046 0.36179346951182628 0 -0.25368472498167011 0.34420349485172652 0 -0.27258253893379292 0.35725610765182902 0 -0.27670802547122531 0.33291454828341721 0 -0.27258253893379292 0.35725610765182902 0 -0.27670802547122531 0.33291454828341721 0 -0.27258253893379292 0.35725610765182902 0 -0.28186865011063378 0.34863084123191301 0 -0.27670802547122531 0.33291454828341721 0 -0.25368472498167011 0.34420349485172652 0 -0.27258253893379292 0.35725610765182902 0 -0.27258253893379292 0.35725610765182902 0 -0.27764593779988228 0.36075336850004069 0 -0.28186865011063378 0.34863084123191301 0 -0.27258253893379292 0.35725610765182902 0 -0.27764593779988228 0.36075336850004069 0 -0.27764593779988228 0.36075336850004069 0 -0.27110701654299552 0.36596211494311248 0 -0.28943519450698252 0.3688961411714532 0 -0.27110701654299552 0.36596211494311248 0 -0.28943519450698252 0.3688961411714532 0 -0.27110701654299552 0.36596211494311248 0 -0.28943519450698252 0.3688961411714532 0 -0.28084635904778937 0.37544065550995409 0 -0.27258253893379292 0.35725610765182902 0 -0.27764593779988228 0.36075336850004069 0 -0.27110701654299552 0.36596211494311248 0 -0.27764593779988228 0.36075336850004069 0 -0.27110701654299552 0.36596211494311248 0 -0.2613799420943046 0.36179346951182628 0 -0.27258253893379292 0.35725610765182902 0 -0.27110701654299552 0.36596211494311248 0 -0.2613799420943046 0.36179346951182628 0 -0.27110701654299552 0.36596211494311248 0 -0.26689531734350652 0.36931705260985792 0 -0.27258253893379292 0.35725610765182902 0 -0.27110701654299552 0.36596211494311248 0 -0.27110701654299552 0.36596211494311248 0 -0.26689531734350652 0.36931705260985792 0 -0.27110701654299552 0.36596211494311248 0 -0.28084635904778937 0.37544065550995409 0 -0.27663284499009211 0.37939207802828528 0 -0.28943519450698252 0.3688961411714532 0 -0.28685204816290072 0.37621819500323123 0 -0.28084635904778937 0.37544065550995409 0 -0.27764593779988228 0.36075336850004069 0 -0.28943519450698252 0.3688961411714532 0 -0.29551252006441958 0.37309371542857861 0 -0.28943519450698252 0.3688961411714532 0 -0.28685204816290072 0.37621819500323123 0 -0.29551252006441958 0.37309371542857861 0 -0.28943519450698252 0.3688961411714532 0 -0.27764593779988228 0.36075336850004069 0 -0.29582778577295937 0.3462701483728044 0 -0.27764593779988228 0.36075336850004069 0 -0.29582778577295937 0.3462701483728044 0 -0.28186865011063378 0.34863084123191301 0 -0.28943519450698252 0.3688961411714532 0 -0.29582778577295937 0.3462701483728044 0 -0.30300283950081008 0.36051339397403093 0 -0.27764593779988228 0.36075336850004069 0 -0.28943519450698252 0.3688961411714532 0 -0.29582778577295937 0.3462701483728044 0 -0.29582778577295937 0.3462701483728044 0 -0.30300283950081008 0.36051339397403093 0 -0.31354931950312093 0.34747342072874071 0 -0.28943519450698252 0.3688961411714532 0 -0.31408843612631249 0.37197903781600761 0 -0.28943519450698252 0.3688961411714532 0 -0.30300283950081008 0.36051339397403093 0 -0.31408843612631249 0.37197903781600761 0 -0.29551252006441958 0.37309371542857861 0 -0.28943519450698252 0.3688961411714532 0 -0.31408843612631249 0.37197903781600761 0 -0.30300283950081008 0.36051339397403093 0 -0.31408843612631249 0.37197903781600761 0 -0.32472866683278162 0.35786931268145811 0 -0.31408843612631249 0.37197903781600761 0 -0.32472866683278162 0.35786931268145811 0 -0.33874167774564268 0.3750619344605613 0 -0.31408843612631249 0.37197903781600761 0 -0.33874167774564268 0.3750619344605613 0 -0.33942470910854639 0.36092010030626542 0 -0.32472866683278162 0.35786931268145811 0 -0.33874167774564268 0.3750619344605613 0 -0.33942470910854639 0.36092010030626542 0 -0.3497530714632448 0.36534695126967459 0 -0.33874167774564268 0.3750619344605613 0 -0.33815763529499693 0.35089104021064632 0 -0.32472866683278162 0.35786931268145811 0 -0.33017767166301859 0.34092732036984391 0 -0.33815763529499693 0.35089104021064632 0 -0.33017767166301859 0.34092732036984391 0 -0.34251680356524339 0.34321741671518669 0 -0.33815763529499693 0.35089104021064632 0 -0.3460879504978186 0.35511096805544279 0 -0.34556584107983002 0.34849125976349993 0 -0.33815763529499693 0.35089104021064632 0 -0.34251680356524339 0.34321741671518669 0 -0.34556584107983002 0.34849125976349993 0 -0.33942470910854639 0.36092010030626542 0 -0.33815763529499693 0.35089104021064632 0 -0.3460879504978186 0.35511096805544279 0 -0.33942470910854639 0.36092010030626542 0 -0.33815763529499693 0.35089104021064632 0 -0.32472866683278162 0.35786931268145811 0 -0.31354931950312093 0.34747342072874071 0 -0.32472866683278162 0.35786931268145811 0 -0.33017767166301859 0.34092732036984391 0 -0.30300283950081008 0.36051339397403093 0 -0.31354931950312093 0.34747342072874071 0 -0.32472866683278162 0.35786931268145811 0 -0.31400963374603508 0.33178692824556621 0 -0.33219148171911272 0.31730370811833031 0 -0.33017767166301859 0.34092732036984391 0 -0.31354931950312093 0.34747342072874071 0 -0.31400963374603508 0.33178692824556621 0 -0.33017767166301859 0.34092732036984391 0 -0.31400963374603508 0.33178692824556621 0 -0.33219148171911272 0.31730370811833031 0 -0.31400963374603508 0.33178692824556621 0 -0.31456388983813333 0.31636814557902659 0 -0.33219148171911272 0.31730370811833031 0 -0.33477104767585758 0.31524888829805342 0 -0.33219148171911272 0.31730370811833031 0 -0.34795343649956839 0.3209401758966518 0 -0.33219148171911272 0.31730370811833031 0 -0.34725440703092858 0.33933618574797492 0 -0.34795343649956839 0.3209401758966518 0 -0.33396296217470239 0.30554582684384218 0 -0.33477104767585758 0.31524888829805342 0 -0.33219148171911272 0.31730370811833031 0 -0.33477104767585758 0.31524888829805342 0 -0.33219148171911272 0.31730370811833031 0 -0.34268428286429659 0.31215346041211978 0 -0.33477104767585758 0.31524888829805342 0 -0.34795343649956839 0.3209401758966518 0 -0.33219148171911272 0.31730370811833031 0 -0.34725440703092858 0.33933618574797492 0 -0.33219148171911272 0.31730370811833031 0 -0.33017767166301859 0.34092732036984391 0 -0.34725440703092858 0.33933618574797492 0 -0.33017767166301859 0.34092732036984391 0 -0.34251680356524339 0.34321741671518669 0 -0.34725440703092858 0.33933618574797492 0 -0.34725440703092858 0.33933618574797492 0 -0.34795343649956839 0.3209401758966518 0 -0.36531193472093021 0.32454274932608829 0 -0.34251680356524339 0.34321741671518669 0 -0.35002774160894051 0.34339273059465159 0 -0.34725440703092858 0.33933618574797492 0 -0.34725440703092858 0.33933618574797492 0 -0.35848812135385522 0.33902175933596412 0 -0.36531193472093021 0.32454274932608829 0 -0.34725440703092858 0.33933618574797492 0 -0.36531193472093021 0.32454274932608829 0 -0.34251680356524339 0.34321741671518669 0 -0.34725440703092858 0.33933618574797492 0 -0.35002774160894051 0.34339273059465159 0 -0.34725440703092858 0.33933618574797492 0 -0.35002774160894051 0.34339273059465159 0 -0.35848812135385522 0.33902175933596412 0 -0.35712059876301439 0.34740413424876382 0 -0.35002774160894051 0.34339273059465159 0 -0.34725440703092858 0.33933618574797492 0 -0.35848812135385522 0.33902175933596412 0 -0.34795343649956839 0.3209401758966518 0 -0.35774913989266272 0.31391262040183171 0 -0.36531193472093021 0.32454274932608829 0 -0.35013945535461871 0.3105838988596446 0 -0.34268428286429659 0.31215346041211978 0 -0.34795343649956839 0.3209401758966518 0 -0.35013945535461871 0.3105838988596446 0 -0.34795343649956839 0.3209401758966518 0 -0.35774913989266272 0.31391262040183171 0 -0.38336946241093189 0.30974931290420182 0 -0.36596935852520629 0.30787018431111951 0 -0.36531193472093021 0.32454274932608829 0 -0.36596935852520629 0.30787018431111951 0 -0.35774913989266272 0.31391262040183171 0 -0.36531193472093021 0.32454274932608829 0 -0.37580907906339922 0.33647878059299557 0 -0.38201615891261242 0.31564575533693578 0 -0.36531193472093021 0.32454274932608829 0 -0.38336946241093189 0.30974931290420182 0 -0.36531193472093021 0.32454274932608829 0 -0.35848812135385522 0.33902175933596412 0 -0.36629538785756799 0.33494858662202331 0 -0.36491865814174967 0.34450616947628299 0 -0.35848812135385522 0.33902175933596412 0 -0.36491865814174967 0.34450616947628299 0 -0.35712059876301439 0.34740413424876382 0 -0.35848812135385522 0.33902175933596412 0 -0.36531193472093021 0.32454274932608829 0 -0.36629538785756799 0.33494858662202331 0 -0.37580907906339922 0.33647878059299557 0 -0.36531193472093021 0.32454274932608829 0 -0.36629538785756799 0.33494858662202331 0 -0.37580907906339922 0.33647878059299557 0 -0.36629538785756799 0.33494858662202331 0 -0.36491865814174967 0.34450616947628299 0 -0.37580907906339922 0.33647878059299557 0 -0.36491865814174967 0.34450616947628299 0 -0.36960199921418602 0.35731180584905542 0 -0.37580907906339922 0.33647878059299557 0 -0.36960199921418602 0.35731180584905542 0 -0.36491865814174967 0.34450616947628299 0 -0.36204010283369881 0.35293053614415609 0 -0.35712059876301439 0.34740413424876382 0 -0.36491865814174967 0.34450616947628299 0 -0.36204010283369881 0.35293053614415609 0 -0.36960199921418602 0.35731180584905542 0 -0.36231373349064938 0.3583368008115923 0 -0.36204010283369881 0.35293053614415609 0 -0.35577634304253192 0.35617190760009498 0 -0.36231373349064938 0.3583368008115923 0 -0.36204010283369881 0.35293053614415609 0 -0.36960199921418602 0.35731180584905542 0 -0.36960199921418602 0.35731180584905542 0 -0.36339491936497281 0.37814483110511521 0 -0.36960199921418602 0.35731180584905542 0 -0.37158620997362618 0.36500042586936587 0 -0.36339491936497281 0.37814483110511521 0 -0.36960199921418602 0.35731180584905542 0 -0.36108579844600058 0.36545797327707619 0 -0.36339491936497281 0.37814483110511521 0 -0.38141148745950948 0.38039780936179463 0 -0.37158620997362618 0.36500042586936587 0 -0.36339491936497281 0.37814483110511521 0 -0.38070440212728118 0.35956436367519867 0 -0.36960199921418602 0.35731180584905542 0 -0.37158620997362618 0.36500042586936587 0 -0.36231373349064938 0.3583368008115923 0 -0.36108579844600058 0.36545797327707619 0 -0.35577634304253192 0.35617190760009498 0 -0.36231373349064938 0.3583368008115923 0 -0.36960199921418602 0.35731180584905542 0 -0.36108579844600058 0.36545797327707619 0 -0.36108579844600058 0.36545797327707619 0 -0.3497530714632448 0.36534695126967459 0 -0.35577634304253192 0.35617190760009498 0 -0.3497530714632448 0.36534695126967459 0 -0.36339491936497281 0.37814483110511521 0 -0.33874167774564268 0.3750619344605613 0 -0.36108579844600058 0.36545797327707619 0 -0.3497530714632448 0.36534695126967459 0 -0.36339491936497281 0.37814483110511521 0 -0.33942470910854639 0.36092010030626542 0 -0.3497530714632448 0.36534695126967459 0 -0.3460879504978186 0.35511096805544279 0 -0.3497530714632448 0.36534695126967459 0 -0.3460879504978186 0.35511096805544279 0 -0.35577634304253192 0.35617190760009498 0 -0.3460879504978186 0.35511096805544279 0 -0.35103907443215082 0.34984414324157243 0 -0.35577634304253192 0.35617190760009498 0 -0.3460879504978186 0.35511096805544279 0 -0.34556584107983002 0.34849125976349993 0 -0.35103907443215082 0.34984414324157243 0 -0.34251680356524339 0.34321741671518669 0 -0.35002774160894051 0.34339273059465159 0 -0.34556584107983002 0.34849125976349993 0 -0.35002774160894051 0.34339273059465159 0 -0.34556584107983002 0.34849125976349993 0 -0.35103907443215082 0.34984414324157243 0 -0.35103907443215082 0.34984414324157243 0 -0.35712059876301439 0.34740413424876382 0 -0.35577634304253192 0.35617190760009498 0 -0.35002774160894051 0.34339273059465159 0 -0.35103907443215082 0.34984414324157243 0 -0.35712059876301439 0.34740413424876382 0 -0.36204010283369881 0.35293053614415609 0 -0.35712059876301439 0.34740413424876382 0 -0.35577634304253192 0.35617190760009498 0 -0.35746143571760969 0.39805957647408341 0 -0.33700984602307921 0.4055687403903776 0 -0.35746143571760969 0.39805957647408341 0 -0.36339491936497281 0.37814483110511521 0 -0.33874167774564268 0.3750619344605613 0 -0.36339491936497281 0.37814483110511521 0 -0.33874167774564268 0.3750619344605613 0 -0.38141148745950948 0.38039780936179463 0 -0.37844474563582792 0.390355182046278 0 -0.36339491936497281 0.37814483110511521 0 -0.37844474563582792 0.390355182046278 0 -0.35746143571760969 0.39805957647408341 0 -0.36339491936497281 0.37814483110511521 0 -0.35746143571760969 0.39805957647408341 0 -0.36339491936497281 0.37814483110511521 0 -0.38141148745950948 0.38039780936179463 0 -0.36339491936497281 0.37814483110511521 0 -0.37668454372729859 0.41206883315114529 0 -0.37844474563582792 0.390355182046278 0 -0.35746143571760969 0.39805957647408341 0 -0.37844474563582792 0.390355182046278 0 -0.35746143571760969 0.39805957647408341 0 -0.37668454372729859 0.41206883315114529 0 -0.36778315087773072 0.43214877602771662 0 -0.35179051953527918 0.41709305806631919 0 -0.37668454372729859 0.41206883315114529 0 -0.35746143571760969 0.39805957647408341 0 -0.35179051953527918 0.41709305806631919 0 -0.37668454372729859 0.41206883315114529 0 -0.35179051953527918 0.41709305806631919 0 -0.36778315087773072 0.43214877602771662 0 -0.35179051953527918 0.41709305806631919 0 -0.34355933144160938 0.44471966407244162 0 -0.35179051953527918 0.41709305806631919 0 -0.34355933144160938 0.44471966407244162 0 -0.35746143571760969 0.39805957647408341 0 -0.35179051953527918 0.41709305806631919 0 -0.33700984602307921 0.4055687403903776 0 -0.35746143571760969 0.39805957647408341 0 -0.35179051953527918 0.41709305806631919 0 -0.35179051953527918 0.41709305806631919 0 -0.33092261172728182 0.42130471390500562 0 -0.33700984602307921 0.4055687403903776 0 -0.35179051953527918 0.41709305806631919 0 -0.33092261172728182 0.42130471390500562 0 -0.33092261172728182 0.42130471390500562 0 -0.31655825632854873 0.41307790430667191 0 -0.33700984602307921 0.4055687403903776 0 -0.35179051953527918 0.41709305806631919 0 -0.33092261172728182 0.42130471390500562 0 -0.34355933144160938 0.44471966407244162 0 -0.33092261172728182 0.42130471390500562 0 -0.32304151796324199 0.43794530689545591 0 -0.34355933144160938 0.44471966407244162 0 -0.33092261172728182 0.42130471390500562 0 -0.31005470391928353 0.42551636974368717 0 -0.32304151796324199 0.43794530689545591 0 -0.33092261172728182 0.42130471390500562 0 -0.31005470391928353 0.42551636974368717 0 -0.31005470391928353 0.42551636974368717 0 -0.30636015846579262 0.44081646755455739 0 -0.32304151796324199 0.43794530689545591 0 -0.31655825632854873 0.41307790430667191 0 -0.32178824989383492 0.40044082628072353 0 -0.33700984602307921 0.4055687403903776 0 -0.33092261172728182 0.42130471390500562 0 -0.31655825632854873 0.41307790430667191 0 -0.31005470391928353 0.42551636974368717 0 -0.31655825632854873 0.41307790430667191 0 -0.33700984602307921 0.4055687403903776 0 -0.31655825632854873 0.41307790430667191 0 -0.32178824989383492 0.40044082628072353 0 -0.30820761894760612 0.40180007281058999 0 -0.31589124725359768 0.39098578459502642 0 -0.32178824989383492 0.40044082628072353 0 -0.30820761894760612 0.40180007281058999 0 -0.31589124725359768 0.39098578459502642 0 -0.32178824989383492 0.40044082628072353 0 -0.33127428091634248 0.39077162930095188 0 -0.35746143571760969 0.39805957647408341 0 -0.33127428091634248 0.39077162930095188 0 -0.33700984602307921 0.4055687403903776 0 -0.32178824989383492 0.40044082628072353 0 -0.33127428091634248 0.39077162930095188 0 -0.33700984602307921 0.4055687403903776 0 -0.35746143571760969 0.39805957647408341 0 -0.33127428091634248 0.39077162930095188 0 -0.33874167774564268 0.3750619344605613 0 -0.31408843612631249 0.37197903781600761 0 -0.33127428091634248 0.39077162930095188 0 -0.33874167774564268 0.3750619344605613 0 -0.31408843612631249 0.37197903781600761 0 -0.31589124725359768 0.39098578459502642 0 -0.33127428091634248 0.39077162930095188 0 -0.29551252006441958 0.37309371542857861 0 -0.31408843612631249 0.37197903781600761 0 -0.30568017353146049 0.38157918508743732 0 -0.31408843612631249 0.37197903781600761 0 -0.31589124725359768 0.39098578459502642 0 -0.30568017353146049 0.38157918508743732 0 -0.31589124725359768 0.39098578459502642 0 -0.30568017353146049 0.38157918508743732 0 -0.30603649680964828 0.39194203915736708 0 -0.30568017353146049 0.38157918508743732 0 -0.29743858983336929 0.38628170497916159 0 -0.30603649680964828 0.39194203915736708 0 -0.29551252006441958 0.37309371542857861 0 -0.30568017353146049 0.38157918508743732 0 -0.29743858983336929 0.38628170497916159 0 -0.31589124725359768 0.39098578459502642 0 -0.30820761894760612 0.40180007281058999 0 -0.30603649680964828 0.39194203915736708 0 -0.30820761894760612 0.40180007281058999 0 -0.30603649680964828 0.39194203915736708 0 -0.29604813782321171 0.40003827384795049 0 -0.29743858983336929 0.38628170497916159 0 -0.30603649680964828 0.39194203915736708 0 -0.29604813782321171 0.40003827384795049 0 -0.30820761894760612 0.40180007281058999 0 -0.29604813782321171 0.40003827384795049 0 -0.2987408814332651 0.40933989620534528 0 -0.29604813782321171 0.40003827384795049 0 -0.28905057763704689 0.40562835892549581 0 -0.28392778011776681 0.39892722844600809 0 -0.29604813782321171 0.40003827384795049 0 -0.28905057763704689 0.40562835892549581 0 -0.2987408814332651 0.40933989620534528 0 -0.29604813782321171 0.40003827384795049 0 -0.28980128107673031 0.39400368344191522 0 -0.28392778011776681 0.39892722844600809 0 -0.29743858983336929 0.38628170497916159 0 -0.29604813782321171 0.40003827384795049 0 -0.28980128107673031 0.39400368344191522 0 -0.28980128107673031 0.39400368344191522 0 -0.28179061653257348 0.3907675264945405 0 -0.28392778011776681 0.39892722844600809 0 -0.28905057763704689 0.40562835892549581 0 -0.28392778011776681 0.39892722844600809 0 -0.27817781655911977 0.40726136879628272 0 -0.29743858983336929 0.38628170497916159 0 -0.28980128107673031 0.39400368344191522 0 -0.28179061653257348 0.3907675264945405 0 -0.29743858983336929 0.38628170497916159 0 -0.28179061653257348 0.3907675264945405 0 -0.28819376848868639 0.38228739672622841 0 -0.29743858983336929 0.38628170497916159 0 -0.28179061653257348 0.3907675264945405 0 -0.29551252006441958 0.37309371542857861 0 -0.29743858983336929 0.38628170497916159 0 -0.28819376848868639 0.38228739672622841 0 -0.29551252006441958 0.37309371542857861 0 -0.28819376848868639 0.38228739672622841 0 -0.28685204816290072 0.37621819500323123 0 -0.28179061653257348 0.3907675264945405 0 -0.28158428542699082 0.38279668863870758 0 -0.28819376848868639 0.38228739672622841 0 -0.28158428542699082 0.38279668863870758 0 -0.28819376848868639 0.38228739672622841 0 -0.28685204816290072 0.37621819500323123 0 -0.28158428542699082 0.38279668863870758 0 -0.28685204816290072 0.37621819500323123 0 -0.28084635904778937 0.37544065550995409 0 -0.27110701654299552 0.36596211494311248 0 -0.26614264323177789 0.39525334800991979 0 -0.27110701654299552 0.36596211494311248 0 -0.27663284499009211 0.37939207802828528 0 -0.27229768174870289 0.38438446135480281 0 -0.27110701654299552 0.36596211494311248 0 -0.27229768174870289 0.38438446135480281 0 -0.26614264323177789 0.39525334800991979 0 -0.27110701654299552 0.36596211494311248 0 -0.26689531734350652 0.36931705260985792 0 -0.26614264323177789 0.39525334800991979 0 -0.28158428542699082 0.38279668863870758 0 -0.28084635904778937 0.37544065550995409 0 -0.27663284499009211 0.37939207802828528 0 -0.27229768174870289 0.38438446135480281 0 -0.27641046434025379 0.38710393959788297 0 -0.26614264323177789 0.39525334800991979 0 -0.28179061653257348 0.3907675264945405 0 -0.28158428542699082 0.38279668863870758 0 -0.27641046434025379 0.38710393959788297 0 -0.27663284499009211 0.37939207802828528 0 -0.27229768174870289 0.38438446135480281 0 -0.27641046434025379 0.38710393959788297 0 -0.28158428542699082 0.38279668863870758 0 -0.27663284499009211 0.37939207802828528 0 -0.27641046434025379 0.38710393959788297 0 -0.28179061653257348 0.3907675264945405 0 -0.27641046434025379 0.38710393959788297 0 -0.26614264323177789 0.39525334800991979 0 -0.28179061653257348 0.3907675264945405 0 -0.27661435207820328 0.39472461325581981 0 -0.26614264323177789 0.39525334800991979 0 -0.28179061653257348 0.3907675264945405 0 -0.28392778011776681 0.39892722844600809 0 -0.27661435207820328 0.39472461325581981 0 -0.28179061653257348 0.3907675264945405 0 -0.26614264323177789 0.39525334800991979 0 -0.28392778011776681 0.39892722844600809 0 -0.27661435207820328 0.39472461325581981 0 -0.27572094251528112 0.40196054452149499 0 -0.28392778011776681 0.39892722844600809 0 -0.27572094251528112 0.40196054452149499 0 -0.27817781655911977 0.40726136879628272 0 -0.27572094251528112 0.40196054452149499 0 -0.26416382130603389 0.40692896758786917 0 -0.27817781655911977 0.40726136879628272 0 -0.27661435207820328 0.39472461325581981 0 -0.27572094251528112 0.40196054452149499 0 -0.26416382130603389 0.40692896758786917 0 -0.27661435207820328 0.39472461325581981 0 -0.26614264323177789 0.39525334800991979 0 -0.26416382130603389 0.40692896758786917 0 -0.27661435207820328 0.39472461325581981 0 -0.26416382130603389 0.40692896758786917 0 -0.26614264323177789 0.39525334800991979 0 -0.24781733580734391 0.38604582424895789 0 -0.24388213391773941 0.40163479241199579 0 -0.26614264323177789 0.39525334800991979 0 -0.25157066981256843 0.40894445920752592 0 -0.24388213391773941 0.40163479241199579 0 -0.26614264323177789 0.39525334800991979 0 -0.24388213391773941 0.40163479241199579 0 -0.26614264323177789 0.39525334800991979 0 -0.26416382130603389 0.40692896758786917 0 -0.26614264323177789 0.39525334800991979 0 -0.25157066981256843 0.40894445920752592 0 -0.26416382130603389 0.40692896758786917 0 -0.25453646971320443 0.37462232419521813 0 -0.26614264323177789 0.39525334800991979 0 -0.24781733580734391 0.38604582424895789 0 -0.25453646971320443 0.37462232419521813 0 -0.26689531734350652 0.36931705260985792 0 -0.26614264323177789 0.39525334800991979 0 -0.26107936510946472 0.42512814796255138 0 -0.25799490891289278 0.4433273283372331 0 -0.26107936510946472 0.42512814796255138 0 -0.27138668263498972 0.43431468825499642 0 -0.25799490891289278 0.4433273283372331 0 -0.26107936510946472 0.42512814796255138 0 -0.25799490891289278 0.4433273283372331 0 -0.24263019791012411 0.42803682032005991 0 -0.25799490891289278 0.4433273283372331 0 -0.24263019791012411 0.42803682032005991 0 -0.26107936510946472 0.42512814796255138 0 -0.26416382130603389 0.40692896758786917 0 -0.26107936510946472 0.42512814796255138 0 -0.26416382130603389 0.40692896758786917 0 -0.24263019791012411 0.42803682032005991 0 -0.26416382130603389 0.40692896758786917 0 -0.24263019791012411 0.42803682032005991 0 -0.25157066981256843 0.40894445920752592 0 -0.26416382130603389 0.40692896758786917 0 -0.24263019791012411 0.42803682032005991 0 -0.26107936510946472 0.42512814796255138 0 -0.26416382130603389 0.40692896758786917 0 -0.27370875903762831 0.41905129137381081 0 -0.26416382130603389 0.40692896758786917 0 -0.27817781655911977 0.40726136879628272 0 -0.27370875903762831 0.41905129137381081 0 -0.27817781655911977 0.40726136879628272 0 -0.27370875903762831 0.41905129137381081 0 -0.28647403122915938 0.41490769911839809 0 -0.27370875903762831 0.41905129137381081 0 -0.27138668263498972 0.43431468825499642 0 -0.28359142860916292 0.42646623900898489 0 -0.26107936510946472 0.42512814796255138 0 -0.27370875903762831 0.41905129137381081 0 -0.27138668263498972 0.43431468825499642 0 -0.27138668263498972 0.43431468825499642 0 -0.28359142860916292 0.42646623900898489 0 -0.28426041238301858 0.43930471826406531 0 -0.28359142860916292 0.42646623900898489 0 -0.29576073289665422 0.43347565529899762 0 -0.28426041238301858 0.43930471826406531 0 -0.28359142860916292 0.42646623900898489 0 -0.29576073289665422 0.43347565529899762 0 -0.29610666663401819 0.4205870682229661 0 -0.28905057763704689 0.40562835892549581 0 -0.27817781655911977 0.40726136879628272 0 -0.28647403122915938 0.41490769911839809 0 -0.27370875903762831 0.41905129137381081 0 -0.28359142860916292 0.42646623900898489 0 -0.28647403122915938 0.41490769911839809 0 -0.28359142860916292 0.42646623900898489 0 -0.28647403122915938 0.41490769911839809 0 -0.29610666663401819 0.4205870682229661 0 -0.28647403122915938 0.41490769911839809 0 -0.29610666663401819 0.4205870682229661 0 -0.2987408814332651 0.40933989620534528 0 -0.28905057763704689 0.40562835892549581 0 -0.28647403122915938 0.41490769911839809 0 -0.2987408814332651 0.40933989620534528 0 -0.31655825632854873 0.41307790430667191 0 -0.29610666663401819 0.4205870682229661 0 -0.2987408814332651 0.40933989620534528 0 -0.31655825632854873 0.41307790430667191 0 -0.29610666663401819 0.4205870682229661 0 -0.31005470391928353 0.42551636974368717 0 -0.31655825632854873 0.41307790430667191 0 -0.29610666663401819 0.4205870682229661 0 -0.31655825632854873 0.41307790430667191 0 -0.30820761894760612 0.40180007281058999 0 -0.2987408814332651 0.40933989620534528 0 -0.29576073289665422 0.43347565529899762 0 -0.31005470391928353 0.42551636974368717 0 -0.30636015846579262 0.44081646755455739 0 -0.29576073289665422 0.43347565529899762 0 -0.29610666663401819 0.4205870682229661 0 -0.31005470391928353 0.42551636974368717 0 -0.29576073289665422 0.43347565529899762 0 -0.30636015846579262 0.44081646755455739 0 -0.2944743431310044 0.45228094752776682 0 -0.30636015846579262 0.44081646755455739 0 -0.30512100021830008 0.46490456032657962 0 -0.30636015846579262 0.44081646755455739 0 -0.30512100021830008 0.46490456032657962 0 -0.2944743431310044 0.45228094752776682 0 -0.30636015846579262 0.44081646755455739 0 -0.30512100021830008 0.46490456032657962 0 -0.32381548421637429 0.45642326981327008 0 -0.30512100021830008 0.46490456032657962 0 -0.2944743431310044 0.45228094752776682 0 -0.28858619761816889 0.47377087817814589 0 -0.2944743431310044 0.45228094752776682 0 -0.27329055326553048 0.45854910325768988 0 -0.28858619761816889 0.47377087817814589 0 -0.2944743431310044 0.45228094752776682 0 -0.28426041238301858 0.43930471826406531 0 -0.27329055326553048 0.45854910325768988 0 -0.29576073289665422 0.43347565529899762 0 -0.2944743431310044 0.45228094752776682 0 -0.28426041238301858 0.43930471826406531 0 -0.27138668263498972 0.43431468825499642 0 -0.28426041238301858 0.43930471826406531 0 -0.27329055326553048 0.45854910325768988 0 -0.27138668263498972 0.43431468825499642 0 -0.27329055326553048 0.45854910325768988 0 -0.25799490891289278 0.4433273283372331 0 -0.27329055326553048 0.45854910325768988 0 -0.25799490891289278 0.4433273283372331 0 -0.27329055326553048 0.45854910325768988 0 -0.28858619761816889 0.47377087817814589 0 -0.27329055326553048 0.45854910325768988 0 -0.25438198006151169 0.46464464965965441 0 -0.25799490891289278 0.4433273283372331 0 -0.27329055326553048 0.45854910325768988 0 -0.25438198006151169 0.46464464965965441 0 -0.26859377699614329 0.4811575177290362 0 -0.25438198006151169 0.46464464965965441 0 -0.25799490891289278 0.4433273283372331 0 -0.25438198006151169 0.46464464965965441 0 -0.25799490891289278 0.4433273283372331 0 -0.24356894722331929 0.44821508210096461 0 -0.25080144613104921 0.5 0 -0.26859377699614329 0.4811575177290362 0 -0.2467553297522557 0.48147402383551691 0 -0.25080144613104921 0.5 0 -0.26859377699614329 0.4811575177290362 0 -0.27705851983630159 0.5 0 -0.25438198006151169 0.46464464965965441 0 -0.26859377699614329 0.4811575177290362 0 -0.2467553297522557 0.48147402383551691 0 -0.27329055326553048 0.45854910325768988 0 -0.26859377699614329 0.4811575177290362 0 -0.28858619761816889 0.47377087817814589 0 -0.26859377699614329 0.4811575177290362 0 -0.27705851983630159 0.5 0 -0.28830299895955541 0.48893487857068268 0 -0.27705851983630159 0.5 0 -0.28830299895955541 0.48893487857068268 0 -0.30331559354155391 0.49999999999999939 0 -0.26859377699614329 0.4811575177290362 0 -0.28830299895955541 0.48893487857068268 0 -0.28858619761816889 0.47377087817814589 0 -0.28830299895955541 0.48893487857068268 0 -0.28858619761816889 0.47377087817814589 0 -0.30388184197080759 0.48899265309860168 0 -0.28858619761816889 0.47377087817814589 0 -0.30388184197080759 0.48899265309860168 0 -0.30512100021830008 0.46490456032657962 0 -0.30388184197080759 0.48899265309860168 0 -0.30512100021830008 0.46490456032657962 0 -0.30388184197080759 0.48899265309860168 0 -0.31654611508668351 0.48621885406126381 0 -0.30512100021830008 0.46490456032657962 0 -0.28858619761816889 0.47377087817814589 0 -0.30388184197080759 0.48899265309860168 0 -0.30331559354155391 0.49999999999999939 0 -0.30388184197080759 0.48899265309860168 0 -0.28830299895955541 0.48893487857068268 0 -0.30331559354155391 0.49999999999999939 0 -0.30388184197080759 0.48899265309860168 0 -0.30388184197080759 0.48899265309860168 0 -0.31494260619507058 0.500000000000002 0 -0.31654611508668351 0.48621885406126381 0 -0.30331559354155391 0.49999999999999939 0 -0.30388184197080759 0.48899265309860168 0 -0.31494260619507058 0.500000000000002 0 -0.30388184197080759 0.48899265309860168 0 -0.31494260619507058 0.500000000000002 0 -0.31654611508668351 0.48621885406126381 0 -0.33275791060477139 0.5 0 -0.32602721644446891 0.47719705688113462 0 -0.31494260619507058 0.500000000000002 0 -0.31654611508668351 0.48621885406126381 0 -0.33275791060477139 0.5 0 -0.33275791060477139 0.5 0 -0.34200011506365208 0.48331572161184322 0 -0.32602721644446891 0.47719705688113462 0 -0.33275791060477139 0.5 0 -0.34200011506365208 0.48331572161184322 0 -0.35057321501447208 0.49999999999999872 0 -0.34200011506365208 0.48331572161184322 0 -0.32602721644446891 0.47719705688113462 0 -0.33593075250063148 0.46750731867274542 0 -0.34200011506365208 0.48331572161184322 0 -0.33593075250063148 0.46750731867274542 0 -0.35201810675435108 0.4676562019538536 0 -0.30512100021830008 0.46490456032657962 0 -0.31654611508668351 0.48621885406126381 0 -0.32602721644446891 0.47719705688113462 0 -0.30512100021830008 0.46490456032657962 0 -0.32602721644446891 0.47719705688113462 0 -0.32381548421637429 0.45642326981327008 0 -0.30636015846579262 0.44081646755455739 0 -0.32381548421637429 0.45642326981327008 0 -0.32304151796324199 0.43794530689545591 0 -0.32381548421637429 0.45642326981327008 0 -0.32304151796324199 0.43794530689545591 0 -0.34355933144160938 0.44471966407244162 0 -0.32381548421637429 0.45642326981327008 0 -0.34355933144160938 0.44471966407244162 0 -0.33593075250063148 0.46750731867274542 0 -0.32602721644446891 0.47719705688113462 0 -0.32381548421637429 0.45642326981327008 0 -0.33593075250063148 0.46750731867274542 0 -0.35201810675435108 0.4676562019538536 0 -0.36028404822733179 0.44939908513577981 0 -0.36566353784044697 0.46257036423753561 0 -0.34355933144160938 0.44471966407244162 0 -0.35201810675435108 0.4676562019538536 0 -0.36028404822733179 0.44939908513577981 0 -0.34355933144160938 0.44471966407244162 0 -0.33593075250063148 0.46750731867274542 0 -0.35201810675435108 0.4676562019538536 0 -0.36778315087773072 0.43214877602771662 0 -0.34355933144160938 0.44471966407244162 0 -0.36028404822733179 0.44939908513577981 0 -0.36778315087773072 0.43214877602771662 0 -0.36028404822733179 0.44939908513577981 0 -0.37376195539900242 0.45249759326054367 0 -0.37701653082709469 0.46900635458093531 0 -0.37376195539900242 0.45249759326054367 0 -0.36566353784044697 0.46257036423753561 0 -0.36028404822733179 0.44939908513577981 0 -0.37376195539900242 0.45249759326054367 0 -0.36566353784044697 0.46257036423753561 0 -0.36552159823955549 0.47691699748014749 0 -0.37220834978290879 0.49000150617251997 0 -0.35595833756876799 0.48470827593500232 0 -0.37701653082709469 0.46900635458093531 0 -0.36566353784044697 0.46257036423753561 0 -0.36552159823955549 0.47691699748014749 0 -0.37805640255927542 0.47903421333972468 0 -0.37701653082709469 0.46900635458093531 0 -0.36552159823955549 0.47691699748014749 0 -0.35201810675435108 0.4676562019538536 0 -0.36566353784044697 0.46257036423753561 0 -0.36552159823955549 0.47691699748014749 0 -0.37805640255927542 0.47903421333972468 0 -0.36552159823955549 0.47691699748014749 0 -0.37220834978290879 0.49000150617251997 0 -0.37220834978290879 0.49000150617251997 0 -0.35057321501447208 0.49999999999999872 0 -0.35595833756876799 0.48470827593500232 0 -0.37789332191386737 0.5 0 -0.37220834978290879 0.49000150617251997 0 -0.35057321501447208 0.49999999999999872 0 -0.37220834978290879 0.49000150617251997 0 -0.35057321501447208 0.49999999999999872 0 -0.34200011506365208 0.48331572161184322 0 -0.35057321501447208 0.49999999999999872 0 -0.35595833756876799 0.48470827593500232 0 -0.34200011506365208 0.48331572161184322 0 -0.35201810675435108 0.4676562019538536 0 -0.35595833756876799 0.48470827593500232 0 -0.35201810675435108 0.4676562019538536 0 -0.36552159823955549 0.47691699748014749 0 -0.35595833756876799 0.48470827593500232 0 -0.142080771754234 0.48212662116497451 0 -0.14744519938683801 0.47523243684594829 0 -0.1380962150490555 0.47248515407185221 0 -0.142080771754234 0.48212662116497451 0 -0.14744519938683801 0.47523243684594829 0 -0.15313912830386001 0.48632871978955722 0 -0.14744519938683801 0.47523243684594829 0 -0.1380962150490555 0.47248515407185221 0 -0.1446941887002707 0.46454185114692792 0 -0.14744519938683801 0.47523243684594829 0 -0.1446941887002707 0.46454185114692792 0 -0.15815775643206659 0.473198332503178 0 -0.14744519938683801 0.47523243684594829 0 -0.15313912830386001 0.48632871978955722 0 -0.15815775643206659 0.473198332503178 0 -0.142080771754234 0.48212662116497451 0 -0.15313912830386001 0.48632871978955722 0 -0.13803845513632401 0.5 0 -0.15313912830386001 0.48632871978955722 0 -0.13803845513632401 0.5 0 -0.1663114266205577 0.50000000000000011 0 -0.142080771754234 0.48212662116497451 0 -0.13803845513632401 0.5 0 -0.12908554574303099 0.47755934496718438 0 -0.13803845513632401 0.5 0 -0.12908554574303099 0.47755934496718438 0 -0.1160402402672886 0.48503019582547341 0 -0.142080771754234 0.48212662116497451 0 -0.12908554574303099 0.47755934496718438 0 -0.1380962150490555 0.47248515407185221 0 -0.12908554574303099 0.47755934496718438 0 -0.1380962150490555 0.47248515407185221 0 -0.13097929143795109 0.46459511115351071 0 -0.12908554574303099 0.47755934496718438 0 -0.13097929143795109 0.46459511115351071 0 -0.1176294132596279 0.46872710166108278 0 -0.13097929143795109 0.46459511115351071 0 -0.1351896940807357 0.45304119368279389 0 -0.1204057133641486 0.45504160574272429 0 -0.13097929143795109 0.46459511115351071 0 -0.1351896940807357 0.45304119368279389 0 -0.1446941887002707 0.46454185114692792 0 -0.1380962150490555 0.47248515407185221 0 -0.13097929143795109 0.46459511115351071 0 -0.1446941887002707 0.46454185114692792 0 -0.1351896940807357 0.45304119368279389 0 -0.13889501351409689 0.43598263237980822 0 -0.1242648033483075 0.43981492828754482 0 -0.1351896940807357 0.45304119368279389 0 -0.1242648033483075 0.43981492828754482 0 -0.1204057133641486 0.45504160574272429 0 -0.15017718620881049 0.45777983735391498 0 -0.13889501351409689 0.43598263237980822 0 -0.1351896940807357 0.45304119368279389 0 -0.15017718620881049 0.45777983735391498 0 -0.13889501351409689 0.43598263237980822 0 -0.15995177900170021 0.44572512983606088 0 -0.15376963845050121 0.4328235067909087 0 -0.13889501351409689 0.43598263237980822 0 -0.15017718620881049 0.45777983735391498 0 -0.15995177900170021 0.44572512983606088 0 -0.13889501351409689 0.43598263237980822 0 -0.15017718620881049 0.45777983735391498 0 -0.15995177900170021 0.44572512983606088 0 -0.1446941887002707 0.46454185114692792 0 -0.15017718620881049 0.45777983735391498 0 -0.1351896940807357 0.45304119368279389 0 -0.1446941887002707 0.46454185114692792 0 -0.15017718620881049 0.45777983735391498 0 -0.1446941887002707 0.46454185114692792 0 -0.15017718620881049 0.45777983735391498 0 -0.15815775643206659 0.473198332503178 0 -0.15017718620881049 0.45777983735391498 0 -0.15868634814382429 0.46531473325554851 0 -0.15815775643206659 0.473198332503178 0 -0.15017718620881049 0.45777983735391498 0 -0.15815775643206659 0.473198332503178 0 -0.160558198289461 0.46047642425523388 0 -0.1655661766345953 0.45099185016729298 0 -0.16585225164495951 0.46980433890986678 0 -0.1655661766345953 0.45099185016729298 0 -0.17867327812258871 0.46114583139567922 0 -0.16585225164495951 0.46980433890986678 0 -0.1655661766345953 0.45099185016729298 0 -0.16585225164495951 0.46980433890986678 0 -0.15868634814382429 0.46531473325554851 0 -0.160558198289461 0.46047642425523388 0 -0.16585225164495951 0.46980433890986678 0 -0.15017718620881049 0.45777983735391498 0 -0.15868634814382429 0.46531473325554851 0 -0.160558198289461 0.46047642425523388 0 -0.15017718620881049 0.45777983735391498 0 -0.160558198289461 0.46047642425523388 0 -0.15995177900170021 0.44572512983606088 0 -0.15995177900170021 0.44572512983606088 0 -0.1655661766345953 0.45099185016729298 0 -0.1697263717945888 0.43367042231820602 0 -0.160558198289461 0.46047642425523388 0 -0.15995177900170021 0.44572512983606088 0 -0.1655661766345953 0.45099185016729298 0 -0.15995177900170021 0.44572512983606088 0 -0.1697263717945888 0.43367042231820602 0 -0.1655661766345953 0.45099185016729298 0 -0.1926513277646352 0.45119866261047992 0 -0.1697263717945888 0.43367042231820602 0 -0.1926513277646352 0.45119866261047992 0 -0.1697263717945888 0.43367042231820602 0 -0.1926513277646352 0.45119866261047992 0 -0.18693863061853061 0.43491447939059907 0 -0.1697263717945888 0.43367042231820602 0 -0.1655661766345953 0.45099185016729298 0 -0.17867327812258871 0.46114583139567922 0 -0.1926513277646352 0.45119866261047992 0 -0.17867327812258871 0.46114583139567922 0 -0.17876854714149509 0.47093865696285842 0 -0.16585225164495951 0.46980433890986678 0 -0.17867327812258871 0.46114583139567922 0 -0.1899884502156329 0.46461586120334353 0 -0.1926513277646352 0.45119866261047992 0 -0.17867327812258871 0.46114583139567922 0 -0.17876854714149509 0.47093865696285842 0 -0.1899884502156329 0.46461586120334353 0 -0.17876854714149509 0.47093865696285842 0 -0.19138341924764241 0.47827032896460842 0 -0.1899884502156329 0.46461586120334353 0 -0.1757986315986971 0.48088398659212228 0 -0.17876854714149509 0.47093865696285842 0 -0.19138341924764241 0.47827032896460842 0 -0.1757986315986971 0.48088398659212228 0 -0.17876854714149509 0.47093865696285842 0 -0.16585225164495951 0.46980433890986678 0 -0.16585225164495951 0.46980433890986678 0 -0.16613832665532341 0.48861682765244069 0 -0.16585225164495951 0.46980433890986678 0 -0.15815775643206659 0.473198332503178 0 -0.16613832665532341 0.48861682765244069 0 -0.1757986315986971 0.48088398659212228 0 -0.16585225164495951 0.46980433890986678 0 -0.16613832665532341 0.48861682765244069 0 -0.15313912830386001 0.48632871978955722 0 -0.15815775643206659 0.473198332503178 0 -0.16613832665532341 0.48861682765244069 0 -0.15815775643206659 0.473198332503178 0 -0.16613832665532341 0.48861682765244069 0 -0.15868634814382429 0.46531473325554851 0 -0.16585225164495951 0.46980433890986678 0 -0.15815775643206659 0.473198332503178 0 -0.15313912830386001 0.48632871978955722 0 -0.16613832665532341 0.48861682765244069 0 -0.1663114266205577 0.50000000000000011 0 -0.16613832665532341 0.48861682765244069 0 -0.1720302250152923 0.50000000000000022 0 -0.16613832665532341 0.48861682765244069 0 -0.1663114266205577 0.50000000000000011 0 -0.1720302250152923 0.50000000000000022 0 -0.16613832665532341 0.48861682765244069 0 -0.1663114266205577 0.50000000000000011 0 -0.16613832665532341 0.48861682765244069 0 -0.17430115969348189 0.49501483184612438 0 -0.1720302250152923 0.50000000000000022 0 -0.17430115969348189 0.49501483184612438 0 -0.1720302250152923 0.50000000000000022 0 -0.1982872987205446 0.5 0 -0.1757986315986971 0.48088398659212228 0 -0.17430115969348189 0.49501483184612438 0 -0.19138341924764241 0.47827032896460842 0 -0.17430115969348189 0.49501483184612438 0 -0.19138341924764241 0.47827032896460842 0 -0.1757986315986971 0.48088398659212228 0 -0.16613832665532341 0.48861682765244069 0 -0.17430115969348189 0.49501483184612438 0 -0.17430115969348189 0.49501483184612438 0 -0.1982872987205446 0.5 0 -0.19138341924764241 0.47827032896460842 0 -0.1982872987205446 0.5 0 -0.19138341924764241 0.47827032896460842 0 -0.21217809917650449 0.48030286392854288 0 -0.19138341924764241 0.47827032896460842 0 -0.208465678801803 0.46152582608309223 0 -0.19138341924764241 0.47827032896460842 0 -0.21217809917650449 0.48030286392854288 0 -0.208465678801803 0.46152582608309223 0 -0.1982872987205446 0.5 0 -0.21217809917650449 0.48030286392854288 0 -0.22454437242579681 0.5 0 -0.22454437242579681 0.5 0 -0.2288960980978284 0.47674808914996208 0 -0.2467553297522557 0.48147402383551691 0 -0.21217809917650449 0.48030286392854288 0 -0.22454437242579681 0.5 0 -0.2288960980978284 0.47674808914996208 0 -0.21217809917650449 0.48030286392854288 0 -0.2288960980978284 0.47674808914996208 0 -0.22325063631842021 0.46203708915627778 0 -0.25438198006151169 0.46464464965965441 0 -0.2467553297522557 0.48147402383551691 0 -0.2372897108761052 0.46028528898629889 0 -0.2288960980978284 0.47674808914996208 0 -0.2467553297522557 0.48147402383551691 0 -0.2372897108761052 0.46028528898629889 0 -0.25080144613104921 0.5 0 -0.22454437242579681 0.5 0 -0.2467553297522557 0.48147402383551691 0 -0.24356894722331929 0.44821508210096461 0 -0.22554793835596351 0.44478132320157598 0 -0.24263019791012411 0.42803682032005991 0 -0.24356894722331929 0.44821508210096461 0 -0.2372897108761052 0.46028528898629889 0 -0.22554793835596351 0.44478132320157598 0 -0.25799490891289278 0.4433273283372331 0 -0.24356894722331929 0.44821508210096461 0 -0.24263019791012411 0.42803682032005991 0 -0.25438198006151169 0.46464464965965441 0 -0.24356894722331929 0.44821508210096461 0 -0.2372897108761052 0.46028528898629889 0 -0.2288960980978284 0.47674808914996208 0 -0.2372897108761052 0.46028528898629889 0 -0.22325063631842021 0.46203708915627778 0 -0.2372897108761052 0.46028528898629889 0 -0.22325063631842021 0.46203708915627778 0 -0.22554793835596351 0.44478132320157598 0 -0.22325063631842021 0.46203708915627778 0 -0.22554793835596351 0.44478132320157598 0 -0.208465678801803 0.46152582608309223 0 -0.22554793835596351 0.44478132320157598 0 -0.20785557032720109 0.44518798724498809 0 -0.21437917226951189 0.43588067273166847 0 -0.22554793835596351 0.44478132320157598 0 -0.20785557032720109 0.44518798724498809 0 -0.208465678801803 0.46152582608309223 0 -0.22554793835596351 0.44478132320157598 0 -0.208465678801803 0.46152582608309223 0 -0.21217809917650449 0.48030286392854288 0 -0.22325063631842021 0.46203708915627778 0 -0.208465678801803 0.46152582608309223 0 -0.19138341924764241 0.47827032896460842 0 -0.208465678801803 0.46152582608309223 0 -0.1899884502156329 0.46461586120334353 0 -0.208465678801803 0.46152582608309223 0 -0.1899884502156329 0.46461586120334353 0 -0.1926513277646352 0.45119866261047992 0 -0.20785557032720109 0.44518798724498809 0 -0.1926513277646352 0.45119866261047992 0 -0.18693863061853061 0.43491447939059907 0 -0.20785557032720109 0.44518798724498809 0 -0.208465678801803 0.46152582608309223 0 -0.1926513277646352 0.45119866261047992 0 -0.19176926968858449 0.42488004754311998 0 -0.20430089696141959 0.42856004989685992 0 -0.18693863061853061 0.43491447939059907 0 -0.20785557032720109 0.44518798724498809 0 -0.20430089696141959 0.42856004989685992 0 -0.18693863061853061 0.43491447939059907 0 -0.19176926968858449 0.42488004754311998 0 -0.19667758679306771 0.41738623802377928 0 -0.20430089696141959 0.42856004989685992 0 -0.19667758679306771 0.41738623802377928 0 -0.19460267291041519 0.40299123798476227 0 -0.182164522352502 0.41833083015148409 0 -0.19460267291041519 0.40299123798476227 0 -0.182164522352502 0.41833083015148409 0 -0.19176926968858449 0.42488004754311998 0 -0.19667758679306771 0.41738623802377928 0 -0.182164522352502 0.41833083015148409 0 -0.19667758679306771 0.41738623802377928 0 -0.2074030129404133 0.4163894186605448 0 -0.20430089696141959 0.42856004989685992 0 -0.19667758679306771 0.41738623802377928 0 -0.2074030129404133 0.4163894186605448 0 -0.19460267291041519 0.40299123798476227 0 -0.2074030129404133 0.4163894186605448 0 -0.21981228343346321 0.42499333058324978 0 -0.22162162460370111 0.40801623681407218 0 -0.2074030129404133 0.4163894186605448 0 -0.22162162460370111 0.40801623681407218 0 -0.19460267291041519 0.40299123798476227 0 -0.20785557032720109 0.44518798724498809 0 -0.20430089696141959 0.42856004989685992 0 -0.21437917226951189 0.43588067273166847 0 -0.2074030129404133 0.4163894186605448 0 -0.20430089696141959 0.42856004989685992 0 -0.21981228343346321 0.42499333058324978 0 -0.20430089696141959 0.42856004989685992 0 -0.21437917226951189 0.43588067273166847 0 -0.21981228343346321 0.42499333058324978 0 -0.22554793835596351 0.44478132320157598 0 -0.24263019791012411 0.42803682032005991 0 -0.22554793835596351 0.44478132320157598 0 -0.2313941741476824 0.42795323546389102 0 -0.24263019791012411 0.42803682032005991 0 -0.22554793835596351 0.44478132320157598 0 -0.21437917226951189 0.43588067273166847 0 -0.21981228343346321 0.42499333058324978 0 -0.22554793835596351 0.44478132320157598 0 -0.2313941741476824 0.42795323546389102 0 -0.21981228343346321 0.42499333058324978 0 -0.2313941741476824 0.42795323546389102 0 -0.21981228343346321 0.42499333058324978 0 -0.2301621318308705 0.41771135234831969 0 -0.2313941741476824 0.42795323546389102 0 -0.2301621318308705 0.41771135234831969 0 -0.23881831920799079 0.42424335086624981 0 -0.21981228343346321 0.42499333058324978 0 -0.22162162460370111 0.40801623681407218 0 -0.2301621318308705 0.41771135234831969 0 -0.22162162460370111 0.40801623681407218 0 -0.2301621318308705 0.41771135234831969 0 -0.241034552697166 0.41286836770778501 0 -0.25157066981256843 0.40894445920752592 0 -0.241034552697166 0.41286836770778501 0 -0.24263019791012411 0.42803682032005991 0 -0.241034552697166 0.41286836770778501 0 -0.24263019791012411 0.42803682032005991 0 -0.23881831920799079 0.42424335086624981 0 -0.22162162460370111 0.40801623681407218 0 -0.241034552697166 0.41286836770778501 0 -0.24388213391773941 0.40163479241199579 0 -0.2301621318308705 0.41771135234831969 0 -0.241034552697166 0.41286836770778501 0 -0.23881831920799079 0.42424335086624981 0 -0.25157066981256843 0.40894445920752592 0 -0.241034552697166 0.41286836770778501 0 -0.24388213391773941 0.40163479241199579 0 -0.2313941741476824 0.42795323546389102 0 -0.24263019791012411 0.42803682032005991 0 -0.23881831920799079 0.42424335086624981 0 -0.24263019791012411 0.42803682032005991 0 -0.23881831920799079 0.42424335086624981 0 -0.25453646971320443 0.37462232419521813 0 -0.24781733580734391 0.38604582424895789 0 -0.23735930512057779 0.37349779701461089 0 -0.2365264908337599 0.38834162546439549 0 -0.24781733580734391 0.38604582424895789 0 -0.23735930512057779 0.37349779701461089 0 -0.2365264908337599 0.38834162546439549 0 -0.24781733580734391 0.38604582424895789 0 -0.24388213391773941 0.40163479241199579 0 -0.22162162460370111 0.40801623681407218 0 -0.24388213391773941 0.40163479241199579 0 -0.22162162460370111 0.40801623681407218 0 -0.2365264908337599 0.38834162546439549 0 -0.2225569648072106 0.38059728391652659 0 -0.22162162460370111 0.40801623681407218 0 -0.2365264908337599 0.38834162546439549 0 -0.24388213391773941 0.40163479241199579 0 -0.2365264908337599 0.38834162546439549 0 -0.2225569648072106 0.38059728391652659 0 -0.23735930512057779 0.37349779701461089 0 -0.2225569648072106 0.38059728391652659 0 -0.20545957084956781 0.38789926664213359 0 -0.1994770785436861 0.36691897370504389 0 -0.22162162460370111 0.40801623681407218 0 -0.2225569648072106 0.38059728391652659 0 -0.20545957084956781 0.38789926664213359 0 -0.22162162460370111 0.40801623681407218 0 -0.20545957084956781 0.38789926664213359 0 -0.19460267291041519 0.40299123798476227 0 -0.20545957084956781 0.38789926664213359 0 -0.19460267291041519 0.40299123798476227 0 -0.18736095772118591 0.3836472042370111 0 -0.20545957084956781 0.38789926664213359 0 -0.18736095772118591 0.3836472042370111 0 -0.1994770785436861 0.36691897370504389 0 -0.18736095772118591 0.3836472042370111 0 -0.16248792359233191 0.38534127627451031 0 -0.17644948136236779 0.3976803029940168 0 -0.18736095772118591 0.3836472042370111 0 -0.16248792359233191 0.38534127627451031 0 -0.1741500565645078 0.37123080613525078 0 -0.16248792359233191 0.38534127627451031 0 -0.16330635783110381 0.4038062271485704 0 -0.14438589058212131 0.3948348353259919 0 -0.16248792359233191 0.38534127627451031 0 -0.16330635783110381 0.4038062271485704 0 -0.17644948136236779 0.3976803029940168 0 -0.19460267291041519 0.40299123798476227 0 -0.17644948136236779 0.3976803029940168 0 -0.17778078602166139 0.40821888849324761 0 -0.19460267291041519 0.40299123798476227 0 -0.18736095772118591 0.3836472042370111 0 -0.17644948136236779 0.3976803029940168 0 -0.16330635783110381 0.4038062271485704 0 -0.17644948136236779 0.3976803029940168 0 -0.17778078602166139 0.40821888849324761 0 -0.19460267291041519 0.40299123798476227 0 -0.182164522352502 0.41833083015148409 0 -0.17778078602166139 0.40821888849324761 0 -0.182164522352502 0.41833083015148409 0 -0.1723808956519178 0.41828584418740389 0 -0.17778078602166139 0.40821888849324761 0 -0.19176926968858449 0.42488004754311998 0 -0.182164522352502 0.41833083015148409 0 -0.18693863061853061 0.43491447939059907 0 -0.182164522352502 0.41833083015148409 0 -0.18693863061853061 0.43491447939059907 0 -0.1697263717945888 0.43367042231820602 0 -0.182164522352502 0.41833083015148409 0 -0.1697263717945888 0.43367042231820602 0 -0.182164522352502 0.41833083015148409 0 -0.1723808956519178 0.41828584418740389 0 -0.1697263717945888 0.43367042231820602 0 -0.15995177900170021 0.44572512983606088 0 -0.1697263717945888 0.43367042231820602 0 -0.15376963845050121 0.4328235067909087 0 -0.1697263717945888 0.43367042231820602 0 -0.14650538949161929 0.41591584262955861 0 -0.15376963845050121 0.4328235067909087 0 -0.1697263717945888 0.43367042231820602 0 -0.14650538949161929 0.41591584262955861 0 -0.1723808956519178 0.41828584418740389 0 -0.1697263717945888 0.43367042231820602 0 -0.14650538949161929 0.41591584262955861 0 -0.1723808956519178 0.41828584418740389 0 -0.14650538949161929 0.41591584262955861 0 -0.16330635783110381 0.4038062271485704 0 -0.1723808956519178 0.41828584418740389 0 -0.14650538949161929 0.41591584262955861 0 -0.16330635783110381 0.4038062271485704 0 -0.1723808956519178 0.41828584418740389 0 -0.17778078602166139 0.40821888849324761 0 -0.14650538949161929 0.41591584262955861 0 -0.15376963845050121 0.4328235067909087 0 -0.13889501351409689 0.43598263237980822 0 -0.13889501351409689 0.43598263237980822 0 -0.12761284081938409 0.41418542740570108 0 -0.14650538949161929 0.41591584262955861 0 -0.13889501351409689 0.43598263237980822 0 -0.12761284081938409 0.41418542740570108 0 -0.13889501351409689 0.43598263237980822 0 -0.12761284081938409 0.41418542740570108 0 -0.1242648033483075 0.43981492828754482 0 -0.14650538949161929 0.41591584262955861 0 -0.12761284081938409 0.41418542740570108 0 -0.12644786621320531 0.40058001872868543 0 -0.14650538949161929 0.41591584262955861 0 -0.12644786621320531 0.40058001872868543 0 -0.14650538949161929 0.41591584262955861 0 -0.12761284081938409 0.41418542740570108 0 -0.14650538949161929 0.41591584262955861 0 -0.12644786621320531 0.40058001872868543 0 -0.14438589058212131 0.3948348353259919 0 -0.12644786621320531 0.40058001872868543 0 -0.12826940643264259 0.38638828685515292 0 -0.14438589058212131 0.3948348353259919 0 -0.1399268433138337 0.37661104245066729 0 -0.12826940643264259 0.38638828685515292 0 -0.1198206075896991 0.37069234566290138 0 -0.1399268433138337 0.37661104245066729 0 -0.12826940643264259 0.38638828685515292 0 -0.14438589058212131 0.3948348353259919 0 -0.16248792359233191 0.38534127627451031 0 -0.1399268433138337 0.37661104245066729 0 -0.1571746455416145 0.36408416689185819 0 -0.16248792359233191 0.38534127627451031 0 -0.1399268433138337 0.37661104245066729 0 -0.14438589058212131 0.3948348353259919 0 -0.16330635783110381 0.4038062271485704 0 -0.14650538949161929 0.41591584262955861 0 -0.14438589058212131 0.3948348353259919 0 -0.1367685514822152 0.35851885971508118 0 -0.13367478836053351 0.33932016938713638 0 -0.15331730601663701 0.3395623532820784 0 -0.1367685514822152 0.35851885971508118 0 -0.15331730601663701 0.3395623532820784 0 -0.1571746455416145 0.36408416689185819 0 -0.1399268433138337 0.37661104245066729 0 -0.1367685514822152 0.35851885971508118 0 -0.1571746455416145 0.36408416689185819 0 -0.1399268433138337 0.37661104245066729 0 -0.1367685514822152 0.35851885971508118 0 -0.1198206075896991 0.37069234566290138 0 -0.1367685514822152 0.35851885971508118 0 -0.13367478836053351 0.33932016938713638 0 -0.1173066256070304 0.35104950557859033 0 -0.13367478836053351 0.33932016938713638 0 -0.1262409447270301 0.3211703831111522 0 -0.1175879007316586 0.33497855513245622 0 -0.13367478836053351 0.33932016938713638 0 -0.1262409447270301 0.3211703831111522 0 -0.14995133854557879 0.31573290008088639 0 -0.1262409447270301 0.3211703831111522 0 -0.14995133854557879 0.31573290008088639 0 -0.13170636281121431 0.30540396541675668 0 -0.13367478836053351 0.33932016938713638 0 -0.14995133854557879 0.31573290008088639 0 -0.15331730601663701 0.3395623532820784 0 -0.15331730601663701 0.3395623532820784 0 -0.17079439025487569 0.32494122108339912 0 -0.1763971922801616 0.3532406634935612 0 -0.14995133854557879 0.31573290008088639 0 -0.17079439025487569 0.32494122108339912 0 -0.167164841548782 0.29891422322321631 0 -0.14995133854557879 0.31573290008088639 0 -0.15331730601663701 0.3395623532820784 0 -0.17079439025487569 0.32494122108339912 0 -0.17079439025487569 0.32494122108339912 0 -0.19256976679114979 0.33165381796875049 0 -0.19699128312530151 0.30504565645142051 0 -0.17079439025487569 0.32494122108339912 0 -0.1763971922801616 0.3532406634935612 0 -0.19256976679114979 0.33165381796875049 0 -0.15331730601663701 0.3395623532820784 0 -0.1763971922801616 0.3532406634935612 0 -0.1571746455416145 0.36408416689185819 0 -0.15331730601663701 0.3395623532820784 0 -0.1763971922801616 0.3532406634935612 0 -0.1763971922801616 0.3532406634935612 0 -0.1571746455416145 0.36408416689185819 0 -0.1741500565645078 0.37123080613525078 0 -0.16248792359233191 0.38534127627451031 0 -0.1571746455416145 0.36408416689185819 0 -0.1741500565645078 0.37123080613525078 0 -0.18736095772118591 0.3836472042370111 0 -0.1741500565645078 0.37123080613525078 0 -0.1994770785436861 0.36691897370504389 0 -0.1763971922801616 0.3532406634935612 0 -0.1741500565645078 0.37123080613525078 0 -0.1994770785436861 0.36691897370504389 0 -0.1763971922801616 0.3532406634935612 0 -0.1994770785436861 0.36691897370504389 0 -0.1763971922801616 0.3532406634935612 0 -0.20127160642404629 0.34878804965207372 0 -0.19256976679114979 0.33165381796875049 0 -0.1763971922801616 0.3532406634935612 0 -0.1994770785436861 0.36691897370504389 0 -0.20127160642404629 0.34878804965207372 0 -0.1994770785436861 0.36691897370504389 0 -0.20127160642404629 0.34878804965207372 0 -0.22480168799342179 0.35512276170724633 0 -0.20127160642404629 0.34878804965207372 0 -0.22480168799342179 0.35512276170724633 0 -0.2131123065118124 0.33700403138576668 0 -0.2225569648072106 0.38059728391652659 0 -0.1994770785436861 0.36691897370504389 0 -0.2225569648072106 0.38059728391652659 0 -0.1994770785436861 0.36691897370504389 0 -0.22480168799342179 0.35512276170724633 0 -0.2225569648072106 0.38059728391652659 0 -0.22480168799342179 0.35512276170724633 0 -0.23735930512057779 0.37349779701461089 0 -0.25368472498167011 0.34420349485172652 0 -0.22480168799342179 0.35512276170724633 0 -0.24822911175635759 0.36217347122335058 0 -0.22480168799342179 0.35512276170724633 0 -0.24822911175635759 0.36217347122335058 0 -0.23735930512057779 0.37349779701461089 0 -0.25453646971320443 0.37462232419521813 0 -0.24822911175635759 0.36217347122335058 0 -0.23735930512057779 0.37349779701461089 0 -0.25757488899104952 0.31786411623381933 0 -0.23478691102954721 0.33115088205162452 0 -0.2366570207200871 0.30010935915934539 0 -0.25368472498167011 0.34420349485172652 0 -0.22480168799342179 0.35512276170724633 0 -0.23478691102954721 0.33115088205162452 0 -0.25368472498167011 0.34420349485172652 0 -0.23478691102954721 0.33115088205162452 0 -0.25757488899104952 0.31786411623381933 0 -0.25368472498167011 0.34420349485172652 0 -0.23478691102954721 0.33115088205162452 0 -0.23478691102954721 0.33115088205162452 0 -0.2158890970774244 0.31809826925152251 0 -0.2131123065118124 0.33700403138576668 0 -0.22480168799342179 0.35512276170724633 0 -0.23478691102954721 0.33115088205162452 0 -0.2131123065118124 0.33700403138576668 0 -0.23478691102954721 0.33115088205162452 0 -0.2158890970774244 0.31809826925152251 0 -0.2366570207200871 0.30010935915934539 0 -0.23478691102954721 0.33115088205162452 0 -0.2158890970774244 0.31809826925152251 0 -0.2158890970774244 0.31809826925152251 0 -0.2131123065118124 0.33700403138576668 0 -0.19256976679114979 0.33165381796875049 0 -0.20127160642404629 0.34878804965207372 0 -0.2131123065118124 0.33700403138576668 0 -0.19256976679114979 0.33165381796875049 0 -0.2158890970774244 0.31809826925152251 0 -0.19256976679114979 0.33165381796875049 0 -0.19699128312530151 0.30504565645142051 0 -0.19699128312530151 0.30504565645142051 0 -0.2044220976180971 0.2747921468301005 0 -0.18537993383704029 0.28397978744787411 0 -0.19699128312530151 0.30504565645142051 0 -0.21636901433909059 0.29447561219915308 0 -0.2044220976180971 0.2747921468301005 0 -0.2158890970774244 0.31809826925152251 0 -0.19699128312530151 0.30504565645142051 0 -0.21636901433909059 0.29447561219915308 0 -0.2158890970774244 0.31809826925152251 0 -0.19699128312530151 0.30504565645142051 0 -0.2158890970774244 0.31809826925152251 0 -0.21636901433909059 0.29447561219915308 0 -0.2366570207200871 0.30010935915934539 0 -0.21636901433909059 0.29447561219915308 0 -0.2366570207200871 0.30010935915934539 0 -0.2235041758045673 0.27405874977876837 0 -0.26277913973510902 0.29023342414179659 0 -0.2366570207200871 0.30010935915934539 0 -0.2447247674615598 0.2718938593685879 0 -0.2366570207200871 0.30010935915934539 0 -0.2447247674615598 0.2718938593685879 0 -0.2235041758045673 0.27405874977876837 0 -0.25693865295534157 0.25278860643768353 0 -0.2416444700809012 0.25186566196455601 0 -0.2447247674615598 0.2718938593685879 0 -0.2416444700809012 0.25186566196455601 0 -0.2447247674615598 0.2718938593685879 0 -0.22667039518801041 0.25355429459537898 0 -0.2447247674615598 0.2718938593685879 0 -0.22667039518801041 0.25355429459537898 0 -0.2447247674615598 0.2718938593685879 0 -0.2235041758045673 0.27405874977876837 0 -0.22667039518801041 0.25355429459537898 0 -0.2235041758045673 0.27405874977876837 0 -0.22667039518801041 0.25355429459537898 0 -0.21218175950055909 0.24952722652004439 0 -0.2044220976180971 0.2747921468301005 0 -0.1929026130837673 0.25762258695206858 0 -0.21218175950055909 0.24952722652004439 0 -0.2044220976180971 0.2747921468301005 0 -0.21218175950055909 0.24952722652004439 0 -0.2235041758045673 0.27405874977876837 0 -0.2044220976180971 0.2747921468301005 0 -0.21218175950055909 0.24952722652004439 0 -0.21636901433909059 0.29447561219915308 0 -0.2235041758045673 0.27405874977876837 0 -0.2044220976180971 0.2747921468301005 0 -0.2044220976180971 0.2747921468301005 0 -0.1929026130837673 0.25762258695206858 0 -0.18537993383704029 0.28397978744787411 0 -0.1929026130837673 0.25762258695206858 0 -0.16582228118094081 0.26466105519565358 0 -0.18651378479530609 0.23505073182760211 0 -0.1929026130837673 0.25762258695206858 0 -0.16582228118094081 0.26466105519565358 0 -0.18537993383704029 0.28397978744787411 0 -0.16582228118094081 0.26466105519565358 0 -0.167164841548782 0.29891422322321631 0 -0.14136362158270599 0.28508793949713551 0 -0.16582228118094081 0.26466105519565358 0 -0.18537993383704029 0.28397978744787411 0 -0.167164841548782 0.29891422322321631 0 -0.19699128312530151 0.30504565645142051 0 -0.18537993383704029 0.28397978744787411 0 -0.167164841548782 0.29891422322321631 0 -0.17079439025487569 0.32494122108339912 0 -0.19699128312530151 0.30504565645142051 0 -0.167164841548782 0.29891422322321631 0 -0.167164841548782 0.29891422322321631 0 -0.14136362158270599 0.28508793949713551 0 -0.14995133854557879 0.31573290008088639 0 -0.167164841548782 0.29891422322321631 0 -0.14136362158270599 0.28508793949713551 0 -0.14995133854557879 0.31573290008088639 0 -0.14136362158270599 0.28508793949713551 0 -0.13170636281121431 0.30540396541675668 0 -0.1262409447270301 0.3211703831111522 0 -0.13170636281121431 0.30540396541675668 0 -0.1173504618646501 0.30916380798395637 0 -0.14136362158270599 0.28508793949713551 0 -0.13170636281121431 0.30540396541675668 0 -0.1202787732923796 0.29457691953651272 0 -0.14136362158270599 0.28508793949713551 0 -0.1196693143642453 0.28329908912575552 0 -0.1202787732923796 0.29457691953651272 0 -0.14136362158270599 0.28508793949713551 0 -0.1155624016166297 0.27126165577105521 0 -0.1196693143642453 0.28329908912575552 0 -0.14136362158270599 0.28508793949713551 0 -0.1155624016166297 0.27126165577105521 0 -0.12872708527658799 0.25991420809329241 0 -0.1416417428525672 0.26777243923482702 0 -0.1155624016166297 0.27126165577105521 0 -0.14136362158270599 0.28508793949713551 0 -0.1416417428525672 0.26777243923482702 0 -0.1155624016166297 0.27126165577105521 0 -0.12872708527658799 0.25991420809329241 0 -0.14534546737678511 0.25129379472131641 0 -0.1416417428525672 0.26777243923482702 0 -0.12872708527658799 0.25991420809329241 0 -0.14534546737678511 0.25129379472131641 0 -0.12470300375741469 0.2457033751303839 0 -0.16582228118094081 0.26466105519565358 0 -0.14534546737678511 0.25129379472131641 0 -0.1416417428525672 0.26777243923482702 0 -0.16582228118094081 0.26466105519565358 0 -0.14136362158270599 0.28508793949713551 0 -0.1416417428525672 0.26777243923482702 0 -0.1083690905562489 0.27746201143443072 0 -0.10470287070229969 0.27376422074294909 0 -0.09206590757372593 0.27740472432850488 0 -0.099741497972773749 0.27068482051400677 0 -0.1098053558875477 0.27272524579145851 0 -0.092391857727521592 0.25884509119311472 0 -0.1155624016166297 0.27126165577105521 0 -0.1098053558875477 0.27272524579145851 0 -0.092391857727521592 0.25884509119311472 0 -0.099741497972773749 0.27068482051400677 0 -0.09206590757372593 0.27740472432850488 0 -0.092391857727521592 0.25884509119311472 0 -0.10470287070229969 0.27376422074294909 0 -0.099741497972773749 0.27068482051400677 0 -0.1098053558875477 0.27272524579145851 0 -0.1083690905562489 0.27746201143443072 0 -0.1098053558875477 0.27272524579145851 0 -0.1083690905562489 0.27746201143443072 0 -0.10470287070229969 0.27376422074294909 0 -0.1098053558875477 0.27272524579145851 0 -0.10470287070229969 0.27376422074294909 0 -0.099741497972773749 0.27068482051400677 0 -0.09206590757372593 0.27740472432850488 0 -0.1155624016166297 0.27126165577105521 0 -0.092391857727521592 0.25884509119311472 0 -0.11076524853809321 0.25238606884059173 0 -0.1155624016166297 0.27126165577105521 0 -0.092391857727521592 0.25884509119311472 0 -0.11076524853809321 0.25238606884059173 0 -0.1199394347971814 0.25731632695883078 0 -0.1155624016166297 0.27126165577105521 0 -0.12872708527658799 0.25991420809329241 0 -0.1199394347971814 0.25731632695883078 0 -0.12470300375741469 0.2457033751303839 0 -0.11076524853809321 0.25238606884059173 0 -0.1199394347971814 0.25731632695883078 0 -0.12470300375741469 0.2457033751303839 0 -0.12872708527658799 0.25991420809329241 0 -0.1199394347971814 0.25731632695883078 0 -0.1155624016166297 0.27126165577105521 0 -0.12872708527658799 0.25991420809329241 0 -0.1155624016166297 0.27126165577105521 0 -0.1083690905562489 0.27746201143443072 0 -0.1155624016166297 0.27126165577105521 0 -0.1196693143642453 0.28329908912575552 0 -0.1083690905562489 0.27746201143443072 0 -0.1155624016166297 0.27126165577105521 0 -0.1098053558875477 0.27272524579145851 0 -0.1083690905562489 0.27746201143443072 0 -0.1155624016166297 0.27126165577105521 0 -0.1083690905562489 0.27746201143443072 0 -0.1202787732923796 0.29457691953651272 0 -0.1003457715998239 0.30392270831765028 0 -0.1083690905562489 0.27746201143443072 0 -0.1196693143642453 0.28329908912575552 0 -0.1202787732923796 0.29457691953651272 0 -0.1202787732923796 0.29457691953651272 0 -0.1173504618646501 0.30916380798395637 0 -0.1003457715998239 0.30392270831765028 0 -0.13170636281121431 0.30540396541675668 0 -0.1202787732923796 0.29457691953651272 0 -0.1173504618646501 0.30916380798395637 0 -0.1173504618646501 0.30916380798395637 0 -0.1003457715998239 0.30392270831765028 0 -0.1081804568928026 0.32074506353771021 0 -0.1083690905562489 0.27746201143443072 0 -0.08834593029567378 0.29472120043351602 0 -0.09206590757372593 0.27740472432850488 0 -0.1083690905562489 0.27746201143443072 0 -0.1003457715998239 0.30392270831765028 0 -0.08834593029567378 0.29472120043351602 0 -0.1083690905562489 0.27746201143443072 0 -0.1003457715998239 0.30392270831765028 0 -0.1083690905562489 0.27746201143443072 0 -0.08834593029567378 0.29472120043351602 0 -0.08834593029567378 0.29472120043351602 0 -0.079344374197139078 0.28508182268507098 0 -0.09206590757372593 0.27740472432850488 0 -0.08834593029567378 0.29472120043351602 0 -0.072463929930227558 0.29930610977545041 0 -0.077617967212061698 0.29366907382828078 0 -0.08834593029567378 0.29472120043351602 0 -0.079344374197139078 0.28508182268507098 0 -0.077617967212061698 0.29366907382828078 0 -0.08834593029567378 0.29472120043351602 0 -0.087527931766016032 0.31235393694025021 0 -0.08121949171140587 0.31012908581564408 0 -0.08834593029567378 0.29472120043351602 0 -0.068322770035098762 0.31198038943260148 0 -0.1003457715998239 0.30392270831765028 0 -0.08834593029567378 0.29472120043351602 0 -0.087527931766016032 0.31235393694025021 0 -0.08834593029567378 0.29472120043351602 0 -0.08121949171140587 0.31012908581564408 0 -0.069852456288818351 0.31207980665071 0 -0.08834593029567378 0.29472120043351602 0 -0.068322770035098762 0.31198038943260148 0 -0.069852456288818351 0.31207980665071 0 -0.08834593029567378 0.29472120043351602 0 -0.072463929930227558 0.29930610977545041 0 -0.068322770035098762 0.31198038943260148 0 -0.072463929930227558 0.29930610977545041 0 -0.064179569528432873 0.29754197169583518 0 -0.063962500348327456 0.30379626580195229 0 -0.072463929930227558 0.29930610977545041 0 -0.063962500348327456 0.30379626580195229 0 -0.068322770035098762 0.31198038943260148 0 -0.068322770035098762 0.31198038943260148 0 -0.069852456288818351 0.31207980665071 0 -0.079344374197139078 0.28508182268507098 0 -0.070510141993048517 0.29225124769799787 0 -0.067485792004003509 0.28106498521306011 0 -0.079344374197139078 0.28508182268507098 0 -0.077617967212061698 0.29366907382828078 0 -0.070510141993048517 0.29225124769799787 0 -0.072463929930227558 0.29930610977545041 0 -0.077617967212061698 0.29366907382828078 0 -0.070510141993048517 0.29225124769799787 0 -0.064179569528432873 0.29754197169583518 0 -0.070510141993048517 0.29225124769799787 0 -0.059799020663136082 0.29068729405280619 0 -0.072463929930227558 0.29930610977545041 0 -0.064179569528432873 0.29754197169583518 0 -0.070510141993048517 0.29225124769799787 0 -0.070510141993048517 0.29225124769799787 0 -0.067485792004003509 0.28106498521306011 0 -0.059799020663136082 0.29068729405280619 0 -0.079344374197139078 0.28508182268507098 0 -0.077112635008727601 0.26938653581869981 0 -0.067485792004003509 0.28106498521306011 0 -0.077112635008727601 0.26938653581869981 0 -0.067485792004003509 0.28106498521306011 0 -0.060296114269721542 0.26705395206363342 0 -0.079344374197139078 0.28508182268507098 0 -0.077112635008727601 0.26938653581869981 0 -0.09206590757372593 0.27740472432850488 0 -0.077112635008727601 0.26938653581869981 0 -0.09206590757372593 0.27740472432850488 0 -0.092391857727521592 0.25884509119311472 0 -0.092391857727521592 0.25884509119311472 0 -0.069221313838413207 0.24642852661517459 0 -0.077112635008727601 0.26938653581869981 0 -0.092391857727521592 0.25884509119311472 0 -0.069221313838413207 0.24642852661517459 0 -0.077112635008727601 0.26938653581869981 0 -0.060296114269721542 0.26705395206363342 0 -0.069221313838413207 0.24642852661517459 0 -0.048126263350958612 0.25465777805589501 0 -0.060296114269721542 0.26705395206363342 0 -0.069221313838413207 0.24642852661517459 0 -0.048126263350958612 0.25465777805589501 0 -0.060296114269721542 0.26705395206363342 0 -0.041784573477856593 0.2719242686623195 0 -0.055384127889045079 0.27986410773994991 0 -0.060296114269721542 0.26705395206363342 0 -0.041784573477856593 0.2719242686623195 0 -0.055384127889045079 0.27986410773994991 0 -0.041784573477856593 0.2719242686623195 0 -0.044370237993260717 0.29032640624232281 0 -0.067485792004003509 0.28106498521306011 0 -0.055384127889045079 0.27986410773994991 0 -0.060296114269721542 0.26705395206363342 0 -0.041784573477856593 0.2719242686623195 0 -0.028053557715267439 0.25838243531431121 0 -0.02550209953536561 0.27186686885002359 0 -0.041784573477856593 0.2719242686623195 0 -0.02550209953536561 0.27186686885002359 0 -0.031040102747703489 0.28267752730564011 0 -0.048126263350958612 0.25465777805589501 0 -0.041784573477856593 0.2719242686623195 0 -0.028053557715267439 0.25838243531431121 0 -0.048126263350958612 0.25465777805589501 0 -0.028053557715267439 0.25838243531431121 0 -0.033382390283993792 0.24359412621706661 0 -0.028053557715267439 0.25838243531431121 0 -0.01504563196256534 0.26333196488375049 0 -0.01778818590069102 0.2421293126167848 0 -0.01504563196256534 0.26333196488375049 0 -0.01778818590069102 0.2421293126167848 0 -0.028053557715267439 0.25838243531431121 0 -0.02550209953536561 0.27186686885002359 0 -0.01504563196256534 0.26333196488375049 0 -0.028053557715267439 0.25838243531431121 0 -0.01504563196256534 0.26333196488375049 0 -0.02550209953536561 0.27186686885002359 0 -0.01214761008608776 0.28573653795517551 0 -0.031040102747703489 0.28267752730564011 0 -0.02550209953536561 0.27186686885002359 0 -0.01504563196256534 0.26333196488375049 0 -0.01214761008608776 0.28573653795517551 0 -0.001267499687089951 0.2776013217203892 0 -0.01504563196256534 0.26333196488375049 0 -0.01214761008608776 0.28573653795517551 0 -0.01504563196256534 0.26333196488375049 0 -0.01214761008608776 0.28573653795517551 0 -0.00067809962666212902 0.26216505597133072 0 -0.01504563196256534 0.26333196488375049 0 0.010965700908337589 0.27322930467739909 0 -0.001267499687089951 0.2776013217203892 0 -0.01504563196256534 0.26333196488375049 0 0.010965700908337589 0.27322930467739909 0 -0.01504563196256534 0.26333196488375049 0 0.010965700908337589 0.27322930467739909 0 -0.0087132352456033638 0.25173417187717928 0 -0.01504563196256534 0.26333196488375049 0 -0.01778818590069102 0.2421293126167848 0 -0.00067809962666212902 0.26216505597133072 0 -0.0087132352456033638 0.25173417187717928 0 0.0027594708259384838 0.25829047161104352 0 -0.00067809962666212902 0.26216505597133072 0 -0.0087132352456033638 0.25173417187717928 0 -0.01504563196256534 0.26333196488375049 0 -0.009249588209606344 0.30814111102660002 0 -0.01214761008608776 0.28573653795517551 0 0.0038021096493471361 0.29689124930627131 0 -0.009249588209606344 0.30814111102660002 0 -0.01214761008608776 0.28573653795517551 0 -0.01214761008608776 0.28573653795517551 0 0.002380999114604244 0.28599596302517022 0 0.0038021096493471361 0.29689124930627131 0 -0.001267499687089951 0.2776013217203892 0 -0.01214761008608776 0.28573653795517551 0 0.002380999114604244 0.28599596302517022 0 -0.009249588209606344 0.30814111102660002 0 -0.01214761008608776 0.28573653795517551 0 -0.02711874363180217 0.2953884665518679 0 -0.01214761008608776 0.28573653795517551 0 -0.031040102747703489 0.28267752730564011 0 -0.02711874363180217 0.2953884665518679 0 -0.009249588209606344 0.30814111102660002 0 -0.02711874363180217 0.2953884665518679 0 -0.038786179122352507 0.31006075022960111 0 -0.009249588209606344 0.30814111102660002 0 -0.038786179122352507 0.31006075022960111 0 -0.02711874363180217 0.2953884665518679 0 -0.038786179122352507 0.31006075022960111 0 -0.044370237993260717 0.29032640624232281 0 -0.038786179122352507 0.31006075022960111 0 -0.044370237993260717 0.29032640624232281 0 -0.054162254707424723 0.30166894115096898 0 -0.031040102747703489 0.28267752730564011 0 -0.02711874363180217 0.2953884665518679 0 -0.044370237993260717 0.29032640624232281 0 -0.041784573477856593 0.2719242686623195 0 -0.031040102747703489 0.28267752730564011 0 -0.044370237993260717 0.29032640624232281 0 -0.055384127889045079 0.27986410773994991 0 -0.044370237993260717 0.29032640624232281 0 -0.059799020663136082 0.29068729405280619 0 -0.044370237993260717 0.29032640624232281 0 -0.059799020663136082 0.29068729405280619 0 -0.054162254707424723 0.30166894115096898 0 -0.064179569528432873 0.29754197169583518 0 -0.059799020663136082 0.29068729405280619 0 -0.054162254707424723 0.30166894115096898 0 -0.067485792004003509 0.28106498521306011 0 -0.055384127889045079 0.27986410773994991 0 -0.059799020663136082 0.29068729405280619 0 -0.068322770035098762 0.31198038943260148 0 -0.038786179122352507 0.31006075022960111 0 -0.068322770035098762 0.31198038943260148 0 -0.038786179122352507 0.31006075022960111 0 -0.054162254707424723 0.30166894115096898 0 -0.064179569528432873 0.29754197169583518 0 -0.063962500348327456 0.30379626580195229 0 -0.054162254707424723 0.30166894115096898 0 -0.063962500348327456 0.30379626580195229 0 -0.068322770035098762 0.31198038943260148 0 -0.054162254707424723 0.30166894115096898 0 -0.068322770035098762 0.31198038943260148 0 -0.038786179122352507 0.31006075022960111 0 -0.053879496619987192 0.32442993198196868 0 -0.068322770035098762 0.31198038943260148 0 -0.053879496619987192 0.32442993198196868 0 -0.059045099567240703 0.33862263320968672 0 -0.059976501396798443 0.34640013057040159 0 -0.068046633572776155 0.34513696516333192 0 -0.053879496619987192 0.32442993198196868 0 -0.059045099567240703 0.33862263320968672 0 -0.06815446288386498 0.3263880450875648 0 -0.053879496619987192 0.32442993198196868 0 -0.059045099567240703 0.33862263320968672 0 -0.049717572699208172 0.33977374392884352 0 -0.053879496619987192 0.32442993198196868 0 -0.049717572699208172 0.33977374392884352 0 -0.039436223204876379 0.33687947453133682 0 -0.059045099567240703 0.33862263320968672 0 -0.049717572699208172 0.33977374392884352 0 -0.052933118771744558 0.34753778728834739 0 -0.049717572699208172 0.33977374392884352 0 -0.039436223204876379 0.33687947453133682 0 -0.045752302425533672 0.34929255203680049 0 -0.053879496619987192 0.32442993198196868 0 -0.039436223204876379 0.33687947453133682 0 -0.039359444206513459 0.32419621080282812 0 -0.053879496619987192 0.32442993198196868 0 -0.039436223204876379 0.33687947453133682 0 -0.039436223204876379 0.33687947453133682 0 -0.039359444206513459 0.32419621080282812 0 -0.02531264429424256 0.33765677836634578 0 -0.039436223204876379 0.33687947453133682 0 -0.02531264429424256 0.33765677836634578 0 -0.034795741464765127 0.3466441775467104 0 -0.038786179122352507 0.31006075022960111 0 -0.053879496619987192 0.32442993198196868 0 -0.039359444206513459 0.32419621080282812 0 -0.038786179122352507 0.31006075022960111 0 -0.039359444206513459 0.32419621080282812 0 -0.024068293084679539 0.32272721199300619 0 -0.009249588209606344 0.30814111102660002 0 -0.038786179122352507 0.31006075022960111 0 -0.024068293084679539 0.32272721199300619 0 -0.024068293084679539 0.32272721199300619 0 -0.02531264429424256 0.33765677836634578 0 -0.005758602284471958 0.33512988219008361 0 -0.039359444206513459 0.32419621080282812 0 -0.024068293084679539 0.32272721199300619 0 -0.02531264429424256 0.33765677836634578 0 -0.005758602284471958 0.33512988219008361 0 -0.0077202170519437719 0.34710906184019069 0 0.0082446038140756572 0.34376242611402219 0 -0.02531264429424256 0.33765677836634578 0 -0.005758602284471958 0.33512988219008361 0 -0.0077202170519437719 0.34710906184019069 0 -0.009249588209606344 0.30814111102660002 0 -0.005758602284471958 0.33512988219008361 0 0.0094307060340404689 0.32376070079746733 0 -0.009249588209606344 0.30814111102660002 0 -0.005758602284471958 0.33512988219008361 0 -0.009249588209606344 0.30814111102660002 0 -0.024068293084679539 0.32272721199300619 0 -0.005758602284471958 0.33512988219008361 0 -0.0045677851665312944 0.36532665559408428 0 -0.0087141207398781558 0.37710904293520409 0 0.0077169544749549623 0.36306791211952738 0 -0.0045677851665312944 0.36532665559408428 0 -0.019623601183504629 0.35541479533684739 0 -0.0087141207398781558 0.37710904293520409 0 -0.0087141207398781558 0.37710904293520409 0 0.0077169544749549623 0.36306791211952738 0 -0.0077202170519437719 0.34710906184019069 0 -0.019623601183504629 0.35541479533684739 0 0.0038095970876644218 0.35606187191015221 0 -0.019623601183504629 0.35541479533684739 0 0.0038095970876644218 0.35606187191015221 0 -0.0045677851665312944 0.36532665559408428 0 -0.019623601183504629 0.35541479533684739 0 0.0038095970876644218 0.35606187191015221 0 -0.02531264429424256 0.33765677836634578 0 -0.019623601183504629 0.35541479533684739 0 -0.034795741464765127 0.3466441775467104 0 -0.02531264429424256 0.33765677836634578 0 -0.0077202170519437719 0.34710906184019069 0 -0.019623601183504629 0.35541479533684739 0 -0.019623601183504629 0.35541479533684739 0 -0.034100997704691827 0.37295894625721099 0 -0.0087141207398781558 0.37710904293520409 0 -0.019623601183504629 0.35541479533684739 0 -0.034100997704691827 0.37295894625721099 0 -0.043056799454673583 0.35476771876354157 0 -0.034100997704691827 0.37295894625721099 0 -0.047131069669461997 0.36807368878450081 0 -0.054593457040109393 0.3822816536988497 0 -0.034100997704691827 0.37295894625721099 0 -0.043056799454673583 0.35476771876354157 0 -0.034100997704691827 0.37295894625721099 0 -0.043056799454673583 0.35476771876354157 0 -0.047131069669461997 0.36807368878450081 0 -0.019623601183504629 0.35541479533684739 0 -0.043056799454673583 0.35476771876354157 0 -0.019623601183504629 0.35541479533684739 0 -0.034795741464765127 0.3466441775467104 0 -0.043056799454673583 0.35476771876354157 0 -0.043056799454673583 0.35476771876354157 0 -0.045752302425533672 0.34929255203680049 0 -0.039436223204876379 0.33687947453133682 0 -0.034795741464765127 0.3466441775467104 0 -0.045752302425533672 0.34929255203680049 0 -0.034795741464765127 0.3466441775467104 0 -0.043056799454673583 0.35476771876354157 0 -0.045752302425533672 0.34929255203680049 0 -0.043056799454673583 0.35476771876354157 0 -0.052933118771744558 0.34753778728834739 0 -0.059881153675432383 0.35430313662024071 0 -0.043056799454673583 0.35476771876354157 0 -0.059881153675432383 0.35430313662024071 0 -0.051828064233363932 0.36038047858465339 0 -0.043056799454673583 0.35476771876354157 0 -0.059881153675432383 0.35430313662024071 0 -0.043056799454673583 0.35476771876354157 0 -0.045752302425533672 0.34929255203680049 0 -0.052933118771744558 0.34753778728834739 0 -0.049717572699208172 0.33977374392884352 0 -0.045752302425533672 0.34929255203680049 0 -0.052933118771744558 0.34753778728834739 0 -0.059881153675432383 0.35430313662024071 0 -0.051828064233363932 0.36038047858465339 0 -0.058626870601395778 0.36023180910453118 0 -0.059045099567240703 0.33862263320968672 0 -0.052933118771744558 0.34753778728834739 0 -0.059976501396798443 0.34640013057040159 0 -0.052933118771744558 0.34753778728834739 0 -0.059881153675432383 0.35430313662024071 0 -0.059976501396798443 0.34640013057040159 0 -0.047131069669461997 0.36807368878450081 0 -0.054116187566776573 0.36544526432200969 0 -0.058148679921659119 0.37186744297544022 0 -0.047131069669461997 0.36807368878450081 0 -0.058148679921659119 0.37186744297544022 0 -0.054593457040109393 0.3822816536988497 0 -0.043056799454673583 0.35476771876354157 0 -0.047131069669461997 0.36807368878450081 0 -0.051828064233363932 0.36038047858465339 0 -0.047131069669461997 0.36807368878450081 0 -0.051828064233363932 0.36038047858465339 0 -0.054116187566776573 0.36544526432200969 0 -0.054116187566776573 0.36544526432200969 0 -0.058626870601395778 0.36023180910453118 0 -0.058148679921659119 0.37186744297544022 0 -0.051828064233363932 0.36038047858465339 0 -0.054116187566776573 0.36544526432200969 0 -0.058626870601395778 0.36023180910453118 0 -0.058626870601395778 0.36023180910453118 0 -0.058148679921659119 0.37186744297544022 0 -0.076275814730551866 0.38330479896731001 0 -0.058626870601395778 0.36023180910453118 0 -0.071157696118109362 0.36170448025062218 0 -0.076275814730551866 0.38330479896731001 0 -0.071157696118109362 0.36170448025062218 0 -0.084299133686975572 0.35684410208409001 0 -0.076275814730551866 0.38330479896731001 0 -0.058626870601395778 0.36023180910453118 0 -0.076275814730551866 0.38330479896731001 0 -0.084299133686975572 0.35684410208409001 0 -0.089436666146690338 0.3774527594588406 0 -0.076275814730551866 0.38330479896731001 0 -0.084299133686975572 0.35684410208409001 0 -0.076275814730551866 0.38330479896731001 0 -0.093494049974744503 0.36523362229143391 0 -0.084299133686975572 0.35684410208409001 0 -0.089436666146690338 0.3774527594588406 0 -0.084299133686975572 0.35684410208409001 0 -0.076705507896191183 0.35383855447693902 0 -0.080753986599573127 0.33990497651870988 0 -0.084299133686975572 0.35684410208409001 0 -0.092322452643399749 0.33038340520087017 0 -0.095141502753968779 0.35097174187852381 0 -0.093494049974744503 0.36523362229143391 0 -0.084299133686975572 0.35684410208409001 0 -0.095141502753968779 0.35097174187852381 0 -0.059881153675432383 0.35430313662024071 0 -0.071157696118109362 0.36170448025062218 0 -0.076705507896191183 0.35383855447693902 0 -0.076705507896191183 0.35383855447693902 0 -0.068046633572776155 0.34513696516333192 0 -0.080753986599573127 0.33990497651870988 0 -0.059881153675432383 0.35430313662024071 0 -0.076705507896191183 0.35383855447693902 0 -0.068046633572776155 0.34513696516333192 0 -0.059881153675432383 0.35430313662024071 0 -0.076705507896191183 0.35383855447693902 0 -0.071157696118109362 0.36170448025062218 0 -0.084299133686975572 0.35684410208409001 0 -0.076705507896191183 0.35383855447693902 0 -0.059881153675432383 0.35430313662024071 0 -0.058626870601395778 0.36023180910453118 0 -0.071157696118109362 0.36170448025062218 0 -0.059881153675432383 0.35430313662024071 0 -0.059976501396798443 0.34640013057040159 0 -0.068046633572776155 0.34513696516333192 0 -0.06815446288386498 0.3263880450875648 0 -0.079151648495115301 0.32136139923810009 0 -0.080753986599573127 0.33990497651870988 0 -0.068046633572776155 0.34513696516333192 0 -0.06815446288386498 0.3263880450875648 0 -0.080753986599573127 0.33990497651870988 0 -0.059045099567240703 0.33862263320968672 0 -0.068046633572776155 0.34513696516333192 0 -0.06815446288386498 0.3263880450875648 0 -0.068322770035098762 0.31198038943260148 0 -0.069852456288818351 0.31207980665071 0 -0.06815446288386498 0.3263880450875648 0 -0.068322770035098762 0.31198038943260148 0 -0.053879496619987192 0.32442993198196868 0 -0.06815446288386498 0.3263880450875648 0 -0.08121949171140587 0.31012908581564408 0 -0.069852456288818351 0.31207980665071 0 -0.079151648495115301 0.32136139923810009 0 -0.069852456288818351 0.31207980665071 0 -0.06815446288386498 0.3263880450875648 0 -0.079151648495115301 0.32136139923810009 0 -0.087527931766016032 0.31235393694025021 0 -0.079151648495115301 0.32136139923810009 0 -0.092322452643399749 0.33038340520087017 0 -0.1003457715998239 0.30392270831765028 0 -0.087527931766016032 0.31235393694025021 0 -0.092322452643399749 0.33038340520087017 0 -0.087527931766016032 0.31235393694025021 0 -0.08121949171140587 0.31012908581564408 0 -0.079151648495115301 0.32136139923810009 0 -0.084299133686975572 0.35684410208409001 0 -0.092322452643399749 0.33038340520087017 0 -0.079151648495115301 0.32136139923810009 0 -0.092322452643399749 0.33038340520087017 0 -0.080753986599573127 0.33990497651870988 0 -0.084299133686975572 0.35684410208409001 0 -0.092322452643399749 0.33038340520087017 0 -0.080753986599573127 0.33990497651870988 0 -0.092322452643399749 0.33038340520087017 0 -0.10472406897533799 0.34168768652513631 0 -0.095141502753968779 0.35097174187852381 0 -0.092322452643399749 0.33038340520087017 0 -0.10472406897533799 0.34168768652513631 0 -0.1081804568928026 0.32074506353771021 0 -0.1003457715998239 0.30392270831765028 0 -0.092322452643399749 0.33038340520087017 0 -0.1003457715998239 0.30392270831765028 0 -0.092322452643399749 0.33038340520087017 0 -0.1081804568928026 0.32074506353771021 0 -0.1262409447270301 0.3211703831111522 0 -0.1173504618646501 0.30916380798395637 0 -0.1081804568928026 0.32074506353771021 0 -0.1262409447270301 0.3211703831111522 0 -0.1081804568928026 0.32074506353771021 0 -0.1175879007316586 0.33497855513245622 0 -0.13367478836053351 0.33932016938713638 0 -0.1175879007316586 0.33497855513245622 0 -0.1173066256070304 0.35104950557859033 0 -0.10472406897533799 0.34168768652513631 0 -0.1081804568928026 0.32074506353771021 0 -0.1175879007316586 0.33497855513245622 0 -0.10472406897533799 0.34168768652513631 0 -0.1175879007316586 0.33497855513245622 0 -0.1173066256070304 0.35104950557859033 0 -0.1173066256070304 0.35104950557859033 0 -0.1198206075896991 0.37069234566290138 0 -0.1030551893938276 0.35978992576853291 0 -0.1367685514822152 0.35851885971508118 0 -0.1173066256070304 0.35104950557859033 0 -0.1198206075896991 0.37069234566290138 0 -0.1198206075896991 0.37069234566290138 0 -0.1030551893938276 0.35978992576853291 0 -0.10026372758235801 0.37465761506622741 0 -0.093494049974744503 0.36523362229143391 0 -0.10026372758235801 0.37465761506622741 0 -0.089436666146690338 0.3774527594588406 0 -0.093494049974744503 0.36523362229143391 0 -0.1030551893938276 0.35978992576853291 0 -0.10026372758235801 0.37465761506622741 0 -0.10472406897533799 0.34168768652513631 0 -0.1030551893938276 0.35978992576853291 0 -0.095141502753968779 0.35097174187852381 0 -0.093494049974744503 0.36523362229143391 0 -0.1030551893938276 0.35978992576853291 0 -0.095141502753968779 0.35097174187852381 0 -0.10472406897533799 0.34168768652513631 0 -0.1173066256070304 0.35104950557859033 0 -0.1030551893938276 0.35978992576853291 0 -0.101128536279416 0.3977608810528192 0 -0.11378235269799521 0.38746486633725291 0 -0.11258596611237601 0.40408595479252452 0 -0.101128536279416 0.3977608810528192 0 -0.095244926421122186 0.38729621463576269 0 -0.11378235269799521 0.38746486633725291 0 -0.101128536279416 0.3977608810528192 0 -0.11258596611237601 0.40408595479252452 0 -0.097808874238227678 0.41145560844912898 0 -0.101128536279416 0.3977608810528192 0 -0.097808874238227678 0.41145560844912898 0 -0.087042344484389883 0.39738020370821953 0 -0.101128536279416 0.3977608810528192 0 -0.095244926421122186 0.38729621463576269 0 -0.087042344484389883 0.39738020370821953 0 -0.10026372758235801 0.37465761506622741 0 -0.095244926421122186 0.38729621463576269 0 -0.11378235269799521 0.38746486633725291 0 -0.10026372758235801 0.37465761506622741 0 -0.095244926421122186 0.38729621463576269 0 -0.089436666146690338 0.3774527594588406 0 -0.1198206075896991 0.37069234566290138 0 -0.10026372758235801 0.37465761506622741 0 -0.11378235269799521 0.38746486633725291 0 -0.12826940643264259 0.38638828685515292 0 -0.1198206075896991 0.37069234566290138 0 -0.11378235269799521 0.38746486633725291 0 -0.12644786621320531 0.40058001872868543 0 -0.12826940643264259 0.38638828685515292 0 -0.11378235269799521 0.38746486633725291 0 -0.12761284081938409 0.41418542740570108 0 -0.11378235269799521 0.38746486633725291 0 -0.12761284081938409 0.41418542740570108 0 -0.12644786621320531 0.40058001872868543 0 -0.11378235269799521 0.38746486633725291 0 -0.12761284081938409 0.41418542740570108 0 -0.11378235269799521 0.38746486633725291 0 -0.11258596611237601 0.40408595479252452 0 -0.12761284081938409 0.41418542740570108 0 -0.11258596611237601 0.40408595479252452 0 -0.097808874238227678 0.41145560844912898 0 -0.12761284081938409 0.41418542740570108 0 -0.1126245701039178 0.4308246085444013 0 -0.097808874238227678 0.41145560844912898 0 -0.12761284081938409 0.41418542740570108 0 -0.097808874238227678 0.41145560844912898 0 -0.12761284081938409 0.41418542740570108 0 -0.1126245701039178 0.4308246085444013 0 -0.1242648033483075 0.43981492828754482 0 -0.1126245701039178 0.4308246085444013 0 -0.096605527178418776 0.42311346390882398 0 -0.097170403390676049 0.43571281837191522 0 -0.1126245701039178 0.4308246085444013 0 -0.097170403390676049 0.43571281837191522 0 -0.10338783084247161 0.44098956532991213 0 -0.1126245701039178 0.4308246085444013 0 -0.097808874238227678 0.41145560844912898 0 -0.1126245701039178 0.4308246085444013 0 -0.096605527178418776 0.42311346390882398 0 -0.097808874238227678 0.41145560844912898 0 -0.096605527178418776 0.42311346390882398 0 -0.097808874238227678 0.41145560844912898 0 -0.090623427087895073 0.41079747558654428 0 -0.097808874238227678 0.41145560844912898 0 -0.090623427087895073 0.41079747558654428 0 -0.096605527178418776 0.42311346390882398 0 -0.090623427087895073 0.41079747558654428 0 -0.084800361071377284 0.4267768085921303 0 -0.090623427087895073 0.41079747558654428 0 -0.084347825254610875 0.40943513047528779 0 -0.084800361071377284 0.4267768085921303 0 -0.084800361071377284 0.4267768085921303 0 -0.074925168374781331 0.40278603401425761 0 -0.084347825254610875 0.40943513047528779 0 -0.084800361071377284 0.4267768085921303 0 -0.074925168374781331 0.40278603401425761 0 -0.097808874238227678 0.41145560844912898 0 -0.090623427087895073 0.41079747558654428 0 -0.087042344484389883 0.39738020370821953 0 -0.096605527178418776 0.42311346390882398 0 -0.097170403390676049 0.43571281837191522 0 -0.084800361071377284 0.4267768085921303 0 -0.084800361071377284 0.4267768085921303 0 -0.077689053426030094 0.43734830183904833 0 -0.073740177733494089 0.43015549729097768 0 -0.084800361071377284 0.4267768085921303 0 -0.077689053426030094 0.43734830183904833 0 -0.085627028266785254 0.44117175463919189 0 -0.077689053426030094 0.43734830183904833 0 -0.073740177733494089 0.43015549729097768 0 -0.069373851585076945 0.43677151010665521 0 -0.084800361071377284 0.4267768085921303 0 -0.073740177733494089 0.43015549729097768 0 -0.074963529381557356 0.42372471124402672 0 -0.084800361071377284 0.4267768085921303 0 -0.074963529381557356 0.42372471124402672 0 -0.074207610301873977 0.415826985147286 0 -0.073740177733494089 0.43015549729097768 0 -0.07134827269677288 0.42521816639912852 0 -0.067010261651664849 0.42692585223643509 0 -0.073740177733494089 0.43015549729097768 0 -0.074963529381557356 0.42372471124402672 0 -0.07134827269677288 0.42521816639912852 0 -0.074963529381557356 0.42372471124402672 0 -0.07134827269677288 0.42521816639912852 0 -0.069903249343569923 0.42035209495099629 0 -0.06803153127557314 0.42418340705062968 0 -0.063864341410284964 0.42423751461595932 0 -0.069903249343569923 0.42035209495099629 0 -0.07134827269677288 0.42521816639912852 0 -0.06803153127557314 0.42418340705062968 0 -0.067010261651664849 0.42692585223643509 0 -0.07134827269677288 0.42521816639912852 0 -0.06803153127557314 0.42418340705062968 0 -0.069903249343569923 0.42035209495099629 0 -0.06803153127557314 0.42418340705062968 0 -0.063864341410284964 0.42423751461595932 0 -0.067010261651664849 0.42692585223643509 0 -0.063864341410284964 0.42423751461595932 0 -0.067010261651664849 0.42692585223643509 0 -0.067010261651664849 0.42692585223643509 0 -0.06657591115514655 0.43192586875325267 0 -0.062357688865182517 0.42920641545622512 0 -0.063864341410284964 0.42423751461595932 0 -0.067010261651664849 0.42692585223643509 0 -0.062357688865182517 0.42920641545622512 0 -0.063864341410284964 0.42423751461595932 0 -0.062357688865182517 0.42920641545622512 0 -0.073740177733494089 0.43015549729097768 0 -0.067010261651664849 0.42692585223643509 0 -0.06657591115514655 0.43192586875325267 0 -0.073740177733494089 0.43015549729097768 0 -0.06657591115514655 0.43192586875325267 0 -0.069373851585076945 0.43677151010665521 0 -0.06657591115514655 0.43192586875325267 0 -0.062750456602468974 0.43554137489064498 0 -0.062357688865182517 0.42920641545622512 0 -0.06657591115514655 0.43192586875325267 0 -0.062750456602468974 0.43554137489064498 0 -0.069373851585076945 0.43677151010665521 0 -0.063864341410284964 0.42423751461595932 0 -0.069903249343569923 0.42035209495099629 0 -0.070070078070418332 0.40377115679163461 0 -0.074207610301873977 0.415826985147286 0 -0.069903249343569923 0.42035209495099629 0 -0.070070078070418332 0.40377115679163461 0 -0.063864341410284964 0.42423751461595932 0 -0.070070078070418332 0.40377115679163461 0 -0.058881304157308093 0.40804381518971672 0 -0.063864341410284964 0.42423751461595932 0 -0.070070078070418332 0.40377115679163461 0 -0.084800361071377284 0.4267768085921303 0 -0.074207610301873977 0.415826985147286 0 -0.074925168374781331 0.40278603401425761 0 -0.074207610301873977 0.415826985147286 0 -0.070070078070418332 0.40377115679163461 0 -0.074925168374781331 0.40278603401425761 0 -0.074963529381557356 0.42372471124402672 0 -0.074207610301873977 0.415826985147286 0 -0.069903249343569923 0.42035209495099629 0 -0.070070078070418332 0.40377115679163461 0 -0.064506344576777661 0.39145758865641178 0 -0.076275814730551866 0.38330479896731001 0 -0.070070078070418332 0.40377115679163461 0 -0.074925168374781331 0.40278603401425761 0 -0.076275814730551866 0.38330479896731001 0 -0.070070078070418332 0.40377115679163461 0 -0.076275814730551866 0.38330479896731001 0 -0.070070078070418332 0.40377115679163461 0 -0.064506344576777661 0.39145758865641178 0 -0.057086028466031037 0.39647274516785291 0 -0.074925168374781331 0.40278603401425761 0 -0.087042344484389883 0.39738020370821953 0 -0.076275814730551866 0.38330479896731001 0 -0.084347825254610875 0.40943513047528779 0 -0.074925168374781331 0.40278603401425761 0 -0.087042344484389883 0.39738020370821953 0 -0.097808874238227678 0.41145560844912898 0 -0.087042344484389883 0.39738020370821953 0 -0.090623427087895073 0.41079747558654428 0 -0.084347825254610875 0.40943513047528779 0 -0.087042344484389883 0.39738020370821953 0 -0.087042344484389883 0.39738020370821953 0 -0.089436666146690338 0.3774527594588406 0 -0.076275814730551866 0.38330479896731001 0 -0.095244926421122186 0.38729621463576269 0 -0.087042344484389883 0.39738020370821953 0 -0.089436666146690338 0.3774527594588406 0 -0.087042344484389883 0.39738020370821953 0 -0.076275814730551866 0.38330479896731001 0 -0.064506344576777661 0.39145758865641178 0 -0.076275814730551866 0.38330479896731001 0 -0.054593457040109393 0.3822816536988497 0 -0.058148679921659119 0.37186744297544022 0 -0.076275814730551866 0.38330479896731001 0 -0.054593457040109393 0.3822816536988497 0 -0.064506344576777661 0.39145758865641178 0 -0.054593457040109393 0.3822816536988497 0 -0.057086028466031037 0.39647274516785291 0 -0.054593457040109393 0.3822816536988497 0 -0.057086028466031037 0.39647274516785291 0 -0.042391572779214973 0.39096282696345341 0 -0.057086028466031037 0.39647274516785291 0 -0.042391572779214973 0.39096282696345341 0 -0.044504768682498037 0.40769384418342008 0 -0.070070078070418332 0.40377115679163461 0 -0.057086028466031037 0.39647274516785291 0 -0.058881304157308093 0.40804381518971672 0 -0.057086028466031037 0.39647274516785291 0 -0.044504768682498037 0.40769384418342008 0 -0.058881304157308093 0.40804381518971672 0 -0.02514519595471108 0.39115017375088101 0 -0.044504768682498037 0.40769384418342008 0 -0.042391572779214973 0.39096282696345341 0 -0.02514519595471108 0.39115017375088101 0 -0.044504768682498037 0.40769384418342008 0 -0.034100997704691827 0.37295894625721099 0 -0.054593457040109393 0.3822816536988497 0 -0.042391572779214973 0.39096282696345341 0 -0.034100997704691827 0.37295894625721099 0 -0.042391572779214973 0.39096282696345341 0 -0.02514519595471108 0.39115017375088101 0 -0.034100997704691827 0.37295894625721099 0 -0.02514519595471108 0.39115017375088101 0 -0.034100997704691827 0.37295894625721099 0 -0.02514519595471108 0.39115017375088101 0 -0.0087141207398781558 0.37710904293520409 0 -0.02514519595471108 0.39115017375088101 0 -0.0087141207398781558 0.37710904293520409 0 -0.02514519595471108 0.39115017375088101 0 -0.014810785045769751 0.41214166341376801 0 -0.02514519595471108 0.39115017375088101 0 -0.014810785045769751 0.41214166341376801 0 -0.044504768682498037 0.40769384418342008 0 -0.0068648610501423502 0.39382000907293813 0 -0.014810785045769751 0.41214166341376801 0 0.0046995574085186929 0.41194005205042061 0 -0.02514519595471108 0.39115017375088101 0 -0.0068648610501423502 0.39382000907293813 0 -0.014810785045769751 0.41214166341376801 0 -0.02514519595471108 0.39115017375088101 0 -0.0068648610501423502 0.39382000907293813 0 -0.0087141207398781558 0.37710904293520409 0 -0.0068648610501423502 0.39382000907293813 0 -0.0087141207398781558 0.37710904293520409 0 0.0053185270157129726 0.37689571945341471 0 -0.0044763741368290672 0.43313315307665529 0 -0.014810785045769751 0.41214166341376801 0 -0.0044763741368290672 0.43313315307665529 0 -0.014810785045769751 0.41214166341376801 0 -0.026116443713473419 0.4246575807879529 0 -0.0044763741368290672 0.43313315307665529 0 -0.014810785045769751 0.41214166341376801 0 0.0046995574085186929 0.41194005205042061 0 -0.014810785045769751 0.41214166341376801 0 -0.026116443713473419 0.4246575807879529 0 -0.044504768682498037 0.40769384418342008 0 -0.0044763741368290672 0.43313315307665529 0 -0.026116443713473419 0.4246575807879529 0 -0.02623027688729573 0.44118750916919391 0 -0.026116443713473419 0.4246575807879529 0 -0.040560013814974517 0.42913173409672722 0 -0.02623027688729573 0.44118750916919391 0 -0.040560013814974517 0.42913173409672722 0 -0.048293098329248912 0.43867666423002288 0 -0.039090066940739521 0.44352471403713711 0 -0.026116443713473419 0.4246575807879529 0 -0.040560013814974517 0.42913173409672722 0 -0.044504768682498037 0.40769384418342008 0 -0.040560013814974517 0.42913173409672722 0 -0.044504768682498037 0.40769384418342008 0 -0.051886787429848112 0.42350176277299723 0 -0.063864341410284964 0.42423751461595932 0 -0.044504768682498037 0.40769384418342008 0 -0.058881304157308093 0.40804381518971672 0 -0.063864341410284964 0.42423751461595932 0 -0.044504768682498037 0.40769384418342008 0 -0.051886787429848112 0.42350176277299723 0 -0.063864341410284964 0.42423751461595932 0 -0.044504768682498037 0.40769384418342008 0 -0.053936434918908913 0.43159717611494758 0 -0.057641003333182179 0.44086754716312743 0 -0.048293098329248912 0.43867666423002288 0 -0.040560013814974517 0.42913173409672722 0 -0.053936434918908913 0.43159717611494758 0 -0.048293098329248912 0.43867666423002288 0 -0.040560013814974517 0.42913173409672722 0 -0.053936434918908913 0.43159717611494758 0 -0.051886787429848112 0.42350176277299723 0 -0.053936434918908913 0.43159717611494758 0 -0.051886787429848112 0.42350176277299723 0 -0.062357688865182517 0.42920641545622512 0 -0.063864341410284964 0.42423751461595932 0 -0.051886787429848112 0.42350176277299723 0 -0.062357688865182517 0.42920641545622512 0 -0.062750456602468974 0.43554137489064498 0 -0.053936434918908913 0.43159717611494758 0 -0.062357688865182517 0.42920641545622512 0 -0.062750456602468974 0.43554137489064498 0 -0.053936434918908913 0.43159717611494758 0 -0.057641003333182179 0.44086754716312743 0 -0.062750456602468974 0.43554137489064498 0 -0.057641003333182179 0.44086754716312743 0 -0.065491549478626135 0.44200233464982802 0 -0.057641003333182179 0.44086754716312743 0 -0.062398417199954148 0.4499603094023914 0 -0.065491549478626135 0.44200233464982802 0 -0.057641003333182179 0.44086754716312743 0 -0.062398417199954148 0.4499603094023914 0 -0.050237972638439453 0.44826214973817502 0 -0.057641003333182179 0.44086754716312743 0 -0.050237972638439453 0.44826214973817502 0 -0.048293098329248912 0.43867666423002288 0 -0.062398417199954148 0.4499603094023914 0 -0.050230730183752688 0.46259696058471089 0 -0.064501224992871267 0.46542691543905351 0 -0.062398417199954148 0.4499603094023914 0 -0.050237972638439453 0.44826214973817502 0 -0.050230730183752688 0.46259696058471089 0 -0.050230730183752688 0.46259696058471089 0 -0.035748626011326709 0.45858167758110602 0 -0.046040344352481867 0.47841272498986082 0 -0.050237972638439453 0.44826214973817502 0 -0.050230730183752688 0.46259696058471089 0 -0.035748626011326709 0.45858167758110602 0 -0.035748626011326709 0.45858167758110602 0 -0.039090066940739521 0.44352471403713711 0 -0.02623027688729573 0.44118750916919391 0 -0.050237972638439453 0.44826214973817502 0 -0.048293098329248912 0.43867666423002288 0 -0.039090066940739521 0.44352471403713711 0 -0.050237972638439453 0.44826214973817502 0 -0.035748626011326709 0.45858167758110602 0 -0.039090066940739521 0.44352471403713711 0 -0.040560013814974517 0.42913173409672722 0 -0.039090066940739521 0.44352471403713711 0 -0.02623027688729573 0.44118750916919391 0 -0.035748626011326709 0.45858167758110602 0 -0.02623027688729573 0.44118750916919391 0 -0.01728298942402769 0.45556140426229003 0 -0.0044763741368290672 0.43313315307665529 0 -0.02623027688729573 0.44118750916919391 0 -0.01728298942402769 0.45556140426229003 0 -0.035748626011326709 0.45858167758110602 0 -0.01728298942402769 0.45556140426229003 0 -0.022784747477638551 0.4775754860453762 0 -0.01728298942402769 0.45556140426229003 0 -0.0062093312902834459 0.46527566221073008 0 0.006403582431216831 0.45126676372832991 0 -0.01728298942402769 0.45556140426229003 0 -0.0062093312902834459 0.46527566221073008 0 -0.022784747477638551 0.4775754860453762 0 -0.0044763741368290672 0.43313315307665529 0 -0.01728298942402769 0.45556140426229003 0 0.006403582431216831 0.45126676372832991 0 -0.0062093312902834459 0.46527566221073008 0 -0.022784747477638551 0.4775754860453762 0 0.0095498935665802413 0.47810272379952351 0 -0.022784747477638551 0.4775754860453762 0 -0.021427984417146221 0.5 0 0.0095498935665802413 0.47810272379952351 0 -0.021427984417146221 0.5 0 0.0095498935665802413 0.47810272379952351 0 0.0086042794582089632 0.5 0 -0.022784747477638551 0.4775754860453762 0 -0.021427984417146221 0.5 0 -0.046040344352481867 0.47841272498986082 0 -0.021427984417146221 0.5 0 -0.046040344352481867 0.47841272498986082 0 -0.051460248292501398 0.5 0 -0.035748626011326709 0.45858167758110602 0 -0.022784747477638551 0.4775754860453762 0 -0.046040344352481867 0.47841272498986082 0 -0.046040344352481867 0.47841272498986082 0 -0.067939054777113927 0.48291587414950521 0 -0.064501224992871267 0.46542691543905351 0 -0.050230730183752688 0.46259696058471089 0 -0.046040344352481867 0.47841272498986082 0 -0.064501224992871267 0.46542691543905351 0 -0.046040344352481867 0.47841272498986082 0 -0.051460248292501398 0.5 0 -0.067939054777113927 0.48291587414950521 0 -0.051460248292501398 0.5 0 -0.081492512167856565 0.50000000000000011 0 -0.067939054777113927 0.48291587414950521 0 -0.081492512167856565 0.50000000000000011 0 -0.085878896958769185 0.47675925450649242 0 -0.067939054777113927 0.48291587414950521 0 -0.081492512167856565 0.50000000000000011 0 -0.085878896958769185 0.47675925450649242 0 -0.099362977551805121 0.48745008538217821 0 -0.081492512167856565 0.50000000000000011 0 -0.085878896958769185 0.47675925450649242 0 -0.085878896958769185 0.47675925450649242 0 -0.075452149305044958 0.46933040044586682 0 -0.067939054777113927 0.48291587414950521 0 -0.075452149305044958 0.46933040044586682 0 -0.067939054777113927 0.48291587414950521 0 -0.064501224992871267 0.46542691543905351 0 -0.064501224992871267 0.46542691543905351 0 -0.075214053997903707 0.45912990264989012 0 -0.070315415620740368 0.45334812155980347 0 -0.062398417199954148 0.4499603094023914 0 -0.064501224992871267 0.46542691543905351 0 -0.070315415620740368 0.45334812155980347 0 -0.075214053997903707 0.45912990264989012 0 -0.070315415620740368 0.45334812155980347 0 -0.081419329692844739 0.44979703694502599 0 -0.075452149305044958 0.46933040044586682 0 -0.064501224992871267 0.46542691543905351 0 -0.075214053997903707 0.45912990264989012 0 -0.075452149305044958 0.46933040044586682 0 -0.075214053997903707 0.45912990264989012 0 -0.082509194984251868 0.46007906520350089 0 -0.069373851585076945 0.43677151010665521 0 -0.065491549478626135 0.44200233464982802 0 -0.073041418115067244 0.44511613748665291 0 -0.062750456602468974 0.43554137489064498 0 -0.069373851585076945 0.43677151010665521 0 -0.065491549478626135 0.44200233464982802 0 -0.062398417199954148 0.4499603094023914 0 -0.065491549478626135 0.44200233464982802 0 -0.073041418115067244 0.44511613748665291 0 -0.062398417199954148 0.4499603094023914 0 -0.070315415620740368 0.45334812155980347 0 -0.073041418115067244 0.44511613748665291 0 -0.070315415620740368 0.45334812155980347 0 -0.073041418115067244 0.44511613748665291 0 -0.081419329692844739 0.44979703694502599 0 -0.073041418115067244 0.44511613748665291 0 -0.07941018481149445 0.44345804230003222 0 -0.081419329692844739 0.44979703694502599 0 -0.077689053426030094 0.43734830183904833 0 -0.069373851585076945 0.43677151010665521 0 -0.073041418115067244 0.44511613748665291 0 -0.077689053426030094 0.43734830183904833 0 -0.073041418115067244 0.44511613748665291 0 -0.07941018481149445 0.44345804230003222 0 -0.097170403390676049 0.43571281837191522 0 -0.084800361071377284 0.4267768085921303 0 -0.094675553767973264 0.45076758317000298 0 -0.084800361071377284 0.4267768085921303 0 -0.094675553767973264 0.45076758317000298 0 -0.084800361071377284 0.4267768085921303 0 -0.085627028266785254 0.44117175463919189 0 -0.094675553767973264 0.45076758317000298 0 -0.085627028266785254 0.44117175463919189 0 -0.07941018481149445 0.44345804230003222 0 -0.081419329692844739 0.44979703694502599 0 -0.077689053426030094 0.43734830183904833 0 -0.085627028266785254 0.44117175463919189 0 -0.07941018481149445 0.44345804230003222 0 -0.085627028266785254 0.44117175463919189 0 -0.081419329692844739 0.44979703694502599 0 -0.088082484801868088 0.44854024150695748 0 -0.081419329692844739 0.44979703694502599 0 -0.086047819819581178 0.45134535453790131 0 -0.088082484801868088 0.44854024150695748 0 -0.085627028266785254 0.44117175463919189 0 -0.088082484801868088 0.44854024150695748 0 -0.094675553767973264 0.45076758317000298 0 -0.086047819819581178 0.45134535453790131 0 -0.088082484801868088 0.44854024150695748 0 -0.090265281749681819 0.45351850901298468 0 -0.088082484801868088 0.44854024150695748 0 -0.090265281749681819 0.45351850901298468 0 -0.094675553767973264 0.45076758317000298 0 -0.085878896958769185 0.47675925450649242 0 -0.075452149305044958 0.46933040044586682 0 -0.082509194984251868 0.46007906520350089 0 -0.085878896958769185 0.47675925450649242 0 -0.090265281749681819 0.45351850901298468 0 -0.085878896958769185 0.47675925450649242 0 -0.090265281749681819 0.45351850901298468 0 -0.093944937474792503 0.46462082789344678 0 -0.085878896958769185 0.47675925450649242 0 -0.082509194984251868 0.46007906520350089 0 -0.090265281749681819 0.45351850901298468 0 -0.081419329692844739 0.44979703694502599 0 -0.086047819819581178 0.45134535453790131 0 -0.082509194984251868 0.46007906520350089 0 -0.075214053997903707 0.45912990264989012 0 -0.081419329692844739 0.44979703694502599 0 -0.082509194984251868 0.46007906520350089 0 -0.090265281749681819 0.45351850901298468 0 -0.093944937474792503 0.46462082789344678 0 -0.094675553767973264 0.45076758317000298 0 -0.086047819819581178 0.45134535453790131 0 -0.082509194984251868 0.46007906520350089 0 -0.090265281749681819 0.45351850901298468 0 -0.093944937474792503 0.46462082789344678 0 -0.094675553767973264 0.45076758317000298 0 -0.1045507464645692 0.47475835774787573 0 -0.094675553767973264 0.45076758317000298 0 -0.1045507464645692 0.47475835774787573 0 -0.1087715055698807 0.4588247561088431 0 -0.094675553767973264 0.45076758317000298 0 -0.1045507464645692 0.47475835774787573 0 -0.1126245701039178 0.4308246085444013 0 -0.1090807961073193 0.44665325123332839 0 -0.10338783084247161 0.44098956532991213 0 -0.097170403390676049 0.43571281837191522 0 -0.094675553767973264 0.45076758317000298 0 -0.10338783084247161 0.44098956532991213 0 -0.1087715055698807 0.4588247561088431 0 -0.094675553767973264 0.45076758317000298 0 -0.1090807961073193 0.44665325123332839 0 -0.094675553767973264 0.45076758317000298 0 -0.1090807961073193 0.44665325123332839 0 -0.10338783084247161 0.44098956532991213 0 -0.1126245701039178 0.4308246085444013 0 -0.1090807961073193 0.44665325123332839 0 -0.1242648033483075 0.43981492828754482 0 -0.1090807961073193 0.44665325123332839 0 -0.1242648033483075 0.43981492828754482 0 -0.1204057133641486 0.45504160574272429 0 -0.1087715055698807 0.4588247561088431 0 -0.1176294132596279 0.46872710166108278 0 -0.1045507464645692 0.47475835774787573 0 -0.1087715055698807 0.4588247561088431 0 -0.1204057133641486 0.45504160574272429 0 -0.1176294132596279 0.46872710166108278 0 -0.1087715055698807 0.4588247561088431 0 -0.1090807961073193 0.44665325123332839 0 -0.1204057133641486 0.45504160574272429 0 -0.13097929143795109 0.46459511115351071 0 -0.1204057133641486 0.45504160574272429 0 -0.1176294132596279 0.46872710166108278 0 -0.12908554574303099 0.47755934496718438 0 -0.1176294132596279 0.46872710166108278 0 -0.1160402402672886 0.48503019582547341 0 -0.1176294132596279 0.46872710166108278 0 -0.1160402402672886 0.48503019582547341 0 -0.1045507464645692 0.47475835774787573 0 -0.13803845513632401 0.5 0 -0.1097654836520903 0.5 0 -0.1160402402672886 0.48503019582547341 0 -0.1097654836520903 0.5 0 -0.1160402402672886 0.48503019582547341 0 -0.099362977551805121 0.48745008538217821 0 -0.081492512167856565 0.50000000000000011 0 -0.1097654836520903 0.5 0 -0.099362977551805121 0.48745008538217821 0 -0.085878896958769185 0.47675925450649242 0 -0.093944937474792503 0.46462082789344678 0 -0.1045507464645692 0.47475835774787573 0 -0.085878896958769185 0.47675925450649242 0 -0.099362977551805121 0.48745008538217821 0 -0.1045507464645692 0.47475835774787573 0 -0.1160402402672886 0.48503019582547341 0 -0.099362977551805121 0.48745008538217821 0 -0.1045507464645692 0.47475835774787573 0 -0.15850742705232401 0.077073165420907211 0 -0.17832815471062741 0.080370175701138483 0 -0.15596223049933161 0.089669487892629185 0 -0.17128916945913089 0.092189477241546317 0 -0.17832815471062741 0.080370175701138483 0 -0.15596223049933161 0.089669487892629185 0 -0.17832815471062741 0.080370175701138483 0 -0.15596223049933161 0.089669487892629185 0 -0.15850742705232401 0.077073165420907211 0 -0.16907692184479731 0.071953328836937142 0 -0.17832815471062741 0.080370175701138483 0 -0.15850742705232401 0.077073165420907211 0 -0.15722519427174569 0.065058312825911402 0 -0.16907692184479731 0.071953328836937142 0 -0.16907692184479731 0.071953328836937142 0 -0.1809864334298861 0.069780609401686525 0 -0.17832815471062741 0.080370175701138483 0 -0.16907692184479731 0.071953328836937142 0 -0.1809864334298861 0.069780609401686525 0 -0.18167022033174851 0.056262687610226528 0 -0.1809864334298861 0.069780609401686525 0 -0.17832815471062741 0.080370175701138483 0 -0.20069407892192309 0.071070863509647808 0 -0.1809864334298861 0.069780609401686525 0 -0.18167022033174851 0.056262687610226528 0 -0.1876556690991136 0.063313821709693935 0 -0.17128916945913089 0.092189477241546317 0 -0.18444466814129201 0.081023499242751457 0 -0.17631468167186989 0.1066384650542631 0 -0.17128916945913089 0.092189477241546317 0 -0.18444466814129201 0.081023499242751457 0 -0.17832815471062741 0.080370175701138483 0 -0.18444466814129201 0.081023499242751457 0 -0.17631468167186989 0.1066384650542631 0 -0.19937405773042491 0.1071019237599893 0 -0.17631468167186989 0.1066384650542631 0 -0.16393492635195239 0.1245978723337525 0 -0.1795193575176991 0.1294692331289829 0 -0.17631468167186989 0.1066384650542631 0 -0.19937405773042491 0.1071019237599893 0 -0.1795193575176991 0.1294692331289829 0 -0.16393492635195239 0.1245978723337525 0 -0.16139611227253359 0.1032457583169494 0 -0.15311233888185891 0.1152965378839053 0 -0.17631468167186989 0.1066384650542631 0 -0.16393492635195239 0.1245978723337525 0 -0.16139611227253359 0.1032457583169494 0 -0.17128916945913089 0.092189477241546317 0 -0.17631468167186989 0.1066384650542631 0 -0.16139611227253359 0.1032457583169494 0 -0.17128916945913089 0.092189477241546317 0 -0.16139611227253359 0.1032457583169494 0 -0.15596223049933161 0.089669487892629185 0 -0.16139611227253359 0.1032457583169494 0 -0.13359630628803579 0.098968800084119873 0 -0.15596223049933161 0.089669487892629185 0 -0.16139611227253359 0.1032457583169494 0 -0.15311233888185891 0.1152965378839053 0 -0.13359630628803579 0.098968800084119873 0 -0.13359630628803579 0.098968800084119873 0 -0.15596223049933161 0.089669487892629185 0 -0.15311233888185891 0.1152965378839053 0 -0.13930859898956699 0.1145050369687237 0 -0.153752621985453 0.14073392350839439 0 -0.15311233888185891 0.1152965378839053 0 -0.13930859898956699 0.1145050369687237 0 -0.13359630628803579 0.098968800084119873 0 -0.13930859898956699 0.1145050369687237 0 -0.12607259725238279 0.11330641960449821 0 -0.12916618827146031 0.12390190950899049 0 -0.13930859898956699 0.1145050369687237 0 -0.12607259725238279 0.11330641960449821 0 -0.13359630628803579 0.098968800084119873 0 -0.13359630628803579 0.098968800084119873 0 -0.12697672020224329 0.087309090757334687 0 -0.14089006822782121 0.082531143958766096 0 -0.12697672020224329 0.087309090757334687 0 -0.14089006822782121 0.082531143958766096 0 -0.12697985749263241 0.07630636069427757 0 -0.15850742705232401 0.077073165420907211 0 -0.14089006822782121 0.082531143958766096 0 -0.15596223049933161 0.089669487892629185 0 -0.13359630628803579 0.098968800084119873 0 -0.14089006822782121 0.082531143958766096 0 -0.15596223049933161 0.089669487892629185 0 -0.15850742705232401 0.077073165420907211 0 -0.14089006822782121 0.082531143958766096 0 -0.14764327064684279 0.071644858797684771 0 -0.15722519427174569 0.065058312825911402 0 -0.14764327064684279 0.071644858797684771 0 -0.1471722955607111 0.059591957907519158 0 -0.15850742705232401 0.077073165420907211 0 -0.15722519427174569 0.065058312825911402 0 -0.14764327064684279 0.071644858797684771 0 -0.14089006822782121 0.082531143958766096 0 -0.14764327064684279 0.071644858797684771 0 -0.13666502121529681 0.069478967649866344 0 -0.14764327064684279 0.071644858797684771 0 -0.13666502121529681 0.069478967649866344 0 -0.1471722955607111 0.059591957907519158 0 -0.14089006822782121 0.082531143958766096 0 -0.13666502121529681 0.069478967649866344 0 -0.12697985749263241 0.07630636069427757 0 -0.13666502121529681 0.069478967649866344 0 -0.12697985749263241 0.07630636069427757 0 -0.12509646681095879 0.065597408261105467 0 -0.13666502121529681 0.069478967649866344 0 -0.12509646681095879 0.065597408261105467 0 -0.13233523162579211 0.057527865090889828 0 -0.13233523162579211 0.057527865090889828 0 -0.1197320338084647 0.057760070231756527 0 -0.1244920148619628 0.050381604022983993 0 -0.12509646681095879 0.065597408261105467 0 -0.13233523162579211 0.057527865090889828 0 -0.1197320338084647 0.057760070231756527 0 -0.13666502121529681 0.069478967649866344 0 -0.13233523162579211 0.057527865090889828 0 -0.1471722955607111 0.059591957907519158 0 -0.13233523162579211 0.057527865090889828 0 -0.131277092146349 0.043237905602295942 0 -0.1435202772377579 0.047601805401877667 0 -0.13233523162579211 0.057527865090889828 0 -0.131277092146349 0.043237905602295942 0 -0.1244920148619628 0.050381604022983993 0 -0.131277092146349 0.043237905602295942 0 -0.14194951185496399 0.035172378083737049 0 -0.12424451236807239 0.027069144312366941 0 -0.131277092146349 0.043237905602295942 0 -0.12424451236807239 0.027069144312366941 0 -0.12075472355362291 0.04122338309529356 0 -0.131277092146349 0.043237905602295942 0 -0.12075472355362291 0.04122338309529356 0 -0.1244920148619628 0.050381604022983993 0 -0.131277092146349 0.043237905602295942 0 -0.14194951185496399 0.035172378083737049 0 -0.1435202772377579 0.047601805401877667 0 -0.14194951185496399 0.035172378083737049 0 -0.15126073753592009 0.02487777788828089 0 -0.1637260562540532 0.045028253166508762 0 -0.14194951185496399 0.035172378083737049 0 -0.1435202772377579 0.047601805401877667 0 -0.1637260562540532 0.045028253166508762 0 -0.15722519427174569 0.065058312825911402 0 -0.1471722955607111 0.059591957907519158 0 -0.1637260562540532 0.045028253166508762 0 -0.1471722955607111 0.059591957907519158 0 -0.1435202772377579 0.047601805401877667 0 -0.1637260562540532 0.045028253166508762 0 -0.13233523162579211 0.057527865090889828 0 -0.1471722955607111 0.059591957907519158 0 -0.1435202772377579 0.047601805401877667 0 -0.1244522405185825 -0.00038769298458709092 0 -0.1310798501921922 0.016754836893075501 0 -0.12424451236807239 0.027069144312366941 0 -0.1244522405185825 -0.00038769298458709092 0 -0.13302987177733741 0.0072862060594841918 0 -0.1310798501921922 0.016754836893075501 0 -0.13796817939809339 -7.5853332940862265e-05 0 -0.13302987177733741 0.0072862060594841918 0 -0.13861921700048169 0.01285353366238922 0 -0.1244522405185825 -0.00038769298458709092 0 -0.13796817939809339 -7.5853332940862265e-05 0 -0.13302987177733741 0.0072862060594841918 0 -0.13302987177733741 0.0072862060594841918 0 -0.13861921700048169 0.01285353366238922 0 -0.1310798501921922 0.016754836893075501 0 -0.14194951185496399 0.035172378083737049 0 -0.1395360945068517 0.023372288850015029 0 -0.12424451236807239 0.027069144312366941 0 -0.13861921700048169 0.01285353366238922 0 -0.1395360945068517 0.023372288850015029 0 -0.1310798501921922 0.016754836893075501 0 -0.1395360945068517 0.023372288850015029 0 -0.1310798501921922 0.016754836893075501 0 -0.12424451236807239 0.027069144312366941 0 -0.14194951185496399 0.035172378083737049 0 -0.1395360945068517 0.023372288850015029 0 -0.15126073753592009 0.02487777788828089 0 -0.15126073753592009 0.02487777788828089 0 -0.15188271994169991 0.01786916074884114 0 -0.14657132146084931 0.01677767438903701 0 -0.15126073753592009 0.02487777788828089 0 -0.15837519066330749 0.018103177496080571 0 -0.1567842680697151 0.017821512483746641 0 -0.15126073753592009 0.02487777788828089 0 -0.15188271994169991 0.01786916074884114 0 -0.1567842680697151 0.017821512483746641 0 -0.1543123506052223 0.01567032783345056 0 -0.15188271994169991 0.01786916074884114 0 -0.1567842680697151 0.017821512483746641 0 -0.13861921700048169 0.01285353366238922 0 -0.1395360945068517 0.023372288850015029 0 -0.14657132146084931 0.01677767438903701 0 -0.1395360945068517 0.023372288850015029 0 -0.15126073753592009 0.02487777788828089 0 -0.14657132146084931 0.01677767438903701 0 -0.15381676672243971 -0.0048344028756085976 0 -0.13796817939809339 -7.5853332940862265e-05 0 -0.14598604308907309 0.0075397954886723484 0 -0.15381676672243971 -0.0048344028756085976 0 -0.15837519066330749 0.018103177496080571 0 -0.15381676672243971 -0.0048344028756085976 0 -0.15182406541376531 0.011854288846745499 0 -0.15837519066330749 0.018103177496080571 0 -0.15381676672243971 -0.0048344028756085976 0 -0.15182406541376531 0.011854288846745499 0 -0.14598604308907309 0.0075397954886723484 0 -0.13861921700048169 0.01285353366238922 0 -0.14657132146084931 0.01677767438903701 0 -0.14598604308907309 0.0075397954886723484 0 -0.14657132146084931 0.01677767438903701 0 -0.15182406541376531 0.011854288846745499 0 -0.14598604308907309 0.0075397954886723484 0 -0.15188271994169991 0.01786916074884114 0 -0.14657132146084931 0.01677767438903701 0 -0.15182406541376531 0.011854288846745499 0 -0.1543123506052223 0.01567032783345056 0 -0.15182406541376531 0.011854288846745499 0 -0.15837519066330749 0.018103177496080571 0 -0.1543123506052223 0.01567032783345056 0 -0.15188271994169991 0.01786916074884114 0 -0.15182406541376531 0.011854288846745499 0 -0.13796817939809339 -7.5853332940862265e-05 0 -0.13861921700048169 0.01285353366238922 0 -0.14598604308907309 0.0075397954886723484 0 -0.15381676672243971 -0.0048344028756085976 0 -0.16872927738725291 0.0066655648670224509 0 -0.15837519066330749 0.018103177496080571 0 -0.16872927738725291 0.0066655648670224509 0 -0.15837519066330749 0.018103177496080571 0 -0.17312315274812851 0.016956976572924821 0 -0.15837519066330749 0.018103177496080571 0 -0.17088268452158301 0.030303691123205939 0 -0.18416549926151529 0.022669224655560441 0 -0.15837519066330749 0.018103177496080571 0 -0.17088268452158301 0.030303691123205939 0 -0.1637260562540532 0.045028253166508762 0 -0.15126073753592009 0.02487777788828089 0 -0.15837519066330749 0.018103177496080571 0 -0.1637260562540532 0.045028253166508762 0 -0.15837519066330749 0.018103177496080571 0 -0.18416549926151529 0.022669224655560441 0 -0.1543123506052223 0.01567032783345056 0 -0.15837519066330749 0.018103177496080571 0 -0.1567842680697151 0.017821512483746641 0 -0.15837519066330749 0.018103177496080571 0 -0.1567842680697151 0.017821512483746641 0 -0.15837519066330749 0.018103177496080571 0 -0.18416549926151529 0.022669224655560441 0 -0.17312315274812851 0.016956976572924821 0 -0.17088268452158301 0.030303691123205939 0 -0.18416549926151529 0.022669224655560441 0 -0.1815242396402782 0.037713578252632912 0 -0.18416549926151529 0.022669224655560441 0 -0.17919408738426101 0.017592611389363012 0 -0.18518118592807509 0.0154377595936586 0 -0.18416549926151529 0.022669224655560441 0 -0.17312315274812851 0.016956976572924821 0 -0.17919408738426101 0.017592611389363012 0 -0.1785064095432054 -0.0066611219507198768 0 -0.16872927738725291 0.0066655648670224509 0 -0.193034969706537 0.00064734206737222756 0 -0.16872927738725291 0.0066655648670224509 0 -0.193034969706537 0.00064734206737222756 0 -0.16872927738725291 0.0066655648670224509 0 -0.18518118592807509 0.0154377595936586 0 -0.193034969706537 0.00064734206737222756 0 -0.16872927738725291 0.0066655648670224509 0 -0.17919408738426101 0.017592611389363012 0 -0.18518118592807509 0.0154377595936586 0 -0.16872927738725291 0.0066655648670224509 0 -0.17312315274812851 0.016956976572924821 0 -0.17919408738426101 0.017592611389363012 0 -0.16907692184479731 0.071953328836937142 0 -0.1637260562540532 0.045028253166508762 0 -0.18167022033174851 0.056262687610226528 0 -0.15722519427174569 0.065058312825911402 0 -0.16907692184479731 0.071953328836937142 0 -0.1637260562540532 0.045028253166508762 0 -0.16907692184479731 0.071953328836937142 0 -0.1637260562540532 0.045028253166508762 0 -0.15837519066330749 0.018103177496080571 0 -0.1637260562540532 0.045028253166508762 0 -0.17088268452158301 0.030303691123205939 0 -0.1637260562540532 0.045028253166508762 0 -0.1815242396402782 0.037713578252632912 0 -0.1815242396402782 0.037713578252632912 0 -0.18167022033174851 0.056262687610226528 0 -0.1948999673891425 0.045815662425189529 0 -0.1637260562540532 0.045028253166508762 0 -0.1815242396402782 0.037713578252632912 0 -0.18167022033174851 0.056262687610226528 0 -0.18416549926151529 0.022669224655560441 0 -0.1815242396402782 0.037713578252632912 0 -0.19539241544158811 0.034915353149486399 0 -0.19598386328254799 0.058823167906541372 0 -0.20873259774339259 0.055173182954087172 0 -0.20069407892192309 0.071070863509647808 0 -0.18167022033174851 0.056262687610226528 0 -0.19598386328254799 0.058823167906541372 0 -0.1876556690991136 0.063313821709693935 0 -0.19598386328254799 0.058823167906541372 0 -0.1948999673891425 0.045815662425189529 0 -0.20873259774339259 0.055173182954087172 0 -0.18167022033174851 0.056262687610226528 0 -0.19598386328254799 0.058823167906541372 0 -0.1948999673891425 0.045815662425189529 0 -0.1815242396402782 0.037713578252632912 0 -0.1948999673891425 0.045815662425189529 0 -0.19539241544158811 0.034915353149486399 0 -0.1948999673891425 0.045815662425189529 0 -0.19539241544158811 0.034915353149486399 0 -0.20641656305728129 0.041143028599009299 0 -0.20641656305728129 0.041143028599009299 0 -0.20995580785972329 0.027235271815039791 0 -0.22080882119384479 0.043900986742667819 0 -0.19539241544158811 0.034915353149486399 0 -0.20641656305728129 0.041143028599009299 0 -0.20995580785972329 0.027235271815039791 0 -0.20641656305728129 0.041143028599009299 0 -0.20873259774339259 0.055173182954087172 0 -0.22080882119384479 0.043900986742667819 0 -0.20873259774339259 0.055173182954087172 0 -0.2267202713125637 0.058975611642501508 0 -0.2176358721649875 0.072186860311035453 0 -0.1948999673891425 0.045815662425189529 0 -0.20641656305728129 0.041143028599009299 0 -0.20873259774339259 0.055173182954087172 0 -0.20993853639106591 -0.0035380738047605968 0 -0.2009137908539024 0.01431144198083124 0 -0.193034969706537 0.00064734206737222756 0 -0.18518118592807509 0.0154377595936586 0 -0.2009137908539024 0.01431144198083124 0 -0.193034969706537 0.00064734206737222756 0 -0.18518118592807509 0.0154377595936586 0 -0.193034969706537 0.00064734206737222756 0 -0.18416549926151529 0.022669224655560441 0 -0.20995580785972329 0.027235271815039791 0 -0.18416549926151529 0.022669224655560441 0 -0.18518118592807509 0.0154377595936586 0 -0.2009137908539024 0.01431144198083124 0 -0.18416549926151529 0.022669224655560441 0 -0.2009137908539024 0.01431144198083124 0 -0.20995580785972329 0.027235271815039791 0 -0.18416549926151529 0.022669224655560441 0 -0.19539241544158811 0.034915353149486399 0 -0.20995580785972329 0.027235271815039791 0 -0.2009137908539024 0.01431144198083124 0 -0.20995580785972329 0.027235271815039791 0 -0.21568563774484731 0.0082874278720449449 0 -0.20993853639106591 -0.0035380738047605968 0 -0.2009137908539024 0.01431144198083124 0 -0.21568563774484731 0.0082874278720449449 0 -0.22684210307559549 -0.0077234896768903086 0 -0.21568563774484731 0.0082874278720449449 0 -0.23077795054394901 0.01115198904600462 0 -0.22684210307559549 -0.0077234896768903086 0 -0.23077795054394901 0.01115198904600462 0 -0.20995580785972329 0.027235271815039791 0 -0.21568563774484731 0.0082874278720449449 0 -0.23077795054394901 0.01115198904600462 0 -0.20995580785972329 0.027235271815039791 0 -0.2357461164579312 0.03180131897451912 0 -0.20995580785972329 0.027235271815039791 0 -0.23077795054394901 0.01115198904600462 0 -0.2357461164579312 0.03180131897451912 0 -0.23077795054394901 0.01115198904600462 0 -0.24854849079604721 0.020569936005881421 0 -0.2357461164579312 0.03180131897451912 0 -0.26153642505613889 0.036367366133998442 0 -0.24854849079604721 0.020569936005881421 0 -0.2357461164579312 0.03180131897451912 0 -0.23077795054394901 0.01115198904600462 0 -0.24854849079604721 0.020569936005881421 0 -0.24598119983726671 0.0037338506766126851 0 -0.22684210307559549 -0.0077234896768903086 0 -0.23077795054394901 0.01115198904600462 0 -0.24598119983726671 0.0037338506766126851 0 -0.20873259774339259 0.055173182954087172 0 -0.2267202713125637 0.058975611642501508 0 -0.22080882119384479 0.043900986742667819 0 -0.2267202713125637 0.058975611642501508 0 -0.22080882119384479 0.043900986742667819 0 -0.239388393447095 0.04766651035075449 0 -0.22080882119384479 0.043900986742667819 0 -0.2357461164579312 0.03180131897451912 0 -0.239388393447095 0.04766651035075449 0 -0.20995580785972329 0.027235271815039791 0 -0.22080882119384479 0.043900986742667819 0 -0.2357461164579312 0.03180131897451912 0 -0.26153642505613889 0.036367366133998442 0 -0.2357461164579312 0.03180131897451912 0 -0.26153642505613889 0.036367366133998442 0 -0.2357461164579312 0.03180131897451912 0 -0.239388393447095 0.04766651035075449 0 -0.25116276906762952 0.054241108780248931 0 -0.239388393447095 0.04766651035075449 0 -0.24035595759446179 0.060712669830591162 0 -0.2267202713125637 0.058975611642501508 0 -0.239388393447095 0.04766651035075449 0 -0.24035595759446179 0.060712669830591162 0 -0.25116276906762952 0.054241108780248931 0 -0.24035595759446179 0.060712669830591162 0 -0.24829977196364941 0.065213336215906109 0 -0.2267202713125637 0.058975611642501508 0 -0.24035595759446179 0.060712669830591162 0 -0.23791909572611269 0.075142721002645518 0 -0.24035595759446179 0.060712669830591162 0 -0.24829977196364941 0.065213336215906109 0 -0.23791909572611269 0.075142721002645518 0 -0.25064083865024739 0.073628726666345984 0 -0.23791909572611269 0.075142721002645518 0 -0.24857020570659841 0.081659589420377987 0 -0.25064083865024739 0.073628726666345984 0 -0.24829977196364941 0.065213336215906109 0 -0.23791909572611269 0.075142721002645518 0 -0.23791909572611269 0.075142721002645518 0 -0.2427234934652894 0.090762762990284518 0 -0.22646138453880821 0.085461994072224837 0 -0.25413031243694739 0.089521027236778197 0 -0.2427234934652894 0.090762762990284518 0 -0.24857020570659841 0.081659589420377987 0 -0.23791909572611269 0.075142721002645518 0 -0.2427234934652894 0.090762762990284518 0 -0.24857020570659841 0.081659589420377987 0 -0.2267202713125637 0.058975611642501508 0 -0.23791909572611269 0.075142721002645518 0 -0.2176358721649875 0.072186860311035453 0 -0.23791909572611269 0.075142721002645518 0 -0.22646138453880821 0.085461994072224837 0 -0.2176358721649875 0.072186860311035453 0 -0.20873259774339259 0.055173182954087172 0 -0.2176358721649875 0.072186860311035453 0 -0.20069407892192309 0.071070863509647808 0 -0.2176358721649875 0.072186860311035453 0 -0.20525373999263671 0.08640341449760941 0 -0.20069407892192309 0.071070863509647808 0 -0.22646138453880821 0.085461994072224837 0 -0.2176358721649875 0.072186860311035453 0 -0.20525373999263671 0.08640341449760941 0 -0.22646138453880821 0.085461994072224837 0 -0.20525373999263671 0.08640341449760941 0 -0.2161514522581473 0.1006972439961434 0 -0.18444466814129201 0.081023499242751457 0 -0.20525373999263671 0.08640341449760941 0 -0.20069407892192309 0.071070863509647808 0 -0.18444466814129201 0.081023499242751457 0 -0.20525373999263671 0.08640341449760941 0 -0.19937405773042491 0.1071019237599893 0 -0.17832815471062741 0.080370175701138483 0 -0.20069407892192309 0.071070863509647808 0 -0.18444466814129201 0.081023499242751457 0 -0.17832815471062741 0.080370175701138483 0 -0.20069407892192309 0.071070863509647808 0 -0.1809864334298861 0.069780609401686525 0 -0.1876556690991136 0.063313821709693935 0 -0.20069407892192309 0.071070863509647808 0 -0.19598386328254799 0.058823167906541372 0 -0.1876556690991136 0.063313821709693935 0 -0.20069407892192309 0.071070863509647808 0 -0.19937405773042491 0.1071019237599893 0 -0.2161514522581473 0.1006972439961434 0 -0.21430344731955769 0.133180348277227 0 -0.19937405773042491 0.1071019237599893 0 -0.19727411993202021 0.1275714443648302 0 -0.1795193575176991 0.1294692331289829 0 -0.18444466814129201 0.081023499242751457 0 -0.19937405773042491 0.1071019237599893 0 -0.20525373999263671 0.08640341449760941 0 -0.19937405773042491 0.1071019237599893 0 -0.2161514522581473 0.1006972439961434 0 -0.19937405773042491 0.1071019237599893 0 -0.21430344731955769 0.133180348277227 0 -0.19937405773042491 0.1071019237599893 0 -0.19727411993202021 0.1275714443648302 0 -0.21430344731955769 0.133180348277227 0 -0.2161514522581473 0.1006972439961434 0 -0.23231730930006211 0.10853516007106349 0 -0.21430344731955769 0.133180348277227 0 -0.2427234934652894 0.090762762990284518 0 -0.22646138453880821 0.085461994072224837 0 -0.23231730930006211 0.10853516007106349 0 -0.22646138453880821 0.085461994072224837 0 -0.2161514522581473 0.1006972439961434 0 -0.23231730930006211 0.10853516007106349 0 -0.25610310449345419 0.1041046972302731 0 -0.2427234934652894 0.090762762990284518 0 -0.23231730930006211 0.10853516007106349 0 -0.25610310449345419 0.1041046972302731 0 -0.23231730930006211 0.10853516007106349 0 -0.2495823492922267 0.12121763785839371 0 -0.23231730930006211 0.10853516007106349 0 -0.2495823492922267 0.12121763785839371 0 -0.23849568892714909 0.13696143350773771 0 -0.23231730930006211 0.10853516007106349 0 -0.23849568892714909 0.13696143350773771 0 -0.25477231595188199 0.13792181725732239 0 -0.2495823492922267 0.12121763785839371 0 -0.23849568892714909 0.13696143350773771 0 -0.23231730930006211 0.10853516007106349 0 -0.23849568892714909 0.13696143350773771 0 -0.21430344731955769 0.133180348277227 0 -0.23849568892714909 0.13696143350773771 0 -0.22923283690869051 0.15925877279446471 0 -0.21430344731955769 0.133180348277227 0 -0.22923283690869051 0.15925877279446471 0 -0.21430344731955769 0.133180348277227 0 -0.2543915534089356 0.15018751405662761 0 -0.23849568892714909 0.13696143350773771 0 -0.24467406855423091 0.1653877069444131 0 -0.23849568892714909 0.13696143350773771 0 -0.24467406855423091 0.1653877069444131 0 -0.22923283690869051 0.15925877279446471 0 -0.2543915534089356 0.15018751405662761 0 -0.25477231595188199 0.13792181725732239 0 -0.23849568892714909 0.13696143350773771 0 -0.23849568892714909 0.13696143350773771 0 -0.24467406855423091 0.1653877069444131 0 -0.24467406855423091 0.1653877069444131 0 -0.2350219134637796 0.18103954803765679 0 -0.22379977898383499 0.16989282922580509 0 -0.24467406855423091 0.1653877069444131 0 -0.24947341468037071 0.1874691479585941 0 -0.2350219134637796 0.18103954803765679 0 -0.24467406855423091 0.1653877069444131 0 -0.24947341468037071 0.1874691479585941 0 -0.2350219134637796 0.18103954803765679 0 -0.22004124654446131 0.18611549732905991 0 -0.22379977898383499 0.16989282922580509 0 -0.24467406855423091 0.1653877069444131 0 -0.22379977898383499 0.16989282922580509 0 -0.22923283690869051 0.15925877279446471 0 -0.22379977898383499 0.16989282922580509 0 -0.22923283690869051 0.15925877279446471 0 -0.20989634202023699 0.1560844752241346 0 -0.24467406855423091 0.1653877069444131 0 -0.22379977898383499 0.16989282922580509 0 -0.22379977898383499 0.16989282922580509 0 -0.20292548941343971 0.17439795150720031 0 -0.20989634202023699 0.1560844752241346 0 -0.20292548941343971 0.17439795150720031 0 -0.20989634202023699 0.1560844752241346 0 -0.17833905569944569 0.15756593750779829 0 -0.22379977898383499 0.16989282922580509 0 -0.20292548941343971 0.17439795150720031 0 -0.22004124654446131 0.18611549732905991 0 -0.22379977898383499 0.16989282922580509 0 -0.20292548941343971 0.17439795150720031 0 -0.22004124654446131 0.18611549732905991 0 -0.20292548941343971 0.17439795150720031 0 -0.22004124654446131 0.18611549732905991 0 -0.20292548941343971 0.17439795150720031 0 -0.20568385543668641 0.19260324117033031 0 -0.20292548941343971 0.17439795150720031 0 -0.1757122088887666 0.1802711648698879 0 -0.20292548941343971 0.17439795150720031 0 -0.1897130520823497 0.19444680225630501 0 -0.1757122088887666 0.1802711648698879 0 -0.20292548941343971 0.17439795150720031 0 -0.20568385543668641 0.19260324117033031 0 -0.1897130520823497 0.19444680225630501 0 -0.20292548941343971 0.17439795150720031 0 -0.17833905569944569 0.15756593750779829 0 -0.19589961716039911 0.1405342722931214 0 -0.20989634202023699 0.1560844752241346 0 -0.17833905569944569 0.15756593750779829 0 -0.19727411993202021 0.1275714443648302 0 -0.19589961716039911 0.1405342722931214 0 -0.1795193575176991 0.1294692331289829 0 -0.19727411993202021 0.1275714443648302 0 -0.19589961716039911 0.1405342722931214 0 -0.21430344731955769 0.133180348277227 0 -0.22923283690869051 0.15925877279446471 0 -0.21430344731955769 0.133180348277227 0 -0.20989634202023699 0.1560844752241346 0 -0.19589961716039911 0.1405342722931214 0 -0.21430344731955769 0.133180348277227 0 -0.20989634202023699 0.1560844752241346 0 -0.23288038931281729 0.23888496135878451 0 -0.21994142138302111 0.22426230620998819 0 -0.21218175950055909 0.24952722652004439 0 -0.22667039518801041 0.25355429459537898 0 -0.23288038931281729 0.23888496135878451 0 -0.21218175950055909 0.24952722652004439 0 -0.2416444700809012 0.25186566196455601 0 -0.22667039518801041 0.25355429459537898 0 -0.23288038931281729 0.23888496135878451 0 -0.2416444700809012 0.25186566196455601 0 -0.23288038931281729 0.23888496135878451 0 -0.2470081454867771 0.2422065880623451 0 -0.25693865295534157 0.25278860643768353 0 -0.2416444700809012 0.25186566196455601 0 -0.2470081454867771 0.2422065880623451 0 -0.25109603964961891 0.234366577265785 0 -0.2470081454867771 0.2422065880623451 0 -0.24424918889796191 0.23342051569475999 0 -0.23288038931281729 0.23888496135878451 0 -0.2470081454867771 0.2422065880623451 0 -0.24424918889796191 0.23342051569475999 0 -0.23288038931281729 0.23888496135878451 0 -0.24424918889796191 0.23342051569475999 0 -0.2396805993576108 0.22455316273993289 0 -0.24424918889796191 0.23342051569475999 0 -0.249817319625419 0.2274340479663062 0 -0.2396805993576108 0.22455316273993289 0 -0.25109603964961891 0.234366577265785 0 -0.24424918889796191 0.23342051569475999 0 -0.249817319625419 0.2274340479663062 0 -0.249817319625419 0.2274340479663062 0 -0.24904636230289101 0.22050689045355901 0 -0.2396805993576108 0.22455316273993289 0 -0.24904636230289101 0.22050689045355901 0 -0.2396805993576108 0.22455316273993289 0 -0.24333230173327219 0.21221501244476959 0 -0.2396805993576108 0.22455316273993289 0 -0.21994142138302111 0.22426230620998819 0 -0.23304733008138001 0.21339205942673259 0 -0.23288038931281729 0.23888496135878451 0 -0.2396805993576108 0.22455316273993289 0 -0.21994142138302111 0.22426230620998819 0 -0.21994142138302111 0.22426230620998819 0 -0.22770108326548311 0.19899738589993199 0 -0.210353022999335 0.20567537760669019 0 -0.21994142138302111 0.22426230620998819 0 -0.23304733008138001 0.21339205942673259 0 -0.22770108326548311 0.19899738589993199 0 -0.21994142138302111 0.22426230620998819 0 -0.22770108326548311 0.19899738589993199 0 -0.23304733008138001 0.21339205942673259 0 -0.2346933251094325 0.20523388649383931 0 -0.22770108326548311 0.19899738589993199 0 -0.25427276080650663 0.20955058897277601 0 -0.23715700367548431 0.1978330431509176 0 -0.2396805993576108 0.22455316273993289 0 -0.23304733008138001 0.21339205942673259 0 -0.24333230173327219 0.21221501244476959 0 -0.25427276080650663 0.20955058897277601 0 -0.24333230173327219 0.21221501244476959 0 -0.23715700367548431 0.1978330431509176 0 -0.25561524088587501 0.21572724177218369 0 -0.24904636230289101 0.22050689045355901 0 -0.24333230173327219 0.21221501244476959 0 -0.24333230173327219 0.21221501244476959 0 -0.2346933251094325 0.20523388649383931 0 -0.23715700367548431 0.1978330431509176 0 -0.23304733008138001 0.21339205942673259 0 -0.24333230173327219 0.21221501244476959 0 -0.2346933251094325 0.20523388649383931 0 -0.25427276080650663 0.20955058897277601 0 -0.24947341468037071 0.1874691479585941 0 -0.23715700367548431 0.1978330431509176 0 -0.24947341468037071 0.1874691479585941 0 -0.2350219134637796 0.18103954803765679 0 -0.23715700367548431 0.1978330431509176 0 -0.22004124654446131 0.18611549732905991 0 -0.23715700367548431 0.1978330431509176 0 -0.22004124654446131 0.18611549732905991 0 -0.23715700367548431 0.1978330431509176 0 -0.22770108326548311 0.19899738589993199 0 -0.2350219134637796 0.18103954803765679 0 -0.22004124654446131 0.18611549732905991 0 -0.23715700367548431 0.1978330431509176 0 -0.2346933251094325 0.20523388649383931 0 -0.23715700367548431 0.1978330431509176 0 -0.22770108326548311 0.19899738589993199 0 -0.22004124654446131 0.18611549732905991 0 -0.22770108326548311 0.19899738589993199 0 -0.21594480206149139 0.19584787550150309 0 -0.22770108326548311 0.19899738589993199 0 -0.21594480206149139 0.19584787550150309 0 -0.210353022999335 0.20567537760669019 0 -0.22004124654446131 0.18611549732905991 0 -0.21594480206149139 0.19584787550150309 0 -0.20568385543668641 0.19260324117033031 0 -0.21594480206149139 0.19584787550150309 0 -0.20568385543668641 0.19260324117033031 0 -0.210353022999335 0.20567537760669019 0 -0.20568385543668641 0.19260324117033031 0 -0.19800517532583911 0.2033181044808495 0 -0.210353022999335 0.20567537760669019 0 -0.20568385543668641 0.19260324117033031 0 -0.1897130520823497 0.19444680225630501 0 -0.19800517532583911 0.2033181044808495 0 -0.1897130520823497 0.19444680225630501 0 -0.19800517532583911 0.2033181044808495 0 -0.1863200837324982 0.20555600776477401 0 -0.19800517532583911 0.2033181044808495 0 -0.19795586237832599 0.21830909360614789 0 -0.210353022999335 0.20567537760669019 0 -0.19800517532583911 0.2033181044808495 0 -0.19795586237832599 0.21830909360614789 0 -0.1863200837324982 0.20555600776477401 0 -0.19795586237832599 0.21830909360614789 0 -0.18240126852579899 0.21930684119835961 0 -0.1863200837324982 0.20555600776477401 0 -0.21994142138302111 0.22426230620998819 0 -0.19795586237832599 0.21830909360614789 0 -0.210353022999335 0.20567537760669019 0 -0.21994142138302111 0.22426230620998819 0 -0.19795586237832599 0.21830909360614789 0 -0.20314208847108339 0.23556135501649109 0 -0.19795586237832599 0.21830909360614789 0 -0.18651378479530609 0.23505073182760211 0 -0.18240126852579899 0.21930684119835961 0 -0.19795586237832599 0.21830909360614789 0 -0.20314208847108339 0.23556135501649109 0 -0.18651378479530609 0.23505073182760211 0 -0.1929026130837673 0.25762258695206858 0 -0.20314208847108339 0.23556135501649109 0 -0.18651378479530609 0.23505073182760211 0 -0.1929026130837673 0.25762258695206858 0 -0.20314208847108339 0.23556135501649109 0 -0.21218175950055909 0.24952722652004439 0 -0.21994142138302111 0.22426230620998819 0 -0.21218175950055909 0.24952722652004439 0 -0.21994142138302111 0.22426230620998819 0 -0.20314208847108339 0.23556135501649109 0 -0.21218175950055909 0.24952722652004439 0 -0.16582228118094081 0.26466105519565358 0 -0.18651378479530609 0.23505073182760211 0 -0.1608218935138386 0.23306973899941771 0 -0.16582228118094081 0.26466105519565358 0 -0.14534546737678511 0.25129379472131641 0 -0.1608218935138386 0.23306973899941771 0 -0.18651378479530609 0.23505073182760211 0 -0.1608218935138386 0.23306973899941771 0 -0.18651378479530609 0.23505073182760211 0 -0.18240126852579899 0.21930684119835961 0 -0.1608218935138386 0.23306973899941771 0 -0.1608218935138386 0.23306973899941771 0 -0.16716432822862029 0.21469463307327219 0 -0.14537567171977789 0.21373021027012479 0 -0.18240126852579899 0.21930684119835961 0 -0.1608218935138386 0.23306973899941771 0 -0.16716432822862029 0.21469463307327219 0 -0.16716432822862029 0.21469463307327219 0 -0.15728284033457929 0.19872471446884221 0 -0.14537567171977789 0.21373021027012479 0 -0.16716432822862029 0.21469463307327219 0 -0.1863200837324982 0.20555600776477401 0 -0.15728284033457929 0.19872471446884221 0 -0.18240126852579899 0.21930684119835961 0 -0.16716432822862029 0.21469463307327219 0 -0.1863200837324982 0.20555600776477401 0 -0.1863200837324982 0.20555600776477401 0 -0.1747365466553682 0.1940095109997643 0 -0.15728284033457929 0.19872471446884221 0 -0.1897130520823497 0.19444680225630501 0 -0.1863200837324982 0.20555600776477401 0 -0.1747365466553682 0.1940095109997643 0 -0.1897130520823497 0.19444680225630501 0 -0.1747365466553682 0.1940095109997643 0 -0.1757122088887666 0.1802711648698879 0 -0.1747365466553682 0.1940095109997643 0 -0.16534449221108169 0.19019064904669619 0 -0.1757122088887666 0.1802711648698879 0 -0.1863200837324982 0.20555600776477401 0 -0.15728284033457929 0.19872471446884221 0 -0.1747365466553682 0.1940095109997643 0 -0.16534449221108169 0.19019064904669619 0 -0.15728284033457929 0.19872471446884221 0 -0.16534449221108169 0.19019064904669619 0 -0.15728284033457929 0.19872471446884221 0 -0.15629575781976141 0.184461654133797 0 -0.15728284033457929 0.19872471446884221 0 -0.12824559693666041 0.19189342117291039 0 -0.15629575781976141 0.184461654133797 0 -0.15728284033457929 0.19872471446884221 0 -0.12824559693666041 0.19189342117291039 0 -0.14537567171977789 0.21373021027012479 0 -0.15728284033457929 0.19872471446884221 0 -0.12824559693666041 0.19189342117291039 0 -0.12824559693666041 0.19189342117291039 0 -0.14537567171977789 0.21373021027012479 0 -0.1242544958201173 0.21504107598638081 0 -0.1608218935138386 0.23306973899941771 0 -0.14537567171977789 0.21373021027012479 0 -0.13513000223237101 0.23108874617123329 0 -0.1608218935138386 0.23306973899941771 0 -0.13513000223237101 0.23108874617123329 0 -0.14537567171977789 0.21373021027012479 0 -0.13513000223237101 0.23108874617123329 0 -0.1242544958201173 0.21504107598638081 0 -0.14534546737678511 0.25129379472131641 0 -0.13513000223237101 0.23108874617123329 0 -0.12470300375741469 0.2457033751303839 0 -0.14534546737678511 0.25129379472131641 0 -0.1608218935138386 0.23306973899941771 0 -0.13513000223237101 0.23108874617123329 0 -0.17833905569944569 0.15756593750779829 0 -0.1561619761378806 0.16047685630827471 0 -0.153752621985453 0.14073392350839439 0 -0.1795193575176991 0.1294692331289829 0 -0.17833905569944569 0.15756593750779829 0 -0.153752621985453 0.14073392350839439 0 -0.17833905569944569 0.15756593750779829 0 -0.153752621985453 0.14073392350839439 0 -0.16393492635195239 0.1245978723337525 0 -0.15311233888185891 0.1152965378839053 0 -0.153752621985453 0.14073392350839439 0 -0.16393492635195239 0.1245978723337525 0 -0.1795193575176991 0.1294692331289829 0 -0.153752621985453 0.14073392350839439 0 -0.19589961716039911 0.1405342722931214 0 -0.1795193575176991 0.1294692331289829 0 -0.17833905569944569 0.15756593750779829 0 -0.20292548941343971 0.17439795150720031 0 -0.17833905569944569 0.15756593750779829 0 -0.1757122088887666 0.1802711648698879 0 -0.1897130520823497 0.19444680225630501 0 -0.1757122088887666 0.1802711648698879 0 -0.16534449221108169 0.19019064904669619 0 -0.1757122088887666 0.1802711648698879 0 -0.15629575781976141 0.184461654133797 0 -0.1757122088887666 0.1802711648698879 0 -0.15629575781976141 0.184461654133797 0 -0.1757122088887666 0.1802711648698879 0 -0.15629575781976141 0.184461654133797 0 -0.1561619761378806 0.16047685630827471 0 -0.17833905569944569 0.15756593750779829 0 -0.1757122088887666 0.1802711648698879 0 -0.1561619761378806 0.16047685630827471 0 -0.1757122088887666 0.1802711648698879 0 -0.1561619761378806 0.16047685630827471 0 -0.1561619761378806 0.16047685630827471 0 -0.14126926821389521 0.17232478353634881 0 -0.1371080151487378 0.15864895140394189 0 -0.15629575781976141 0.184461654133797 0 -0.1561619761378806 0.16047685630827471 0 -0.14126926821389521 0.17232478353634881 0 -0.12824559693666041 0.19189342117291039 0 -0.15629575781976141 0.184461654133797 0 -0.14126926821389521 0.17232478353634881 0 -0.12824559693666041 0.19189342117291039 0 -0.14126926821389521 0.17232478353634881 0 -0.1248941403316576 0.1686438139500778 0 -0.14126926821389521 0.17232478353634881 0 -0.1371080151487378 0.15864895140394189 0 -0.1248941403316576 0.1686438139500778 0 -0.1371080151487378 0.15864895140394189 0 -0.1239269324459726 0.1539154783358255 0 -0.1248941403316576 0.1686438139500778 0 -0.1371080151487378 0.15864895140394189 0 -0.13661174338699569 0.1406825477466605 0 -0.1239269324459726 0.1539154783358255 0 -0.1561619761378806 0.16047685630827471 0 -0.13661174338699569 0.1406825477466605 0 -0.1561619761378806 0.16047685630827471 0 -0.13661174338699569 0.1406825477466605 0 -0.153752621985453 0.14073392350839439 0 -0.1561619761378806 0.16047685630827471 0 -0.1371080151487378 0.15864895140394189 0 -0.13661174338699569 0.1406825477466605 0 -0.12916618827146031 0.12390190950899049 0 -0.153752621985453 0.14073392350839439 0 -0.13930859898956699 0.1145050369687237 0 -0.12916618827146031 0.12390190950899049 0 -0.153752621985453 0.14073392350839439 0 -0.13661174338699569 0.1406825477466605 0 -0.11706151063611089 0.1208882391850464 0 -0.12916618827146031 0.12390190950899049 0 -0.13661174338699569 0.1406825477466605 0 -0.11706151063611089 0.1208882391850464 0 -0.12916618827146031 0.12390190950899049 0 -0.13661174338699569 0.1406825477466605 0 -0.153752621985453 0.14073392350839439 0 -0.13661174338699569 0.1406825477466605 0 -0.11473911200363 0.13153944404780621 0 -0.1132109842275667 0.1430328284895945 0 -0.13661174338699569 0.1406825477466605 0 -0.11473911200363 0.13153944404780621 0 -0.11706151063611089 0.1208882391850464 0 -0.11473911200363 0.13153944404780621 0 -0.1039338124667491 0.13009472872812991 0 -0.1132109842275667 0.1430328284895945 0 -0.11473911200363 0.13153944404780621 0 -0.1039338124667491 0.13009472872812991 0 -0.10601879130899509 0.12208205668825579 0 -0.1039338124667491 0.13009472872812991 0 -0.093398168270057425 0.14218175111966569 0 -0.093946486761182085 0.1175508364221631 0 -0.1039338124667491 0.13009472872812991 0 -0.1132109842275667 0.1430328284895945 0 -0.093398168270057425 0.14218175111966569 0 -0.1078097791349048 0.15856925008885259 0 -0.089544080768145809 0.16137822361845131 0 -0.093398168270057425 0.14218175111966569 0 -0.1132109842275667 0.1430328284895945 0 -0.1078097791349048 0.15856925008885259 0 -0.093398168270057425 0.14218175111966569 0 -0.13661174338699569 0.1406825477466605 0 -0.1132109842275667 0.1430328284895945 0 -0.1239269324459726 0.1539154783358255 0 -0.1132109842275667 0.1430328284895945 0 -0.1239269324459726 0.1539154783358255 0 -0.1078097791349048 0.15856925008885259 0 -0.1248941403316576 0.1686438139500778 0 -0.099208353538741523 0.18506212787697859 0 -0.1078097791349048 0.15856925008885259 0 -0.1239269324459726 0.1539154783358255 0 -0.1248941403316576 0.1686438139500778 0 -0.1078097791349048 0.15856925008885259 0 -0.12824559693666041 0.19189342117291039 0 -0.1248941403316576 0.1686438139500778 0 -0.099208353538741523 0.18506212787697859 0 -0.099208353538741523 0.18506212787697859 0 -0.1078097791349048 0.15856925008885259 0 -0.089544080768145809 0.16137822361845131 0 -0.089544080768145809 0.16137822361845131 0 -0.070171110140822543 0.1782308345810468 0 -0.074669823138777097 0.15727584041375819 0 -0.099208353538741523 0.18506212787697859 0 -0.089544080768145809 0.16137822361845131 0 -0.070171110140822543 0.1782308345810468 0 -0.099208353538741523 0.18506212787697859 0 -0.070171110140822543 0.1782308345810468 0 -0.070171110140822543 0.1782308345810468 0 -0.074669823138777097 0.15727584041375819 0 -0.057722578482997257 0.16273086802879619 0 -0.074669823138777097 0.15727584041375819 0 -0.066369438716585821 0.14892706699039879 0 -0.057722578482997257 0.16273086802879619 0 -0.074669823138777097 0.15727584041375819 0 -0.066369438716585821 0.14892706699039879 0 -0.074733199104357148 0.14603812585323231 0 -0.074669823138777097 0.15727584041375819 0 -0.074733199104357148 0.14603812585323231 0 -0.082756465015383474 0.1492386270883771 0 -0.074733199104357148 0.14603812585323231 0 -0.067315024607703278 0.13662092079142449 0 -0.081437053795579945 0.1393191944367777 0 -0.066369438716585821 0.14892706699039879 0 -0.074733199104357148 0.14603812585323231 0 -0.067315024607703278 0.13662092079142449 0 -0.066369438716585821 0.14892706699039879 0 -0.067315024607703278 0.13662092079142449 0 -0.054361576129613079 0.15178129246158931 0 -0.067315024607703278 0.13662092079142449 0 -0.088852304720190942 0.12644129241805541 0 -0.067315024607703278 0.13662092079142449 0 -0.088852304720190942 0.12644129241805541 0 -0.075786521408142987 0.12443322189858901 0 -0.067315024607703278 0.13662092079142449 0 -0.062016764747578973 0.12884034001808189 0 -0.075786521408142987 0.12443322189858901 0 -0.088852304720190942 0.12644129241805541 0 -0.093398168270057425 0.14218175111966569 0 -0.093946486761182085 0.1175508364221631 0 -0.067315024607703278 0.13662092079142449 0 -0.081437053795579945 0.1393191944367777 0 -0.088852304720190942 0.12644129241805541 0 -0.093398168270057425 0.14218175111966569 0 -0.093946486761182085 0.1175508364221631 0 -0.081437053795579945 0.1393191944367777 0 -0.088852304720190942 0.12644129241805541 0 -0.093398168270057425 0.14218175111966569 0 -0.089544080768145809 0.16137822361845131 0 -0.093398168270057425 0.14218175111966569 0 -0.082756465015383474 0.1492386270883771 0 -0.089544080768145809 0.16137822361845131 0 -0.074669823138777097 0.15727584041375819 0 -0.082756465015383474 0.1492386270883771 0 -0.074733199104357148 0.14603812585323231 0 -0.081437053795579945 0.1393191944367777 0 -0.082756465015383474 0.1492386270883771 0 -0.081437053795579945 0.1393191944367777 0 -0.093398168270057425 0.14218175111966569 0 -0.082756465015383474 0.1492386270883771 0 -0.11076524853809321 0.25238606884059173 0 -0.1094381109509034 0.22910775334304889 0 -0.091345724210048884 0.23566487628332011 0 -0.11076524853809321 0.25238606884059173 0 -0.092391857727521592 0.25884509119311472 0 -0.091345724210048884 0.23566487628332011 0 -0.13513000223237101 0.23108874617123329 0 -0.12470300375741469 0.2457033751303839 0 -0.1094381109509034 0.22910775334304889 0 -0.11076524853809321 0.25238606884059173 0 -0.12470300375741469 0.2457033751303839 0 -0.1094381109509034 0.22910775334304889 0 -0.13513000223237101 0.23108874617123329 0 -0.1094381109509034 0.22910775334304889 0 -0.13513000223237101 0.23108874617123329 0 -0.1094381109509034 0.22910775334304889 0 -0.1242544958201173 0.21504107598638081 0 -0.1094381109509034 0.22910775334304889 0 -0.10308309726087379 0.20938524897458621 0 -0.091345724210048884 0.23566487628332011 0 -0.1094381109509034 0.22910775334304889 0 -0.10308309726087379 0.20938524897458621 0 -0.1242544958201173 0.21504107598638081 0 -0.12824559693666041 0.19189342117291039 0 -0.10308309726087379 0.20938524897458621 0 -0.1242544958201173 0.21504107598638081 0 -0.12824559693666041 0.19189342117291039 0 -0.099208353538741523 0.18506212787697859 0 -0.12824559693666041 0.19189342117291039 0 -0.099208353538741523 0.18506212787697859 0 -0.10308309726087379 0.20938524897458621 0 -0.099208353538741523 0.18506212787697859 0 -0.070171110140822543 0.1782308345810468 0 -0.078220861930521898 0.21057701145176541 0 -0.070171110140822543 0.1782308345810468 0 -0.078220861930521898 0.21057701145176541 0 -0.056949983849450658 0.19269083667038239 0 -0.099208353538741523 0.18506212787697859 0 -0.10308309726087379 0.20938524897458621 0 -0.078220861930521898 0.21057701145176541 0 -0.078220861930521898 0.21057701145176541 0 -0.056178602179823331 0.21732906463454121 0 -0.056949983849450658 0.19269083667038239 0 -0.10308309726087379 0.20938524897458621 0 -0.078220861930521898 0.21057701145176541 0 -0.091345724210048884 0.23566487628332011 0 -0.078220861930521898 0.21057701145176541 0 -0.069221313838413207 0.24642852661517459 0 -0.091345724210048884 0.23566487628332011 0 -0.078220861930521898 0.21057701145176541 0 -0.069221313838413207 0.24642852661517459 0 -0.056178602179823331 0.21732906463454121 0 -0.092391857727521592 0.25884509119311472 0 -0.069221313838413207 0.24642852661517459 0 -0.091345724210048884 0.23566487628332011 0 -0.033382390283993792 0.24359412621706661 0 -0.046050769949304807 0.23401196203723451 0 -0.025866468353912139 0.2289639569827632 0 -0.048126263350958612 0.25465777805589501 0 -0.033382390283993792 0.24359412621706661 0 -0.046050769949304807 0.23401196203723451 0 -0.048126263350958612 0.25465777805589501 0 -0.069221313838413207 0.24642852661517459 0 -0.046050769949304807 0.23401196203723451 0 -0.069221313838413207 0.24642852661517459 0 -0.046050769949304807 0.23401196203723451 0 -0.069221313838413207 0.24642852661517459 0 -0.046050769949304807 0.23401196203723451 0 -0.056178602179823331 0.21732906463454121 0 -0.046050769949304807 0.23401196203723451 0 -0.03692704292774221 0.2147422921961073 0 -0.025866468353912139 0.2289639569827632 0 -0.046050769949304807 0.23401196203723451 0 -0.03692704292774221 0.2147422921961073 0 -0.056178602179823331 0.21732906463454121 0 -0.03692704292774221 0.2147422921961073 0 -0.056178602179823331 0.21732906463454121 0 -0.044221089124866657 0.20193605474889509 0 -0.03692704292774221 0.2147422921961073 0 -0.044221089124866657 0.20193605474889509 0 -0.032331133115066808 0.19858524020914661 0 -0.056178602179823331 0.21732906463454121 0 -0.056949983849450658 0.19269083667038239 0 -0.044221089124866657 0.20193605474889509 0 -0.056949983849450658 0.19269083667038239 0 -0.040360849617421202 0.18777351164107661 0 -0.044221089124866657 0.20193605474889509 0 -0.040360849617421202 0.18777351164107661 0 -0.032331133115066808 0.19858524020914661 0 -0.026751027678188599 0.18229597604057349 0 -0.040360849617421202 0.18777351164107661 0 -0.044221089124866657 0.20193605474889509 0 -0.032331133115066808 0.19858524020914661 0 -0.016914194843479571 0.2076274745640635 0 -0.026751027678188599 0.18229597604057349 0 -0.032331133115066808 0.19858524020914661 0 -0.016914194843479571 0.2076274745640635 0 -0.026751027678188599 0.18229597604057349 0 -0.01405220631290922 0.19352016069679451 0 -0.016914194843479571 0.2076274745640635 0 -0.026751027678188599 0.18229597604057349 0 -0.01405220631290922 0.19352016069679451 0 -0.0012364494800765971 0.1960628175593882 0 -0.01891215499648707 0.1765136475382359 0 -0.01405220631290922 0.19352016069679451 0 -0.0012364494800765971 0.1960628175593882 0 -0.0064787008301582438 0.20475797647738719 0 -0.0012364494800765971 0.1960628175593882 0 -0.0064787008301582438 0.20475797647738719 0 0.003893562275735573 0.2064819102401671 0 -0.01405220631290922 0.19352016069679451 0 -0.0064787008301582438 0.20475797647738719 0 -0.016914194843479571 0.2076274745640635 0 -0.0045317147067566524 0.21522543551468479 0 -0.016914194843479571 0.2076274745640635 0 -0.0070773620087705444 0.23295897308755351 0 -0.0064787008301582438 0.20475797647738719 0 -0.0045317147067566524 0.21522543551468479 0 -0.016914194843479571 0.2076274745640635 0 -0.0064787008301582438 0.20475797647738719 0 -0.0045317147067566524 0.21522543551468479 0 0.003893562275735573 0.2064819102401671 0 -0.03692704292774221 0.2147422921961073 0 -0.016914194843479571 0.2076274745640635 0 -0.025866468353912139 0.2289639569827632 0 -0.03692704292774221 0.2147422921961073 0 -0.032331133115066808 0.19858524020914661 0 -0.016914194843479571 0.2076274745640635 0 -0.016914194843479571 0.2076274745640635 0 -0.025866468353912139 0.2289639569827632 0 -0.0070773620087705444 0.23295897308755351 0 -0.016914194843479571 0.2076274745640635 0 -0.0070773620087705444 0.23295897308755351 0 -0.0045317147067566524 0.21522543551468479 0 -0.0070773620087705444 0.23295897308755351 0 0.0038866256090455522 0.2239579318999283 0 -0.0070773620087705444 0.23295897308755351 0 0.001894876929373096 0.24743045501984201 0 0.0027594708259384838 0.25829047161104352 0 -0.0070773620087705444 0.23295897308755351 0 0.0027594708259384838 0.25829047161104352 0 -0.0087132352456033638 0.25173417187717928 0 -0.0070773620087705444 0.23295897308755351 0 -0.01778818590069102 0.2421293126167848 0 -0.0087132352456033638 0.25173417187717928 0 -0.0070773620087705444 0.23295897308755351 0 0.0027594708259384838 0.25829047161104352 0 -0.025866468353912139 0.2289639569827632 0 -0.0070773620087705444 0.23295897308755351 0 -0.01778818590069102 0.2421293126167848 0 -0.028053557715267439 0.25838243531431121 0 -0.033382390283993792 0.24359412621706661 0 -0.01778818590069102 0.2421293126167848 0 -0.033382390283993792 0.24359412621706661 0 -0.025866468353912139 0.2289639569827632 0 -0.01778818590069102 0.2421293126167848 0 -0.044416936009294992 0.14744373737619401 0 -0.030319635528424791 0.14770209815471691 0 -0.021396469969749188 0.1374028974533886 0 -0.044416936009294992 0.14744373737619401 0 -0.030319635528424791 0.14770209815471691 0 -0.027639103276038759 0.15537380566908321 0 -0.044416936009294992 0.14744373737619401 0 -0.038116788675066252 0.15302723042411279 0 -0.027639103276038759 0.15537380566908321 0 -0.044416936009294992 0.14744373737619401 0 -0.041458398192443832 0.13942314763129199 0 -0.021396469969749188 0.1374028974533886 0 -0.044416936009294992 0.14744373737619401 0 -0.027639103276038759 0.15537380566908321 0 -0.044416936009294992 0.14744373737619401 0 -0.021396469969749188 0.1374028974533886 0 -0.044416936009294992 0.14744373737619401 0 -0.036587860512897558 0.15696447751708351 0 -0.044416936009294992 0.14744373737619401 0 -0.047012455662473793 0.15786975055381819 0 -0.036587860512897558 0.15696447751708351 0 -0.044416936009294992 0.14744373737619401 0 -0.038116788675066252 0.15302723042411279 0 -0.036587860512897558 0.15696447751708351 0 -0.038116788675066252 0.15302723042411279 0 -0.036587860512897558 0.15696447751708351 0 -0.027639103276038759 0.15537380566908321 0 -0.038116788675066252 0.15302723042411279 0 -0.036587860512897558 0.15696447751708351 0 -0.037500573576258918 0.13069979942664511 0 -0.041458398192443832 0.13942314763129199 0 -0.021396469969749188 0.1374028974533886 0 -0.037500573576258918 0.13069979942664511 0 -0.028643554108799551 0.12806760582925611 0 -0.034668926388748328 0.1237436995229996 0 -0.037500573576258918 0.13069979942664511 0 -0.047589673205635397 0.1324549890601831 0 -0.046884900963607742 0.11986348336078891 0 -0.037500573576258918 0.13069979942664511 0 -0.041458398192443832 0.13942314763129199 0 -0.047589673205635397 0.1324549890601831 0 -0.044416936009294992 0.14744373737619401 0 -0.041458398192443832 0.13942314763129199 0 -0.047589673205635397 0.1324549890601831 0 -0.067315024607703278 0.13662092079142449 0 -0.044416936009294992 0.14744373737619401 0 -0.062016764747578973 0.12884034001808189 0 -0.044416936009294992 0.14744373737619401 0 -0.062016764747578973 0.12884034001808189 0 -0.044416936009294992 0.14744373737619401 0 -0.047589673205635397 0.1324549890601831 0 -0.062016764747578973 0.12884034001808189 0 -0.047589673205635397 0.1324549890601831 0 -0.062016764747578973 0.12884034001808189 0 -0.046884900963607742 0.11986348336078891 0 -0.067315024607703278 0.13662092079142449 0 -0.044416936009294992 0.14744373737619401 0 -0.054361576129613079 0.15178129246158931 0 -0.067315024607703278 0.13662092079142449 0 -0.044416936009294992 0.14744373737619401 0 -0.044416936009294992 0.14744373737619401 0 -0.054361576129613079 0.15178129246158931 0 -0.044416936009294992 0.14744373737619401 0 -0.054361576129613079 0.15178129246158931 0 -0.047012455662473793 0.15786975055381819 0 -0.066369438716585821 0.14892706699039879 0 -0.054361576129613079 0.15178129246158931 0 -0.057722578482997257 0.16273086802879619 0 -0.057722578482997257 0.16273086802879619 0 -0.050411583818504503 0.1777900037548745 0 -0.045636115300606919 0.16650756778262649 0 -0.054361576129613079 0.15178129246158931 0 -0.057722578482997257 0.16273086802879619 0 -0.047012455662473793 0.15786975055381819 0 -0.057722578482997257 0.16273086802879619 0 -0.047012455662473793 0.15786975055381819 0 -0.045636115300606919 0.16650756778262649 0 -0.070171110140822543 0.1782308345810468 0 -0.056949983849450658 0.19269083667038239 0 -0.050411583818504503 0.1777900037548745 0 -0.070171110140822543 0.1782308345810468 0 -0.057722578482997257 0.16273086802879619 0 -0.050411583818504503 0.1777900037548745 0 -0.056949983849450658 0.19269083667038239 0 -0.040360849617421202 0.18777351164107661 0 -0.050411583818504503 0.1777900037548745 0 -0.040360849617421202 0.18777351164107661 0 -0.050411583818504503 0.1777900037548745 0 -0.039949487385523758 0.17426630734724691 0 -0.050411583818504503 0.1777900037548745 0 -0.039949487385523758 0.17426630734724691 0 -0.045636115300606919 0.16650756778262649 0 -0.040360849617421202 0.18777351164107661 0 -0.039949487385523758 0.17426630734724691 0 -0.026751027678188599 0.18229597604057349 0 -0.039949487385523758 0.17426630734724691 0 -0.036587860512897558 0.15696447751708351 0 -0.026751027678188599 0.18229597604057349 0 -0.036587860512897558 0.15696447751708351 0 -0.026751027678188599 0.18229597604057349 0 -0.039949487385523758 0.17426630734724691 0 -0.045636115300606919 0.16650756778262649 0 -0.036587860512897558 0.15696447751708351 0 -0.047012455662473793 0.15786975055381819 0 -0.045636115300606919 0.16650756778262649 0 -0.036587860512897558 0.15696447751708351 0 -0.01891215499648707 0.1765136475382359 0 -0.010861270542782259 0.1633038739619718 0 -0.027639103276038759 0.15537380566908321 0 -0.010861270542782259 0.1633038739619718 0 -0.027639103276038759 0.15537380566908321 0 -0.036587860512897558 0.15696447751708351 0 -0.01891215499648707 0.1765136475382359 0 -0.036587860512897558 0.15696447751708351 0 -0.01891215499648707 0.1765136475382359 0 -0.027639103276038759 0.15537380566908321 0 -0.01405220631290922 0.19352016069679451 0 -0.01891215499648707 0.1765136475382359 0 -0.026751027678188599 0.18229597604057349 0 -0.036587860512897558 0.15696447751708351 0 -0.01891215499648707 0.1765136475382359 0 -0.026751027678188599 0.18229597604057349 0 -0.01891215499648707 0.1765136475382359 0 -0.010861270542782259 0.1633038739619718 0 0.00061104658230836653 0.17769045695541219 0 -0.0012364494800765971 0.1960628175593882 0 -0.01891215499648707 0.1765136475382359 0 0.00061104658230836653 0.17769045695541219 0 -0.0012364494800765971 0.1960628175593882 0 -0.01891215499648707 0.1765136475382359 0 -0.010861270542782259 0.1633038739619718 0 0.001788155555331062 0.1557637096651584 0 0.00061104658230836653 0.17769045695541219 0 -0.01542264584752753 0.14956457798035719 0 -0.015783289274076458 0.13495459563681389 0 0.001788155555331062 0.1557637096651584 0 -0.015783289274076458 0.13495459563681389 0 0.001788155555331062 0.1557637096651584 0 0.01185912902997375 0.14130758542593569 0 -0.010861270542782259 0.1633038739619718 0 -0.01542264584752753 0.14956457798035719 0 0.001788155555331062 0.1557637096651584 0 -0.015783289274076458 0.13495459563681389 0 0.001788155555331062 0.1557637096651584 0 -0.01542264584752753 0.14956457798035719 0 -0.023159931299824549 0.14839209377580129 0 -0.027639103276038759 0.15537380566908321 0 -0.010861270542782259 0.1633038739619718 0 -0.01542264584752753 0.14956457798035719 0 -0.027639103276038759 0.15537380566908321 0 -0.01542264584752753 0.14956457798035719 0 -0.023159931299824549 0.14839209377580129 0 -0.021396469969749188 0.1374028974533886 0 -0.01542264584752753 0.14956457798035719 0 -0.021396469969749188 0.1374028974533886 0 -0.015783289274076458 0.13495459563681389 0 -0.030319635528424791 0.14770209815471691 0 -0.021396469969749188 0.1374028974533886 0 -0.023159931299824549 0.14839209377580129 0 -0.030319635528424791 0.14770209815471691 0 -0.021396469969749188 0.1374028974533886 0 -0.023159931299824549 0.14839209377580129 0 -0.030319635528424791 0.14770209815471691 0 -0.027639103276038759 0.15537380566908321 0 -0.028643554108799551 0.12806760582925611 0 -0.017506847497941139 0.13291345901070739 0 -0.032144953111298558 0.1155781737325411 0 -0.037500573576258918 0.13069979942664511 0 -0.028643554108799551 0.12806760582925611 0 -0.021396469969749188 0.1374028974533886 0 -0.021396469969749188 0.1374028974533886 0 -0.015783289274076458 0.13495459563681389 0 -0.017506847497941139 0.13291345901070739 0 -0.021396469969749188 0.1374028974533886 0 -0.015783289274076458 0.13495459563681389 0 -0.021396469969749188 0.1374028974533886 0 -0.017506847497941139 0.13291345901070739 0 -0.015783289274076458 0.13495459563681389 0 -0.017506847497941139 0.13291345901070739 0 -0.028643554108799551 0.12806760582925611 0 -0.021396469969749188 0.1374028974533886 0 -0.017506847497941139 0.13291345901070739 0 -0.015783289274076458 0.13495459563681389 0 -0.017506847497941139 0.13291345901070739 0 -0.0052228475358298988 0.1187351519746004 0 -0.015783289274076458 0.13495459563681389 0 -0.0052228475358298988 0.1187351519746004 0 0.0081407562022233586 0.1245196413435004 0 -0.017506847497941139 0.13291345901070739 0 -0.0052228475358298988 0.1187351519746004 0 -0.015783289274076458 0.13495459563681389 0 0.0081407562022233586 0.1245196413435004 0 -0.0052228475358298988 0.1187351519746004 0 -0.0040597014752050652 0.1051126182356364 0 -0.02761291541641378 0.1090435214711212 0 -0.017506847497941139 0.13291345901070739 0 -0.0052228475358298988 0.1187351519746004 0 -0.019344259015361451 0.119617058157429 0 -0.0040597014752050652 0.1051126182356364 0 -0.01533391803445322 0.09737838425916874 0 0.0051087594610210148 0.080527692295617709 0 -0.0052228475358298988 0.1187351519746004 0 -0.0040597014752050652 0.1051126182356364 0 0.0092582498306486675 0.1020209346744549 0 -0.0040597014752050652 0.1051126182356364 0 -0.01533391803445322 0.09737838425916874 0 -0.02761291541641378 0.1090435214711212 0 -0.01533391803445322 0.09737838425916874 0 -0.027797722535604891 0.095528124355643507 0 -0.02761291541641378 0.1090435214711212 0 -0.0052228475358298988 0.1187351519746004 0 -0.02761291541641378 0.1090435214711212 0 -0.019344259015361451 0.119617058157429 0 -0.017506847497941139 0.13291345901070739 0 -0.019344259015361451 0.119617058157429 0 -0.032144953111298558 0.1155781737325411 0 -0.02761291541641378 0.1090435214711212 0 -0.019344259015361451 0.119617058157429 0 -0.032144953111298558 0.1155781737325411 0 -0.0052228475358298988 0.1187351519746004 0 -0.02761291541641378 0.1090435214711212 0 -0.017506847497941139 0.13291345901070739 0 -0.032144953111298558 0.1155781737325411 0 -0.0012292332505543029 0.06378464068123596 0 -0.011084303888442551 0.081696622097620714 0 -0.018620569400409771 0.06708533464306303 0 -0.0012292332505543029 0.06378464068123596 0 -0.011084303888442551 0.081696622097620714 0 0.0051087594610210148 0.080527692295617709 0 -0.01533391803445322 0.09737838425916874 0 -0.011084303888442551 0.081696622097620714 0 0.0051087594610210148 0.080527692295617709 0 -0.01533391803445322 0.09737838425916874 0 0.0051087594610210148 0.080527692295617709 0 -0.011084303888442551 0.081696622097620714 0 0.0051087594610210148 0.080527692295617709 0 -0.027797722535604891 0.095528124355643507 0 -0.011084303888442551 0.081696622097620714 0 -0.032921925083363349 0.0833654898886593 0 -0.01533391803445322 0.09737838425916874 0 -0.027797722535604891 0.095528124355643507 0 -0.011084303888442551 0.081696622097620714 0 -0.018620569400409771 0.06708533464306303 0 -0.031868141831282552 0.069818555696904067 0 -0.028283535649973771 0.053358049395037133 0 -0.018620569400409771 0.06708533464306303 0 -0.031868141831282552 0.069818555696904067 0 -0.032921925083363349 0.0833654898886593 0 -0.011084303888442551 0.081696622097620714 0 -0.018620569400409771 0.06708533464306303 0 -0.032921925083363349 0.0833654898886593 0 -0.046276495737503101 0.06795068115397529 0 -0.032921925083363349 0.0833654898886593 0 -0.055882409073029139 0.082732437330199013 0 -0.046276495737503101 0.06795068115397529 0 -0.031868141831282552 0.069818555696904067 0 -0.028283535649973771 0.053358049395037133 0 -0.046276495737503101 0.06795068115397529 0 -0.031868141831282552 0.069818555696904067 0 -0.032921925083363349 0.0833654898886593 0 -0.027797722535604891 0.095528124355643507 0 -0.032921925083363349 0.0833654898886593 0 -0.050002983296997462 0.099351890967641507 0 -0.032921925083363349 0.0833654898886593 0 -0.055882409073029139 0.082732437330199013 0 -0.050002983296997462 0.099351890967641507 0 -0.055882409073029139 0.082732437330199013 0 -0.050002983296997462 0.099351890967641507 0 -0.072393051177581158 0.089660260464161839 0 -0.046276495737503101 0.06795068115397529 0 -0.055882409073029139 0.082732437330199013 0 -0.062589921296568873 0.06642957971461419 0 -0.032144953111298558 0.1155781737325411 0 -0.050002983296997462 0.099351890967641507 0 -0.046884900963607742 0.11986348336078891 0 -0.037500573576258918 0.13069979942664511 0 -0.034668926388748328 0.1237436995229996 0 -0.046884900963607742 0.11986348336078891 0 -0.028643554108799551 0.12806760582925611 0 -0.034668926388748328 0.1237436995229996 0 -0.032144953111298558 0.1155781737325411 0 -0.034668926388748328 0.1237436995229996 0 -0.032144953111298558 0.1155781737325411 0 -0.046884900963607742 0.11986348336078891 0 -0.027797722535604891 0.095528124355643507 0 -0.02761291541641378 0.1090435214711212 0 -0.050002983296997462 0.099351890967641507 0 -0.02761291541641378 0.1090435214711212 0 -0.050002983296997462 0.099351890967641507 0 -0.02761291541641378 0.1090435214711212 0 -0.032144953111298558 0.1155781737325411 0 -0.050002983296997462 0.099351890967641507 0 -0.050002983296997462 0.099351890967641507 0 -0.072393051177581158 0.089660260464161839 0 -0.050002983296997462 0.099351890967641507 0 -0.062115440392200259 0.1100516779477724 0 -0.072393051177581158 0.089660260464161839 0 -0.062016764747578973 0.12884034001808189 0 -0.062115440392200259 0.1100516779477724 0 -0.046884900963607742 0.11986348336078891 0 -0.050002983296997462 0.099351890967641507 0 -0.062115440392200259 0.1100516779477724 0 -0.046884900963607742 0.11986348336078891 0 -0.062016764747578973 0.12884034001808189 0 -0.062115440392200259 0.1100516779477724 0 -0.07825578499994286 0.1108801308713713 0 -0.062016764747578973 0.12884034001808189 0 -0.07825578499994286 0.1108801308713713 0 -0.062016764747578973 0.12884034001808189 0 -0.075786521408142987 0.12443322189858901 0 -0.07825578499994286 0.1108801308713713 0 -0.088852304720190942 0.12644129241805541 0 -0.075786521408142987 0.12443322189858901 0 -0.083719546898917335 0.119699814685821 0 -0.083719546898917335 0.119699814685821 0 -0.07825578499994286 0.1108801308713713 0 -0.093946486761182085 0.1175508364221631 0 -0.075786521408142987 0.12443322189858901 0 -0.083719546898917335 0.119699814685821 0 -0.07825578499994286 0.1108801308713713 0 -0.088852304720190942 0.12644129241805541 0 -0.083719546898917335 0.119699814685821 0 -0.093946486761182085 0.1175508364221631 0 -0.07825578499994286 0.1108801308713713 0 -0.072393051177581158 0.089660260464161839 0 -0.094494805252306774 0.092919921724660626 0 -0.07825578499994286 0.1108801308713713 0 -0.094494805252306774 0.092919921724660626 0 -0.093946486761182085 0.1175508364221631 0 -0.07825578499994286 0.1108801308713713 0 -0.094494805252306774 0.092919921724660626 0 -0.062115440392200259 0.1100516779477724 0 -0.07825578499994286 0.1108801308713713 0 -0.072393051177581158 0.089660260464161839 0 -0.055882409073029139 0.082732437330199013 0 -0.072393051177581158 0.089660260464161839 0 -0.062589921296568873 0.06642957971461419 0 -0.072393051177581158 0.089660260464161839 0 -0.062589921296568873 0.06642957971461419 0 -0.079461892795990779 0.070449194571112136 0 -0.062589921296568873 0.06642957971461419 0 -0.079461892795990779 0.070449194571112136 0 -0.072380178782229632 0.053292134703331731 0 -0.079461892795990779 0.070449194571112136 0 -0.094783119058163612 0.079968629960679383 0 -0.095163193665411511 0.062895368012773595 0 -0.072393051177581158 0.089660260464161839 0 -0.079461892795990779 0.070449194571112136 0 -0.094783119058163612 0.079968629960679383 0 -0.072393051177581158 0.089660260464161839 0 -0.094494805252306774 0.092919921724660626 0 -0.094783119058163612 0.079968629960679383 0 -0.072393051177581158 0.089660260464161839 0 -0.094783119058163612 0.079968629960679383 0 -0.094494805252306774 0.092919921724660626 0 -0.1072570836689255 0.074569224449017327 0 -0.1143352617609841 0.070976556735617355 0 -0.094494805252306774 0.092919921724660626 0 -0.094783119058163612 0.079968629960679383 0 -0.1072570836689255 0.074569224449017327 0 -0.094494805252306774 0.092919921724660626 0 -0.094783119058163612 0.079968629960679383 0 -0.094494805252306774 0.092919921724660626 0 -0.1143352617609841 0.070976556735617355 0 -0.11134444788944529 0.091345452974062963 0 -0.094494805252306774 0.092919921724660626 0 -0.1143352617609841 0.070976556735617355 0 -0.094783119058163612 0.079968629960679383 0 -0.095163193665411511 0.062895368012773595 0 -0.094783119058163612 0.079968629960679383 0 -0.095163193665411511 0.062895368012773595 0 -0.1072570836689255 0.074569224449017327 0 -0.095163193665411511 0.062895368012773595 0 -0.1143352617609841 0.070976556735617355 0 -0.1079186055395126 0.059947093390224047 0 -0.095163193665411511 0.062895368012773595 0 -0.1072570836689255 0.074569224449017327 0 -0.1143352617609841 0.070976556735617355 0 -0.095163193665411511 0.062895368012773595 0 -0.1143352617609841 0.070976556735617355 0 -0.094783119058163612 0.079968629960679383 0 -0.1072570836689255 0.074569224449017327 0 -0.1131683311422218 0.062814464837820119 0 -0.1163519950294771 0.068746068028026575 0 -0.1143352617609841 0.070976556735617355 0 -0.1131683311422218 0.062814464837820119 0 -0.1143352617609841 0.070976556735617355 0 -0.1079186055395126 0.059947093390224047 0 -0.1131683311422218 0.062814464837820119 0 -0.1163519950294771 0.068746068028026575 0 -0.1185872066977806 0.063729502839677182 0 -0.1163519950294771 0.068746068028026575 0 -0.1143352617609841 0.070976556735617355 0 -0.12697985749263241 0.07630636069427757 0 -0.1143352617609841 0.070976556735617355 0 -0.12697985749263241 0.07630636069427757 0 -0.1143352617609841 0.070976556735617355 0 -0.1200161930876608 0.081776906418299489 0 -0.12697985749263241 0.07630636069427757 0 -0.1163519950294771 0.068746068028026575 0 -0.1143352617609841 0.070976556735617355 0 -0.12697985749263241 0.07630636069427757 0 -0.12509646681095879 0.065597408261105467 0 -0.1163519950294771 0.068746068028026575 0 -0.12509646681095879 0.065597408261105467 0 -0.1163519950294771 0.068746068028026575 0 -0.1185872066977806 0.063729502839677182 0 -0.13359630628803579 0.098968800084119873 0 -0.12697672020224329 0.087309090757334687 0 -0.11134444788944529 0.091345452974062963 0 -0.1143352617609841 0.070976556735617355 0 -0.11134444788944529 0.091345452974062963 0 -0.1200161930876608 0.081776906418299489 0 -0.12697672020224329 0.087309090757334687 0 -0.11134444788944529 0.091345452974062963 0 -0.1200161930876608 0.081776906418299489 0 -0.12697672020224329 0.087309090757334687 0 -0.12697985749263241 0.07630636069427757 0 -0.1200161930876608 0.081776906418299489 0 -0.12607259725238279 0.11330641960449821 0 -0.13359630628803579 0.098968800084119873 0 -0.11123038207674001 0.1082681122756106 0 -0.13359630628803579 0.098968800084119873 0 -0.11134444788944529 0.091345452974062963 0 -0.11123038207674001 0.1082681122756106 0 -0.13359630628803579 0.098968800084119873 0 -0.11123038207674001 0.1082681122756106 0 -0.11134444788944529 0.091345452974062963 0 -0.11123038207674001 0.1082681122756106 0 -0.1057361510920251 0.099277959283072717 0 -0.12607259725238279 0.11330641960449821 0 -0.11123038207674001 0.1082681122756106 0 -0.11706151063611089 0.1208882391850464 0 -0.12607259725238279 0.11330641960449821 0 -0.12916618827146031 0.12390190950899049 0 -0.11706151063611089 0.1208882391850464 0 -0.11473911200363 0.13153944404780621 0 -0.11706151063611089 0.1208882391850464 0 -0.10601879130899509 0.12208205668825579 0 -0.1036345166478785 0.1154037657297244 0 -0.093946486761182085 0.1175508364221631 0 -0.097511277885226108 0.1010939306234323 0 -0.11123038207674001 0.1082681122756106 0 -0.11706151063611089 0.1208882391850464 0 -0.097511277885226108 0.1010939306234323 0 -0.11706151063611089 0.1208882391850464 0 -0.1036345166478785 0.1154037657297244 0 -0.097511277885226108 0.1010939306234323 0 -0.11706151063611089 0.1208882391850464 0 -0.097511277885226108 0.1010939306234323 0 -0.11706151063611089 0.1208882391850464 0 -0.1036345166478785 0.1154037657297244 0 -0.10601879130899509 0.12208205668825579 0 -0.1039338124667491 0.13009472872812991 0 -0.10601879130899509 0.12208205668825579 0 -0.093946486761182085 0.1175508364221631 0 -0.1036345166478785 0.1154037657297244 0 -0.10601879130899509 0.12208205668825579 0 -0.093946486761182085 0.1175508364221631 0 -0.094494805252306774 0.092919921724660626 0 -0.11134444788944529 0.091345452974062963 0 -0.1057361510920251 0.099277959283072717 0 -0.094494805252306774 0.092919921724660626 0 -0.093946486761182085 0.1175508364221631 0 -0.094494805252306774 0.092919921724660626 0 -0.093946486761182085 0.1175508364221631 0 -0.097511277885226108 0.1010939306234323 0 -0.094494805252306774 0.092919921724660626 0 -0.097511277885226108 0.1010939306234323 0 -0.1057361510920251 0.099277959283072717 0 -0.11123038207674001 0.1082681122756106 0 -0.097511277885226108 0.1010939306234323 0 -0.1057361510920251 0.099277959283072717 0 -0.1001339578063882 0.022436777626384768 0 -0.09536928659882779 0.01424719335382847 0 -0.1128440433065038 0.01636018592503535 0 -0.1001339578063882 0.022436777626384768 0 -0.1128440433065038 0.01636018592503535 0 -0.1012358460944251 0.033108064834657697 0 -0.1128440433065038 0.01636018592503535 0 -0.11393466639619521 0.035004472642448957 0 -0.1012358460944251 0.033108064834657697 0 -0.1128440433065038 0.01636018592503535 0 -0.1012358460944251 0.033108064834657697 0 -0.1001339578063882 0.022436777626384768 0 -0.1012358460944251 0.033108064834657697 0 -0.091086655225796079 0.026031666392017531 0 -0.1001339578063882 0.022436777626384768 0 -0.09536928659882779 0.01424719335382847 0 -0.091086655225796079 0.026031666392017531 0 -0.10394313851700079 0.0020556251079679459 0 -0.09536928659882779 0.01424719335382847 0 -0.085958893623968774 0.001514634656162053 0 -0.10394313851700079 0.0020556251079679459 0 -0.09536928659882779 0.01424719335382847 0 -0.1128440433065038 0.01636018592503535 0 -0.1244522405185825 -0.00038769298458709092 0 -0.12424451236807239 0.027069144312366941 0 -0.1244522405185825 -0.00038769298458709092 0 -0.1128440433065038 0.01636018592503535 0 -0.12424451236807239 0.027069144312366941 0 -0.1244522405185825 -0.00038769298458709092 0 -0.1128440433065038 0.01636018592503535 0 -0.1244522405185825 -0.00038769298458709092 0 -0.10394313851700079 0.0020556251079679459 0 -0.1128440433065038 0.01636018592503535 0 -0.1128440433065038 0.01636018592503535 0 -0.12424451236807239 0.027069144312366941 0 -0.11393466639619521 0.035004472642448957 0 -0.12424451236807239 0.027069144312366941 0 -0.12075472355362291 0.04122338309529356 0 -0.11393466639619521 0.035004472642448957 0 -0.12075472355362291 0.04122338309529356 0 -0.1244920148619628 0.050381604022983993 0 -0.1151670195775447 0.0482238646449 0 -0.11393466639619521 0.035004472642448957 0 -0.1151670195775447 0.0482238646449 0 -0.10635909785250069 0.04125385698526951 0 -0.12075472355362291 0.04122338309529356 0 -0.11393466639619521 0.035004472642448957 0 -0.1151670195775447 0.0482238646449 0 -0.12509646681095879 0.065597408261105467 0 -0.1185872066977806 0.063729502839677182 0 -0.1197320338084647 0.057760070231756527 0 -0.1197320338084647 0.057760070231756527 0 -0.1244920148619628 0.050381604022983993 0 -0.1151670195775447 0.0482238646449 0 -0.1151670195775447 0.0482238646449 0 -0.1125210466915524 0.054978807834542787 0 -0.1051700993263314 0.050476507920077678 0 -0.1197320338084647 0.057760070231756527 0 -0.1151670195775447 0.0482238646449 0 -0.1125210466915524 0.054978807834542787 0 -0.1131683311422218 0.062814464837820119 0 -0.1197320338084647 0.057760070231756527 0 -0.1125210466915524 0.054978807834542787 0 -0.1131683311422218 0.062814464837820119 0 -0.1125210466915524 0.054978807834542787 0 -0.1079186055395126 0.059947093390224047 0 -0.1131683311422218 0.062814464837820119 0 -0.1185872066977806 0.063729502839677182 0 -0.1197320338084647 0.057760070231756527 0 -0.095163193665411511 0.062895368012773595 0 -0.1051700993263314 0.050476507920077678 0 -0.095336714328198874 0.041619114628837717 0 -0.095163193665411511 0.062895368012773595 0 -0.095336714328198874 0.041619114628837717 0 -0.1125210466915524 0.054978807834542787 0 -0.1079186055395126 0.059947093390224047 0 -0.1051700993263314 0.050476507920077678 0 -0.095163193665411511 0.062895368012773595 0 -0.1079186055395126 0.059947093390224047 0 -0.1051700993263314 0.050476507920077678 0 -0.11393466639619521 0.035004472642448957 0 -0.10635909785250069 0.04125385698526951 0 -0.1012358460944251 0.033108064834657697 0 -0.1051700993263314 0.050476507920077678 0 -0.10635909785250069 0.04125385698526951 0 -0.095336714328198874 0.041619114628837717 0 -0.1151670195775447 0.0482238646449 0 -0.1051700993263314 0.050476507920077678 0 -0.10635909785250069 0.04125385698526951 0 -0.095336714328198874 0.041619114628837717 0 -0.1012358460944251 0.033108064834657697 0 -0.08853862327275358 0.036894035852943478 0 -0.10635909785250069 0.04125385698526951 0 -0.095336714328198874 0.041619114628837717 0 -0.1012358460944251 0.033108064834657697 0 -0.095336714328198874 0.041619114628837717 0 -0.1012358460944251 0.033108064834657697 0 -0.1012358460944251 0.033108064834657697 0 -0.08853862327275358 0.036894035852943478 0 -0.091086655225796079 0.026031666392017531 0 -0.08853862327275358 0.036894035852943478 0 -0.081088353484909961 0.032020518526829703 0 -0.091086655225796079 0.026031666392017531 0 -0.08853862327275358 0.036894035852943478 0 -0.079654612676290371 0.043453985766932421 0 -0.089627648882346422 0.049855943744280047 0 -0.095336714328198874 0.041619114628837717 0 -0.08853862327275358 0.036894035852943478 0 -0.089627648882346422 0.049855943744280047 0 -0.095336714328198874 0.041619114628837717 0 -0.089627648882346422 0.049855943744280047 0 -0.08853862327275358 0.036894035852943478 0 -0.079654612676290371 0.043453985766932421 0 -0.081088353484909961 0.032020518526829703 0 -0.095163193665411511 0.062895368012773595 0 -0.089627648882346422 0.049855943744280047 0 -0.072380178782229632 0.053292134703331731 0 -0.095163193665411511 0.062895368012773595 0 -0.095336714328198874 0.041619114628837717 0 -0.089627648882346422 0.049855943744280047 0 -0.095163193665411511 0.062895368012773595 0 -0.072380178782229632 0.053292134703331731 0 -0.079461892795990779 0.070449194571112136 0 -0.095163193665411511 0.062895368012773595 0 -0.072380178782229632 0.053292134703331731 0 -0.079654612676290371 0.043453985766932421 0 -0.089627648882346422 0.049855943744280047 0 -0.072380178782229632 0.053292134703331731 0 -0.079654612676290371 0.043453985766932421 0 -0.072380178782229632 0.053292134703331731 0 -0.065785112224924183 0.037111289768743512 0 -0.072380178782229632 0.053292134703331731 0 -0.065785112224924183 0.037111289768743512 0 -0.049597163899048183 0.043688901393888827 0 -0.079654612676290371 0.043453985766932421 0 -0.081088353484909961 0.032020518526829703 0 -0.065785112224924183 0.037111289768743512 0 -0.081088353484909961 0.032020518526829703 0 -0.065785112224924183 0.037111289768743512 0 -0.069646162847898541 0.026335067629459381 0 -0.069646162847898541 0.026335067629459381 0 -0.076118231742993758 0.01527396050979404 0 -0.05559295393876626 0.02093450171247024 0 -0.065785112224924183 0.037111289768743512 0 -0.069646162847898541 0.026335067629459381 0 -0.05559295393876626 0.02093450171247024 0 -0.081088353484909961 0.032020518526829703 0 -0.069646162847898541 0.026335067629459381 0 -0.076118231742993758 0.01527396050979404 0 -0.081088353484909961 0.032020518526829703 0 -0.091086655225796079 0.026031666392017531 0 -0.076118231742993758 0.01527396050979404 0 -0.09536928659882779 0.01424719335382847 0 -0.091086655225796079 0.026031666392017531 0 -0.076118231742993758 0.01527396050979404 0 -0.09536928659882779 0.01424719335382847 0 -0.085958893623968774 0.001514634656162053 0 -0.076118231742993758 0.01527396050979404 0 -0.076118231742993758 0.01527396050979404 0 -0.065648076432031049 0.00090955339710942099 0 -0.05559295393876626 0.02093450171247024 0 -0.085958893623968774 0.001514634656162053 0 -0.076118231742993758 0.01527396050979404 0 -0.065648076432031049 0.00090955339710942099 0 -0.045118160941850949 -0.00049033847668307538 0 -0.065648076432031049 0.00090955339710942099 0 -0.05559295393876626 0.02093450171247024 0 -0.05559295393876626 0.02093450171247024 0 -0.041197297059898302 0.028587588038626519 0 -0.049597163899048183 0.043688901393888827 0 -0.05559295393876626 0.02093450171247024 0 -0.032784921385912158 0.01564128096370114 0 -0.041197297059898302 0.028587588038626519 0 -0.032784921385912158 0.01564128096370114 0 -0.041197297059898302 0.028587588038626519 0 -0.02681414901586664 0.034085668084445887 0 -0.045118160941850949 -0.00049033847668307538 0 -0.05559295393876626 0.02093450171247024 0 -0.032784921385912158 0.01564128096370114 0 -0.045118160941850949 -0.00049033847668307538 0 -0.027025641752002061 -0.0079319500279313396 0 -0.032784921385912158 0.01564128096370114 0 -0.062589921296568873 0.06642957971461419 0 -0.072380178782229632 0.053292134703331731 0 -0.049597163899048183 0.043688901393888827 0 -0.046276495737503101 0.06795068115397529 0 -0.062589921296568873 0.06642957971461419 0 -0.049597163899048183 0.043688901393888827 0 -0.072380178782229632 0.053292134703331731 0 -0.049597163899048183 0.043688901393888827 0 -0.065785112224924183 0.037111289768743512 0 -0.05559295393876626 0.02093450171247024 0 -0.049597163899048183 0.043688901393888827 0 -0.049597163899048183 0.043688901393888827 0 -0.02681414901586664 0.034085668084445887 0 -0.041197297059898302 0.028587588038626519 0 -0.049597163899048183 0.043688901393888827 0 -0.02681414901586664 0.034085668084445887 0 -0.049597163899048183 0.043688901393888827 0 -0.028283535649973771 0.053358049395037133 0 -0.02681414901586664 0.034085668084445887 0 -0.046276495737503101 0.06795068115397529 0 -0.028283535649973771 0.053358049395037133 0 -0.046276495737503101 0.06795068115397529 0 -0.049597163899048183 0.043688901393888827 0 -0.028283535649973771 0.053358049395037133 0 -0.028283535649973771 0.053358049395037133 0 -0.010290575562444429 0.038765417636098962 0 -0.0097640400442320502 0.053032197103308337 0 -0.018620569400409771 0.06708533464306303 0 -0.028283535649973771 0.053358049395037133 0 -0.0097640400442320502 0.053032197103308337 0 -0.028283535649973771 0.053358049395037133 0 -0.010290575562444429 0.038765417636098962 0 -0.02681414901586664 0.034085668084445887 0 -0.010290575562444429 0.038765417636098962 0 -0.020835528804160591 0.022374223573919171 0 -0.028283535649973771 0.053358049395037133 0 -0.02681414901586664 0.034085668084445887 0 -0.010290575562444429 0.038765417636098962 0 -0.010290575562444429 0.038765417636098962 0 0.0077023845250848884 0.024172785877160811 0 -0.010290575562444429 0.038765417636098962 0 -0.0034349793211087142 0.044893397967285961 0 0.0047272217829380687 0.036246676438490527 0 -0.010290575562444429 0.038765417636098962 0 -0.0034349793211087142 0.044893397967285961 0 -0.0097640400442320502 0.053032197103308337 0 -0.0012292332505543029 0.06378464068123596 0 -0.018620569400409771 0.06708533464306303 0 -0.0097640400442320502 0.053032197103308337 0 -0.0034349793211087142 0.044893397967285961 0 -0.0097640400442320502 0.053032197103308337 0 0.0015874765393035599 0.051529300691246019 0 -0.0012292332505543029 0.06378464068123596 0 -0.0097640400442320502 0.053032197103308337 0 0.0015874765393035599 0.051529300691246019 0 -0.027025641752002061 -0.0079319500279313396 0 -0.032784921385912158 0.01564128096370114 0 -0.01566814095190756 0.010235570601176981 0 -0.032784921385912158 0.01564128096370114 0 -0.02681414901586664 0.034085668084445887 0 -0.020835528804160591 0.022374223573919171 0 -0.032784921385912158 0.01564128096370114 0 -0.01566814095190756 0.010235570601176981 0 -0.020835528804160591 0.022374223573919171 0 -0.010290575562444429 0.038765417636098962 0 -0.020835528804160591 0.022374223573919171 0 -0.0077262750329500059 0.02266504195052366 0 -0.01566814095190756 0.010235570601176981 0 -0.020835528804160591 0.022374223573919171 0 -0.0077262750329500059 0.02266504195052366 0 -0.010290575562444429 0.038765417636098962 0 -0.0077262750329500059 0.02266504195052366 0 0.0077023845250848884 0.024172785877160811 0 -0.0091716063734174208 -0.003332990253060792 0 -0.01566814095190756 0.010235570601176981 0 0.001118487675879971 0.0096665619175221752 0 -0.0091716063734174208 -0.003332990253060792 0 0.001118487675879971 0.0096665619175221752 0 0.006935528729737548 -0.0054826371559186567 0 -0.01566814095190756 0.010235570601176981 0 -0.0077262750329500059 0.02266504195052366 0 0.001118487675879971 0.0096665619175221752 0 0.001118487675879971 0.0096665619175221752 0 0.0077023845250848884 0.024172785877160811 0 0.025695344612614111 0.0095801541182225364 0 0.001118487675879971 0.0096665619175221752 0 0.025695344612614111 0.0095801541182225364 0 0.006935528729737548 -0.0054826371559186567 0 -0.0077262750329500059 0.02266504195052366 0 0.001118487675879971 0.0096665619175221752 0 0.0077023845250848884 0.024172785877160811 0 0.0077023845250848884 0.024172785877160811 0 0.024648998497944961 0.02642224341189468 0 0.015911730558903318 0.034762274935307848 0 0.024648998497944961 0.02642224341189468 0 0.025695344612614111 0.0095801541182225364 0 0.038363400138324961 0.019751697241263279 0 0.0077023845250848884 0.024172785877160811 0 0.024648998497944961 0.02642224341189468 0 0.025695344612614111 0.0095801541182225364 0 0.0077023845250848884 0.024172785877160811 0 0.025695344612614111 0.0095801541182225364 0 0.025695344612614111 0.0095801541182225364 0 0.006935528729737548 -0.0054826371559186567 0 0.01459521235494949 0.061710637509134872 0 0.0047272217829380687 0.036246676438490527 0 -0.0012292332505543029 0.06378464068123596 0 0.01459521235494949 0.061710637509134872 0 0.0015874765393035599 0.051529300691246019 0 0.01459521235494949 0.061710637509134872 0 0.0015874765393035599 0.051529300691246019 0 0.0047272217829380687 0.036246676438490527 0 0.01459521235494949 0.061710637509134872 0 0.0047272217829380687 0.036246676438490527 0 0.016570281580619739 0.045526930476817662 0 -0.010290575562444429 0.038765417636098962 0 0.0077023845250848884 0.024172785877160811 0 0.0047272217829380687 0.036246676438490527 0 -0.0034349793211087142 0.044893397967285961 0 0.0015874765393035599 0.051529300691246019 0 0.0047272217829380687 0.036246676438490527 0 0.0047272217829380687 0.036246676438490527 0 0.015911730558903318 0.034762274935307848 0 0.016570281580619739 0.045526930476817662 0 0.0077023845250848884 0.024172785877160811 0 0.0047272217829380687 0.036246676438490527 0 0.015911730558903318 0.034762274935307848 0 0.024648998497944961 0.02642224341189468 0 0.015911730558903318 0.034762274935307848 0 0.025892041879535671 0.039420421904702428 0 0.024648998497944961 0.02642224341189468 0 0.025892041879535671 0.039420421904702428 0 0.038236142792751733 0.035111405712831077 0 0.015911730558903318 0.034762274935307848 0 0.025892041879535671 0.039420421904702428 0 0.016570281580619739 0.045526930476817662 0 0.025892041879535671 0.039420421904702428 0 0.016570281580619739 0.045526930476817662 0 0.021716339062575678 0.05448348331271597 0 0.01459521235494949 0.061710637509134872 0 0.016570281580619739 0.045526930476817662 0 0.021716339062575678 0.05448348331271597 0 0.01459521235494949 0.061710637509134872 0 0.021716339062575678 0.05448348331271597 0 0.030459386295035529 0.05963142741263059 0 0.01459521235494949 0.061710637509134872 0 0.030459386295035529 0.05963142741263059 0 0.021716339062575678 0.05448348331271597 0 0.030459386295035529 0.05963142741263059 0 0.032703710623893968 0.046893395464013943 0 0.025892041879535671 0.039420421904702428 0 0.021716339062575678 0.05448348331271597 0 0.032703710623893968 0.046893395464013943 0 0.030459386295035529 0.05963142741263059 0 0.032703710623893968 0.046893395464013943 0 0.047214643089571059 0.045820238977188371 0 0.030459386295035529 0.05963142741263059 0 0.04797297407010033 0.057336039788577382 0 0.030459386295035529 0.05963142741263059 0 0.04797297407010033 0.057336039788577382 0 0.027635028654909001 0.06907575978797427 0 0.030459386295035529 0.05963142741263059 0 0.047214643089571059 0.045820238977188371 0 0.04797297407010033 0.057336039788577382 0 0.030459386295035529 0.05963142741263059 0 0.047214643089571059 0.045820238977188371 0 0.038236142792751733 0.035111405712831077 0 0.047214643089571059 0.045820238977188371 0 0.051031455664035288 0.029923240364304559 0 0.032703710623893968 0.046893395464013943 0 0.038236142792751733 0.035111405712831077 0 0.047214643089571059 0.045820238977188371 0 0.025892041879535671 0.039420421904702428 0 0.032703710623893968 0.046893395464013943 0 0.038236142792751733 0.035111405712831077 0 0.062359133547200143 0.040731400683572692 0 0.047214643089571059 0.045820238977188371 0 0.063969899884107562 0.032009050541747332 0 0.047214643089571059 0.045820238977188371 0 0.063969899884107562 0.032009050541747332 0 0.047214643089571059 0.045820238977188371 0 0.051031455664035288 0.029923240364304559 0 0.063969899884107562 0.032009050541747332 0 0.062359133547200143 0.040731400683572692 0 0.04797297407010033 0.057336039788577382 0 0.072379857481358154 0.054137194478101919 0 0.04797297407010033 0.057336039788577382 0 0.072379857481358154 0.054137194478101919 0 0.062359133547200143 0.040731400683572692 0 0.04797297407010033 0.057336039788577382 0 0.062359133547200143 0.040731400683572692 0 0.047214643089571059 0.045820238977188371 0 0.04797297407010033 0.057336039788577382 0 0.04797297407010033 0.057336039788577382 0 0.072379857481358154 0.054137194478101919 0 0.06072113176624426 0.066105246874810966 0 0.040835927619124697 0.0088703260301804514 0 0.038363400138324961 0.019751697241263279 0 0.051939500327619889 0.017318508583630769 0 0.040835927619124697 0.0088703260301804514 0 0.046640351189982193 0.001482106492276504 0 0.040314465242246092 -0.002276229875846851 0 0.025695344612614111 0.0095801541182225364 0 0.040314465242246092 -0.002276229875846851 0 0.025695344612614111 0.0095801541182225364 0 0.040835927619124697 0.0088703260301804514 0 0.040314465242246092 -0.002276229875846851 0 0.025695344612614111 0.0095801541182225364 0 0.040835927619124697 0.0088703260301804514 0 0.038363400138324961 0.019751697241263279 0 0.025695344612614111 0.0095801541182225364 0 0.038363400138324961 0.019751697241263279 0 0.024648998497944961 0.02642224341189468 0 0.038236142792751733 0.035111405712831077 0 0.038363400138324961 0.019751697241263279 0 0.038363400138324961 0.019751697241263279 0 0.051031455664035288 0.029923240364304559 0 0.038236142792751733 0.035111405712831077 0 0.038363400138324961 0.019751697241263279 0 0.051031455664035288 0.029923240364304559 0 0.038363400138324961 0.019751697241263279 0 0.051939500327619889 0.017318508583630769 0 0.051031455664035288 0.029923240364304559 0 0.051031455664035288 0.029923240364304559 0 0.062107590562420073 0.0228568457980407 0 0.063969899884107562 0.032009050541747332 0 0.051939500327619889 0.017318508583630769 0 0.062107590562420073 0.0228568457980407 0 0.064696567818308529 0.01472149906873369 0 0.051939500327619889 0.017318508583630769 0 0.051031455664035288 0.029923240364304559 0 0.062107590562420073 0.0228568457980407 0 0.055514373943813228 0.0067304088365214816 0 0.075461568133428525 0.0044331687040122013 0 0.049896637954744763 -0.0073960790217490677 0 0.051939500327619889 0.017318508583630769 0 0.055514373943813228 0.0067304088365214816 0 0.064696567818308529 0.01472149906873369 0 0.040835927619124697 0.0088703260301804514 0 0.051939500327619889 0.017318508583630769 0 0.055514373943813228 0.0067304088365214816 0 0.046640351189982193 0.001482106492276504 0 0.055514373943813228 0.0067304088365214816 0 0.049896637954744763 -0.0073960790217490677 0 0.040835927619124697 0.0088703260301804514 0 0.046640351189982193 0.001482106492276504 0 0.055514373943813228 0.0067304088365214816 0 0.075461568133428525 0.0044331687040122013 0 0.064696567818308529 0.01472149906873369 0 0.08072515667864405 0.018197862106306289 0 0.055514373943813228 0.0067304088365214816 0 0.075461568133428525 0.0044331687040122013 0 0.064696567818308529 0.01472149906873369 0 0.075461568133428525 0.0044331687040122013 0 0.1010264983121123 0.016262416429773479 0 0.075461568133428525 0.0044331687040122013 0 0.1010264983121123 0.016262416429773479 0 0.098011391193308373 -0.0056982583262641584 0 0.075461568133428525 0.0044331687040122013 0 0.08072515667864405 0.018197862106306289 0 0.1010264983121123 0.016262416429773479 0 0.088041666307225416 0.02743399724937181 0 0.08072515667864405 0.018197862106306289 0 0.1010264983121123 0.016262416429773479 0 0.088041666307225416 0.02743399724937181 0 0.08072515667864405 0.018197862106306289 0 0.076745293024301803 0.02412676157856956 0 0.088041666307225416 0.02743399724937181 0 0.076745293024301803 0.02412676157856956 0 0.082258845210710349 0.03253561428057717 0 0.08072515667864405 0.018197862106306289 0 0.076745293024301803 0.02412676157856956 0 0.063969899884107562 0.032009050541747332 0 0.062107590562420073 0.0228568457980407 0 0.064696567818308529 0.01472149906873369 0 0.08072515667864405 0.018197862106306289 0 0.08072515667864405 0.018197862106306289 0 0.063969899884107562 0.032009050541747332 0 0.062107590562420073 0.0228568457980407 0 0.08072515667864405 0.018197862106306289 0 0.063969899884107562 0.032009050541747332 0 0.062359133547200143 0.040731400683572692 0 0.076745293024301803 0.02412676157856956 0 0.062359133547200143 0.040731400683572692 0 0.076745293024301803 0.02412676157856956 0 0.076375628159171968 0.038405412939545532 0 0.062359133547200143 0.040731400683572692 0 0.076745293024301803 0.02412676157856956 0 0.063969899884107562 0.032009050541747332 0 0.062359133547200143 0.040731400683572692 0 0.076375628159171968 0.038405412939545532 0 0.072379857481358154 0.054137194478101919 0 0.072379857481358154 0.054137194478101919 0 0.087872793352142223 0.040176285354821803 0 0.096786740892615686 0.050938349167624693 0 0.072379857481358154 0.054137194478101919 0 0.096786740892615686 0.050938349167624693 0 0.072379857481358154 0.054137194478101919 0 0.096786740892615686 0.050938349167624693 0 0.089592915186254174 0.067390154600646832 0 0.076375628159171968 0.038405412939545532 0 0.072379857481358154 0.054137194478101919 0 0.087872793352142223 0.040176285354821803 0 0.076375628159171968 0.038405412939545532 0 0.082258845210710349 0.03253561428057717 0 0.087872793352142223 0.040176285354821803 0 0.076745293024301803 0.02412676157856956 0 0.076375628159171968 0.038405412939545532 0 0.082258845210710349 0.03253561428057717 0 0.088041666307225416 0.02743399724937181 0 0.087872793352142223 0.040176285354821803 0 0.098246025398924644 0.032379674771496843 0 0.088041666307225416 0.02743399724937181 0 0.082258845210710349 0.03253561428057717 0 0.087872793352142223 0.040176285354821803 0 0.098246025398924644 0.032379674771496843 0 0.09859813872304253 0.041737690340159041 0 0.1063796333462841 0.038668109643535398 0 0.087872793352142223 0.040176285354821803 0 0.098246025398924644 0.032379674771496843 0 0.09859813872304253 0.041737690340159041 0 0.087872793352142223 0.040176285354821803 0 0.09859813872304253 0.041737690340159041 0 0.096786740892615686 0.050938349167624693 0 0.09859813872304253 0.041737690340159041 0 0.1037055006252459 0.04652603276331644 0 0.096786740892615686 0.050938349167624693 0 0.1037055006252459 0.04652603276331644 0 0.1091701701315707 0.045405346223324289 0 0.1063796333462841 0.038668109643535398 0 0.09859813872304253 0.041737690340159041 0 0.1037055006252459 0.04652603276331644 0 0.1063796333462841 0.038668109643535398 0 0.098246025398924644 0.032379674771496843 0 0.1063796333462841 0.038668109643535398 0 0.1080469394596527 0.029312409717345649 0 0.1063796333462841 0.038668109643535398 0 0.11369005285381351 0.036564640387925021 0 0.1080469394596527 0.029312409717345649 0 0.10140855114010359 0.056741753968867333 0 0.1082136550722141 0.059696613986540442 0 0.089592915186254174 0.067390154600646832 0 0.10140855114010359 0.056741753968867333 0 0.096786740892615686 0.050938349167624693 0 0.089592915186254174 0.067390154600646832 0 0.10140855114010359 0.056741753968867333 0 0.096786740892615686 0.050938349167624693 0 0.1040187002827474 0.052009313231975308 0 0.1037055006252459 0.04652603276331644 0 0.096786740892615686 0.050938349167624693 0 0.1040187002827474 0.052009313231975308 0 0.1037055006252459 0.04652603276331644 0 0.10828434687670541 0.049049973369521209 0 0.1040187002827474 0.052009313231975308 0 0.1037055006252459 0.04652603276331644 0 0.1091701701315707 0.045405346223324289 0 0.10828434687670541 0.049049973369521209 0 0.10828434687670541 0.049049973369521209 0 0.1040187002827474 0.052009313231975308 0 0.1085923347430168 0.054888678040205661 0 0.10140855114010359 0.056741753968867333 0 0.1040187002827474 0.052009313231975308 0 0.1085923347430168 0.054888678040205661 0 0.10140855114010359 0.056741753968867333 0 0.1085923347430168 0.054888678040205661 0 0.1082136550722141 0.059696613986540442 0 0.1082136550722141 0.059696613986540442 0 0.12683439495817461 0.052003073372435288 0 0.1085923347430168 0.054888678040205661 0 0.1082136550722141 0.059696613986540442 0 0.12683439495817461 0.052003073372435288 0 0.1082136550722141 0.059696613986540442 0 0.1213053233293625 0.063977455960140386 0 0.12683439495817461 0.052003073372435288 0 0.1085923347430168 0.054888678040205661 0 0.11545296983014219 0.044674578582556468 0 0.12683439495817461 0.052003073372435288 0 0.1085923347430168 0.054888678040205661 0 0.11545296983014219 0.044674578582556468 0 0.10828434687670541 0.049049973369521209 0 0.1085923347430168 0.054888678040205661 0 0.11545296983014219 0.044674578582556468 0 0.11545296983014219 0.044674578582556468 0 0.12683439495817461 0.052003073372435288 0 0.11545296983014219 0.044674578582556468 0 0.12659142849079691 0.028091664155532971 0 0.13015300311198849 0.040381385354086502 0 0.11369005285381351 0.036564640387925021 0 0.11545296983014219 0.044674578582556468 0 0.12659142849079691 0.028091664155532971 0 0.11369005285381351 0.036564640387925021 0 0.1080469394596527 0.029312409717345649 0 0.12659142849079691 0.028091664155532971 0 0.11545296983014219 0.044674578582556468 0 0.12659142849079691 0.028091664155532971 0 0.1091701701315707 0.045405346223324289 0 0.1063796333462841 0.038668109643535398 0 0.11316657253878901 0.043202368340974628 0 0.11369005285381351 0.036564640387925021 0 0.11316657253878901 0.043202368340974628 0 0.11545296983014219 0.044674578582556468 0 0.1063796333462841 0.038668109643535398 0 0.11369005285381351 0.036564640387925021 0 0.11316657253878901 0.043202368340974628 0 0.1091701701315707 0.045405346223324289 0 0.10828434687670541 0.049049973369521209 0 0.11545296983014219 0.044674578582556468 0 0.1091701701315707 0.045405346223324289 0 0.11316657253878901 0.043202368340974628 0 0.11545296983014219 0.044674578582556468 0 0.11316657253878901 0.043202368340974628 0 0.11545296983014219 0.044674578582556468 0 0.11545296983014219 0.044674578582556468 0 0.13015300311198849 0.040381385354086502 0 0.12683439495817461 0.052003073372435288 0 0.11882011836095251 0.0065886106746579649 0 0.1010264983121123 0.016262416429773479 0 0.12659142849079691 0.028091664155532971 0 0.1010264983121123 0.016262416429773479 0 0.12659142849079691 0.028091664155532971 0 0.1010264983121123 0.016262416429773479 0 0.1080469394596527 0.029312409717345649 0 0.12659142849079691 0.028091664155532971 0 0.11882011836095251 0.0065886106746579649 0 0.1010264983121123 0.016262416429773479 0 0.098011391193308373 -0.0056982583262641584 0 0.088041666307225416 0.02743399724937181 0 0.098246025398924644 0.032379674771496843 0 0.1010264983121123 0.016262416429773479 0 0.098246025398924644 0.032379674771496843 0 0.1010264983121123 0.016262416429773479 0 0.1080469394596527 0.029312409717345649 0 0.102028599401492 0.1079210482782756 0 0.1185648575779607 0.095458187827811403 0 0.097454497296707604 0.093489332089851121 0 0.102028599401492 0.1079210482782756 0 0.094862282777670462 0.1196438628042634 0 0.1117522404438802 0.12667258555115829 0 0.123281054128593 0.11724462113534739 0 0.1117522404438802 0.12667258555115829 0 0.13947052033133081 0.1245003570974072 0 0.102028599401492 0.1079210482782756 0 0.123281054128593 0.11724462113534739 0 0.1117522404438802 0.12667258555115829 0 0.102028599401492 0.1079210482782756 0 0.123281054128593 0.11724462113534739 0 0.102028599401492 0.1079210482782756 0 0.123281054128593 0.11724462113534739 0 0.1185648575779607 0.095458187827811403 0 0.1185648575779607 0.095458187827811403 0 0.10766661625946521 0.081617344394697103 0 0.12679961534922851 0.075073796793526271 0 0.1127439035567581 0.069567645006608142 0 0.10766661625946521 0.081617344394697103 0 0.12679961534922851 0.075073796793526271 0 0.1213053233293625 0.063977455960140386 0 0.1127439035567581 0.069567645006608142 0 0.12679961534922851 0.075073796793526271 0 0.1082136550722141 0.059696613986540442 0 0.1213053233293625 0.063977455960140386 0 0.1127439035567581 0.069567645006608142 0 0.1082136550722141 0.059696613986540442 0 0.089592915186254174 0.067390154600646832 0 0.1014387622560044 0.070574023901201433 0 0.10766661625946521 0.081617344394697103 0 0.08998097741878798 0.081820185866337797 0 0.1082136550722141 0.059696613986540442 0 0.1014387622560044 0.070574023901201433 0 0.089592915186254174 0.067390154600646832 0 0.1082136550722141 0.059696613986540442 0 0.1127439035567581 0.069567645006608142 0 0.1014387622560044 0.070574023901201433 0 0.1127439035567581 0.069567645006608142 0 0.1014387622560044 0.070574023901201433 0 0.10766661625946521 0.081617344394697103 0 0.1185648575779607 0.095458187827811403 0 0.097454497296707604 0.093489332089851121 0 0.10766661625946521 0.081617344394697103 0 0.097454497296707604 0.093489332089851121 0 0.10766661625946521 0.081617344394697103 0 0.08998097741878798 0.081820185866337797 0 0.097454497296707604 0.093489332089851121 0 0.08998097741878798 0.081820185866337797 0 0.080776144674391009 0.098597475421203867 0 0.08998097741878798 0.081820185866337797 0 0.071888117261322881 0.075707086101057836 0 0.080776144674391009 0.098597475421203867 0 0.08998097741878798 0.081820185866337797 0 0.089592915186254174 0.067390154600646832 0 0.071888117261322881 0.075707086101057836 0 0.1014387622560044 0.070574023901201433 0 0.08998097741878798 0.081820185866337797 0 0.089592915186254174 0.067390154600646832 0 0.072379857481358154 0.054137194478101919 0 0.089592915186254174 0.067390154600646832 0 0.071888117261322881 0.075707086101057836 0 0.072379857481358154 0.054137194478101919 0 0.071888117261322881 0.075707086101057836 0 0.06072113176624426 0.066105246874810966 0 0.071888117261322881 0.075707086101057836 0 0.080776144674391009 0.098597475421203867 0 0.059523689947290133 0.089273902564132146 0 0.069834633883481517 0.1065625652268001 0 0.059315065316452309 0.1025539410383776 0 0.059523689947290133 0.089273902564132146 0 0.080776144674391009 0.098597475421203867 0 0.059523689947290133 0.089273902564132146 0 0.069834633883481517 0.1065625652268001 0 0.080776144674391009 0.098597475421203867 0 0.081634330708880196 0.1151370033827101 0 0.069834633883481517 0.1065625652268001 0 0.080776144674391009 0.098597475421203867 0 0.059523689947290133 0.089273902564132146 0 0.069834633883481517 0.1065625652268001 0 0.064307476710745728 0.1098785041095611 0 0.059315065316452309 0.1025539410383776 0 0.102028599401492 0.1079210482782756 0 0.080776144674391009 0.098597475421203867 0 0.081634330708880196 0.1151370033827101 0 0.102028599401492 0.1079210482782756 0 0.080776144674391009 0.098597475421203867 0 0.102028599401492 0.1079210482782756 0 0.097454497296707604 0.093489332089851121 0 0.080776144674391009 0.098597475421203867 0 0.102028599401492 0.1079210482782756 0 0.094862282777670462 0.1196438628042634 0 0.081634330708880196 0.1151370033827101 0 0.094862282777670462 0.1196438628042634 0 0.081634330708880196 0.1151370033827101 0 0.084033960556429532 0.12884481400490949 0 0.081634330708880196 0.1151370033827101 0 0.071861500007931359 0.1232467005620789 0 0.084033960556429532 0.12884481400490949 0 0.081634330708880196 0.1151370033827101 0 0.071861500007931359 0.1232467005620789 0 0.068543873750645412 0.1149277749384955 0 0.069834633883481517 0.1065625652268001 0 0.081634330708880196 0.1151370033827101 0 0.068543873750645412 0.1149277749384955 0 0.068543873750645412 0.1149277749384955 0 0.064307476710745728 0.1098785041095611 0 0.059536333892403683 0.1154697352345713 0 0.069834633883481517 0.1065625652268001 0 0.068543873750645412 0.1149277749384955 0 0.064307476710745728 0.1098785041095611 0 0.071861500007931359 0.1232467005620789 0 0.068543873750645412 0.1149277749384955 0 0.059536333892403683 0.1154697352345713 0 0.056458373241313059 0.1220229844831647 0 0.046980594318971967 0.103944553472415 0 0.044984286063853948 0.1144984098979744 0 0.056458373241313059 0.1220229844831647 0 0.059536333892403683 0.1154697352345713 0 0.047111977694586651 0.095143209078012936 0 0.056458373241313059 0.1220229844831647 0 0.047823074661834691 0.1229743903388081 0 0.044984286063853948 0.1144984098979744 0 0.056458373241313059 0.1220229844831647 0 0.047111977694586651 0.095143209078012936 0 0.056458373241313059 0.1220229844831647 0 0.047111977694586651 0.095143209078012936 0 0.046980594318971967 0.103944553472415 0 0.059536333892403683 0.1154697352345713 0 0.059315065316452309 0.1025539410383776 0 0.048250118395506067 0.092934788779969885 0 0.064307476710745728 0.1098785041095611 0 0.059536333892403683 0.1154697352345713 0 0.059315065316452309 0.1025539410383776 0 0.059536333892403683 0.1154697352345713 0 0.047111977694586651 0.095143209078012936 0 0.048250118395506067 0.092934788779969885 0 0.059536333892403683 0.1154697352345713 0 0.048250118395506067 0.092934788779969885 0 0.059315065316452309 0.1025539410383776 0 0.059523689947290133 0.089273902564132146 0 0.048250118395506067 0.092934788779969885 0 0.046980594318971967 0.103944553472415 0 0.031997015267580219 0.10661530464401089 0 0.044984286063853948 0.1144984098979744 0 0.046980594318971967 0.103944553472415 0 0.039592722901722707 0.099159129702000026 0 0.031997015267580219 0.10661530464401089 0 0.047111977694586651 0.095143209078012936 0 0.046980594318971967 0.103944553472415 0 0.044236279529428407 0.098362398272746204 0 0.043259823202432338 0.095202700838556822 0 0.039592722901722707 0.099159129702000026 0 0.040006298791842428 0.091064350555588536 0 0.047111977694586651 0.095143209078012936 0 0.043259823202432338 0.095202700838556822 0 0.043326765309194368 0.091114650811160686 0 0.047111977694586651 0.095143209078012936 0 0.043259823202432338 0.095202700838556822 0 0.044236279529428407 0.098362398272746204 0 0.046980594318971967 0.103944553472415 0 0.044236279529428407 0.098362398272746204 0 0.039592722901722707 0.099159129702000026 0 0.043259823202432338 0.095202700838556822 0 0.044236279529428407 0.098362398272746204 0 0.039592722901722707 0.099159129702000026 0 0.039592722901722707 0.099159129702000026 0 0.040006298791842428 0.091064350555588536 0 0.033999193661208522 0.092549709374426317 0 0.039592722901722707 0.099159129702000026 0 0.031997015267580219 0.10661530464401089 0 0.033999193661208522 0.092549709374426317 0 0.031997015267580219 0.10661530464401089 0 0.044984286063853948 0.1144984098979744 0 0.040254683338031831 0.12792389191371131 0 0.031997015267580219 0.10661530464401089 0 0.027418588341799281 0.11951208787462859 0 0.040254683338031831 0.12792389191371131 0 0.031997015267580219 0.10661530464401089 0 0.040254683338031831 0.12792389191371131 0 0.047823074661834691 0.1229743903388081 0 0.044984286063853948 0.1144984098979744 0 0.040254683338031831 0.12792389191371131 0 0.071888117261322881 0.075707086101057836 0 0.050643578252195447 0.077240667131504986 0 0.06072113176624426 0.066105246874810966 0 0.071888117261322881 0.075707086101057836 0 0.050643578252195447 0.077240667131504986 0 0.04797297407010033 0.057336039788577382 0 0.050643578252195447 0.077240667131504986 0 0.06072113176624426 0.066105246874810966 0 0.059523689947290133 0.089273902564132146 0 0.048250118395506067 0.092934788779969885 0 0.038271235220189187 0.079950329707060411 0 0.050643578252195447 0.077240667131504986 0 0.059523689947290133 0.089273902564132146 0 0.038271235220189187 0.079950329707060411 0 0.059523689947290133 0.089273902564132146 0 0.038271235220189187 0.079950329707060411 0 0.071888117261322881 0.075707086101057836 0 0.050643578252195447 0.077240667131504986 0 0.059523689947290133 0.089273902564132146 0 0.050643578252195447 0.077240667131504986 0 0.038271235220189187 0.079950329707060411 0 0.029399039243067929 0.078774248161950916 0 0.043326765309194368 0.091114650811160686 0 0.040006298791842428 0.091064350555588536 0 0.038271235220189187 0.079950329707060411 0 0.048250118395506067 0.092934788779969885 0 0.043326765309194368 0.091114650811160686 0 0.038271235220189187 0.079950329707060411 0 0.047111977694586651 0.095143209078012936 0 0.048250118395506067 0.092934788779969885 0 0.043326765309194368 0.091114650811160686 0 0.043259823202432338 0.095202700838556822 0 0.043326765309194368 0.091114650811160686 0 0.040006298791842428 0.091064350555588536 0 0.040006298791842428 0.091064350555588536 0 0.033999193661208522 0.092549709374426317 0 0.035112272261912547 0.085996705185296951 0 0.033999193661208522 0.092549709374426317 0 0.035112272261912547 0.085996705185296951 0 0.030562463090829231 0.085656845023995995 0 0.040006298791842428 0.091064350555588536 0 0.035112272261912547 0.085996705185296951 0 0.038271235220189187 0.079950329707060411 0 0.035112272261912547 0.085996705185296951 0 0.038271235220189187 0.079950329707060411 0 0.029399039243067929 0.078774248161950916 0 0.035112272261912547 0.085996705185296951 0 0.029399039243067929 0.078774248161950916 0 0.030562463090829231 0.085656845023995995 0 0.04797297407010033 0.057336039788577382 0 0.027635028654909001 0.06907575978797427 0 0.029399039243067929 0.078774248161950916 0 0.04797297407010033 0.057336039788577382 0 0.050643578252195447 0.077240667131504986 0 0.029399039243067929 0.078774248161950916 0 0.050643578252195447 0.077240667131504986 0 0.029399039243067929 0.078774248161950916 0 0.04797297407010033 0.057336039788577382 0 0.029399039243067929 0.078774248161950916 0 0.01459521235494949 0.061710637509134872 0 0.030459386295035529 0.05963142741263059 0 0.017825248683011649 0.070045619055208203 0 0.01459521235494949 0.061710637509134872 0 0.017825248683011649 0.070045619055208203 0 0.030459386295035529 0.05963142741263059 0 0.017825248683011649 0.070045619055208203 0 0.030459386295035529 0.05963142741263059 0 0.017825248683011649 0.070045619055208203 0 0.027635028654909001 0.06907575978797427 0 0.027635028654909001 0.06907575978797427 0 0.021430743364398389 0.07934945609652827 0 0.029399039243067929 0.078774248161950916 0 0.017825248683011649 0.070045619055208203 0 0.027635028654909001 0.06907575978797427 0 0.021430743364398389 0.07934945609652827 0 0.017825248683011649 0.070045619055208203 0 0.021430743364398389 0.07934945609652827 0 0.023739347197128589 0.085306717374310406 0 0.0092582498306486675 0.1020209346744549 0 0.021430743364398389 0.07934945609652827 0 0.023739347197128589 0.085306717374310406 0 0.01369104835205702 0.085774757015682671 0 0.021430743364398389 0.07934945609652827 0 0.023739347197128589 0.085306717374310406 0 0.021430743364398389 0.07934945609652827 0 0.029399039243067929 0.078774248161950916 0 0.023739347197128589 0.085306717374310406 0 0.021430743364398389 0.07934945609652827 0 0.029399039243067929 0.078774248161950916 0 0.029399039243067929 0.078774248161950916 0 0.030562463090829231 0.085656845023995995 0 0.023739347197128589 0.085306717374310406 0 0.029399039243067929 0.078774248161950916 0 0.023739347197128589 0.085306717374310406 0 0.033999193661208522 0.092549709374426317 0 0.030562463090829231 0.085656845023995995 0 0.023739347197128589 0.085306717374310406 0 0.023739347197128589 0.085306717374310406 0 0.01369104835205702 0.085774757015682671 0 0.0092582498306486675 0.1020209346744549 0 0.0051087594610210148 0.080527692295617709 0 0.01369104835205702 0.085774757015682671 0 0.0092582498306486675 0.1020209346744549 0 0.021430743364398389 0.07934945609652827 0 0.0051087594610210148 0.080527692295617709 0 0.021430743364398389 0.07934945609652827 0 0.0051087594610210148 0.080527692295617709 0 0.01369104835205702 0.085774757015682671 0 -0.0012292332505543029 0.06378464068123596 0 0.01459521235494949 0.061710637509134872 0 -0.0012292332505543029 0.06378464068123596 0 0.01459521235494949 0.061710637509134872 0 0.0080955592782806732 0.069159055867407046 0 0.017825248683011649 0.070045619055208203 0 0.021430743364398389 0.07934945609652827 0 0.0051087594610210148 0.080527692295617709 0 -0.0012292332505543029 0.06378464068123596 0 0.0051087594610210148 0.080527692295617709 0 0.0080955592782806732 0.069159055867407046 0 0.017825248683011649 0.070045619055208203 0 0.0051087594610210148 0.080527692295617709 0 0.0080955592782806732 0.069159055867407046 0 0.017825248683011649 0.070045619055208203 0 0.0051087594610210148 0.080527692295617709 0 0.01459521235494949 0.061710637509134872 0 0.017825248683011649 0.070045619055208203 0 0.0080955592782806732 0.069159055867407046 0 0.019482067178466251 0.1107491432724047 0 0.017356945103072018 0.1204998149293544 0 0.027418588341799281 0.11951208787462859 0 0.017356945103072018 0.1204998149293544 0 0.027418588341799281 0.11951208787462859 0 0.028136896369567631 0.1331750506540591 0 0.031997015267580219 0.10661530464401089 0 0.019482067178466251 0.1107491432724047 0 0.027418588341799281 0.11951208787462859 0 0.031997015267580219 0.10661530464401089 0 0.033999193661208522 0.092549709374426317 0 0.023739347197128589 0.085306717374310406 0 0.023739347197128589 0.085306717374310406 0 0.02108550348152554 0.10082233348119581 0 0.0092582498306486675 0.1020209346744549 0 0.031997015267580219 0.10661530464401089 0 0.023739347197128589 0.085306717374310406 0 0.031997015267580219 0.10661530464401089 0 0.023739347197128589 0.085306717374310406 0 0.02108550348152554 0.10082233348119581 0 0.031997015267580219 0.10661530464401089 0 0.019482067178466251 0.1107491432724047 0 0.02108550348152554 0.10082233348119581 0 0.019482067178466251 0.1107491432724047 0 0.02108550348152554 0.10082233348119581 0 0.0092582498306486675 0.1020209346744549 0 -0.0040597014752050652 0.1051126182356364 0 0.0051087594610210148 0.080527692295617709 0 0.0092582498306486675 0.1020209346744549 0 0.019482067178466251 0.1107491432724047 0 0.0092582498306486675 0.1020209346744549 0 0.0097761010461718117 0.1150243840307837 0 -0.0052228475358298988 0.1187351519746004 0 0.0092582498306486675 0.1020209346744549 0 -0.0052228475358298988 0.1187351519746004 0 0.0092582498306486675 0.1020209346744549 0 0.0097761010461718117 0.1150243840307837 0 0.019482067178466251 0.1107491432724047 0 0.017356945103072018 0.1204998149293544 0 0.0097761010461718117 0.1150243840307837 0 0.017356945103072018 0.1204998149293544 0 0.0081407562022233586 0.1245196413435004 0 0.017356945103072018 0.1204998149293544 0 0.0097761010461718117 0.1150243840307837 0 0.0081407562022233586 0.1245196413435004 0 -0.0052228475358298988 0.1187351519746004 0 0.0097761010461718117 0.1150243840307837 0 0.0081407562022233586 0.1245196413435004 0 -0.0052228475358298988 0.1187351519746004 0 0.0081407562022233586 0.1245196413435004 0 -0.015783289274076458 0.13495459563681389 0 0.0081407562022233586 0.1245196413435004 0 0.01185912902997375 0.14130758542593569 0 0.017356945103072018 0.1204998149293544 0 0.0081407562022233586 0.1245196413435004 0 0.028136896369567631 0.1331750506540591 0 0.0081407562022233586 0.1245196413435004 0 0.028136896369567631 0.1331750506540591 0 0.0081407562022233586 0.1245196413435004 0 0.028136896369567631 0.1331750506540591 0 0.01185912902997375 0.14130758542593569 0 0.028136896369567631 0.1331750506540591 0 0.0267736462585265 0.15269096182544131 0 0.035919394343652343 0.14075559589415579 0 0.028136896369567631 0.1331750506540591 0 0.0267736462585265 0.15269096182544131 0 0.01185912902997375 0.14130758542593569 0 0.0267736462585265 0.15269096182544131 0 0.001788155555331062 0.1557637096651584 0 0.01185912902997375 0.14130758542593569 0 0.001788155555331062 0.1557637096651584 0 0.00061104658230836653 0.17769045695541219 0 0.019359600384737739 0.17657282369350361 0 0.001788155555331062 0.1557637096651584 0 0.019359600384737739 0.17657282369350361 0 0.00061104658230836653 0.17769045695541219 0 0.019359600384737739 0.17657282369350361 0 0.017852612557627559 0.19656860209324539 0 0.019359600384737739 0.17657282369350361 0 0.036931045214144441 0.19738193772184889 0 0.0267736462585265 0.15269096182544131 0 0.001788155555331062 0.1557637096651584 0 0.019359600384737739 0.17657282369350361 0 0.0267736462585265 0.15269096182544131 0 0.019359600384737739 0.17657282369350361 0 0.038399134829123632 0.17159850230738899 0 0.0267736462585265 0.15269096182544131 0 0.038399134829123632 0.17159850230738899 0 0.048512351408483409 0.1492324791834117 0 0.019359600384737739 0.17657282369350361 0 0.038399134829123632 0.17159850230738899 0 0.036931045214144441 0.19738193772184889 0 0.038399134829123632 0.17159850230738899 0 0.053915020648589329 0.181809847856817 0 0.036931045214144441 0.19738193772184889 0 0.053915020648589329 0.181809847856817 0 0.056298621576963533 0.16595151756685289 0 0.075151164334765874 0.17578253529346821 0 0.038399134829123632 0.17159850230738899 0 0.053915020648589329 0.181809847856817 0 0.056298621576963533 0.16595151756685289 0 0.038399134829123632 0.17159850230738899 0 0.056298621576963533 0.16595151756685289 0 0.048512351408483409 0.1492324791834117 0 0.048512351408483409 0.1492324791834117 0 0.055211699142625699 0.13746009370018761 0 0.065804768788039439 0.14890275988831639 0 0.056298621576963533 0.16595151756685289 0 0.048512351408483409 0.1492324791834117 0 0.065804768788039439 0.14890275988831639 0 0.048512351408483409 0.1492324791834117 0 0.055211699142625699 0.13746009370018761 0 0.049904412172306151 0.13036597214331841 0 0.056458373241313059 0.1220229844831647 0 0.059536333892403683 0.1154697352345713 0 0.070822549389301243 0.1380046816891726 0 0.056458373241313059 0.1220229844831647 0 0.055211699142625699 0.13746009370018761 0 0.065804768788039439 0.14890275988831639 0 0.056458373241313059 0.1220229844831647 0 0.065804768788039439 0.14890275988831639 0 0.056458373241313059 0.1220229844831647 0 0.047823074661834691 0.1229743903388081 0 0.049904412172306151 0.13036597214331841 0 0.056458373241313059 0.1220229844831647 0 0.055211699142625699 0.13746009370018761 0 0.049904412172306151 0.13036597214331841 0 0.048512351408483409 0.1492324791834117 0 0.040254683338031831 0.12792389191371131 0 0.048512351408483409 0.1492324791834117 0 0.040254683338031831 0.12792389191371131 0 0.035919394343652343 0.14075559589415579 0 0.048512351408483409 0.1492324791834117 0 0.049904412172306151 0.13036597214331841 0 0.040254683338031831 0.12792389191371131 0 0.047823074661834691 0.1229743903388081 0 0.049904412172306151 0.13036597214331841 0 0.040254683338031831 0.12792389191371131 0 0.027418588341799281 0.11951208787462859 0 0.028136896369567631 0.1331750506540591 0 0.040254683338031831 0.12792389191371131 0 0.028136896369567631 0.1331750506540591 0 0.040254683338031831 0.12792389191371131 0 0.035919394343652343 0.14075559589415579 0 0.0267736462585265 0.15269096182544131 0 0.048512351408483409 0.1492324791834117 0 0.035919394343652343 0.14075559589415579 0 0.020197736684044801 0.2291273398277828 0 0.034114961552744377 0.23516115760169301 0 0.036501911092354018 0.25177276941539839 0 0.018629400856135309 0.24429501886194191 0 0.020197736684044801 0.2291273398277828 0 0.02692674034290404 0.25134916217479408 0 0.020197736684044801 0.2291273398277828 0 0.02692674034290404 0.25134916217479408 0 0.036501911092354018 0.25177276941539839 0 0.020197736684044801 0.2291273398277828 0 0.036501911092354018 0.25177276941539839 0 0.018629400856135309 0.24429501886194191 0 0.0082785766384091443 0.23618007315607359 0 0.020197736684044801 0.2291273398277828 0 0.018629400856135309 0.24429501886194191 0 0.012944211518790589 0.24639919126045251 0 0.0082785766384091443 0.23618007315607359 0 0.012944211518790589 0.24639919126045251 0 0.001894876929373096 0.24743045501984201 0 0.0082785766384091443 0.23618007315607359 0 -0.0070773620087705444 0.23295897308755351 0 0.001894876929373096 0.24743045501984201 0 0.0082785766384091443 0.23618007315607359 0 0.0082785766384091443 0.23618007315607359 0 0.0038866256090455522 0.2239579318999283 0 0.020197736684044801 0.2291273398277828 0 0.0038866256090455522 0.2239579318999283 0 0.020197736684044801 0.2291273398277828 0 0.003893562275735573 0.2064819102401671 0 -0.0070773620087705444 0.23295897308755351 0 0.0082785766384091443 0.23618007315607359 0 0.0038866256090455522 0.2239579318999283 0 0.01643925603633389 0.21561198758054059 0 0.035370792182188207 0.216260201755786 0 0.034114961552744377 0.23516115760169301 0 0.020197736684044801 0.2291273398277828 0 0.01643925603633389 0.21561198758054059 0 0.034114961552744377 0.23516115760169301 0 0.01643925603633389 0.21561198758054059 0 0.034114961552744377 0.23516115760169301 0 0.017852612557627559 0.19656860209324539 0 0.036931045214144441 0.19738193772184889 0 0.035370792182188207 0.216260201755786 0 0.01643925603633389 0.21561198758054059 0 0.017852612557627559 0.19656860209324539 0 0.035370792182188207 0.216260201755786 0 0.020197736684044801 0.2291273398277828 0 0.003893562275735573 0.2064819102401671 0 -0.0045317147067566524 0.21522543551468479 0 0.0038866256090455522 0.2239579318999283 0 0.003893562275735573 0.2064819102401671 0 -0.0012364494800765971 0.1960628175593882 0 0.01643925603633389 0.21561198758054059 0 -0.0012364494800765971 0.1960628175593882 0 0.01643925603633389 0.21561198758054059 0 0.003893562275735573 0.2064819102401671 0 0.020197736684044801 0.2291273398277828 0 0.01643925603633389 0.21561198758054059 0 0.003893562275735573 0.2064819102401671 0 -0.0012364494800765971 0.1960628175593882 0 0.01643925603633389 0.21561198758054059 0 0.017852612557627559 0.19656860209324539 0 -0.0012364494800765971 0.1960628175593882 0 0.00061104658230836653 0.17769045695541219 0 0.017852612557627559 0.19656860209324539 0 0.019359600384737739 0.17657282369350361 0 0.017852612557627559 0.19656860209324539 0 0.036931045214144441 0.19738193772184889 0 0.053915020648589329 0.181809847856817 0 0.036931045214144441 0.19738193772184889 0 0.062795137287949193 0.19833474639452611 0 0.036931045214144441 0.19738193772184889 0 0.054502490043551163 0.2181910517501941 0 0.062795137287949193 0.19833474639452611 0 0.036931045214144441 0.19738193772184889 0 0.054502490043551163 0.2181910517501941 0 0.036931045214144441 0.19738193772184889 0 0.054502490043551163 0.2181910517501941 0 0.035370792182188207 0.216260201755786 0 0.054502490043551163 0.2181910517501941 0 0.035370792182188207 0.216260201755786 0 0.034114961552744377 0.23516115760169301 0 0.054502490043551163 0.2181910517501941 0 0.055174909047777811 0.2396291133956362 0 0.034114961552744377 0.23516115760169301 0 0.054502490043551163 0.2181910517501941 0 0.055174909047777811 0.2396291133956362 0 0.072073934872957782 0.23900016577853919 0 0.055174909047777811 0.2396291133956362 0 0.034114961552744377 0.23516115760169301 0 0.051790667069154861 0.2547103276228454 0 0.055174909047777811 0.2396291133956362 0 0.051790667069154861 0.2547103276228454 0 0.063392491700480919 0.2510828642249095 0 0.034114961552744377 0.23516115760169301 0 0.036501911092354018 0.25177276941539839 0 0.051790667069154861 0.2547103276228454 0 0.034114961552744377 0.23516115760169301 0 0.051790667069154861 0.2547103276228454 0 0.072073934872957782 0.23900016577853919 0 0.093843955428218759 0.229542086103772 0 0.089645379702363526 0.25980927980688501 0 0.072073934872957782 0.23900016577853919 0 0.089645379702363526 0.25980927980688501 0 0.055174909047777811 0.2396291133956362 0 0.072073934872957782 0.23900016577853919 0 0.063392491700480919 0.2510828642249095 0 0.072073934872957782 0.23900016577853919 0 0.063392491700480919 0.2510828642249095 0 0.074261774750864804 0.25289133929391111 0 0.054502490043551163 0.2181910517501941 0 0.072073934872957782 0.23900016577853919 0 0.054502490043551163 0.2181910517501941 0 0.072073934872957782 0.23900016577853919 0 0.07691655231929137 0.22036312128655 0 0.072073934872957782 0.23900016577853919 0 0.07691655231929137 0.22036312128655 0 0.093843955428218759 0.229542086103772 0 0.084497559881492323 0.20266231069862009 0 0.1011551627426199 0.2154511434485995 0 0.093843955428218759 0.229542086103772 0 0.084497559881492323 0.20266231069862009 0 0.093843955428218759 0.229542086103772 0 0.07691655231929137 0.22036312128655 0 0.084497559881492323 0.20266231069862009 0 0.093843955428218759 0.229542086103772 0 0.07691655231929137 0.22036312128655 0 0.062795137287949193 0.19833474639452611 0 0.084497559881492323 0.20266231069862009 0 0.054502490043551163 0.2181910517501941 0 0.07691655231929137 0.22036312128655 0 0.062795137287949193 0.19833474639452611 0 0.062795137287949193 0.19833474639452611 0 0.084497559881492323 0.20266231069862009 0 0.075151164334765874 0.17578253529346821 0 0.084497559881492323 0.20266231069862009 0 0.075151164334765874 0.17578253529346821 0 0.084497559881492323 0.20266231069862009 0 0.10184565838461331 0.1924014028594688 0 0.093394980383096363 0.18307457459837531 0 0.084497559881492323 0.20266231069862009 0 0.10184565838461331 0.1924014028594688 0 0.10260278643249959 0.20376756124449391 0 0.10184565838461331 0.1924014028594688 0 0.1105875138732399 0.1994169567440035 0 0.10260278643249959 0.20376756124449391 0 0.10184565838461331 0.1924014028594688 0 0.1131184160342838 0.18994185980391479 0 0.1105875138732399 0.1994169567440035 0 0.10184565838461331 0.1924014028594688 0 0.1131184160342838 0.18994185980391479 0 0.1054525685194168 0.18020148819897211 0 0.1131184160342838 0.18994185980391479 0 0.1210814068145178 0.19423580856195369 0 0.1131184160342838 0.18994185980391479 0 0.1210814068145178 0.19423580856195369 0 0.1196286990311512 0.18236386641526309 0 0.1210814068145178 0.19423580856195369 0 0.11958782189190099 0.20227867846385961 0 0.13241563583181001 0.2003476577346209 0 0.1131184160342838 0.18994185980391479 0 0.1210814068145178 0.19423580856195369 0 0.11958782189190099 0.20227867846385961 0 0.1131184160342838 0.18994185980391479 0 0.11958782189190099 0.20227867846385961 0 0.1105875138732399 0.1994169567440035 0 0.11958782189190099 0.20227867846385961 0 0.1105875138732399 0.1994169567440035 0 0.11467542950451071 0.21015036581969679 0 0.11958782189190099 0.20227867846385961 0 0.11467542950451071 0.21015036581969679 0 0.12714211421566091 0.2115365522170618 0 0.11467542950451071 0.21015036581969679 0 0.1287590091161889 0.22454109023782651 0 0.12714211421566091 0.2115365522170618 0 0.11467542950451071 0.21015036581969679 0 0.1011551627426199 0.2154511434485995 0 0.1117838155087727 0.22779371718329239 0 0.084497559881492323 0.20266231069862009 0 0.10260278643249959 0.20376756124449391 0 0.1011551627426199 0.2154511434485995 0 0.1105875138732399 0.1994169567440035 0 0.11467542950451071 0.21015036581969679 0 0.10260278643249959 0.20376756124449391 0 0.11467542950451071 0.21015036581969679 0 0.10260278643249959 0.20376756124449391 0 0.1011551627426199 0.2154511434485995 0 0.1011551627426199 0.2154511434485995 0 0.093843955428218759 0.229542086103772 0 0.1117838155087727 0.22779371718329239 0 0.11467542950451071 0.21015036581969679 0 0.1117838155087727 0.22779371718329239 0 0.1287590091161889 0.22454109023782651 0 0.1117838155087727 0.22779371718329239 0 0.1287590091161889 0.22454109023782651 0 0.116065923487036 0.25155424759680489 0 0.093843955428218759 0.229542086103772 0 0.089645379702363526 0.25980927980688501 0 0.116065923487036 0.25155424759680489 0 0.093843955428218759 0.229542086103772 0 0.1117838155087727 0.22779371718329239 0 0.116065923487036 0.25155424759680489 0 0.085867858697711436 0.14453522140638461 0 0.070822549389301243 0.1380046816891726 0 0.082108764886198796 0.1605396281437739 0 0.085867858697711436 0.14453522140638461 0 0.082108764886198796 0.1605396281437739 0 0.098061838006449922 0.1524476624703702 0 0.085867858697711436 0.14453522140638461 0 0.084033960556429532 0.12884481400490949 0 0.098019367542785563 0.1407790739484335 0 0.085867858697711436 0.14453522140638461 0 0.084033960556429532 0.12884481400490949 0 0.070822549389301243 0.1380046816891726 0 0.071861500007931359 0.1232467005620789 0 0.059536333892403683 0.1154697352345713 0 0.070822549389301243 0.1380046816891726 0 0.059536333892403683 0.1154697352345713 0 0.070822549389301243 0.1380046816891726 0 0.056458373241313059 0.1220229844831647 0 0.070822549389301243 0.1380046816891726 0 0.065804768788039439 0.14890275988831639 0 0.071861500007931359 0.1232467005620789 0 0.084033960556429532 0.12884481400490949 0 0.070822549389301243 0.1380046816891726 0 0.070822549389301243 0.1380046816891726 0 0.082108764886198796 0.1605396281437739 0 0.070822549389301243 0.1380046816891726 0 0.065804768788039439 0.14890275988831639 0 0.082108764886198796 0.1605396281437739 0 0.056298621576963533 0.16595151756685289 0 0.065804768788039439 0.14890275988831639 0 0.075151164334765874 0.17578253529346821 0 0.065804768788039439 0.14890275988831639 0 0.075151164334765874 0.17578253529346821 0 0.082108764886198796 0.1605396281437739 0 0.065804768788039439 0.14890275988831639 0 0.075151164334765874 0.17578253529346821 0 0.053915020648589329 0.181809847856817 0 0.062795137287949193 0.19833474639452611 0 0.075151164334765874 0.17578253529346821 0 0.075151164334765874 0.17578253529346821 0 0.093394980383096363 0.18307457459837531 0 0.082108764886198796 0.1605396281437739 0 0.084497559881492323 0.20266231069862009 0 0.075151164334765874 0.17578253529346821 0 0.093394980383096363 0.18307457459837531 0 0.093394980383096363 0.18307457459837531 0 0.082108764886198796 0.1605396281437739 0 0.1017810834163356 0.16778327145988009 0 0.093394980383096363 0.18307457459837531 0 0.082108764886198796 0.1605396281437739 0 0.082108764886198796 0.1605396281437739 0 0.1017810834163356 0.16778327145988009 0 0.098061838006449922 0.1524476624703702 0 0.1017810834163356 0.16778327145988009 0 0.1094413004412432 0.1568441156191657 0 0.098061838006449922 0.1524476624703702 0 0.10184565838461331 0.1924014028594688 0 0.093394980383096363 0.18307457459837531 0 0.1054525685194168 0.18020148819897211 0 0.093394980383096363 0.18307457459837531 0 0.1017810834163356 0.16778327145988009 0 0.1054525685194168 0.18020148819897211 0 0.1017810834163356 0.16778327145988009 0 0.1054525685194168 0.18020148819897211 0 0.1143103312636523 0.17467474260035151 0 0.1131184160342838 0.18994185980391479 0 0.1132877880089454 0.18182979361660931 0 0.1196286990311512 0.18236386641526309 0 0.1131184160342838 0.18994185980391479 0 0.1054525685194168 0.18020148819897211 0 0.1132877880089454 0.18182979361660931 0 0.1054525685194168 0.18020148819897211 0 0.1132877880089454 0.18182979361660931 0 0.1143103312636523 0.17467474260035151 0 0.1132877880089454 0.18182979361660931 0 0.1143103312636523 0.17467474260035151 0 0.1196286990311512 0.18236386641526309 0 0.1143103312636523 0.17467474260035151 0 0.1229466648353691 0.17360959233997481 0 0.1196286990311512 0.18236386641526309 0 0.1229466648353691 0.17360959233997481 0 0.1196286990311512 0.18236386641526309 0 0.1315359285025598 0.17914174819028489 0 0.1210814068145178 0.19423580856195369 0 0.1196286990311512 0.18236386641526309 0 0.1315359285025598 0.17914174819028489 0 0.1017810834163356 0.16778327145988009 0 0.1143103312636523 0.17467474260035151 0 0.11826309888899959 0.1638296446882945 0 0.1017810834163356 0.16778327145988009 0 0.1094413004412432 0.1568441156191657 0 0.11826309888899959 0.1638296446882945 0 0.1094413004412432 0.1568441156191657 0 0.11826309888899959 0.1638296446882945 0 0.12116198843957229 0.15461983439099389 0 0.1143103312636523 0.17467474260035151 0 0.1229466648353691 0.17360959233997481 0 0.11826309888899959 0.1638296446882945 0 0.1229466648353691 0.17360959233997481 0 0.11826309888899959 0.1638296446882945 0 0.1286748755814317 0.16568949079043779 0 0.11826309888899959 0.1638296446882945 0 0.12116198843957229 0.15461983439099389 0 0.1286748755814317 0.16568949079043779 0 0.12116198843957229 0.15461983439099389 0 0.1235319134973574 0.14279740261083959 0 0.11069945258584669 0.14552439304262721 0 0.1094413004412432 0.1568441156191657 0 0.12116198843957229 0.15461983439099389 0 0.11069945258584669 0.14552439304262721 0 0.1094413004412432 0.1568441156191657 0 0.11069945258584669 0.14552439304262721 0 0.098061838006449922 0.1524476624703702 0 0.11069945258584669 0.14552439304262721 0 0.098019367542785563 0.1407790739484335 0 0.098061838006449922 0.1524476624703702 0 0.085867858697711436 0.14453522140638461 0 0.098019367542785563 0.1407790739484335 0 0.098061838006449922 0.1524476624703702 0 0.084033960556429532 0.12884481400490949 0 0.1117522404438802 0.12667258555115829 0 0.094862282777670462 0.1196438628042634 0 0.084033960556429532 0.12884481400490949 0 0.1117522404438802 0.12667258555115829 0 0.084033960556429532 0.12884481400490949 0 0.098019367542785563 0.1407790739484335 0 0.1117522404438802 0.12667258555115829 0 0.11069945258584669 0.14552439304262721 0 0.098019367542785563 0.1407790739484335 0 0.1117522404438802 0.12667258555115829 0 0.1235319134973574 0.14279740261083959 0 0.11069945258584669 0.14552439304262721 0 0.1117522404438802 0.12667258555115829 0 0.1235319134973574 0.14279740261083959 0 0.1117522404438802 0.12667258555115829 0 0.1338250830151082 0.13680555700437169 0 0.1117522404438802 0.12667258555115829 0 0.1338250830151082 0.13680555700437169 0 0.13947052033133081 0.1245003570974072 0 0.1117522404438802 0.12667258555115829 0 0.13947052033133081 0.1245003570974072 0 0.1338250830151082 0.13680555700437169 0 0.14773514824261011 0.13994704674368119 0 0.13947052033133081 0.1245003570974072 0 0.14773514824261011 0.13994704674368119 0 0.13947052033133081 0.1245003570974072 0 0.16718880021878149 0.12232812864365609 0 0.14773514824261011 0.13994704674368119 0 0.1492794596183103 0.15557552201751701 0 0.16307655427518189 0.1461583771030025 0 0.14773514824261011 0.13994704674368119 0 0.1492794596183103 0.15557552201751701 0 0.13636128964255501 0.15303395959459851 0 0.1235319134973574 0.14279740261083959 0 0.1338250830151082 0.13680555700437169 0 0.13636128964255501 0.15303395959459851 0 0.1338250830151082 0.13680555700437169 0 0.14773514824261011 0.13994704674368119 0 0.13636128964255501 0.15303395959459851 0 0.12116198843957229 0.15461983439099389 0 0.1235319134973574 0.14279740261083959 0 0.13636128964255501 0.15303395959459851 0 0.12116198843957229 0.15461983439099389 0 0.13636128964255501 0.15303395959459851 0 0.1286748755814317 0.16568949079043779 0 0.13636128964255501 0.15303395959459851 0 0.1286748755814317 0.16568949079043779 0 0.1402599975996246 0.1687496010839549 0 0.1286748755814317 0.16568949079043779 0 0.1402599975996246 0.1687496010839549 0 0.1315359285025598 0.17914174819028489 0 0.1210814068145178 0.19423580856195369 0 0.1315359285025598 0.17914174819028489 0 0.14172685770208041 0.18088834424850889 0 0.1229466648353691 0.17360959233997481 0 0.1286748755814317 0.16568949079043779 0 0.1315359285025598 0.17914174819028489 0 0.1402599975996246 0.1687496010839549 0 0.1315359285025598 0.17914174819028489 0 0.14172685770208041 0.18088834424850889 0 0.1315359285025598 0.17914174819028489 0 0.14172685770208041 0.18088834424850889 0 0.14172685770208041 0.18088834424850889 0 0.1589643083315804 0.1699886255623487 0 0.15664227980061579 0.1834446584897341 0 0.14172685770208041 0.18088834424850889 0 0.1589643083315804 0.1699886255623487 0 0.1402599975996246 0.1687496010839549 0 0.14172685770208041 0.18088834424850889 0 0.1589643083315804 0.1699886255623487 0 0.14172685770208041 0.18088834424850889 0 0.15664227980061579 0.1834446584897341 0 0.14735069213281321 0.19092796682168489 0 0.14172685770208041 0.18088834424850889 0 0.15664227980061579 0.1834446584897341 0 0.1492794596183103 0.15557552201751701 0 0.1402599975996246 0.1687496010839549 0 0.1589643083315804 0.1699886255623487 0 0.1492794596183103 0.15557552201751701 0 0.13636128964255501 0.15303395959459851 0 0.1402599975996246 0.1687496010839549 0 0.1492794596183103 0.15557552201751701 0 0.1589643083315804 0.1699886255623487 0 0.16307655427518189 0.1461583771030025 0 0.1589643083315804 0.1699886255623487 0 0.1832181015668064 0.15465227861531949 0 0.16307655427518189 0.1461583771030025 0 0.1589643083315804 0.1699886255623487 0 0.16307655427518189 0.1461583771030025 0 0.1589643083315804 0.1699886255623487 0 0.1832181015668064 0.15465227861531949 0 0.1589643083315804 0.1699886255623487 0 0.15664227980061579 0.1834446584897341 0 0.17367876449497299 0.17356388092826039 0 0.15664227980061579 0.1834446584897341 0 0.17803712215301101 0.18711146321258301 0 0.15664227980061579 0.1834446584897341 0 0.17367876449497299 0.17356388092826039 0 0.17803712215301101 0.18711146321258301 0 0.1589643083315804 0.1699886255623487 0 0.15664227980061579 0.1834446584897341 0 0.17367876449497299 0.17356388092826039 0 0.17803712215301101 0.18711146321258301 0 0.1915320106228488 0.17262237876131631 0 0.1589643083315804 0.1699886255623487 0 0.17367876449497299 0.17356388092826039 0 0.1832181015668064 0.15465227861531949 0 0.17367876449497299 0.17356388092826039 0 0.1832181015668064 0.15465227861531949 0 0.1915320106228488 0.17262237876131631 0 0.1832181015668064 0.15465227861531949 0 0.18154761934540289 0.13534417850528041 0 0.16307655427518189 0.1461583771030025 0 0.18154761934540289 0.13534417850528041 0 0.19370351113240411 0.1202502215829211 0 0.16718880021878149 0.12232812864365609 0 0.16307655427518189 0.1461583771030025 0 0.16718880021878149 0.12232812864365609 0 0.14773514824261011 0.13994704674368119 0 0.16307655427518189 0.1461583771030025 0 0.16718880021878149 0.12232812864365609 0 0.18154761934540289 0.13534417850528041 0 0.16307655427518189 0.1461583771030025 0 0.16718880021878149 0.12232812864365609 0 0.14248646727170791 0.24329921538672239 0 0.16890701105638031 0.23504418317664161 0 0.14248646727170791 0.24329921538672239 0 0.116065923487036 0.25155424759680489 0 0.14248646727170791 0.24329921538672239 0 0.1287590091161889 0.22454109023782651 0 0.116065923487036 0.25155424759680489 0 0.14248646727170791 0.24329921538672239 0 0.1287590091161889 0.22454109023782651 0 0.14216045677169509 0.2226427774354276 0 0.1287590091161889 0.22454109023782651 0 0.14216045677169509 0.2226427774354276 0 0.13903299807830019 0.21154409335764149 0 0.14248646727170791 0.24329921538672239 0 0.14216045677169509 0.2226427774354276 0 0.16890701105638031 0.23504418317664161 0 0.14216045677169509 0.2226427774354276 0 0.1513137794066001 0.21432303737238931 0 0.16890701105638031 0.23504418317664161 0 0.15183105921464751 0.210852851725322 0 0.13241563583181001 0.2003476577346209 0 0.15183105921464751 0.210852851725322 0 0.13903299807830019 0.21154409335764149 0 0.13241563583181001 0.2003476577346209 0 0.1513137794066001 0.21432303737238931 0 0.15183105921464751 0.210852851725322 0 0.14522842943996589 0.21534193400985699 0 0.1513137794066001 0.21432303737238931 0 0.15183105921464751 0.210852851725322 0 0.15183105921464751 0.210852851725322 0 0.14522842943996589 0.21534193400985699 0 0.13903299807830019 0.21154409335764149 0 0.14216045677169509 0.2226427774354276 0 0.1513137794066001 0.21432303737238931 0 0.14522842943996589 0.21534193400985699 0 0.14216045677169509 0.2226427774354276 0 0.14522842943996589 0.21534193400985699 0 0.13903299807830019 0.21154409335764149 0 0.1287590091161889 0.22454109023782651 0 0.13903299807830019 0.21154409335764149 0 0.12714211421566091 0.2115365522170618 0 0.11958782189190099 0.20227867846385961 0 0.12714211421566091 0.2115365522170618 0 0.13241563583181001 0.2003476577346209 0 0.13903299807830019 0.21154409335764149 0 0.12714211421566091 0.2115365522170618 0 0.13241563583181001 0.2003476577346209 0 0.1210814068145178 0.19423580856195369 0 0.13241563583181001 0.2003476577346209 0 0.13808072668616231 0.19149491569441959 0 0.1210814068145178 0.19423580856195369 0 0.14172685770208041 0.18088834424850889 0 0.13808072668616231 0.19149491569441959 0 0.1210814068145178 0.19423580856195369 0 0.14172685770208041 0.18088834424850889 0 0.1210814068145178 0.19423580856195369 0 0.13241563583181001 0.2003476577346209 0 0.15664227980061579 0.1834446584897341 0 0.15183105921464751 0.210852851725322 0 0.14735069213281321 0.19092796682168489 0 0.14172685770208041 0.18088834424850889 0 0.13808072668616231 0.19149491569441959 0 0.14735069213281321 0.19092796682168489 0 0.15183105921464751 0.210852851725322 0 0.13808072668616231 0.19149491569441959 0 0.14735069213281321 0.19092796682168489 0 0.15664227980061579 0.1834446584897341 0 0.15183105921464751 0.210852851725322 0 0.15183105921464751 0.210852851725322 0 0.13241563583181001 0.2003476577346209 0 0.13808072668616231 0.19149491569441959 0 0.15183105921464751 0.210852851725322 0 0.13808072668616231 0.19149491569441959 0 0.15664227980061579 0.1834446584897341 0 0.17803712215301101 0.18711146321258301 0 0.17078007948547791 0.20461318166966591 0 0.15664227980061579 0.1834446584897341 0 0.15183105921464751 0.210852851725322 0 0.17078007948547791 0.20461318166966591 0 0.17803712215301101 0.18711146321258301 0 0.18699821765939811 0.20575379358823331 0 0.17078007948547791 0.20461318166966591 0 0.18699821765939811 0.20575379358823331 0 0.18150256540618689 0.21619068467845909 0 0.17078007948547791 0.20461318166966591 0 0.18150256540618689 0.21619068467845909 0 0.17078007948547791 0.20461318166966591 0 0.1696832039875637 0.2204437538389574 0 0.15183105921464751 0.210852851725322 0 0.1696832039875637 0.2204437538389574 0 0.15183105921464751 0.210852851725322 0 0.17078007948547791 0.20461318166966591 0 0.1696832039875637 0.2204437538389574 0 0.15183105921464751 0.210852851725322 0 0.16890701105638031 0.23504418317664161 0 0.15183105921464751 0.210852851725322 0 0.1696832039875637 0.2204437538389574 0 0.16890701105638031 0.23504418317664161 0 0.1513137794066001 0.21432303737238931 0 0.15183105921464751 0.210852851725322 0 0.16890701105638031 0.23504418317664161 0 0.1696832039875637 0.2204437538389574 0 0.1730962958839812 0.23373525170759399 0 0.16890701105638031 0.23504418317664161 0 0.18150256540618689 0.21619068467845909 0 0.1696832039875637 0.2204437538389574 0 0.1874551123034256 0.23002704556275291 0 0.1696832039875637 0.2204437538389574 0 0.1874551123034256 0.23002704556275291 0 0.1730962958839812 0.23373525170759399 0 0.1696832039875637 0.2204437538389574 0 0.1874551123034256 0.23002704556275291 0 0.16890701105638031 0.23504418317664161 0 0.18564289691528729 0.25868749876629671 0 0.1821848497420967 0.24129823675235251 0 0.16890701105638031 0.23504418317664161 0 0.18564289691528729 0.25868749876629671 0 0.1730962958839812 0.23373525170759399 0 0.1821848497420967 0.24129823675235251 0 0.16890701105638031 0.23504418317664161 0 0.1874551123034256 0.23002704556275291 0 0.1730962958839812 0.23373525170759399 0 0.1821848497420967 0.24129823675235251 0 0.14248646727170791 0.24329921538672239 0 0.16890701105638031 0.23504418317664161 0 0.1631161995596529 0.25657386530356069 0 0.1730962958839812 0.23373525170759399 0 0.16890701105638031 0.23504418317664161 0 0.2052270206192876 0.23961033728654851 0 0.2245441737887168 0.23093760545441711 0 0.21458810326103989 0.25029177234766842 0 0.2052270206192876 0.23961033728654851 0 0.2050239072751949 0.2492833193895482 0 0.21458810326103989 0.25029177234766842 0 0.2052270206192876 0.23961033728654851 0 0.2050239072751949 0.2492833193895482 0 0.1956251304139873 0.24830732682566101 0 0.1874551123034256 0.23002704556275291 0 0.1821848497420967 0.24129823675235251 0 0.1956251304139873 0.24830732682566101 0 0.1874551123034256 0.23002704556275291 0 0.2052270206192876 0.23961033728654851 0 0.1821848497420967 0.24129823675235251 0 0.1956251304139873 0.24830732682566101 0 0.18564289691528729 0.25868749876629671 0 0.1874551123034256 0.23002704556275291 0 0.2052270206192876 0.23961033728654851 0 0.1956251304139873 0.24830732682566101 0 0.1874551123034256 0.23002704556275291 0 0.2052270206192876 0.23961033728654851 0 0.20110338325899621 0.22697869990708769 0 0.18150256540618689 0.21619068467845909 0 0.1874551123034256 0.23002704556275291 0 0.19422843088031849 0.2167901493339745 0 0.1874551123034256 0.23002704556275291 0 0.20110338325899621 0.22697869990708769 0 0.19422843088031849 0.2167901493339745 0 0.20110338325899621 0.22697869990708769 0 0.2086865974780466 0.21738525977654841 0 0.19422843088031849 0.2167901493339745 0 0.2052270206192876 0.23961033728654851 0 0.21155197229915221 0.22775520817690251 0 0.2245441737887168 0.23093760545441711 0 0.20110338325899621 0.22697869990708769 0 0.21155197229915221 0.22775520817690251 0 0.2086865974780466 0.21738525977654841 0 0.2052270206192876 0.23961033728654851 0 0.20110338325899621 0.22697869990708769 0 0.21155197229915221 0.22775520817690251 0 0.21155197229915221 0.22775520817690251 0 0.2086865974780466 0.21738525977654841 0 0.22156171208109349 0.2232889965660497 0 0.211417792929007 0.20448623071467029 0 0.2086865974780466 0.21738525977654841 0 0.22411523440486891 0.2128525325182862 0 0.2086865974780466 0.21738525977654841 0 0.22411523440486891 0.2128525325182862 0 0.22156171208109349 0.2232889965660497 0 0.211417792929007 0.20448623071467029 0 0.2086865974780466 0.21738525977654841 0 0.19996516513116139 0.20542151256053021 0 0.2086865974780466 0.21738525977654841 0 0.19422843088031849 0.2167901493339745 0 0.19996516513116139 0.20542151256053021 0 0.18699821765939811 0.20575379358823331 0 0.18150256540618689 0.21619068467845909 0 0.19422843088031849 0.2167901493339745 0 0.18699821765939811 0.20575379358823331 0 0.19422843088031849 0.2167901493339745 0 0.19996516513116139 0.20542151256053021 0 0.18699821765939811 0.20575379358823331 0 0.19996516513116139 0.20542151256053021 0 0.19943196450540629 0.19077826793543179 0 0.17803712215301101 0.18711146321258301 0 0.19943196450540629 0.19077826793543179 0 0.17803712215301101 0.18711146321258301 0 0.18699821765939811 0.20575379358823331 0 0.19943196450540629 0.19077826793543179 0 0.211417792929007 0.20448623071467029 0 0.19943196450540629 0.19077826793543179 0 0.22082680685780151 0.19444507265828059 0 0.19943196450540629 0.19077826793543179 0 0.22082680685780151 0.19444507265828059 0 0.211417792929007 0.20448623071467029 0 0.19996516513116139 0.20542151256053021 0 0.19943196450540629 0.19077826793543179 0 0.22082680685780151 0.19444507265828059 0 0.2418323282778008 0.1922485172988235 0 0.23200417938957321 0.20455559625434991 0 0.22082680685780151 0.19444507265828059 0 0.2418323282778008 0.1922485172988235 0 0.2298041727050075 0.1787595393801808 0 0.2418323282778008 0.1922485172988235 0 0.24124234801782149 0.21867626254200909 0 0.2418323282778008 0.1922485172988235 0 0.24124234801782149 0.21867626254200909 0 0.25471258750952741 0.20148162901819469 0 0.2418323282778008 0.1922485172988235 0 0.24124234801782149 0.21867626254200909 0 0.23200417938957321 0.20455559625434991 0 0.24124234801782149 0.21867626254200909 0 0.25357276657721323 0.21641202867955539 0 0.25471258750952741 0.20148162901819469 0 0.24124234801782149 0.21867626254200909 0 0.22411523440486891 0.2128525325182862 0 0.2303270751280653 0.22194856436908961 0 0.211417792929007 0.20448623071467029 0 0.22082680685780151 0.19444507265828059 0 0.22411523440486891 0.2128525325182862 0 0.22082680685780151 0.19444507265828059 0 0.23200417938957321 0.20455559625434991 0 0.22411523440486891 0.2128525325182862 0 0.24124234801782149 0.21867626254200909 0 0.23200417938957321 0.20455559625434991 0 0.22411523440486891 0.2128525325182862 0 0.22411523440486891 0.2128525325182862 0 0.22156171208109349 0.2232889965660497 0 0.2303270751280653 0.22194856436908961 0 0.22156171208109349 0.2232889965660497 0 0.2245441737887168 0.23093760545441711 0 0.2301452193877111 0.22885480910105491 0 0.21155197229915221 0.22775520817690251 0 0.22156171208109349 0.2232889965660497 0 0.2245441737887168 0.23093760545441711 0 0.2301452193877111 0.22885480910105491 0 0.23408043491912681 0.23335190051361199 0 0.23787356880598759 0.22384871304106421 0 0.2301452193877111 0.22885480910105491 0 0.23408043491912681 0.23335190051361199 0 0.2258394828391487 0.23585902185418811 0 0.2245441737887168 0.23093760545441711 0 0.2301452193877111 0.22885480910105491 0 0.2258394828391487 0.23585902185418811 0 0.2301452193877111 0.22885480910105491 0 0.2303270751280653 0.22194856436908961 0 0.23787356880598759 0.22384871304106421 0 0.22156171208109349 0.2232889965660497 0 0.2301452193877111 0.22885480910105491 0 0.2303270751280653 0.22194856436908961 0 0.24124234801782149 0.21867626254200909 0 0.2303270751280653 0.22194856436908961 0 0.23787356880598759 0.22384871304106421 0 0.24124234801782149 0.21867626254200909 0 0.23787356880598759 0.22384871304106421 0 0.25357276657721323 0.21641202867955539 0 0.23408043491912681 0.23335190051361199 0 0.24868260911088891 0.2303107595792985 0 0.25357276657721323 0.21641202867955539 0 0.23408043491912681 0.23335190051361199 0 0.23787356880598759 0.22384871304106421 0 0.25357276657721323 0.21641202867955539 0 0.23408043491912681 0.23335190051361199 0 0.25357276657721323 0.21641202867955539 0 0.24868260911088891 0.2303107595792985 0 0.2392512687495113 0.23539683186585869 0 0.2471090749199483 0.2357199094212839 0 0.23408043491912681 0.23335190051361199 0 0.24868260911088891 0.2303107595792985 0 0.2392512687495113 0.23539683186585869 0 0.23408043491912681 0.23335190051361199 0 0.2356673672060029 0.23553231024254659 0 0.23369101455560959 0.23545012385447089 0 0.2356673672060029 0.23553231024254659 0 0.23652425047500741 0.24096462129343871 0 0.23369101455560959 0.23545012385447089 0 0.23652425047500741 0.24096462129343871 0 0.2392512687495113 0.23539683186585869 0 0.24523436150048811 0.24199469982198529 0 0.2356673672060029 0.23553231024254659 0 0.23652425047500741 0.24096462129343871 0 0.2392512687495113 0.23539683186585869 0 0.23408043491912681 0.23335190051361199 0 0.2356673672060029 0.23553231024254659 0 0.2392512687495113 0.23539683186585869 0 0.24523436150048811 0.24199469982198529 0 0.2471090749199483 0.2357199094212839 0 0.25452501640087027 0.2374112721999547 0 0.2392512687495113 0.23539683186585869 0 0.24523436150048811 0.24199469982198529 0 0.2471090749199483 0.2357199094212839 0 0.24523436150048811 0.24199469982198529 0 0.23995652529561701 0.25039133628829258 0 0.25404003316197471 0.25208422786308371 0 0.23652425047500741 0.24096462129343871 0 0.24523436150048811 0.24199469982198529 0 0.23995652529561701 0.25039133628829258 0 0.23652425047500741 0.24096462129343871 0 0.23169913173193779 0.25404958449575432 0 0.23995652529561701 0.25039133628829258 0 0.23369101455560959 0.23545012385447089 0 0.2170338530129477 0.25958452376210089 0 0.21458810326103989 0.25029177234766842 0 0.23408043491912681 0.23335190051361199 0 0.23369101455560959 0.23545012385447089 0 0.21458810326103989 0.25029177234766842 0 0.23408043491912681 0.23335190051361199 0 0.21458810326103989 0.25029177234766842 0 0.2245441737887168 0.23093760545441711 0 0.21458810326103989 0.25029177234766842 0 0.23408043491912681 0.23335190051361199 0 0.2258394828391487 0.23585902185418811 0 0.21458810326103989 0.25029177234766842 0 0.23369101455560959 0.23545012385447089 0 0.2170338530129477 0.25958452376210089 0 0.23169913173193779 0.25404958449575432 0 0.23652425047500741 0.24096462129343871 0 0.23369101455560959 0.23545012385447089 0 0.23169913173193779 0.25404958449575432 0 0.23369101455560959 0.23545012385447089 0 0.2170338530129477 0.25958452376210089 0 0.2245441737887168 0.23093760545441711 0 0.2258394828391487 0.23585902185418811 0 0.21458810326103989 0.25029177234766842 0 0.2074718948020329 0.13931593166829101 0 0.2035930282546865 0.1573108976369578 0 0.22801201431925219 0.15227861461809999 0 0.2074718948020329 0.13931593166829101 0 0.22815060196587239 0.13250420183309389 0 0.2202182220460269 0.1181723145221887 0 0.2074718948020329 0.13931593166829101 0 0.2202182220460269 0.1181723145221887 0 0.19370351113240411 0.1202502215829211 0 0.18154761934540289 0.13534417850528041 0 0.2074718948020329 0.13931593166829101 0 0.19370351113240411 0.1202502215829211 0 0.1832181015668064 0.15465227861531949 0 0.2074718948020329 0.13931593166829101 0 0.1832181015668064 0.15465227861531949 0 0.18154761934540289 0.13534417850528041 0 0.2074718948020329 0.13931593166829101 0 0.1832181015668064 0.15465227861531949 0 0.2074718948020329 0.13931593166829101 0 0.2035930282546865 0.1573108976369578 0 0.1832181015668064 0.15465227861531949 0 0.1915320106228488 0.17262237876131631 0 0.2035930282546865 0.1573108976369578 0 0.1915320106228488 0.17262237876131631 0 0.21309098299550949 0.1707274381193544 0 0.2035930282546865 0.1573108976369578 0 0.19943196450540629 0.19077826793543179 0 0.1915320106228488 0.17262237876131631 0 0.21309098299550949 0.1707274381193544 0 0.17803712215301101 0.18711146321258301 0 0.19943196450540629 0.19077826793543179 0 0.1915320106228488 0.17262237876131631 0 0.19943196450540629 0.19077826793543179 0 0.22082680685780151 0.19444507265828059 0 0.21309098299550949 0.1707274381193544 0 0.21309098299550949 0.1707274381193544 0 0.2035930282546865 0.1573108976369578 0 0.22801201431925219 0.15227861461809999 0 0.2298041727050075 0.1787595393801808 0 0.2424223085377801 0.16582077205563811 0 0.22801201431925219 0.15227861461809999 0 0.21309098299550949 0.1707274381193544 0 0.2298041727050075 0.1787595393801808 0 0.22801201431925219 0.15227861461809999 0 0.22082680685780151 0.19444507265828059 0 0.21309098299550949 0.1707274381193544 0 0.2298041727050075 0.1787595393801808 0 0.2418323282778008 0.1922485172988235 0 0.2424223085377801 0.16582077205563811 0 0.2418323282778008 0.1922485172988235 0 0.2424223085377801 0.16582077205563811 0 0.26032431562704572 0.18342712708893841 0 0.2418323282778008 0.1922485172988235 0 0.2298041727050075 0.1787595393801808 0 0.2424223085377801 0.16582077205563811 0 0.2424223085377801 0.16582077205563811 0 0.24301228879775941 0.13939302681245261 0 0.2424223085377801 0.16582077205563811 0 0.24301228879775941 0.13939302681245261 0 0.25486404381895789 0.1523024957907583 0 0.22801201431925219 0.15227861461809999 0 0.23648687609860089 0.13476882232929049 0 0.24301228879775941 0.13939302681245261 0 0.2424223085377801 0.16582077205563811 0 0.22801201431925219 0.15227861461809999 0 0.24301228879775941 0.13939302681245261 0 0.2074718948020329 0.13931593166829101 0 0.22801201431925219 0.15227861461809999 0 0.22815060196587239 0.13250420183309389 0 0.22815060196587239 0.13250420183309389 0 0.24420216851797599 0.1292372680552665 0 0.2202182220460269 0.1181723145221887 0 0.22801201431925219 0.15227861461809999 0 0.22815060196587239 0.13250420183309389 0 0.23648687609860089 0.13476882232929049 0 0.22815060196587239 0.13250420183309389 0 0.23648687609860089 0.13476882232929049 0 0.24420216851797599 0.1292372680552665 0 0.23648687609860089 0.13476882232929049 0 0.24301228879775941 0.13939302681245261 0 0.24420216851797599 0.1292372680552665 0 0.24646482385440791 0.1109165710353929 0 0.23770217468454991 0.11680213067385049 0 0.255186127323073 0.11543194682551421 0 0.24420216851797599 0.1292372680552665 0 0.23770217468454991 0.11680213067385049 0 0.255186127323073 0.11543194682551421 0 0.23770217468454991 0.11680213067385049 0 0.255186127323073 0.11543194682551421 0 0.23770217468454991 0.11680213067385049 0 0.24055722746134861 0.1095612663226197 0 0.23538797832625211 0.10692464088038291 0 0.24646482385440791 0.1109165710353929 0 0.23770217468454991 0.11680213067385049 0 0.24055722746134861 0.1095612663226197 0 0.24174744587836799 0.1033548466348798 0 0.22816008327650389 0.097918375238235045 0 0.24736227196270541 0.090270970101712061 0 0.22816008327650389 0.097918375238235045 0 0.24736227196270541 0.090270970101712061 0 0.24174744587836799 0.1033548466348798 0 0.24736227196270541 0.090270970101712061 0 0.25459763100830068 0.096141582858552177 0 0.24174744587836799 0.1033548466348798 0 0.25459763100830068 0.096141582858552177 0 0.24646482385440791 0.1109165710353929 0 0.24174744587836799 0.1033548466348798 0 0.25655208948606423 0.10927836717886751 0 0.24174744587836799 0.1033548466348798 0 0.25655208948606423 0.10927836717886751 0 0.24646482385440791 0.1109165710353929 0 0.24055722746134861 0.1095612663226197 0 0.24174744587836799 0.1033548466348798 0 0.23538797832625211 0.10692464088038291 0 0.24174744587836799 0.1033548466348798 0 0.22816008327650389 0.097918375238235045 0 0.24055722746134861 0.1095612663226197 0 0.23538797832625211 0.10692464088038291 0 0.24174744587836799 0.1033548466348798 0 0.23538797832625211 0.10692464088038291 0 0.24174744587836799 0.1033548466348798 0 0.24174744587836799 0.1033548466348798 0 0.22816008327650389 0.097918375238235045 0 0.23538797832625211 0.10692464088038291 0 0.22816008327650389 0.097918375238235045 0 0.22436085098549791 0.1097634104313145 0 0.23770217468454991 0.11680213067385049 0 0.2202182220460269 0.1181723145221887 0 0.23770217468454991 0.11680213067385049 0 0.2202182220460269 0.1181723145221887 0 0.22436085098549791 0.1097634104313145 0 0.24420216851797599 0.1292372680552665 0 0.23770217468454991 0.11680213067385049 0 0.2202182220460269 0.1181723145221887 0 0.24420216851797599 0.1292372680552665 0 0.2202182220460269 0.1181723145221887 0 0.23770217468454991 0.11680213067385049 0 0.23538797832625211 0.10692464088038291 0 0.22436085098549791 0.1097634104313145 0 0.2202182220460269 0.1181723145221887 0 0.20033579659415629 0.10899959084191641 0 0.19370351113240411 0.1202502215829211 0 0.2202182220460269 0.1181723145221887 0 0.20033579659415629 0.10899959084191641 0 0.2202182220460269 0.1181723145221887 0 0.19370351113240411 0.1202502215829211 0 0.2202182220460269 0.1181723145221887 0 0.22436085098549791 0.1097634104313145 0 0.20033579659415629 0.10899959084191641 0 0.22816008327650389 0.097918375238235045 0 0.22436085098549791 0.1097634104313145 0 0.20033579659415629 0.10899959084191641 0 0.22816008327650389 0.097918375238235045 0 0.20033579659415629 0.10899959084191641 0 0.2016134769563831 0.087296750559026068 0 0.22816008327650389 0.097918375238235045 0 0.20033579659415629 0.10899959084191641 0 0.20033579659415629 0.10899959084191641 0 0.18422746814952201 0.1154148446289336 0 0.1860496622757298 0.1024087067025775 0 0.20033579659415629 0.10899959084191641 0 0.2016134769563831 0.087296750559026068 0 0.1860496622757298 0.1024087067025775 0 0.20033579659415629 0.10899959084191641 0 0.1860496622757298 0.1024087067025775 0 0.20033579659415629 0.10899959084191641 0 0.19370351113240411 0.1202502215829211 0 0.18422746814952201 0.1154148446289336 0 0.20033579659415629 0.10899959084191641 0 0.18422746814952201 0.1154148446289336 0 0.19220101611619109 0.069455466931817506 0 0.2016134769563831 0.087296750559026068 0 0.22553753830923129 0.072562856517635971 0 0.19220101611619109 0.069455466931817506 0 0.22553753830923129 0.072562856517635971 0 0.20371280465575431 0.054854742933563613 0 0.19220101611619109 0.069455466931817506 0 0.2016134769563831 0.087296750559026068 0 0.17506687063626211 0.076675125879817507 0 0.2016134769563831 0.087296750559026068 0 0.17506687063626211 0.076675125879817507 0 0.2016134769563831 0.087296750559026068 0 0.1860496622757298 0.1024087067025775 0 0.17954517331912459 0.085943521096986275 0 0.22816008327650389 0.097918375238235045 0 0.2016134769563831 0.087296750559026068 0 0.22553753830923129 0.072562856517635971 0 0.22816008327650389 0.097918375238235045 0 0.2016134769563831 0.087296750559026068 0 0.22553753830923129 0.072562856517635971 0 0.20371280465575431 0.054854742933563613 0 0.22816008327650389 0.097918375238235045 0 0.22553753830923129 0.072562856517635971 0 0.24736227196270541 0.090270970101712061 0 0.22553753830923129 0.072562856517635971 0 0.24736227196270541 0.090270970101712061 0 0.22553753830923129 0.072562856517635971 0 0.24736227196270541 0.090270970101712061 0 0.24874122334595 0.07170785510379532 0 0.22553753830923129 0.072562856517635971 0 0.24874122334595 0.07170785510379532 0 0.24629062771517271 0.052820950830226497 0 0.24629062771517271 0.052820950830226497 0 0.22540450977275331 0.044226989078737088 0 0.24629062771517271 0.052820950830226497 0 0.2492733855269578 0.041579555173777823 0 0.22540450977275331 0.044226989078737088 0 0.2492733855269578 0.041579555173777823 0 0.23050941707716249 0.025621187905106171 0 0.2492733855269578 0.041579555173777823 0 0.22540450977275331 0.044226989078737088 0 0.23050941707716249 0.025621187905106171 0 0.22540450977275331 0.044226989078737088 0 0.23050941707716249 0.025621187905106171 0 0.21805144048265651 0.031797176764528597 0 0.22553753830923129 0.072562856517635971 0 0.24629062771517271 0.052820950830226497 0 0.22540450977275331 0.044226989078737088 0 0.23790413247208811 0.0091049515404343275 0 0.25322369798355371 0.0032948183560677501 0 0.2464198669495459 -0.012097030270161889 0 0.23790413247208811 0.0091049515404343275 0 0.25442723867738032 0.016379625870619269 0 0.25322369798355371 0.0032948183560677501 0 0.2492733855269578 0.041579555173777823 0 0.24818833723327199 0.02644705719899533 0 0.23050941707716249 0.025621187905106171 0 0.23790413247208811 0.0091049515404343275 0 0.24818833723327199 0.02644705719899533 0 0.25442723867738032 0.016379625870619269 0 0.23790413247208811 0.0091049515404343275 0 0.24818833723327199 0.02644705719899533 0 0.23050941707716249 0.025621187905106171 0 0.23050941707716249 0.025621187905106171 0 0.2117734432503762 0.02170750274702346 0 0.21805144048265651 0.031797176764528597 0 0.23050941707716249 0.025621187905106171 0 0.21174544862736719 0.0096628206364345465 0 0.23050941707716249 0.025621187905106171 0 0.22518260227175371 0.0072623370788317187 0 0.21174544862736719 0.0096628206364345465 0 0.23790413247208811 0.0091049515404343275 0 0.22518260227175371 0.0072623370788317187 0 0.2300866381754704 -0.0072438550720441714 0 0.23790413247208811 0.0091049515404343275 0 0.23050941707716249 0.025621187905106171 0 0.22518260227175371 0.0072623370788317187 0 0.21174544862736719 0.0096628206364345465 0 0.2117734432503762 0.02170750274702346 0 0.20589386385567829 -0.0063134785331596111 0 0.2117734432503762 0.02170750274702346 0 0.19985428483697371 0.01027601627170664 0 0.20589386385567829 -0.0063134785331596111 0 0.2117734432503762 0.02170750274702346 0 0.20589386385567829 -0.0063134785331596111 0 0.22518260227175371 0.0072623370788317187 0 0.21174544862736719 0.0096628206364345465 0 0.2185782736923042 -0.0038367730406402641 0 0.23050941707716249 0.025621187905106171 0 0.21174544862736719 0.0096628206364345465 0 0.2117734432503762 0.02170750274702346 0 0.2117734432503762 0.02170750274702346 0 0.19994459845139961 0.023663902980434019 0 0.19985428483697371 0.01027601627170664 0 0.2117734432503762 0.02170750274702346 0 0.21805144048265651 0.031797176764528597 0 0.20451839183033399 0.035633027327247678 0 0.2117734432503762 0.02170750274702346 0 0.19994459845139961 0.023663902980434019 0 0.20451839183033399 0.035633027327247678 0 0.19994459845139961 0.023663902980434019 0 0.20451839183033399 0.035633027327247678 0 0.1836322738879155 0.027039065575756291 0 0.19994459845139961 0.023663902980434019 0 0.19985428483697371 0.01027601627170664 0 0.1836322738879155 0.027039065575756291 0 0.19985428483697371 0.01027601627170664 0 0.20589386385567829 -0.0063134785331596111 0 0.18863989258252481 -0.001979820774580698 0 0.19985428483697371 0.01027601627170664 0 0.1836322738879155 0.027039065575756291 0 0.18863989258252481 -0.001979820774580698 0 0.22553753830923129 0.072562856517635971 0 0.22540450977275331 0.044226989078737088 0 0.20371280465575431 0.054854742933563613 0 0.22540450977275331 0.044226989078737088 0 0.20451839183033399 0.035633027327247678 0 0.22540450977275331 0.044226989078737088 0 0.21805144048265651 0.031797176764528597 0 0.20451839183033399 0.035633027327247678 0 0.22540450977275331 0.044226989078737088 0 0.20371280465575431 0.054854742933563613 0 0.20451839183033399 0.035633027327247678 0 0.20451839183033399 0.035633027327247678 0 0.1818880710022803 0.03714662934948755 0 0.1836322738879155 0.027039065575756291 0 0.20371280465575431 0.054854742933563613 0 0.20451839183033399 0.035633027327247678 0 0.1818880710022803 0.03714662934948755 0 0.20371280465575431 0.054854742933563613 0 0.1818880710022803 0.03714662934948755 0 0.20451839183033399 0.035633027327247678 0 0.1836322738879155 0.027039065575756291 0 0.20371280465575431 0.054854742933563613 0 0.17847747081927551 0.05691087761465332 0 0.1818880710022803 0.03714662934948755 0 0.19220101611619109 0.069455466931817506 0 0.20371280465575431 0.054854742933563613 0 0.17847747081927551 0.05691087761465332 0 0.17847747081927551 0.05691087761465332 0 0.1818880710022803 0.03714662934948755 0 0.17847747081927551 0.05691087761465332 0 0.1818880710022803 0.03714662934948755 0 0.1636569447874848 0.036789081642687432 0 0.1818880710022803 0.03714662934948755 0 0.1836322738879155 0.027039065575756291 0 0.1818880710022803 0.03714662934948755 0 0.1636569447874848 0.036789081642687432 0 0.1620242678869008 0.02102957209859084 0 0.17847747081927551 0.05691087761465332 0 0.1636569447874848 0.036789081642687432 0 0.15962551614652079 0.053115759904931073 0 0.17847747081927551 0.05691087761465332 0 0.15962551614652079 0.053115759904931073 0 0.16641746421004469 0.065589342706300277 0 0.15962551614652079 0.053115759904931073 0 0.15045482833334159 0.067212260357143019 0 0.16641746421004469 0.065589342706300277 0 0.1716695151525548 0.011722155214289249 0 0.17506184651935949 -0.0021247232161890161 0 0.18863989258252481 -0.001979820774580698 0 0.1836322738879155 0.027039065575756291 0 0.18863989258252481 -0.001979820774580698 0 0.1836322738879155 0.027039065575756291 0 0.1716695151525548 0.011722155214289249 0 0.18863989258252481 -0.001979820774580698 0 0.1818880710022803 0.03714662934948755 0 0.1730573255808272 0.02268781650565178 0 0.1620242678869008 0.02102957209859084 0 0.1818880710022803 0.03714662934948755 0 0.1620242678869008 0.02102957209859084 0 0.1730573255808272 0.02268781650565178 0 0.1836322738879155 0.027039065575756291 0 0.1716695151525548 0.011722155214289249 0 0.1730573255808272 0.02268781650565178 0 0.1836322738879155 0.027039065575756291 0 0.1818880710022803 0.03714662934948755 0 0.1730573255808272 0.02268781650565178 0 0.1836322738879155 0.027039065575756291 0 0.1636569447874848 0.036789081642687432 0 0.1620242678869008 0.02102957209859084 0 0.15032019737810451 0.03113296745297477 0 0.1730573255808272 0.02268781650565178 0 0.1620242678869008 0.02102957209859084 0 0.1716695151525548 0.011722155214289249 0 0.1620242678869008 0.02102957209859084 0 0.1716695151525548 0.011722155214289249 0 0.15871689523486121 0.010399441389301141 0 0.1716695151525548 0.011722155214289249 0 0.15871689523486121 0.010399441389301141 0 0.1628037813635097 0.0015330777282007481 0 0.15871689523486121 0.010399441389301141 0 0.1628037813635097 0.0015330777282007481 0 0.15453230216132671 0.0032055715019124438 0 0.1716695151525548 0.011722155214289249 0 0.1628037813635097 0.0015330777282007481 0 0.17506184651935949 -0.0021247232161890161 0 0.1620242678869008 0.02102957209859084 0 0.14216046477152491 0.0049125148476896544 0 0.15871689523486121 0.010399441389301141 0 0.14216046477152491 0.0049125148476896544 0 0.15453230216132671 0.0032055715019124438 0 0.14216046477152491 0.0049125148476896544 0 0.15453230216132671 0.0032055715019124438 0 0.15849764294065671 -0.0060544572746906826 0 0.1620242678869008 0.02102957209859084 0 0.15871689523486121 0.010399441389301141 0 0.14216046477152491 0.0049125148476896544 0 0.1620242678869008 0.02102957209859084 0 0.14216046477152491 0.0049125148476896544 0 0.1432298655490542 0.02239521632663263 0 0.1620242678869008 0.02102957209859084 0 0.1432298655490542 0.02239521632663263 0 0.15032019737810451 0.03113296745297477 0 0.1432298655490542 0.02239521632663263 0 0.15032019737810451 0.03113296745297477 0 0.1366405524080008 0.032741533152345258 0 0.1432298655490542 0.02239521632663263 0 0.12659142849079691 0.028091664155532971 0 0.1366405524080008 0.032741533152345258 0 0.14216046477152491 0.0049125148476896544 0 0.1432298655490542 0.02239521632663263 0 0.12659142849079691 0.028091664155532971 0 0.14216046477152491 0.0049125148476896544 0 0.12659142849079691 0.028091664155532971 0 0.1323442420055404 0.014884056975098 0 0.14216046477152491 0.0049125148476896544 0 0.12659142849079691 0.028091664155532971 0 0.11882011836095251 0.0065886106746579649 0 0.12659142849079691 0.028091664155532971 0 0.1323442420055404 0.014884056975098 0 0.12659142849079691 0.028091664155532971 0 0.1366405524080008 0.032741533152345258 0 0.11882011836095251 0.0065886106746579649 0 0.1323442420055404 0.014884056975098 0 0.13735218555535891 0.001011181807127467 0 0.1323442420055404 0.014884056975098 0 0.13735218555535891 0.001011181807127467 0 0.14216046477152491 0.0049125148476896544 0 0.1323442420055404 0.014884056975098 0 0.13735218555535891 0.001011181807127467 0 0.14216046477152491 0.0049125148476896544 0 0.13735218555535891 0.001011181807127467 0 0.15962551614652079 0.053115759904931073 0 0.1452456698728295 0.044396077507560729 0 0.15045482833334159 0.067212260357143019 0 0.1452456698728295 0.044396077507560729 0 0.12683439495817461 0.052003073372435288 0 0.15045482833334159 0.067212260357143019 0 0.1636569447874848 0.036789081642687432 0 0.15032019737810451 0.03113296745297477 0 0.1452456698728295 0.044396077507560729 0 0.1636569447874848 0.036789081642687432 0 0.15962551614652079 0.053115759904931073 0 0.1452456698728295 0.044396077507560729 0 0.1636569447874848 0.036789081642687432 0 0.1452456698728295 0.044396077507560729 0 0.15032019737810451 0.03113296745297477 0 0.1452456698728295 0.044396077507560729 0 0.1366405524080008 0.032741533152345258 0 0.1452456698728295 0.044396077507560729 0 0.13015300311198849 0.040381385354086502 0 0.12683439495817461 0.052003073372435288 0 0.1452456698728295 0.044396077507560729 0 0.1366405524080008 0.032741533152345258 0 0.13015300311198849 0.040381385354086502 0 0.12659142849079691 0.028091664155532971 0 0.1366405524080008 0.032741533152345258 0 0.13015300311198849 0.040381385354086502 0 0.12683439495817461 0.052003073372435288 0 0.13134854049252651 0.064566646620811727 0 0.15045482833334159 0.067212260357143019 0 0.1452456698728295 0.044396077507560729 0 0.12683439495817461 0.052003073372435288 0 0.12683439495817461 0.052003073372435288 0 0.15045482833334159 0.067212260357143019 0 0.1213053233293625 0.063977455960140386 0 0.12683439495817461 0.052003073372435288 0 0.13134854049252651 0.064566646620811727 0 0.13134854049252651 0.064566646620811727 0 0.12679961534922851 0.075073796793526271 0 0.15045482833334159 0.067212260357143019 0 0.1213053233293625 0.063977455960140386 0 0.13134854049252651 0.064566646620811727 0 0.12679961534922851 0.075073796793526271 0 0.12679961534922851 0.075073796793526271 0 0.15045482833334159 0.067212260357143019 0 0.1492815716532653 0.085445809678383625 0 0.1185648575779607 0.095458187827811403 0 0.12679961534922851 0.075073796793526271 0 0.13332649773741079 0.089989738391902788 0 0.1492815716532653 0.085445809678383625 0 0.13332649773741079 0.089989738391902788 0 0.13865994636918871 0.10398115926788989 0 0.12679961534922851 0.075073796793526271 0 0.1492815716532653 0.085445809678383625 0 0.12679961534922851 0.075073796793526271 0 0.1492815716532653 0.085445809678383625 0 0.13332649773741079 0.089989738391902788 0 0.123281054128593 0.11724462113534739 0 0.1185648575779607 0.095458187827811403 0 0.13865994636918871 0.10398115926788989 0 0.1185648575779607 0.095458187827811403 0 0.13332649773741079 0.089989738391902788 0 0.13865994636918871 0.10398115926788989 0 0.123281054128593 0.11724462113534739 0 0.13865994636918871 0.10398115926788989 0 0.13947052033133081 0.1245003570974072 0 0.13947052033133081 0.1245003570974072 0 0.15026369300765779 0.1129544164764977 0 0.16718880021878149 0.12232812864365609 0 0.13947052033133081 0.1245003570974072 0 0.16718880021878149 0.12232812864365609 0 0.13865994636918871 0.10398115926788989 0 0.13947052033133081 0.1245003570974072 0 0.15026369300765779 0.1129544164764977 0 0.1492815716532653 0.085445809678383625 0 0.13865994636918871 0.10398115926788989 0 0.15573550511132991 0.1010080208970377 0 0.13865994636918871 0.10398115926788989 0 0.15026369300765779 0.1129544164764977 0 0.15573550511132991 0.1010080208970377 0 0.15573550511132991 0.1010080208970377 0 0.17176352795730221 0.095817822563241214 0 0.16718880021878149 0.12232812864365609 0 0.17176352795730221 0.095817822563241214 0 0.16718880021878149 0.12232812864365609 0 0.1492815716532653 0.085445809678383625 0 0.15573550511132991 0.1010080208970377 0 0.17176352795730221 0.095817822563241214 0 0.15026369300765779 0.1129544164764977 0 0.15573550511132991 0.1010080208970377 0 0.16718880021878149 0.12232812864365609 0 0.16718880021878149 0.12232812864365609 0 0.18422746814952201 0.1154148446289336 0 0.17176352795730221 0.095817822563241214 0 0.16718880021878149 0.12232812864365609 0 0.18422746814952201 0.1154148446289336 0 0.19370351113240411 0.1202502215829211 0 0.16718880021878149 0.12232812864365609 0 0.19370351113240411 0.1202502215829211 0 0.16718880021878149 0.12232812864365609 0 0.18422746814952201 0.1154148446289336 0 0.17176352795730221 0.095817822563241214 0 0.18422746814952201 0.1154148446289336 0 0.1860496622757298 0.1024087067025775 0 0.17176352795730221 0.095817822563241214 0 0.1860496622757298 0.1024087067025775 0 0.17954517331912459 0.085943521096986275 0 0.17176352795730221 0.095817822563241214 0 0.1860496622757298 0.1024087067025775 0 0.2016134769563831 0.087296750559026068 0 0.17954517331912459 0.085943521096986275 0 0.17506687063626211 0.076675125879817507 0 0.17176352795730221 0.095817822563241214 0 0.17407526170850959 0.082421447341849294 0 0.17176352795730221 0.095817822563241214 0 0.17954517331912459 0.085943521096986275 0 0.17407526170850959 0.082421447341849294 0 0.17954517331912459 0.085943521096986275 0 0.17407526170850959 0.082421447341849294 0 0.17506687063626211 0.076675125879817507 0 0.17407526170850959 0.082421447341849294 0 0.17506687063626211 0.076675125879817507 0 0.17954517331912459 0.085943521096986275 0 0.17407526170850959 0.082421447341849294 0 0.17847747081927551 0.05691087761465332 0 0.17506687063626211 0.076675125879817507 0 0.19220101611619109 0.069455466931817506 0 0.17847747081927551 0.05691087761465332 0 0.17506687063626211 0.076675125879817507 0 0.17847747081927551 0.05691087761465332 0 0.17506687063626211 0.076675125879817507 0 0.16641746421004469 0.065589342706300277 0 0.17407526170850959 0.082421447341849294 0 0.17506687063626211 0.076675125879817507 0 0.16846263511482451 0.074032689774956653 0 0.15045482833334159 0.067212260357143019 0 0.16846263511482451 0.074032689774956653 0 0.16641746421004469 0.065589342706300277 0 0.17506687063626211 0.076675125879817507 0 0.16846263511482451 0.074032689774956653 0 0.16641746421004469 0.065589342706300277 0 0.15045482833334159 0.067212260357143019 0 0.17407526170850959 0.082421447341849294 0 0.16846263511482451 0.074032689774956653 0 0.17506687063626211 0.076675125879817507 0 0.16846263511482451 0.074032689774956653 0 0.15045482833334159 0.067212260357143019 0 0.17407526170850959 0.082421447341849294 0 0.1492815716532653 0.085445809678383625 0 0.17176352795730221 0.095817822563241214 0 0.1492815716532653 0.085445809678383625 0 0.17176352795730221 0.095817822563241214 0 0.17407526170850959 0.082421447341849294 0 0.15045482833334159 0.067212260357143019 0 0.1492815716532653 0.085445809678383625 0 0.17407526170850959 0.082421447341849294 0 0.094789198081262169 0.47221984895451657 0 0.09870107108427445 0.5 0 0.1248616532684987 0.47476888169724352 0 0.09870107108427445 0.5 0 0.1248616532684987 0.47476888169724352 0 0.1287333349596296 0.50000000000000233 0 0.1248616532684987 0.47476888169724352 0 0.1154926134483955 0.45328817880533262 0 0.094789198081262169 0.47221984895451657 0 0.1248616532684987 0.47476888169724352 0 0.1154926134483955 0.45328817880533262 0 0.1248616532684987 0.47476888169724352 0 0.1205619018159948 0.44674810255646558 0 0.1248616532684987 0.47476888169724352 0 0.1154926134483955 0.45328817880533262 0 0.1205619018159948 0.44674810255646558 0 0.1154926134483955 0.45328817880533262 0 0.106123573628292 0.43180747591342172 0 0.1154926134483955 0.45328817880533262 0 0.1205619018159948 0.44674810255646558 0 0.106123573628292 0.43180747591342172 0 0.1154926134483955 0.45328817880533262 0 0.096722182691352548 0.44869154901932268 0 0.106123573628292 0.43180747591342172 0 0.094789198081262169 0.47221984895451657 0 0.1154926134483955 0.45328817880533262 0 0.096722182691352548 0.44869154901932268 0 0.094789198081262169 0.47221984895451657 0 0.077453222292990773 0.45016302493177879 0 0.067202034968243438 0.47028323083424428 0 0.094789198081262169 0.47221984895451657 0 0.096722182691352548 0.44869154901932268 0 0.077453222292990773 0.45016302493177879 0 0.096722182691352548 0.44869154901932268 0 0.077453222292990773 0.45016302493177879 0 0.085233479690329184 0.42595657570789891 0 0.077453222292990773 0.45016302493177879 0 0.085233479690329184 0.42595657570789891 0 0.077453222292990773 0.45016302493177879 0 0.055846149836862702 0.43889490050586683 0 0.065639666334966471 0.42409002317344818 0 0.077453222292990773 0.45016302493177879 0 0.067202034968243438 0.47028323083424428 0 0.051776939420019832 0.45519588853091181 0 0.094789198081262169 0.47221984895451657 0 0.067202034968243438 0.47028323083424428 0 0.068668807208919325 0.5 0 0.094789198081262169 0.47221984895451657 0 0.09870107108427445 0.5 0 0.068668807208919325 0.5 0 0.068668807208919325 0.5 0 0.043814234576468783 0.4752156274217324 0 0.038636543333564137 0.5 0 0.067202034968243438 0.47028323083424428 0 0.068668807208919325 0.5 0 0.043814234576468783 0.4752156274217324 0 0.038636543333564137 0.5 0 0.0095498935665802413 0.47810272379952351 0 0.0086042794582089632 0.5 0 0.043814234576468783 0.4752156274217324 0 0.038636543333564137 0.5 0 0.0095498935665802413 0.47810272379952351 0 0.043814234576468783 0.4752156274217324 0 0.0095498935665802413 0.47810272379952351 0 0.02936257191825143 0.45548825099001988 0 -0.0044763741368290672 0.43313315307665529 0 0.006403582431216831 0.45126676372832991 0 0.01131617767293759 0.43066417693356068 0 0.006403582431216831 0.45126676372832991 0 0.024585063983693121 0.43937755350337049 0 0.01131617767293759 0.43066417693356068 0 -0.0062093312902834459 0.46527566221073008 0 0.0095498935665802413 0.47810272379952351 0 0.006403582431216831 0.45126676372832991 0 0.0095498935665802413 0.47810272379952351 0 0.006403582431216831 0.45126676372832991 0 0.02936257191825143 0.45548825099001988 0 0.02936257191825143 0.45548825099001988 0 0.024585063983693121 0.43937755350337049 0 0.039439570502417587 0.44016889882154447 0 0.006403582431216831 0.45126676372832991 0 0.02936257191825143 0.45548825099001988 0 0.024585063983693121 0.43937755350337049 0 0.02936257191825143 0.45548825099001988 0 0.039439570502417587 0.44016889882154447 0 0.051776939420019832 0.45519588853091181 0 0.043814234576468783 0.4752156274217324 0 0.02936257191825143 0.45548825099001988 0 0.051776939420019832 0.45519588853091181 0 0.067202034968243438 0.47028323083424428 0 0.043814234576468783 0.4752156274217324 0 0.051776939420019832 0.45519588853091181 0 0.039439570502417587 0.44016889882154447 0 0.051776939420019832 0.45519588853091181 0 0.055846149836862702 0.43889490050586683 0 0.077453222292990773 0.45016302493177879 0 0.051776939420019832 0.45519588853091181 0 0.055846149836862702 0.43889490050586683 0 0.055846149836862702 0.43889490050586683 0 0.044352211855280779 0.42435697566478181 0 0.065639666334966471 0.42409002317344818 0 0.054179592762823331 0.4124556941646933 0 0.065774511826563423 0.40583773171119408 0 0.065639666334966471 0.42409002317344818 0 0.054179592762823331 0.4124556941646933 0 0.044352211855280779 0.42435697566478181 0 0.042551786202842029 0.40583695196884878 0 0.054179592762823331 0.4124556941646933 0 0.044352211855280779 0.42435697566478181 0 0.065639666334966471 0.42409002317344818 0 0.054179592762823331 0.4124556941646933 0 0.052579787594463898 0.40215678830519391 0 0.065774511826563423 0.40583773171119408 0 0.054179592762823331 0.4124556941646933 0 0.042551786202842029 0.40583695196884878 0 0.052579787594463898 0.40215678830519391 0 0.031615607723292562 0.41237007764590089 0 0.044352211855280779 0.42435697566478181 0 0.042551786202842029 0.40583695196884878 0 0.031615607723292562 0.41237007764590089 0 0.044352211855280779 0.42435697566478181 0 0.029348552931666359 0.42650056435783129 0 0.039439570502417587 0.44016889882154447 0 0.055846149836862702 0.43889490050586683 0 0.044352211855280779 0.42435697566478181 0 0.039439570502417587 0.44016889882154447 0 0.044352211855280779 0.42435697566478181 0 0.029348552931666359 0.42650056435783129 0 0.024585063983693121 0.43937755350337049 0 0.039439570502417587 0.44016889882154447 0 0.029348552931666359 0.42650056435783129 0 0.024585063983693121 0.43937755350337049 0 0.029348552931666359 0.42650056435783129 0 0.01131617767293759 0.43066417693356068 0 0.029348552931666359 0.42650056435783129 0 0.019479081626689841 0.41692126840220728 0 0.01131617767293759 0.43066417693356068 0 0.031615607723292562 0.41237007764590089 0 0.029348552931666359 0.42650056435783129 0 0.019479081626689841 0.41692126840220728 0 0.031615607723292562 0.41237007764590089 0 0.019479081626689841 0.41692126840220728 0 0.02210553341445062 0.40298972327242938 0 0.019479081626689841 0.41692126840220728 0 0.0046995574085186929 0.41194005205042061 0 0.02210553341445062 0.40298972327242938 0 0.019479081626689841 0.41692126840220728 0 0.0046995574085186929 0.41194005205042061 0 0.01131617767293759 0.43066417693356068 0 -0.0044763741368290672 0.43313315307665529 0 0.0046995574085186929 0.41194005205042061 0 0.01131617767293759 0.43066417693356068 0 -0.0068648610501423502 0.39382000907293813 0 0.0053185270157129726 0.37689571945341471 0 0.0079727676898529512 0.39395805239723503 0 0.0053185270157129726 0.37689571945341471 0 0.0079727676898529512 0.39395805239723503 0 0.017055050774382831 0.3783760363496293 0 0.0053185270157129726 0.37689571945341471 0 0.017055050774382831 0.3783760363496293 0 0.014905446519761849 0.37011919055753012 0 -0.0068648610501423502 0.39382000907293813 0 0.0046995574085186929 0.41194005205042061 0 0.0079727676898529512 0.39395805239723503 0 0.0046995574085186929 0.41194005205042061 0 0.0079727676898529512 0.39395805239723503 0 0.02210553341445062 0.40298972327242938 0 0.0079727676898529512 0.39395805239723503 0 0.02210553341445062 0.40298972327242938 0 0.02735486101880703 0.39232044610694311 0 0.031615607723292562 0.41237007764590089 0 0.02210553341445062 0.40298972327242938 0 0.03492587150599015 0.39714318271575322 0 0.02210553341445062 0.40298972327242938 0 0.02735486101880703 0.39232044610694311 0 0.03492587150599015 0.39714318271575322 0 0.0079727676898529512 0.39395805239723503 0 0.02735486101880703 0.39232044610694311 0 0.033420514628485373 0.38302977191180709 0 0.017055050774382831 0.3783760363496293 0 0.033420514628485373 0.38302977191180709 0 0.023779055828078009 0.37097747554075361 0 0.0079727676898529512 0.39395805239723503 0 0.017055050774382831 0.3783760363496293 0 0.033420514628485373 0.38302977191180709 0 0.0079727676898529512 0.39395805239723503 0 0.033420514628485373 0.38302977191180709 0 0.02735486101880703 0.39232044610694311 0 0.032859848824407727 0.38560668074253002 0 0.033420514628485373 0.38302977191180709 0 0.02735486101880703 0.39232044610694311 0 0.032859848824407727 0.38560668074253002 0 0.032844630049655758 0.3911952656019041 0 0.033420514628485373 0.38302977191180709 0 0.040531910439000007 0.38820627445006711 0 0.055078026168592691 0.37372917012189599 0 0.033420514628485373 0.38302977191180709 0 0.055078026168592691 0.37372917012189599 0 0.032859848824407727 0.38560668074253002 0 0.033420514628485373 0.38302977191180709 0 0.032859848824407727 0.38560668074253002 0 0.040531910439000007 0.38820627445006711 0 0.032844630049655758 0.3911952656019041 0 0.032859848824407727 0.38560668074253002 0 0.033420514628485373 0.38302977191180709 0 0.040531910439000007 0.38820627445006711 0 0.031615607723292562 0.41237007764590089 0 0.03492587150599015 0.39714318271575322 0 0.042551786202842029 0.40583695196884878 0 0.040531910439000007 0.38820627445006711 0 0.03492587150599015 0.39714318271575322 0 0.032844630049655758 0.3911952656019041 0 0.02735486101880703 0.39232044610694311 0 0.03492587150599015 0.39714318271575322 0 0.032844630049655758 0.3911952656019041 0 0.040531910439000007 0.38820627445006711 0 0.03492587150599015 0.39714318271575322 0 0.044409534997012647 0.39663533348309749 0 0.040531910439000007 0.38820627445006711 0 0.044409534997012647 0.39663533348309749 0 0.05145831924276717 0.38983346997562462 0 0.044409534997012647 0.39663533348309749 0 0.042551786202842029 0.40583695196884878 0 0.052579787594463898 0.40215678830519391 0 0.03492587150599015 0.39714318271575322 0 0.044409534997012647 0.39663533348309749 0 0.042551786202842029 0.40583695196884878 0 0.052579787594463898 0.40215678830519391 0 0.065929237187869999 0.38841376689227869 0 0.065774511826563423 0.40583773171119408 0 0.044409534997012647 0.39663533348309749 0 0.052579787594463898 0.40215678830519391 0 0.05145831924276717 0.38983346997562462 0 0.052579787594463898 0.40215678830519391 0 0.05145831924276717 0.38983346997562462 0 0.065929237187869999 0.38841376689227869 0 0.05145831924276717 0.38983346997562462 0 0.065929237187869999 0.38841376689227869 0 0.055078026168592691 0.37372917012189599 0 0.040531910439000007 0.38820627445006711 0 0.05145831924276717 0.38983346997562462 0 0.055078026168592691 0.37372917012189599 0 0.065929237187869999 0.38841376689227869 0 0.07065435961583541 0.37741521318853999 0 0.055078026168592691 0.37372917012189599 0 0.065929237187869999 0.38841376689227869 0 0.07065435961583541 0.37741521318853999 0 0.084874637398179506 0.3830893474080016 0 0.065929237187869999 0.38841376689227869 0 0.084874637398179506 0.3830893474080016 0 0.078183007061163587 0.39730645121706609 0 0.084874637398179506 0.3830893474080016 0 0.09301373708766289 0.40175012648401748 0 0.1017514530376761 0.37456476915266362 0 0.084874637398179506 0.3830893474080016 0 0.1017514530376761 0.37456476915266362 0 0.089894590955766338 0.37016501712229671 0 0.084874637398179506 0.3830893474080016 0 0.09301373708766289 0.40175012648401748 0 0.084874637398179506 0.3830893474080016 0 0.09301373708766289 0.40175012648401748 0 0.078183007061163587 0.39730645121706609 0 0.09301373708766289 0.40175012648401748 0 0.078183007061163587 0.39730645121706609 0 0.0779125114683729 0.4107996813321716 0 0.065929237187869999 0.38841376689227869 0 0.078183007061163587 0.39730645121706609 0 0.065774511826563423 0.40583773171119408 0 0.078183007061163587 0.39730645121706609 0 0.065774511826563423 0.40583773171119408 0 0.0779125114683729 0.4107996813321716 0 0.065774511826563423 0.40583773171119408 0 0.0779125114683729 0.4107996813321716 0 0.065639666334966471 0.42409002317344818 0 0.0779125114683729 0.4107996813321716 0 0.065639666334966471 0.42409002317344818 0 0.085233479690329184 0.42595657570789891 0 0.077453222292990773 0.45016302493177879 0 0.065639666334966471 0.42409002317344818 0 0.085233479690329184 0.42595657570789891 0 0.09301373708766289 0.40175012648401748 0 0.085233479690329184 0.42595657570789891 0 0.09301373708766289 0.40175012648401748 0 0.0779125114683729 0.4107996813321716 0 0.085233479690329184 0.42595657570789891 0 0.09301373708766289 0.40175012648401748 0 0.085233479690329184 0.42595657570789891 0 0.096641093798834857 0.4103746730739769 0 0.096641093798834857 0.4103746730739769 0 0.106123573628292 0.43180747591342172 0 0.096641093798834857 0.4103746730739769 0 0.1162621503634904 0.41872732341568758 0 0.11303311796937431 0.39768424579749467 0 0.096641093798834857 0.4103746730739769 0 0.106123573628292 0.43180747591342172 0 0.1162621503634904 0.41872732341568758 0 0.096641093798834857 0.4103746730739769 0 0.1162621503634904 0.41872732341568758 0 0.085233479690329184 0.42595657570789891 0 0.096641093798834857 0.4103746730739769 0 0.106123573628292 0.43180747591342172 0 0.096722182691352548 0.44869154901932268 0 0.085233479690329184 0.42595657570789891 0 0.106123573628292 0.43180747591342172 0 0.1205619018159948 0.44674810255646558 0 0.1162621503634904 0.41872732341568758 0 0.1205619018159948 0.44674810255646558 0 0.106123573628292 0.43180747591342172 0 0.1162621503634904 0.41872732341568758 0 0.1162621503634904 0.41872732341568758 0 0.11303311796937431 0.39768424579749467 0 0.11303311796937431 0.39768424579749467 0 0.1231373165426977 0.3806134049577457 0 0.1271742827044339 0.39597619803598749 0 0.1162621503634904 0.41872732341568758 0 0.11303311796937431 0.39768424579749467 0 0.1271742827044339 0.39597619803598749 0 0.11303311796937431 0.39768424579749467 0 0.1098040855752573 0.37664116817930182 0 0.11303311796937431 0.39768424579749467 0 0.1098040855752573 0.37664116817930182 0 0.1231373165426977 0.3806134049577457 0 0.09301373708766289 0.40175012648401748 0 0.10162794664532369 0.38287681265592 0 0.1017514530376761 0.37456476915266362 0 0.11303311796937431 0.39768424579749467 0 0.1098040855752573 0.37664116817930182 0 0.10162794664532369 0.38287681265592 0 0.09301373708766289 0.40175012648401748 0 0.1017514530376761 0.37456476915266362 0 0.09301373708766289 0.40175012648401748 0 0.096641093798834857 0.4103746730739769 0 0.10162794664532369 0.38287681265592 0 0.096641093798834857 0.4103746730739769 0 0.10162794664532369 0.38287681265592 0 0.096641093798834857 0.4103746730739769 0 0.11303311796937431 0.39768424579749467 0 0.10162794664532369 0.38287681265592 0 0.09301373708766289 0.40175012648401748 0 0.096641093798834857 0.4103746730739769 0 0.10657505318114149 0.3555980905611088 0 0.1040837309638282 0.33936254988137232 0 0.10657505318114149 0.3555980905611088 0 0.096269577202366938 0.34885221845001108 0 0.090674694454237537 0.35844253683721511 0 0.10657505318114149 0.3555980905611088 0 0.1081370103155585 0.34698533999968961 0 0.1040837309638282 0.33936254988137232 0 0.10657505318114149 0.3555980905611088 0 0.096269577202366938 0.34885221845001108 0 0.1040837309638282 0.33936254988137232 0 0.10657505318114149 0.3555980905611088 0 0.1081370103155585 0.34698533999968961 0 0.1081370103155585 0.34698533999968961 0 0.1105857944332822 0.35159063999376577 0 0.10657505318114149 0.3555980905611088 0 0.1081370103155585 0.34698533999968961 0 0.1105857944332822 0.35159063999376577 0 0.10657505318114149 0.3555980905611088 0 0.097223947907205094 0.36469260341832099 0 0.090674694454237537 0.35844253683721511 0 0.1098040855752573 0.37664116817930182 0 0.10657505318114149 0.3555980905611088 0 0.1098040855752573 0.37664116817930182 0 0.10162794664532369 0.38287681265592 0 0.10657505318114149 0.3555980905611088 0 0.10657505318114149 0.3555980905611088 0 0.097223947907205094 0.36469260341832099 0 0.1017514530376761 0.37456476915266362 0 0.10162794664532369 0.38287681265592 0 0.10657505318114149 0.3555980905611088 0 0.10162794664532369 0.38287681265592 0 0.10657505318114149 0.3555980905611088 0 0.1017514530376761 0.37456476915266362 0 0.097223947907205094 0.36469260341832099 0 0.1017514530376761 0.37456476915266362 0 0.089894590955766338 0.37016501712229671 0 0.1231373165426977 0.3806134049577457 0 0.1176766025370503 0.36283148293627721 0 0.13271547193899449 0.36524458735671972 0 0.1098040855752573 0.37664116817930182 0 0.10657505318114149 0.3555980905611088 0 0.1176766025370503 0.36283148293627721 0 0.1098040855752573 0.37664116817930182 0 0.1231373165426977 0.3806134049577457 0 0.1176766025370503 0.36283148293627721 0 0.1176766025370503 0.36283148293627721 0 0.1232256624926347 0.35239419723674059 0 0.13271547193899449 0.36524458735671972 0 0.10657505318114149 0.3555980905611088 0 0.1176766025370503 0.36283148293627721 0 0.1105857944332822 0.35159063999376577 0 0.1176766025370503 0.36283148293627721 0 0.1232256624926347 0.35239419723674059 0 0.1105857944332822 0.35159063999376577 0 0.1081370103155585 0.34698533999968961 0 0.1105857944332822 0.35159063999376577 0 0.1168368962248217 0.34531303274388031 0 0.1232256624926347 0.35239419723674059 0 0.1105857944332822 0.35159063999376577 0 0.1168368962248217 0.34531303274388031 0 0.1232256624926347 0.35239419723674059 0 0.1168368962248217 0.34531303274388031 0 0.1260676383484185 0.3399282146226113 0 0.1081370103155585 0.34698533999968961 0 0.1173014636805894 0.33730338313169689 0 0.1117137236550247 0.32726307032677399 0 0.1081370103155585 0.34698533999968961 0 0.1117137236550247 0.32726307032677399 0 0.1168368962248217 0.34531303274388031 0 0.1173014636805894 0.33730338313169689 0 0.1260676383484185 0.3399282146226113 0 0.1173014636805894 0.33730338313169689 0 0.12375204985912221 0.32702725796552912 0 0.1260676383484185 0.3399282146226113 0 0.1173014636805894 0.33730338313169689 0 0.12375204985912221 0.32702725796552912 0 0.1117137236550247 0.32726307032677399 0 0.1081370103155585 0.34698533999968961 0 0.1168368962248217 0.34531303274388031 0 0.1173014636805894 0.33730338313169689 0 0.1117137236550247 0.32726307032677399 0 0.11529043699448981 0.30754080065385803 0 0.1117137236550247 0.32726307032677399 0 0.1095765413243488 0.31862098055757049 0 0.11529043699448981 0.30754080065385803 0 0.1214195525311879 0.31440901896845502 0 0.1117137236550247 0.32726307032677399 0 0.11529043699448981 0.30754080065385803 0 0.1214195525311879 0.31440901896845502 0 0.12375204985912221 0.32702725796552912 0 0.12817088130983889 0.317450689473041 0 0.1214195525311879 0.31440901896845502 0 0.12375204985912221 0.32702725796552912 0 0.1117137236550247 0.32726307032677399 0 0.1040837309638282 0.33936254988137232 0 0.090103400857782137 0.31307047550514489 0 0.1040837309638282 0.33936254988137232 0 0.1025673515982234 0.32948055280164651 0 0.090103400857782137 0.31307047550514489 0 0.10278173829001019 0.3206216626476312 0 0.1025673515982234 0.32948055280164651 0 0.090103400857782137 0.31307047550514489 0 0.1095765413243488 0.31862098055757049 0 0.10278173829001019 0.3206216626476312 0 0.099947674014671917 0.31467323404701991 0 0.1095765413243488 0.31862098055757049 0 0.099947674014671917 0.31467323404701991 0 0.09732687347400408 0.30507295899279041 0 0.1117137236550247 0.32726307032677399 0 0.1095765413243488 0.31862098055757049 0 0.10278173829001019 0.3206216626476312 0 0.1117137236550247 0.32726307032677399 0 0.10278173829001019 0.3206216626476312 0 0.1025673515982234 0.32948055280164651 0 0.10278173829001019 0.3206216626476312 0 0.099947674014671917 0.31467323404701991 0 0.090103400857782137 0.31307047550514489 0 0.096269577202366938 0.34885221845001108 0 0.1040837309638282 0.33936254988137232 0 0.085896102217652828 0.34083244099607402 0 0.1081370103155585 0.34698533999968961 0 0.1117137236550247 0.32726307032677399 0 0.1040837309638282 0.33936254988137232 0 0.1081370103155585 0.34698533999968961 0 0.1040837309638282 0.33936254988137232 0 0.1117137236550247 0.32726307032677399 0 0.1040837309638282 0.33936254988137232 0 0.1025673515982234 0.32948055280164651 0 0.1040837309638282 0.33936254988137232 0 0.1025673515982234 0.32948055280164651 0 0.1040837309638282 0.33936254988137232 0 0.085896102217652828 0.34083244099607402 0 0.090103400857782137 0.31307047550514489 0 0.085896102217652828 0.34083244099607402 0 0.090103400857782137 0.31307047550514489 0 0.073944851781294785 0.32640562720437011 0 0.073944851781294785 0.32640562720437011 0 0.05926959110604698 0.32438382341666039 0 0.066452600317618793 0.30933520022964911 0 0.090103400857782137 0.31307047550514489 0 0.073944851781294785 0.32640562720437011 0 0.066452600317618793 0.30933520022964911 0 0.068002564407373206 0.3444061958743222 0 0.05926959110604698 0.32438382341666039 0 0.085896102217652828 0.34083244099607402 0 0.073944851781294785 0.32640562720437011 0 0.068002564407373206 0.3444061958743222 0 0.073944851781294785 0.32640562720437011 0 0.068002564407373206 0.3444061958743222 0 0.05926959110604698 0.32438382341666039 0 0.068002564407373206 0.3444061958743222 0 0.081709153938225559 0.35166937446406898 0 0.076735537708699481 0.364428568331984 0 0.068002564407373206 0.3444061958743222 0 0.076735537708699481 0.364428568331984 0 0.068002564407373206 0.3444061958743222 0 0.076735537708699481 0.364428568331984 0 0.058880509289504487 0.35752542115937253 0 0.085896102217652828 0.34083244099607402 0 0.068002564407373206 0.3444061958743222 0 0.081709153938225559 0.35166937446406898 0 0.081709153938225559 0.35166937446406898 0 0.090674694454237537 0.35844253683721511 0 0.076735537708699481 0.364428568331984 0 0.096269577202366938 0.34885221845001108 0 0.081709153938225559 0.35166937446406898 0 0.090674694454237537 0.35844253683721511 0 0.096269577202366938 0.34885221845001108 0 0.085896102217652828 0.34083244099607402 0 0.081709153938225559 0.35166937446406898 0 0.084874637398179506 0.3830893474080016 0 0.089894590955766338 0.37016501712229671 0 0.076735537708699481 0.364428568331984 0 0.084874637398179506 0.3830893474080016 0 0.076735537708699481 0.364428568331984 0 0.097223947907205094 0.36469260341832099 0 0.090674694454237537 0.35844253683721511 0 0.089894590955766338 0.37016501712229671 0 0.090674694454237537 0.35844253683721511 0 0.089894590955766338 0.37016501712229671 0 0.076735537708699481 0.364428568331984 0 0.090674694454237537 0.35844253683721511 0 0.076735537708699481 0.364428568331984 0 0.076735537708699481 0.364428568331984 0 0.055078026168592691 0.37372917012189599 0 0.058880509289504487 0.35752542115937253 0 0.07065435961583541 0.37741521318853999 0 0.084874637398179506 0.3830893474080016 0 0.076735537708699481 0.364428568331984 0 0.07065435961583541 0.37741521318853999 0 0.076735537708699481 0.364428568331984 0 0.055078026168592691 0.37372917012189599 0 0.076735537708699481 0.364428568331984 0 0.055078026168592691 0.37372917012189599 0 0.055078026168592691 0.37372917012189599 0 0.058880509289504487 0.35752542115937253 0 0.039125882353897343 0.35680699826087081 0 0.068002564407373206 0.3444061958743222 0 0.058880509289504487 0.35752542115937253 0 0.05148455776782021 0.34576385860545072 0 0.058880509289504487 0.35752542115937253 0 0.05148455776782021 0.34576385860545072 0 0.039125882353897343 0.35680699826087081 0 0.039125882353897343 0.35680699826087081 0 0.031548662582759998 0.36398682567210089 0 0.025752053585936779 0.33511492304397028 0 0.05148455776782021 0.34576385860545072 0 0.039125882353897343 0.35680699826087081 0 0.044831250079309708 0.3305842246099347 0 0.033420514628485373 0.38302977191180709 0 0.039125882353897343 0.35680699826087081 0 0.031548662582759998 0.36398682567210089 0 0.033420514628485373 0.38302977191180709 0 0.055078026168592691 0.37372917012189599 0 0.039125882353897343 0.35680699826087081 0 0.033420514628485373 0.38302977191180709 0 0.039125882353897343 0.35680699826087081 0 0.033420514628485373 0.38302977191180709 0 0.031548662582759998 0.36398682567210089 0 0.023779055828078009 0.37097747554075361 0 0.017055050774382831 0.3783760363496293 0 0.023779055828078009 0.37097747554075361 0 0.014905446519761849 0.37011919055753012 0 0.023779055828078009 0.37097747554075361 0 0.019349684376360511 0.36318206543595072 0 0.014905446519761849 0.37011919055753012 0 0.031548662582759998 0.36398682567210089 0 0.019349684376360511 0.36318206543595072 0 0.019690074755218789 0.35178644121934483 0 0.031548662582759998 0.36398682567210089 0 0.023779055828078009 0.37097747554075361 0 0.019349684376360511 0.36318206543595072 0 0.031548662582759998 0.36398682567210089 0 0.025752053585936779 0.33511492304397028 0 0.031548662582759998 0.36398682567210089 0 0.019690074755218789 0.35178644121934483 0 0.025752053585936779 0.33511492304397028 0 0.019349684376360511 0.36318206543595072 0 0.019690074755218789 0.35178644121934483 0 0.0119730942360182 0.35563939605115702 0 0.0119730942360182 0.35563939605115702 0 0.0038095970876644218 0.35606187191015221 0 0.0077169544749549623 0.36306791211952738 0 -0.0077202170519437719 0.34710906184019069 0 0.0082446038140756572 0.34376242611402219 0 0.0038095970876644218 0.35606187191015221 0 0.0119730942360182 0.35563939605115702 0 0.0082446038140756572 0.34376242611402219 0 0.0038095970876644218 0.35606187191015221 0 0.019690074755218789 0.35178644121934483 0 0.0119730942360182 0.35563939605115702 0 0.0082446038140756572 0.34376242611402219 0 -0.0045677851665312944 0.36532665559408428 0 0.0038095970876644218 0.35606187191015221 0 0.0077169544749549623 0.36306791211952738 0 -0.0087141207398781558 0.37710904293520409 0 0.0053185270157129726 0.37689571945341471 0 0.0077169544749549623 0.36306791211952738 0 0.0053185270157129726 0.37689571945341471 0 0.0077169544749549623 0.36306791211952738 0 0.014905446519761849 0.37011919055753012 0 0.019349684376360511 0.36318206543595072 0 0.0077169544749549623 0.36306791211952738 0 0.014905446519761849 0.37011919055753012 0 0.019349684376360511 0.36318206543595072 0 0.0119730942360182 0.35563939605115702 0 0.0077169544749549623 0.36306791211952738 0 -0.009249588209606344 0.30814111102660002 0 0.0094307060340404689 0.32376070079746733 0 0.01995544458911469 0.30624302041583928 0 -0.005758602284471958 0.33512988219008361 0 0.0082446038140756572 0.34376242611402219 0 0.0094307060340404689 0.32376070079746733 0 0.0082446038140756572 0.34376242611402219 0 0.0094307060340404689 0.32376070079746733 0 0.025752053585936779 0.33511492304397028 0 0.019690074755218789 0.35178644121934483 0 0.0082446038140756572 0.34376242611402219 0 0.025752053585936779 0.33511492304397028 0 0.025752053585936779 0.33511492304397028 0 0.01995544458911469 0.30624302041583928 0 0.025752053585936779 0.33511492304397028 0 0.034898059553693392 0.31581284699138767 0 0.01995544458911469 0.30624302041583928 0 0.0094307060340404689 0.32376070079746733 0 0.025752053585936779 0.33511492304397028 0 0.01995544458911469 0.30624302041583928 0 0.034898059553693392 0.31581284699138767 0 0.044831250079309708 0.3305842246099347 0 0.05053661780472133 0.30436145095899841 0 0.025752053585936779 0.33511492304397028 0 0.034898059553693392 0.31581284699138767 0 0.044831250079309708 0.3305842246099347 0 0.039125882353897343 0.35680699826087081 0 0.025752053585936779 0.33511492304397028 0 0.044831250079309708 0.3305842246099347 0 0.039125882353897343 0.35680699826087081 0 0.044831250079309708 0.3305842246099347 0 0.068002564407373206 0.3444061958743222 0 0.05148455776782021 0.34576385860545072 0 0.05926959110604698 0.32438382341666039 0 0.05148455776782021 0.34576385860545072 0 0.044831250079309708 0.3305842246099347 0 0.05926959110604698 0.32438382341666039 0 0.044831250079309708 0.3305842246099347 0 0.05053661780472133 0.30436145095899841 0 0.044831250079309708 0.3305842246099347 0 0.05926959110604698 0.32438382341666039 0 0.05053661780472133 0.30436145095899841 0 0.05926959110604698 0.32438382341666039 0 0.05053661780472133 0.30436145095899841 0 0.05926959110604698 0.32438382341666039 0 0.05053661780472133 0.30436145095899841 0 0.066452600317618793 0.30933520022964911 0 0.059204269303370749 0.30137448027593422 0 0.05053661780472133 0.30436145095899841 0 0.066452600317618793 0.30933520022964911 0 0.04765756321016474 0.29776054867416191 0 0.05053661780472133 0.30436145095899841 0 0.052561166870736087 0.29505630281458828 0 0.059204269303370749 0.30137448027593422 0 0.05053661780472133 0.30436145095899841 0 0.052561166870736087 0.29505630281458828 0 0.05053661780472133 0.30436145095899841 0 0.052561166870736087 0.29505630281458828 0 0.04765756321016474 0.29776054867416191 0 0.05053661780472133 0.30436145095899841 0 0.052561166870736087 0.29505630281458828 0 0.036977033779240318 0.28312664447104818 0 0.062988366650143207 0.29302398426469728 0 0.036977033779240318 0.28312664447104818 0 0.048149862160842181 0.27985089866820428 0 0.062988366650143207 0.29302398426469728 0 0.036977033779240318 0.28312664447104818 0 0.062988366650143207 0.29302398426469728 0 0.048149862160842181 0.27985089866820428 0 0.054778979573680928 0.27715841955607551 0 0.062988366650143207 0.29302398426469728 0 0.059204269303370749 0.30137448027593422 0 0.052561166870736087 0.29505630281458828 0 0.062988366650143207 0.29302398426469728 0 0.04765756321016474 0.29776054867416191 0 0.036186098738389023 0.29603891009636157 0 0.036977033779240318 0.28312664447104818 0 0.04765756321016474 0.29776054867416191 0 0.052561166870736087 0.29505630281458828 0 0.036977033779240318 0.28312664447104818 0 0.036186098738389023 0.29603891009636157 0 0.036977033779240318 0.28312664447104818 0 0.027757552790527541 0.29644954410470781 0 0.034898059553693392 0.31581284699138767 0 0.05053661780472133 0.30436145095899841 0 0.039754971674175903 0.30430037111620312 0 0.04765756321016474 0.29776054867416191 0 0.05053661780472133 0.30436145095899841 0 0.039754971674175903 0.30430037111620312 0 0.04765756321016474 0.29776054867416191 0 0.036186098738389023 0.29603891009636157 0 0.039754971674175903 0.30430037111620312 0 0.036186098738389023 0.29603891009636157 0 0.039754971674175903 0.30430037111620312 0 0.028740536311392211 0.30567206060121932 0 0.034898059553693392 0.31581284699138767 0 0.039754971674175903 0.30430037111620312 0 0.028740536311392211 0.30567206060121932 0 0.034898059553693392 0.31581284699138767 0 0.028740536311392211 0.30567206060121932 0 0.01995544458911469 0.30624302041583928 0 0.028740536311392211 0.30567206060121932 0 0.01995544458911469 0.30624302041583928 0 0.01995544458911469 0.30624302041583928 0 0.027757552790527541 0.29644954410470781 0 0.016928650534501429 0.29116708493907051 0 0.01995544458911469 0.30624302041583928 0 0.016928650534501429 0.29116708493907051 0 0.036186098738389023 0.29603891009636157 0 0.028740536311392211 0.30567206060121932 0 0.027757552790527541 0.29644954410470781 0 0.028740536311392211 0.30567206060121932 0 0.01995544458911469 0.30624302041583928 0 0.027757552790527541 0.29644954410470781 0 0.036977033779240318 0.28312664447104818 0 0.016928650534501429 0.29116708493907051 0 0.013901856479889301 0.2760911494623014 0 0.036977033779240318 0.28312664447104818 0 0.027757552790527541 0.29644954410470781 0 0.016928650534501429 0.29116708493907051 0 0.016928650534501429 0.29116708493907051 0 0.0075090435902615098 0.27971283806045072 0 0.013901856479889301 0.2760911494623014 0 0.016928650534501429 0.29116708493907051 0 0.013901856479889301 0.2760911494623014 0 0.016928650534501429 0.29116708493907051 0 0.002380999114604244 0.28599596302517022 0 0.0075090435902615098 0.27971283806045072 0 0.016928650534501429 0.29116708493907051 0 0.002380999114604244 0.28599596302517022 0 0.0038021096493471361 0.29689124930627131 0 0.01995544458911469 0.30624302041583928 0 0.016928650534501429 0.29116708493907051 0 0.0038021096493471361 0.29689124930627131 0 -0.009249588209606344 0.30814111102660002 0 0.01995544458911469 0.30624302041583928 0 -0.009249588209606344 0.30814111102660002 0 0.01995544458911469 0.30624302041583928 0 0.0038021096493471361 0.29689124930627131 0 0.012944211518790589 0.24639919126045251 0 0.001894876929373096 0.24743045501984201 0 0.027350481215018482 0.26092432701142793 0 0.001894876929373096 0.24743045501984201 0 0.01235577794179212 0.26160751525750708 0 0.027350481215018482 0.26092432701142793 0 0.001894876929373096 0.24743045501984201 0 0.027350481215018482 0.26092432701142793 0 0.01235577794179212 0.26160751525750708 0 0.0066431973405819862 0.26423936680728111 0 0.01332705073189009 0.26743114199411 0 0.001894876929373096 0.24743045501984201 0 0.01235577794179212 0.26160751525750708 0 0.0027594708259384838 0.25829047161104352 0 0.01235577794179212 0.26160751525750708 0 0.0027594708259384838 0.25829047161104352 0 0.0066431973405819862 0.26423936680728111 0 -0.00067809962666212902 0.26216505597133072 0 0.0027594708259384838 0.25829047161104352 0 0.0066431973405819862 0.26423936680728111 0 -0.00067809962666212902 0.26216505597133072 0 0.0066431973405819862 0.26423936680728111 0 0.010965700908337589 0.27322930467739909 0 -0.001267499687089951 0.2776013217203892 0 0.0075090435902615098 0.27971283806045072 0 0.010965700908337589 0.27322930467739909 0 -0.001267499687089951 0.2776013217203892 0 0.002380999114604244 0.28599596302517022 0 0.0075090435902615098 0.27971283806045072 0 0.0075090435902615098 0.27971283806045072 0 0.013901856479889301 0.2760911494623014 0 0.010965700908337589 0.27322930467739909 0 0.010965700908337589 0.27322930467739909 0 0.01332705073189009 0.26743114199411 0 0.022419763759722669 0.26962443384228668 0 0.0066431973405819862 0.26423936680728111 0 0.010965700908337589 0.27322930467739909 0 0.01332705073189009 0.26743114199411 0 0.036977033779240318 0.28312664447104818 0 0.010965700908337589 0.27322930467739909 0 0.022419763759722669 0.26962443384228668 0 0.01235577794179212 0.26160751525750708 0 0.01332705073189009 0.26743114199411 0 0.022419763759722669 0.26962443384228668 0 0.036977033779240318 0.28312664447104818 0 0.013901856479889301 0.2760911494623014 0 0.010965700908337589 0.27322930467739909 0 0.036977033779240318 0.28312664447104818 0 0.010965700908337589 0.27322930467739909 0 0.036977033779240318 0.28312664447104818 0 0.022419763759722669 0.26962443384228668 0 0.032397819765571212 0.27218151163944088 0 0.022419763759722669 0.26962443384228668 0 0.027350481215018482 0.26092432701142793 0 0.032397819765571212 0.27218151163944088 0 0.018629400856135309 0.24429501886194191 0 0.012944211518790589 0.24639919126045251 0 0.027350481215018482 0.26092432701142793 0 0.018629400856135309 0.24429501886194191 0 0.027350481215018482 0.26092432701142793 0 0.02692674034290404 0.25134916217479408 0 0.01235577794179212 0.26160751525750708 0 0.022419763759722669 0.26962443384228668 0 0.027350481215018482 0.26092432701142793 0 0.027350481215018482 0.26092432701142793 0 0.02692674034290404 0.25134916217479408 0 0.036501911092354018 0.25177276941539839 0 0.027350481215018482 0.26092432701142793 0 0.036501911092354018 0.25177276941539839 0 0.052806085500663583 0.27441819900301412 0 0.036501911092354018 0.25177276941539839 0 0.052806085500663583 0.27441819900301412 0 0.027350481215018482 0.26092432701142793 0 0.039536256484267153 0.27410031615862712 0 0.052806085500663583 0.27441819900301412 0 0.027350481215018482 0.26092432701142793 0 0.052806085500663583 0.27441819900301412 0 0.036977033779240318 0.28312664447104818 0 0.032397819765571212 0.27218151163944088 0 0.039536256484267153 0.27410031615862712 0 0.027350481215018482 0.26092432701142793 0 0.032397819765571212 0.27218151163944088 0 0.039536256484267153 0.27410031615862712 0 0.039536256484267153 0.27410031615862712 0 0.048149862160842181 0.27985089866820428 0 0.052806085500663583 0.27441819900301412 0 0.036977033779240318 0.28312664447104818 0 0.039536256484267153 0.27410031615862712 0 0.048149862160842181 0.27985089866820428 0 0.052806085500663583 0.27441819900301412 0 0.051790667069154861 0.2547103276228454 0 0.069466372585565969 0.27425949764399721 0 0.052806085500663583 0.27441819900301412 0 0.054778979573680928 0.27715841955607551 0 0.076123070751733898 0.28677840112891878 0 0.048149862160842181 0.27985089866820428 0 0.052806085500663583 0.27441819900301412 0 0.054778979573680928 0.27715841955607551 0 0.052806085500663583 0.27441819900301412 0 0.054778979573680928 0.27715841955607551 0 0.051790667069154861 0.2547103276228454 0 0.069466372585565969 0.27425949764399721 0 0.036501911092354018 0.25177276941539839 0 0.052806085500663583 0.27441819900301412 0 0.051790667069154861 0.2547103276228454 0 0.051790667069154861 0.2547103276228454 0 0.062472563593505302 0.26110660749064829 0 0.069466372585565969 0.27425949764399721 0 0.051790667069154861 0.2547103276228454 0 0.062472563593505302 0.26110660749064829 0 0.063392491700480919 0.2510828642249095 0 0.07090317009537217 0.25886987532900169 0 0.089645379702363526 0.25980927980688501 0 0.066829182329119829 0.26693814307945207 0 0.063392491700480919 0.2510828642249095 0 0.07090317009537217 0.25886987532900169 0 0.074261774750864804 0.25289133929391111 0 0.062472563593505302 0.26110660749064829 0 0.063392491700480919 0.2510828642249095 0 0.07090317009537217 0.25886987532900169 0 0.062472563593505302 0.26110660749064829 0 0.07090317009537217 0.25886987532900169 0 0.066829182329119829 0.26693814307945207 0 0.07090317009537217 0.25886987532900169 0 0.074261774750864804 0.25289133929391111 0 0.089645379702363526 0.25980927980688501 0 0.072073934872957782 0.23900016577853919 0 0.074261774750864804 0.25289133929391111 0 0.089645379702363526 0.25980927980688501 0 0.089645379702363526 0.25980927980688501 0 0.066829182329119829 0.26693814307945207 0 0.089645379702363526 0.25980927980688501 0 0.084738505220855201 0.27427167124983992 0 0.066829182329119829 0.26693814307945207 0 0.084738505220855201 0.27427167124983992 0 0.069466372585565969 0.27425949764399721 0 0.085077205623658711 0.29152493742801078 0 0.084738505220855201 0.27427167124983992 0 0.095910340366493346 0.28464594086445177 0 0.099818528257267281 0.27185690653089678 0 0.089645379702363526 0.25980927980688501 0 0.084738505220855201 0.27427167124983992 0 0.099818528257267281 0.27185690653089678 0 0.084738505220855201 0.27427167124983992 0 0.066829182329119829 0.26693814307945207 0 0.069466372585565969 0.27425949764399721 0 0.052806085500663583 0.27441819900301412 0 0.069466372585565969 0.27425949764399721 0 0.076123070751733898 0.28677840112891878 0 0.052806085500663583 0.27441819900301412 0 0.076123070751733898 0.28677840112891878 0 0.069466372585565969 0.27425949764399721 0 0.076123070751733898 0.28677840112891878 0 0.062472563593505302 0.26110660749064829 0 0.069466372585565969 0.27425949764399721 0 0.062472563593505302 0.26110660749064829 0 0.066829182329119829 0.26693814307945207 0 0.069466372585565969 0.27425949764399721 0 0.069466372585565969 0.27425949764399721 0 0.085077205623658711 0.29152493742801078 0 0.069466372585565969 0.27425949764399721 0 0.076123070751733898 0.28677840112891878 0 0.085077205623658711 0.29152493742801078 0 0.062988366650143207 0.29302398426469728 0 0.076123070751733898 0.28677840112891878 0 0.066452600317618793 0.30933520022964911 0 0.054778979573680928 0.27715841955607551 0 0.062988366650143207 0.29302398426469728 0 0.076123070751733898 0.28677840112891878 0 0.090103400857782137 0.31307047550514489 0 0.076123070751733898 0.28677840112891878 0 0.066452600317618793 0.30933520022964911 0 0.059204269303370749 0.30137448027593422 0 0.062988366650143207 0.29302398426469728 0 0.066452600317618793 0.30933520022964911 0 0.090103400857782137 0.31307047550514489 0 0.076123070751733898 0.28677840112891878 0 0.085077205623658711 0.29152493742801078 0 0.090103400857782137 0.31307047550514489 0 0.076123070751733898 0.28677840112891878 0 0.090103400857782137 0.31307047550514489 0 0.085077205623658711 0.29152493742801078 0 0.09732687347400408 0.30507295899279041 0 0.085077205623658711 0.29152493742801078 0 0.09732687347400408 0.30507295899279041 0 0.084738505220855201 0.27427167124983992 0 0.085077205623658711 0.29152493742801078 0 0.095910340366493346 0.28464594086445177 0 0.076123070751733898 0.28677840112891878 0 0.085077205623658711 0.29152493742801078 0 0.085077205623658711 0.29152493742801078 0 0.095910340366493346 0.28464594086445177 0 0.10018382130907411 0.29953286904093468 0 0.085077205623658711 0.29152493742801078 0 0.10018382130907411 0.29953286904093468 0 0.095910340366493346 0.28464594086445177 0 0.10809736708577181 0.28553666446189058 0 0.10018382130907411 0.29953286904093468 0 0.10809736708577181 0.28553666446189058 0 0.10018382130907411 0.29953286904093468 0 0.10959494141679089 0.29761357018739809 0 0.099947674014671917 0.31467323404701991 0 0.090103400857782137 0.31307047550514489 0 0.09732687347400408 0.30507295899279041 0 0.085077205623658711 0.29152493742801078 0 0.09732687347400408 0.30507295899279041 0 0.10018382130907411 0.29953286904093468 0 0.09732687347400408 0.30507295899279041 0 0.10018382130907411 0.29953286904093468 0 0.1055944182754792 0.3076919023112884 0 0.10018382130907411 0.29953286904093468 0 0.11529043699448981 0.30754080065385803 0 0.10959494141679089 0.29761357018739809 0 0.10018382130907411 0.29953286904093468 0 0.11529043699448981 0.30754080065385803 0 0.1095765413243488 0.31862098055757049 0 0.09732687347400408 0.30507295899279041 0 0.1055944182754792 0.3076919023112884 0 0.10018382130907411 0.29953286904093468 0 0.1055944182754792 0.3076919023112884 0 0.11529043699448981 0.30754080065385803 0 0.1095765413243488 0.31862098055757049 0 0.09732687347400408 0.30507295899279041 0 0.1095765413243488 0.31862098055757049 0 0.1055944182754792 0.3076919023112884 0 0.11529043699448981 0.30754080065385803 0 0.11529043699448981 0.30754080065385803 0 0.11637637905870279 0.30155283343175482 0 0.11810871752106521 0.30621928700195911 0 0.11529043699448981 0.30754080065385803 0 0.10959494141679089 0.29761357018739809 0 0.11637637905870279 0.30155283343175482 0 0.10959494141679089 0.29761357018739809 0 0.11637637905870279 0.30155283343175482 0 0.1164892219926046 0.29243334627748818 0 0.11529043699448981 0.30754080065385803 0 0.11637637905870279 0.30155283343175482 0 0.11637637905870279 0.30155283343175482 0 0.1222906650571363 0.2985709440566281 0 0.1164892219926046 0.29243334627748818 0 0.1222906650571363 0.2985709440566281 0 0.1206025954822835 0.30378795350269022 0 0.1243783730770044 0.30485679470236721 0 0.11637637905870279 0.30155283343175482 0 0.1222906650571363 0.2985709440566281 0 0.1206025954822835 0.30378795350269022 0 0.11637637905870279 0.30155283343175482 0 0.1206025954822835 0.30378795350269022 0 0.11810871752106521 0.30621928700195911 0 0.1206025954822835 0.30378795350269022 0 0.11810871752106521 0.30621928700195911 0 0.1213521300308707 0.30775440284793348 0 0.11529043699448981 0.30754080065385803 0 0.11810871752106521 0.30621928700195911 0 0.11930841490252821 0.30912172642276631 0 0.11810871752106521 0.30621928700195911 0 0.1213521300308707 0.30775440284793348 0 0.11930841490252821 0.30912172642276631 0 0.1243783730770044 0.30485679470236721 0 0.1213521300308707 0.30775440284793348 0 0.1244342991148414 0.30898461385241399 0 0.1206025954822835 0.30378795350269022 0 0.1243783730770044 0.30485679470236721 0 0.1213521300308707 0.30775440284793348 0 0.1214195525311879 0.31440901896845502 0 0.1244342991148414 0.30898461385241399 0 0.12900107104525951 0.30968741412501871 0 0.1214195525311879 0.31440901896845502 0 0.1213521300308707 0.30775440284793348 0 0.1244342991148414 0.30898461385241399 0 0.1214195525311879 0.31440901896845502 0 0.11529043699448981 0.30754080065385803 0 0.11930841490252821 0.30912172642276631 0 0.1214195525311879 0.31440901896845502 0 0.1213521300308707 0.30775440284793348 0 0.11930841490252821 0.30912172642276631 0 0.10809736708577181 0.28553666446189058 0 0.1164892219926046 0.29243334627748818 0 0.1210835213650209 0.28058702695229848 0 0.10809736708577181 0.28553666446189058 0 0.10959494141679089 0.29761357018739809 0 0.1164892219926046 0.29243334627748818 0 0.1222906650571363 0.2985709440566281 0 0.1164892219926046 0.29243334627748818 0 0.12596292383497329 0.28976449579057961 0 0.1164892219926046 0.29243334627748818 0 0.1210835213650209 0.28058702695229848 0 0.12596292383497329 0.28976449579057961 0 0.10809736708577181 0.28553666446189058 0 0.1210835213650209 0.28058702695229848 0 0.1147979612748997 0.2707881575742877 0 0.1210835213650209 0.28058702695229848 0 0.1147979612748997 0.2707881575742877 0 0.12791172371537049 0.26609555254785411 0 0.1147979612748997 0.2707881575742877 0 0.116065923487036 0.25155424759680489 0 0.099818528257267281 0.27185690653089678 0 0.1147979612748997 0.2707881575742877 0 0.116065923487036 0.25155424759680489 0 0.12791172371537049 0.26609555254785411 0 0.089645379702363526 0.25980927980688501 0 0.116065923487036 0.25155424759680489 0 0.089645379702363526 0.25980927980688501 0 0.116065923487036 0.25155424759680489 0 0.099818528257267281 0.27185690653089678 0 0.089645379702363526 0.25980927980688501 0 0.099818528257267281 0.27185690653089678 0 0.095910340366493346 0.28464594086445177 0 0.10809736708577181 0.28553666446189058 0 0.099818528257267281 0.27185690653089678 0 0.10809736708577181 0.28553666446189058 0 0.1147979612748997 0.2707881575742877 0 0.099818528257267281 0.27185690653089678 0 0.14627836463393121 0.26809473379089088 0 0.14256315404166739 0.2804585798755338 0 0.1332419302865058 0.27890394506169119 0 0.14627836463393121 0.26809473379089088 0 0.14256315404166739 0.2804585798755338 0 0.15383705453569649 0.27951082009548711 0 0.14627836463393121 0.26809473379089088 0 0.15383705453569649 0.27951082009548711 0 0.1609818760820641 0.2708255403471686 0 0.14248646727170791 0.24329921538672239 0 0.14627836463393121 0.26809473379089088 0 0.1631161995596529 0.25657386530356069 0 0.14248646727170791 0.24329921538672239 0 0.116065923487036 0.25155424759680489 0 0.12791172371537049 0.26609555254785411 0 0.14248646727170791 0.24329921538672239 0 0.14627836463393121 0.26809473379089088 0 0.12791172371537049 0.26609555254785411 0 0.14627836463393121 0.26809473379089088 0 0.12791172371537049 0.26609555254785411 0 0.1332419302865058 0.27890394506169119 0 0.1210835213650209 0.28058702695229848 0 0.12791172371537049 0.26609555254785411 0 0.1332419302865058 0.27890394506169119 0 0.1332419302865058 0.27890394506169119 0 0.12596292383497329 0.28976449579057961 0 0.13463915166403909 0.29011289163129678 0 0.1210835213650209 0.28058702695229848 0 0.1332419302865058 0.27890394506169119 0 0.12596292383497329 0.28976449579057961 0 0.1222906650571363 0.2985709440566281 0 0.12596292383497329 0.28976449579057961 0 0.12923992476061211 0.29615108028493942 0 0.12596292383497329 0.28976449579057961 0 0.12923992476061211 0.29615108028493942 0 0.13463915166403909 0.29011289163129678 0 0.13463915166403909 0.29011289163129678 0 0.13544399911061031 0.29845687749894129 0 0.1416447250157222 0.29544082675589128 0 0.12923992476061211 0.29615108028493942 0 0.13463915166403909 0.29011289163129678 0 0.13544399911061031 0.29845687749894129 0 0.14256315404166739 0.2804585798755338 0 0.1332419302865058 0.27890394506169119 0 0.13463915166403909 0.29011289163129678 0 0.1243783730770044 0.30485679470236721 0 0.1244342991148414 0.30898461385241399 0 0.12900107104525951 0.30968741412501871 0 0.1243783730770044 0.30485679470236721 0 0.12900107104525951 0.30968741412501871 0 0.1290658347258283 0.30205966601357243 0 0.12900107104525951 0.30968741412501871 0 0.1290658347258283 0.30205966601357243 0 0.1340409753043473 0.30463488541353972 0 0.1222906650571363 0.2985709440566281 0 0.1243783730770044 0.30485679470236721 0 0.1290658347258283 0.30205966601357243 0 0.1222906650571363 0.2985709440566281 0 0.12923992476061211 0.29615108028493942 0 0.1290658347258283 0.30205966601357243 0 0.12923992476061211 0.29615108028493942 0 0.1290658347258283 0.30205966601357243 0 0.13544399911061031 0.29845687749894129 0 0.13544399911061031 0.29845687749894129 0 0.14170706289926879 0.30357921339911909 0 0.1416447250157222 0.29544082675589128 0 0.13544399911061031 0.29845687749894129 0 0.1340409753043473 0.30463488541353972 0 0.14170706289926879 0.30357921339911909 0 0.1290658347258283 0.30205966601357243 0 0.13544399911061031 0.29845687749894129 0 0.1340409753043473 0.30463488541353972 0 0.13598458437900529 0.30983158877234418 0 0.14130712994747449 0.31140798331507108 0 0.14170706289926879 0.30357921339911909 0 0.12900107104525951 0.30968741412501871 0 0.1340409753043473 0.30463488541353972 0 0.13598458437900529 0.30983158877234418 0 0.1340409753043473 0.30463488541353972 0 0.13598458437900529 0.30983158877234418 0 0.14170706289926879 0.30357921339911909 0 0.13598458437900529 0.30983158877234418 0 0.14130712994747449 0.31140798331507108 0 0.13528824775885559 0.3155805734405937 0 0.12900107104525951 0.30968741412501871 0 0.13598458437900529 0.30983158877234418 0 0.13528824775885559 0.3155805734405937 0 0.1483486037307668 0.31106151759990119 0 0.14130712994747449 0.31140798331507108 0 0.14170706289926879 0.30357921339911909 0 0.1483486037307668 0.31106151759990119 0 0.14170706289926879 0.30357921339911909 0 0.1513591925520972 0.30423422291399321 0 0.14170706289926879 0.30357921339911909 0 0.14924189349128261 0.29698436464102829 0 0.1513591925520972 0.30423422291399321 0 0.14170706289926879 0.30357921339911909 0 0.14924189349128261 0.29698436464102829 0 0.1416447250157222 0.29544082675589128 0 0.1513591925520972 0.30423422291399321 0 0.15847128754916129 0.30901971199088751 0 0.1567398971697517 0.30020769771567818 0 0.14924189349128261 0.29698436464102829 0 0.1513591925520972 0.30423422291399321 0 0.1567398971697517 0.30020769771567818 0 0.1483486037307668 0.31106151759990119 0 0.1513591925520972 0.30423422291399321 0 0.15847128754916129 0.30901971199088751 0 0.1483486037307668 0.31106151759990119 0 0.15847128754916129 0.30901971199088751 0 0.1531779528472626 0.31690967251270458 0 0.14256315404166739 0.2804585798755338 0 0.15383705453569649 0.27951082009548711 0 0.14728728951424691 0.28871625735014939 0 0.14256315404166739 0.2804585798755338 0 0.13463915166403909 0.29011289163129678 0 0.14728728951424691 0.28871625735014939 0 0.14924189349128261 0.29698436464102829 0 0.14728728951424691 0.28871625735014939 0 0.1416447250157222 0.29544082675589128 0 0.13463915166403909 0.29011289163129678 0 0.14728728951424691 0.28871625735014939 0 0.1416447250157222 0.29544082675589128 0 0.14924189349128261 0.29698436464102829 0 0.1576814993112734 0.29111844862325259 0 0.1567398971697517 0.30020769771567818 0 0.14924189349128261 0.29698436464102829 0 0.14728728951424691 0.28871625735014939 0 0.1576814993112734 0.29111844862325259 0 0.15383705453569649 0.27951082009548711 0 0.14728728951424691 0.28871625735014939 0 0.1576814993112734 0.29111844862325259 0 0.15383705453569649 0.27951082009548711 0 0.1576814993112734 0.29111844862325259 0 0.16532030222413041 0.28061774918364429 0 0.1576814993112734 0.29111844862325259 0 0.1689979645595176 0.28949488405725932 0 0.16532030222413041 0.28061774918364429 0 0.1576814993112734 0.29111844862325259 0 0.1689979645595176 0.28949488405725932 0 0.16694561294494401 0.29968174040922901 0 0.1689979645595176 0.28949488405725932 0 0.16694561294494401 0.29968174040922901 0 0.17866142019044989 0.29199773726540068 0 0.1689979645595176 0.28949488405725932 0 0.17498255083596301 0.28300150235233201 0 0.16532030222413041 0.28061774918364429 0 0.1576814993112734 0.29111844862325259 0 0.1567398971697517 0.30020769771567818 0 0.16694561294494401 0.29968174040922901 0 0.15847128754916129 0.30901971199088751 0 0.1567398971697517 0.30020769771567818 0 0.16694561294494401 0.29968174040922901 0 0.16694561294494401 0.29968174040922901 0 0.17666858027807311 0.3015349886251833 0 0.1707678241303611 0.31259989648156872 0 0.15847128754916129 0.30901971199088751 0 0.16694561294494401 0.29968174040922901 0 0.1707678241303611 0.31259989648156872 0 0.17666858027807311 0.3015349886251833 0 0.18371952992762389 0.30785332357736089 0 0.1707678241303611 0.31259989648156872 0 0.16694561294494401 0.29968174040922901 0 0.17666858027807311 0.3015349886251833 0 0.17866142019044989 0.29199773726540068 0 0.17666858027807311 0.3015349886251833 0 0.18371952992762389 0.30785332357736089 0 0.1898902111984884 0.29891268329407239 0 0.18371952992762389 0.30785332357736089 0 0.1898902111984884 0.29891268329407239 0 0.17666858027807311 0.3015349886251833 0 0.17866142019044989 0.29199773726540068 0 0.1898902111984884 0.29891268329407239 0 0.17498255083596301 0.28300150235233201 0 0.17866142019044989 0.29199773726540068 0 0.1849298445554361 0.28099903695767547 0 0.1689979645595176 0.28949488405725932 0 0.17498255083596301 0.28300150235233201 0 0.17866142019044989 0.29199773726540068 0 0.17866142019044989 0.29199773726540068 0 0.18677859260729601 0.28760164196875848 0 0.1898902111984884 0.29891268329407239 0 0.17866142019044989 0.29199773726540068 0 0.18677859260729601 0.28760164196875848 0 0.1849298445554361 0.28099903695767547 0 0.1849298445554361 0.28099903695767547 0 0.17528279401001801 0.2714166079934146 0 0.19094745617081291 0.27038549871767581 0 0.17528279401001801 0.2714166079934146 0 0.18564289691528729 0.25868749876629671 0 0.19094745617081291 0.27038549871767581 0 0.17498255083596301 0.28300150235233201 0 0.1849298445554361 0.28099903695767547 0 0.17528279401001801 0.2714166079934146 0 0.17528279401001801 0.2714166079934146 0 0.16532030222413041 0.28061774918364429 0 0.1609818760820641 0.2708255403471686 0 0.17498255083596301 0.28300150235233201 0 0.17528279401001801 0.2714166079934146 0 0.16532030222413041 0.28061774918364429 0 0.17528279401001801 0.2714166079934146 0 0.1609818760820641 0.2708255403471686 0 0.1631161995596529 0.25657386530356069 0 0.15383705453569649 0.27951082009548711 0 0.16532030222413041 0.28061774918364429 0 0.1609818760820641 0.2708255403471686 0 0.14627836463393121 0.26809473379089088 0 0.1609818760820641 0.2708255403471686 0 0.1631161995596529 0.25657386530356069 0 0.16890701105638031 0.23504418317664161 0 0.1631161995596529 0.25657386530356069 0 0.18564289691528729 0.25868749876629671 0 0.17528279401001801 0.2714166079934146 0 0.1631161995596529 0.25657386530356069 0 0.18564289691528729 0.25868749876629671 0 0.1956251304139873 0.24830732682566101 0 0.18564289691528729 0.25868749876629671 0 0.20465537480646501 0.25892384109831479 0 0.18564289691528729 0.25868749876629671 0 0.19094745617081291 0.27038549871767581 0 0.20465537480646501 0.25892384109831479 0 0.2050239072751949 0.2492833193895482 0 0.1956251304139873 0.24830732682566101 0 0.20465537480646501 0.25892384109831479 0 0.19094745617081291 0.27038549871767581 0 0.20212350544635149 0.27452240688285762 0 0.1917381003592612 0.28136787577326228 0 0.1849298445554361 0.28099903695767547 0 0.19094745617081291 0.27038549871767581 0 0.1917381003592612 0.28136787577326228 0 0.19094745617081291 0.27038549871767581 0 0.20212350544635149 0.27452240688285762 0 0.20465537480646501 0.25892384109831479 0 0.21559138507808229 0.27635001083075639 0 0.2170338530129477 0.25958452376210089 0 0.2223889939606305 0.26849190584137572 0 0.20212350544635149 0.27452240688285762 0 0.2170338530129477 0.25958452376210089 0 0.20037669147028589 0.28371892366973078 0 0.2170338530129477 0.25958452376210089 0 0.20037669147028589 0.28371892366973078 0 0.21559138507808229 0.27635001083075639 0 0.2170338530129477 0.25958452376210089 0 0.20037669147028589 0.28371892366973078 0 0.20212350544635149 0.27452240688285762 0 0.20465537480646501 0.25892384109831479 0 0.21458810326103989 0.25029177234766842 0 0.20212350544635149 0.27452240688285762 0 0.2170338530129477 0.25958452376210089 0 0.21458810326103989 0.25029177234766842 0 0.20212350544635149 0.27452240688285762 0 0.21458810326103989 0.25029177234766842 0 0.2050239072751949 0.2492833193895482 0 0.20465537480646501 0.25892384109831479 0 0.21458810326103989 0.25029177234766842 0 0.20465537480646501 0.25892384109831479 0 0.21458810326103989 0.25029177234766842 0 0.23169913173193779 0.25404958449575432 0 0.22942687348362151 0.26728355318502178 0 0.24090080429007341 0.26281353644332878 0 0.23169913173193779 0.25404958449575432 0 0.2249153238939712 0.26221153605608138 0 0.22942687348362151 0.26728355318502178 0 0.2170338530129477 0.25958452376210089 0 0.2249153238939712 0.26221153605608138 0 0.2223889939606305 0.26849190584137572 0 0.2170338530129477 0.25958452376210089 0 0.23169913173193779 0.25404958449575432 0 0.2249153238939712 0.26221153605608138 0 0.2223889939606305 0.26849190584137572 0 0.2255322572178127 0.27738204478537232 0 0.22942687348362151 0.26728355318502178 0 0.2249153238939712 0.26221153605608138 0 0.2223889939606305 0.26849190584137572 0 0.22942687348362151 0.26728355318502178 0 0.21559138507808229 0.27635001083075639 0 0.2255322572178127 0.27738204478537232 0 0.21985426169801439 0.28935406669317137 0 0.21559138507808229 0.27635001083075639 0 0.2223889939606305 0.26849190584137572 0 0.2255322572178127 0.27738204478537232 0 0.2255322572178127 0.27738204478537232 0 0.23621117140834261 0.27732665952701641 0 0.23095623596381579 0.2876536505458 0 0.2255322572178127 0.27738204478537232 0 0.22942687348362151 0.26728355318502178 0 0.23621117140834261 0.27732665952701641 0 0.23621117140834261 0.27732665952701641 0 0.24818821145747599 0.27522177653690871 0 0.24090080429007341 0.26281353644332878 0 0.22942687348362151 0.26728355318502178 0 0.23621117140834261 0.27732665952701641 0 0.24090080429007341 0.26281353644332878 0 0.24818821145747599 0.27522177653690871 0 0.24090080429007341 0.26281353644332878 0 0.25530776412370298 0.26639583896058622 0 0.23995652529561701 0.25039133628829258 0 0.24090080429007341 0.26281353644332878 0 0.25404003316197471 0.25208422786308371 0 0.23169913173193779 0.25404958449575432 0 0.23995652529561701 0.25039133628829258 0 0.24090080429007341 0.26281353644332878 0 0.23765651747073049 0.31117848176507701 0 0.2454028482605469 0.29267792886045368 0 0.25114017462525878 0.31153615041935723 0 0.23765651747073049 0.31117848176507701 0 0.2454028482605469 0.29267792886045368 0 0.2283396740985745 0.30195705682751389 0 0.2454028482605469 0.29267792886045368 0 0.23095623596381579 0.2876536505458 0 0.2283396740985745 0.30195705682751389 0 0.23621117140834261 0.27732665952701641 0 0.24818821145747599 0.27522177653690871 0 0.2454028482605469 0.29267792886045368 0 0.23621117140834261 0.27732665952701641 0 0.2454028482605469 0.29267792886045368 0 0.23095623596381579 0.2876536505458 0 0.2255322572178127 0.27738204478537232 0 0.23095623596381579 0.2876536505458 0 0.21985426169801439 0.28935406669317137 0 0.23095623596381579 0.2876536505458 0 0.21985426169801439 0.28935406669317137 0 0.2283396740985745 0.30195705682751389 0 0.2283396740985745 0.30195705682751389 0 0.2184758680590754 0.31184724711422762 0 0.22801070301179061 0.32060690690137728 0 0.21985426169801439 0.28935406669317137 0 0.2283396740985745 0.30195705682751389 0 0.21670572119465931 0.30172893354768798 0 0.23765651747073049 0.31117848176507701 0 0.2283396740985745 0.30195705682751389 0 0.22801070301179061 0.32060690690137728 0 0.2283396740985745 0.30195705682751389 0 0.2184758680590754 0.31184724711422762 0 0.21670572119465931 0.30172893354768798 0 0.2184758680590754 0.31184724711422762 0 0.21670572119465931 0.30172893354768798 0 0.20632342479934371 0.30585855598863948 0 0.21670572119465931 0.30172893354768798 0 0.20632342479934371 0.30585855598863948 0 0.21141614329998781 0.29390938293380992 0 0.20632342479934371 0.30585855598863948 0 0.21141614329998781 0.29390938293380992 0 0.2042452804315445 0.29308429151921322 0 0.21559138507808229 0.27635001083075639 0 0.21985426169801439 0.28935406669317137 0 0.2104384150331686 0.28649738738125968 0 0.21985426169801439 0.28935406669317137 0 0.21141614329998781 0.29390938293380992 0 0.2104384150331686 0.28649738738125968 0 0.21985426169801439 0.28935406669317137 0 0.21670572119465931 0.30172893354768798 0 0.21141614329998781 0.29390938293380992 0 0.21141614329998781 0.29390938293380992 0 0.2042452804315445 0.29308429151921322 0 0.2104384150331686 0.28649738738125968 0 0.2042452804315445 0.29308429151921322 0 0.2104384150331686 0.28649738738125968 0 0.20037669147028589 0.28371892366973078 0 0.21559138507808229 0.27635001083075639 0 0.2104384150331686 0.28649738738125968 0 0.20037669147028589 0.28371892366973078 0 0.20212350544635149 0.27452240688285762 0 0.20037669147028589 0.28371892366973078 0 0.1898902111984884 0.29891268329407239 0 0.18677859260729601 0.28760164196875848 0 0.1917381003592612 0.28136787577326228 0 0.1898902111984884 0.29891268329407239 0 0.20037669147028589 0.28371892366973078 0 0.1976595376627992 0.29976589533378561 0 0.1898902111984884 0.29891268329407239 0 0.2042452804315445 0.29308429151921322 0 0.20037669147028589 0.28371892366973078 0 0.1976595376627992 0.29976589533378561 0 0.20212350544635149 0.27452240688285762 0 0.1898902111984884 0.29891268329407239 0 0.20212350544635149 0.27452240688285762 0 0.1917381003592612 0.28136787577326228 0 0.1898902111984884 0.29891268329407239 0 0.20037669147028589 0.28371892366973078 0 0.1898902111984884 0.29891268329407239 0 0.18677859260729601 0.28760164196875848 0 0.1849298445554361 0.28099903695767547 0 0.1917381003592612 0.28136787577326228 0 0.20632342479934371 0.30585855598863948 0 0.19412409721151189 0.30848045781950378 0 0.19635424873152091 0.31866253726922511 0 0.20632342479934371 0.30585855598863948 0 0.1976595376627992 0.29976589533378561 0 0.19412409721151189 0.30848045781950378 0 0.20632342479934371 0.30585855598863948 0 0.2042452804315445 0.29308429151921322 0 0.1976595376627992 0.29976589533378561 0 0.18371952992762389 0.30785332357736089 0 0.1976595376627992 0.29976589533378561 0 0.1898902111984884 0.29891268329407239 0 0.18371952992762389 0.30785332357736089 0 0.19412409721151189 0.30848045781950378 0 0.19635424873152091 0.31866253726922511 0 0.18371952992762389 0.30785332357736089 0 0.1976595376627992 0.29976589533378561 0 0.19412409721151189 0.30848045781950378 0 0.19635424873152091 0.31866253726922511 0 0.19329834396814641 0.33328399686629978 0 0.21150607161232149 0.3245036863190196 0 0.19635424873152091 0.31866253726922511 0 0.19329834396814641 0.33328399686629978 0 0.1818581672390053 0.32281790922797782 0 0.19329834396814641 0.33328399686629978 0 0.20841238186686439 0.34472105417207632 0 0.1876990638134575 0.35190483133425488 0 0.19329834396814641 0.33328399686629978 0 0.21150607161232149 0.3245036863190196 0 0.20841238186686439 0.34472105417207632 0 0.21150607161232149 0.3245036863190196 0 0.22736457019319431 0.33776348264759248 0 0.20841238186686439 0.34472105417207632 0 0.20632342479934371 0.30585855598863948 0 0.19635424873152091 0.31866253726922511 0 0.21150607161232149 0.3245036863190196 0 0.2184758680590754 0.31184724711422762 0 0.20632342479934371 0.30585855598863948 0 0.21150607161232149 0.3245036863190196 0 0.21150607161232149 0.3245036863190196 0 0.22801070301179061 0.32060690690137728 0 0.22736457019319431 0.33776348264759248 0 0.2184758680590754 0.31184724711422762 0 0.21150607161232149 0.3245036863190196 0 0.22801070301179061 0.32060690690137728 0 0.22801070301179061 0.32060690690137728 0 0.22736457019319431 0.33776348264759248 0 0.24490867605631639 0.32967072069511189 0 0.22736457019319431 0.33776348264759248 0 0.24490867605631639 0.32967072069511189 0 0.24521693247762111 0.35027114815259558 0 0.23765651747073049 0.31117848176507701 0 0.22801070301179061 0.32060690690137728 0 0.24490867605631639 0.32967072069511189 0 0.23765651747073049 0.31117848176507701 0 0.24490867605631639 0.32967072069511189 0 0.25114017462525878 0.31153615041935723 0 0.24305895760768401 0.36641304215893011 0 0.24521693247762111 0.35027114815259558 0 0.22613265613425179 0.35680737964537468 0 0.22736457019319431 0.33776348264759248 0 0.24521693247762111 0.35027114815259558 0 0.22613265613425179 0.35680737964537468 0 0.22736457019319431 0.33776348264759248 0 0.22613265613425179 0.35680737964537468 0 0.20841238186686439 0.34472105417207632 0 0.22613265613425179 0.35680737964537468 0 0.20200890290724041 0.36500873302905812 0 0.22860253219506471 0.37841014948266538 0 0.24305895760768401 0.36641304215893011 0 0.22613265613425179 0.35680737964537468 0 0.22860253219506471 0.37841014948266538 0 0.20200890290724041 0.36500873302905812 0 0.22860253219506471 0.37841014948266538 0 0.22613265613425179 0.35680737964537468 0 0.20841238186686439 0.34472105417207632 0 0.20200890290724041 0.36500873302905812 0 0.20841238186686439 0.34472105417207632 0 0.1876990638134575 0.35190483133425488 0 0.20200890290724041 0.36500873302905812 0 0.1876990638134575 0.35190483133425488 0 0.20200890290724041 0.36500873302905812 0 0.17637045729064621 0.37495278481954358 0 0.1876990638134575 0.35190483133425488 0 0.17637045729064621 0.37495278481954358 0 0.16909864488713719 0.35514267549568418 0 0.15975417249048229 0.36968310563447321 0 0.16909864488713719 0.35514267549568418 0 0.14990537096685039 0.36070173528474042 0 0.17637045729064621 0.37495278481954358 0 0.15975417249048229 0.36968310563447321 0 0.16909864488713719 0.35514267549568418 0 0.16909864488713719 0.35514267549568418 0 0.1770056519607103 0.33831974362286749 0 0.1619384281755652 0.34052596047808847 0 0.16909864488713719 0.35514267549568418 0 0.14990537096685039 0.36070173528474042 0 0.15416632756111201 0.34898696826244741 0 0.16909864488713719 0.35514267549568418 0 0.1619384281755652 0.34052596047808847 0 0.15416632756111201 0.34898696826244741 0 0.1876990638134575 0.35190483133425488 0 0.16909864488713719 0.35514267549568418 0 0.1770056519607103 0.33831974362286749 0 0.19329834396814641 0.33328399686629978 0 0.1770056519607103 0.33831974362286749 0 0.1818581672390053 0.32281790922797782 0 0.19329834396814641 0.33328399686629978 0 0.1876990638134575 0.35190483133425488 0 0.1770056519607103 0.33831974362286749 0 0.1770056519607103 0.33831974362286749 0 0.1818581672390053 0.32281790922797782 0 0.1657389141743941 0.32607447656151611 0 0.1818581672390053 0.32281790922797782 0 0.1707678241303611 0.31259989648156872 0 0.1657389141743941 0.32607447656151611 0 0.18371952992762389 0.30785332357736089 0 0.19635424873152091 0.31866253726922511 0 0.1818581672390053 0.32281790922797782 0 0.18371952992762389 0.30785332357736089 0 0.1818581672390053 0.32281790922797782 0 0.1707678241303611 0.31259989648156872 0 0.1707678241303611 0.31259989648156872 0 0.1657389141743941 0.32607447656151611 0 0.16084478468494731 0.31759224325908281 0 0.1657389141743941 0.32607447656151611 0 0.15632698434060879 0.32309477146443721 0 0.16084478468494731 0.31759224325908281 0 0.1657389141743941 0.32607447656151611 0 0.15632698434060879 0.32309477146443721 0 0.1534459738215358 0.33116830427909388 0 0.15847128754916129 0.30901971199088751 0 0.1707678241303611 0.31259989648156872 0 0.16084478468494731 0.31759224325908281 0 0.15847128754916129 0.30901971199088751 0 0.16084478468494731 0.31759224325908281 0 0.1531779528472626 0.31690967251270458 0 0.15632698434060879 0.32309477146443721 0 0.16084478468494731 0.31759224325908281 0 0.1531779528472626 0.31690967251270458 0 0.1770056519607103 0.33831974362286749 0 0.1657389141743941 0.32607447656151611 0 0.1619384281755652 0.34052596047808847 0 0.1657389141743941 0.32607447656151611 0 0.1619384281755652 0.34052596047808847 0 0.1534459738215358 0.33116830427909388 0 0.1619384281755652 0.34052596047808847 0 0.14537830609435001 0.34101383565047871 0 0.15416632756111201 0.34898696826244741 0 0.1619384281755652 0.34052596047808847 0 0.1534459738215358 0.33116830427909388 0 0.14537830609435001 0.34101383565047871 0 0.1534459738215358 0.33116830427909388 0 0.1427633336259623 0.33140140495610498 0 0.14842729617490411 0.32372916070978858 0 0.1534459738215358 0.33116830427909388 0 0.1427633336259623 0.33140140495610498 0 0.14537830609435001 0.34101383565047871 0 0.1427633336259623 0.33140140495610498 0 0.14537830609435001 0.34101383565047871 0 0.13654253772275141 0.33890423694427602 0 0.1483486037307668 0.31106151759990119 0 0.1531779528472626 0.31690967251270458 0 0.14487070829517959 0.31682928085866202 0 0.1531779528472626 0.31690967251270458 0 0.14842729617490411 0.32372916070978858 0 0.14487070829517959 0.31682928085866202 0 0.15632698434060879 0.32309477146443721 0 0.1534459738215358 0.33116830427909388 0 0.14842729617490411 0.32372916070978858 0 0.15632698434060879 0.32309477146443721 0 0.1531779528472626 0.31690967251270458 0 0.14842729617490411 0.32372916070978858 0 0.1427633336259623 0.33140140495610498 0 0.14842729617490411 0.32372916070978858 0 0.1402378637359267 0.32270884290342983 0 0.14842729617490411 0.32372916070978858 0 0.14487070829517959 0.31682928085866202 0 0.1402378637359267 0.32270884290342983 0 0.1483486037307668 0.31106151759990119 0 0.14130712994747449 0.31140798331507108 0 0.14487070829517959 0.31682928085866202 0 0.14130712994747449 0.31140798331507108 0 0.14487070829517959 0.31682928085866202 0 0.13528824775885559 0.3155805734405937 0 0.14487070829517959 0.31682928085866202 0 0.13528824775885559 0.3155805734405937 0 0.1402378637359267 0.32270884290342983 0 0.13528824775885559 0.3155805734405937 0 0.1330765722643745 0.32249408610517011 0 0.1402378637359267 0.32270884290342983 0 0.1330765722643745 0.32249408610517011 0 0.1402378637359267 0.32270884290342983 0 0.13309473665224339 0.33072661256584468 0 0.12375204985912221 0.32702725796552912 0 0.1330765722643745 0.32249408610517011 0 0.13309473665224339 0.33072661256584468 0 0.12375204985912221 0.32702725796552912 0 0.1330765722643745 0.32249408610517011 0 0.12817088130983889 0.317450689473041 0 0.13528824775885559 0.3155805734405937 0 0.1330765722643745 0.32249408610517011 0 0.12817088130983889 0.317450689473041 0 0.1214195525311879 0.31440901896845502 0 0.12900107104525951 0.30968741412501871 0 0.12817088130983889 0.317450689473041 0 0.12900107104525951 0.30968741412501871 0 0.13528824775885559 0.3155805734405937 0 0.12817088130983889 0.317450689473041 0 0.14537830609435001 0.34101383565047871 0 0.13654253772275141 0.33890423694427602 0 0.13685475473781181 0.34959577292381833 0 0.13654253772275141 0.33890423694427602 0 0.1260676383484185 0.3399282146226113 0 0.13685475473781181 0.34959577292381833 0 0.1427633336259623 0.33140140495610498 0 0.13654253772275141 0.33890423694427602 0 0.13309473665224339 0.33072661256584468 0 0.1427633336259623 0.33140140495610498 0 0.1402378637359267 0.32270884290342983 0 0.13309473665224339 0.33072661256584468 0 0.12375204985912221 0.32702725796552912 0 0.13309473665224339 0.33072661256584468 0 0.1260676383484185 0.3399282146226113 0 0.13654253772275141 0.33890423694427602 0 0.13309473665224339 0.33072661256584468 0 0.1260676383484185 0.3399282146226113 0 0.1232256624926347 0.35239419723674059 0 0.13685475473781181 0.34959577292381833 0 0.13271547193899449 0.36524458735671972 0 0.1232256624926347 0.35239419723674059 0 0.1260676383484185 0.3399282146226113 0 0.13685475473781181 0.34959577292381833 0 0.13685475473781181 0.34959577292381833 0 0.13271547193899449 0.36524458735671972 0 0.14990537096685039 0.36070173528474042 0 0.13271547193899449 0.36524458735671972 0 0.14727668153694909 0.37350977329143831 0 0.1384203385310763 0.3853027474406937 0 0.13271547193899449 0.36524458735671972 0 0.14727668153694909 0.37350977329143831 0 0.14990537096685039 0.36070173528474042 0 0.15975417249048229 0.36968310563447321 0 0.14727668153694909 0.37350977329143831 0 0.14990537096685039 0.36070173528474042 0 0.14537830609435001 0.34101383565047871 0 0.13685475473781181 0.34959577292381833 0 0.15416632756111201 0.34898696826244741 0 0.13685475473781181 0.34959577292381833 0 0.14990537096685039 0.36070173528474042 0 0.15416632756111201 0.34898696826244741 0 0.15196678808574959 0.39634912392256672 0 0.1402717845598023 0.40641241395674649 0 0.16129649351817349 0.40676751558544272 0 0.15196678808574959 0.39634912392256672 0 0.1384203385310763 0.3853027474406937 0 0.1402717845598023 0.40641241395674649 0 0.15196678808574959 0.39634912392256672 0 0.15611970777082879 0.38410855928095938 0 0.1384203385310763 0.3853027474406937 0 0.14727668153694909 0.37350977329143831 0 0.15611970777082879 0.38410855928095938 0 0.1384203385310763 0.3853027474406937 0 0.15975417249048229 0.36968310563447321 0 0.14727668153694909 0.37350977329143831 0 0.15611970777082879 0.38410855928095938 0 0.1231373165426977 0.3806134049577457 0 0.13271547193899449 0.36524458735671972 0 0.1384203385310763 0.3853027474406937 0 0.1231373165426977 0.3806134049577457 0 0.1384203385310763 0.3853027474406937 0 0.1271742827044339 0.39597619803598749 0 0.1384203385310763 0.3853027474406937 0 0.1271742827044339 0.39597619803598749 0 0.1402717845598023 0.40641241395674649 0 0.1162621503634904 0.41872732341568758 0 0.1271742827044339 0.39597619803598749 0 0.1402717845598023 0.40641241395674649 0 0.1162621503634904 0.41872732341568758 0 0.1402717845598023 0.40641241395674649 0 0.14380353536204241 0.43078456768362461 0 0.1162621503634904 0.41872732341568758 0 0.14380353536204241 0.43078456768362461 0 0.1205619018159948 0.44674810255646558 0 0.1162621503634904 0.41872732341568758 0 0.13914808732176639 0.43525501877606959 0 0.1162621503634904 0.41872732341568758 0 0.13914808732176639 0.43525501877606959 0 0.14380353536204241 0.43078456768362461 0 0.1402717845598023 0.40641241395674649 0 0.16129649351817349 0.40676751558544272 0 0.1583102357697074 0.42239552662274649 0 0.1402717845598023 0.40641241395674649 0 0.14380353536204241 0.43078456768362461 0 0.1583102357697074 0.42239552662274649 0 0.16129649351817349 0.40676751558544272 0 0.17483444504792359 0.42517132393635743 0 0.1767108048052333 0.40648620419478521 0 0.16129649351817349 0.40676751558544272 0 0.1583102357697074 0.42239552662274649 0 0.17483444504792359 0.42517132393635743 0 0.1583102357697074 0.42239552662274649 0 0.17483444504792359 0.42517132393635743 0 0.1713449203605947 0.44284181195156158 0 0.14380353536204241 0.43078456768362461 0 0.1713449203605947 0.44284181195156158 0 0.14380353536204241 0.43078456768362461 0 0.1583102357697074 0.42239552662274649 0 0.1713449203605947 0.44284181195156158 0 0.17483444504792359 0.42517132393635743 0 0.18216746451451801 0.43740730714955978 0 0.1713449203605947 0.44284181195156158 0 0.17483444504792359 0.42517132393635743 0 0.1713449203605947 0.44284181195156158 0 0.17483444504792359 0.42517132393635743 0 0.1894098998784805 0.41329321868770491 0 0.19020123220431809 0.42989189963497759 0 0.17483444504792359 0.42517132393635743 0 0.18216746451451801 0.43740730714955978 0 0.19020123220431809 0.42989189963497759 0 0.17483444504792359 0.42517132393635743 0 0.1767108048052333 0.40648620419478521 0 0.1894098998784805 0.41329321868770491 0 0.1767108048052333 0.40648620419478521 0 0.16971698500113649 0.39319336099264368 0 0.18829620058045249 0.39400560177177729 0 0.1767108048052333 0.40648620419478521 0 0.18829620058045249 0.39400560177177729 0 0.1894098998784805 0.41329321868770491 0 0.15196678808574959 0.39634912392256672 0 0.15611970777082879 0.38410855928095938 0 0.16971698500113649 0.39319336099264368 0 0.15196678808574959 0.39634912392256672 0 0.16129649351817349 0.40676751558544272 0 0.16971698500113649 0.39319336099264368 0 0.16129649351817349 0.40676751558544272 0 0.1767108048052333 0.40648620419478521 0 0.16971698500113649 0.39319336099264368 0 0.17637045729064621 0.37495278481954358 0 0.15975417249048229 0.36968310563447321 0 0.15611970777082879 0.38410855928095938 0 0.17637045729064621 0.37495278481954358 0 0.15611970777082879 0.38410855928095938 0 0.16971698500113649 0.39319336099264368 0 0.17637045729064621 0.37495278481954358 0 0.16971698500113649 0.39319336099264368 0 0.18829620058045249 0.39400560177177729 0 0.20200890290724041 0.36500873302905812 0 0.18829620058045249 0.39400560177177729 0 0.21022739730807871 0.38998636848418261 0 0.20200890290724041 0.36500873302905812 0 0.17637045729064621 0.37495278481954358 0 0.18829620058045249 0.39400560177177729 0 0.18829620058045249 0.39400560177177729 0 0.21022739730807871 0.38998636848418261 0 0.20498907662426999 0.40636669370009521 0 0.18829620058045249 0.39400560177177729 0 0.20498907662426999 0.40636669370009521 0 0.1894098998784805 0.41329321868770491 0 0.21022739730807871 0.38998636848418261 0 0.225418264115859 0.4045632601918206 0 0.20498907662426999 0.40636669370009521 0 0.20200890290724041 0.36500873302905812 0 0.21022739730807871 0.38998636848418261 0 0.22860253219506471 0.37841014948266538 0 0.21022739730807871 0.38998636848418261 0 0.22860253219506471 0.37841014948266538 0 0.225418264115859 0.4045632601918206 0 0.225418264115859 0.4045632601918206 0 0.2490748840761759 0.41447913741323361 0 0.25519616148288887 0.39181156593627298 0 0.22860253219506471 0.37841014948266538 0 0.225418264115859 0.4045632601918206 0 0.25519616148288887 0.39181156593627298 0 0.22860253219506471 0.37841014948266538 0 0.25519616148288887 0.39181156593627298 0 0.24305895760768401 0.36641304215893011 0 0.22860253219506471 0.37841014948266538 0 0.25519616148288887 0.39181156593627298 0 0.2490748840761759 0.41447913741323361 0 0.23040520055063371 0.42472223384156732 0 0.24517769652138269 0.43868647355565088 0 0.225418264115859 0.4045632601918206 0 0.2490748840761759 0.41447913741323361 0 0.23040520055063371 0.42472223384156732 0 0.225418264115859 0.4045632601918206 0 0.23040520055063371 0.42472223384156732 0 0.20794960100346549 0.42683021087399747 0 0.23040520055063371 0.42472223384156732 0 0.20794960100346549 0.42683021087399747 0 0.2229924843016429 0.43948176305630821 0 0.23040520055063371 0.42472223384156732 0 0.2229924843016429 0.43948176305630821 0 0.24517769652138269 0.43868647355565088 0 0.225418264115859 0.4045632601918206 0 0.20794960100346549 0.42683021087399747 0 0.20498907662426999 0.40636669370009521 0 0.20794960100346549 0.42683021087399747 0 0.20498907662426999 0.40636669370009521 0 0.1894098998784805 0.41329321868770491 0 0.20794960100346549 0.42683021087399747 0 0.19020123220431809 0.42989189963497759 0 0.19426067079655579 0.44330707928475449 0 0.20794960100346549 0.42683021087399747 0 0.1894098998784805 0.41329321868770491 0 0.19020123220431809 0.42989189963497759 0 0.18216746451451801 0.43740730714955978 0 0.19020123220431809 0.42989189963497759 0 0.19426067079655579 0.44330707928475449 0 0.19426067079655579 0.44330707928475449 0 0.1940681668251448 0.45640187690020761 0 0.18254949088188149 0.4477470207382499 0 0.19426067079655579 0.44330707928475449 0 0.1940681668251448 0.45640187690020761 0 0.20814429074563079 0.44944136850783811 0 0.1940681668251448 0.45640187690020761 0 0.20814429074563079 0.44944136850783811 0 0.2039949308663013 0.472197178379127 0 0.1940681668251448 0.45640187690020761 0 0.2039949308663013 0.472197178379127 0 0.18608081776579821 0.46867989557539208 0 0.1940681668251448 0.45640187690020761 0 0.18608081776579821 0.46867989557539208 0 0.18254949088188149 0.4477470207382499 0 0.20814429074563079 0.44944136850783811 0 0.22852149564367849 0.45772005811557609 0 0.2039949308663013 0.472197178379127 0 0.20794960100346549 0.42683021087399747 0 0.19426067079655579 0.44330707928475449 0 0.20814429074563079 0.44944136850783811 0 0.20794960100346549 0.42683021087399747 0 0.20814429074563079 0.44944136850783811 0 0.2229924843016429 0.43948176305630821 0 0.2229924843016429 0.43948176305630821 0 0.22852149564367849 0.45772005811557609 0 0.24517769652138269 0.43868647355565088 0 0.20814429074563079 0.44944136850783811 0 0.2229924843016429 0.43948176305630821 0 0.22852149564367849 0.45772005811557609 0 0.22852149564367849 0.45772005811557609 0 0.2480713074063006 0.45455858161591112 0 0.2508124586903176 0.47172026355836871 0 0.22852149564367849 0.45772005811557609 0 0.2480713074063006 0.45455858161591112 0 0.24517769652138269 0.43868647355565088 0 0.24658834009167641 0.5 0 0.2268462464291012 0.47913099520174052 0 0.2508124586903176 0.47172026355836871 0 0.22852149564367849 0.45772005811557609 0 0.2268462464291012 0.47913099520174052 0 0.2508124586903176 0.47172026355836871 0 0.22852149564367849 0.45772005811557609 0 0.2268462464291012 0.47913099520174052 0 0.2039949308663013 0.472197178379127 0 0.24658834009167641 0.5 0 0.2268462464291012 0.47913099520174052 0 0.21774471386125249 0.5 0 0.2039949308663013 0.472197178379127 0 0.18890108763082861 0.5 0 0.18608081776579821 0.46867989557539208 0 0.21774471386125249 0.5 0 0.2039949308663013 0.472197178379127 0 0.18890108763082861 0.5 0 0.2268462464291012 0.47913099520174052 0 0.21774471386125249 0.5 0 0.2039949308663013 0.472197178379127 0 0.18890108763082861 0.5 0 0.16570119088049859 0.47142090597577962 0 0.18608081776579821 0.46867989557539208 0 0.18890108763082861 0.5 0 0.1600574614004048 0.499999999999998 0 0.16570119088049859 0.47142090597577962 0 0.1600574614004048 0.499999999999998 0 0.16570119088049859 0.47142090597577962 0 0.1600574614004048 0.499999999999998 0 0.16570119088049859 0.47142090597577962 0 0.1473140710794911 0.47841155746419622 0 0.16570119088049859 0.47142090597577962 0 0.18608081776579821 0.46867989557539208 0 0.18254949088188149 0.4477470207382499 0 0.16570119088049859 0.47142090597577962 0 0.18254949088188149 0.4477470207382499 0 0.1713449203605947 0.44284181195156158 0 0.18216746451451801 0.43740730714955978 0 0.19426067079655579 0.44330707928475449 0 0.18254949088188149 0.4477470207382499 0 0.18254949088188149 0.4477470207382499 0 0.1713449203605947 0.44284181195156158 0 0.18216746451451801 0.43740730714955978 0 0.18254949088188149 0.4477470207382499 0 0.1713449203605947 0.44284181195156158 0 0.16570119088049859 0.47142090597577962 0 0.1713449203605947 0.44284181195156158 0 0.16570119088049859 0.47142090597577962 0 0.1713449203605947 0.44284181195156158 0 0.15076126992746861 0.45128164001408699 0 0.16570119088049859 0.47142090597577962 0 0.14979107830043681 0.4659705410046826 0 0.15076126992746861 0.45128164001408699 0 0.14979107830043681 0.4659705410046826 0 0.15076126992746861 0.45128164001408699 0 0.13538778131428869 0.46276806056466779 0 0.13914808732176639 0.43525501877606959 0 0.14380353536204241 0.43078456768362461 0 0.15076126992746861 0.45128164001408699 0 0.14380353536204241 0.43078456768362461 0 0.1713449203605947 0.44284181195156158 0 0.15076126992746861 0.45128164001408699 0 0.13914808732176639 0.43525501877606959 0 0.15076126992746861 0.45128164001408699 0 0.13538778131428869 0.46276806056466779 0 0.13914808732176639 0.43525501877606959 0 0.13538778131428869 0.46276806056466779 0 0.1205619018159948 0.44674810255646558 0 0.13914808732176639 0.43525501877606959 0 0.13538778131428869 0.46276806056466779 0 0.1248616532684987 0.47476888169724352 0 0.1205619018159948 0.44674810255646558 0 0.13538778131428869 0.46276806056466779 0 0.13538778131428869 0.46276806056466779 0 0.13162747530681079 0.49028110235326611 0 0.1248616532684987 0.47476888169724352 0 0.13538778131428869 0.46276806056466779 0 0.13162747530681079 0.49028110235326611 0 0.13538778131428869 0.46276806056466779 0 0.13162747530681079 0.49028110235326611 0 0.1473140710794911 0.47841155746419622 0 0.1248616532684987 0.47476888169724352 0 0.13162747530681079 0.49028110235326611 0 0.1248616532684987 0.47476888169724352 0 0.1287333349596296 0.50000000000000233 0 0.1248616532684987 0.47476888169724352 0 0.13162747530681079 0.49028110235326611 0 0.1287333349596296 0.50000000000000233 0 0.13162747530681079 0.49028110235326611 0 0.1302991587401483 0.50000000000000044 0 0.13162747530681079 0.49028110235326611 0 0.1302991587401483 0.50000000000000044 0 0.13586647714571501 0.50000000000000044 0 0.13162747530681079 0.49028110235326611 0 0.1287333349596296 0.50000000000000233 0 0.1302991587401483 0.50000000000000044 0 0.13162747530681079 0.49028110235326611 0 0.13586647714571501 0.50000000000000044 0 0.14406777576738011 0.49099847585001533 0 0.13162747530681079 0.49028110235326611 0 0.13586647714571501 0.50000000000000044 0 0.1600574614004048 0.499999999999998 0 0.13586647714571501 0.50000000000000044 0 0.14406777576738011 0.49099847585001533 0 0.1600574614004048 0.499999999999998 0 0.14406777576738011 0.49099847585001533 0 0.1473140710794911 0.47841155746419622 0 0.13162747530681079 0.49028110235326611 0 0.14406777576738011 0.49099847585001533 0 0.1473140710794911 0.47841155746419622 0 0.16570119088049859 0.47142090597577962 0 0.14979107830043681 0.4659705410046826 0 0.1473140710794911 0.47841155746419622 0 0.14979107830043681 0.4659705410046826 0 0.13538778131428869 0.46276806056466779 0 0.1473140710794911 0.47841155746419622 0 0.3484716028812469 0.46927922019571022 0 0.3639431844790027 0.47792576209206161 0 0.36215729707138089 0.45952194433731441 0 0.3484716028812469 0.46927922019571022 0 0.34825454286986979 0.4866410253547736 0 0.3639431844790027 0.47792576209206161 0 0.34825454286986979 0.4866410253547736 0 0.36196284501337178 0.5 0 0.3639431844790027 0.47792576209206161 0 0.34825454286986979 0.4866410253547736 0 0.36196284501337178 0.5 0 0.33311921878294798 0.5 0 0.36196284501337178 0.5 0 0.3639431844790027 0.47792576209206161 0 0.38120033573297152 0.48442634992442057 0 0.3639431844790027 0.47792576209206161 0 0.37844435483634198 0.4675903904274426 0 0.38120033573297152 0.48442634992442057 0 0.3639431844790027 0.47792576209206161 0 0.36215729707138089 0.45952194433731441 0 0.37844435483634198 0.4675903904274426 0 0.36215729707138089 0.45952194433731441 0 0.37809165231809289 0.44568724501072521 0 0.37844435483634198 0.4675903904274426 0 0.36215729707138089 0.45952194433731441 0 0.35494335133579169 0.44207750056399991 0 0.37809165231809289 0.44568724501072521 0 0.35494335133579169 0.44207750056399991 0 0.365542703577178 0.42914551292816783 0 0.37809165231809289 0.44568724501072521 0 0.35494335133579169 0.44207750056399991 0 0.33746945485668051 0.4332718215327816 0 0.35494335133579169 0.44207750056399991 0 0.33933393763431879 0.44574212964051668 0 0.33746945485668051 0.4332718215327816 0 0.36215729707138089 0.45952194433731441 0 0.35494335133579169 0.44207750056399991 0 0.34904963657780902 0.45457154773394731 0 0.35494335133579169 0.44207750056399991 0 0.34904963657780902 0.45457154773394731 0 0.33933393763431879 0.44574212964051668 0 0.3484716028812469 0.46927922019571022 0 0.36215729707138089 0.45952194433731441 0 0.34904963657780902 0.45457154773394731 0 0.3484716028812469 0.46927922019571022 0 0.34904963657780902 0.45457154773394731 0 0.33768006752307722 0.45817683321967928 0 0.33768006752307722 0.45817683321967928 0 0.32516604183334019 0.44948070643492349 0 0.3263791186886712 0.4718105620932988 0 0.3484716028812469 0.46927922019571022 0 0.33768006752307722 0.45817683321967928 0 0.3263791186886712 0.4718105620932988 0 0.33933393763431879 0.44574212964051668 0 0.32516604183334019 0.44948070643492349 0 0.33457771181584611 0.43369686048393857 0 0.32516604183334019 0.44948070643492349 0 0.33457771181584611 0.43369686048393857 0 0.33933393763431879 0.44574212964051668 0 0.33457771181584611 0.43369686048393857 0 0.33746945485668051 0.4332718215327816 0 0.34904963657780902 0.45457154773394731 0 0.33768006752307722 0.45817683321967928 0 0.33933393763431879 0.44574212964051668 0 0.33768006752307722 0.45817683321967928 0 0.33933393763431879 0.44574212964051668 0 0.32516604183334019 0.44948070643492349 0 0.32516604183334019 0.44948070643492349 0 0.30610823095482448 0.43788140873538328 0 0.33457771181584611 0.43369686048393857 0 0.32516604183334019 0.44948070643492349 0 0.30909376894118562 0.45443190325323968 0 0.30610823095482448 0.43788140873538328 0 0.32516604183334019 0.44948070643492349 0 0.3263791186886712 0.4718105620932988 0 0.30909376894118562 0.45443190325323968 0 0.3263791186886712 0.4718105620932988 0 0.30059931196992168 0.47005809262963882 0 0.31153103284441203 0.48323920778459489 0 0.3484716028812469 0.46927922019571022 0 0.34825454286986979 0.4866410253547736 0 0.3263791186886712 0.4718105620932988 0 0.34825454286986979 0.4866410253547736 0 0.3263791186886712 0.4718105620932988 0 0.33311921878294798 0.5 0 0.3263791186886712 0.4718105620932988 0 0.33311921878294798 0.5 0 0.31153103284441203 0.48323920778459489 0 0.33311921878294798 0.5 0 0.30427559255252412 0.5 0 0.31153103284441203 0.48323920778459489 0 0.30427559255252412 0.5 0 0.31153103284441203 0.48323920778459489 0 0.29110307967174748 0.48580921065493432 0 0.30059931196992168 0.47005809262963882 0 0.31153103284441203 0.48323920778459489 0 0.29110307967174748 0.48580921065493432 0 0.30059931196992168 0.47005809262963882 0 0.29110307967174748 0.48580921065493432 0 0.27585954767988607 0.47408041721782612 0 0.30427559255252412 0.5 0 0.29110307967174748 0.48580921065493432 0 0.27543196632210021 0.5 0 0.27543196632210021 0.5 0 0.27585954767988607 0.47408041721782612 0 0.26198527678341299 0.48673919500437729 0 0.29110307967174748 0.48580921065493432 0 0.27543196632210021 0.5 0 0.27585954767988607 0.47408041721782612 0 0.27585954767988607 0.47408041721782612 0 0.2508124586903176 0.47172026355836871 0 0.26198527678341299 0.48673919500437729 0 0.24658834009167641 0.5 0 0.2508124586903176 0.47172026355836871 0 0.26198527678341299 0.48673919500437729 0 0.24658834009167641 0.5 0 0.27543196632210021 0.5 0 0.26198527678341299 0.48673919500437729 0 0.2480713074063006 0.45455858161591112 0 0.24517769652138269 0.43868647355565088 0 0.26777357876982372 0.45010753123404867 0 0.24517769652138269 0.43868647355565088 0 0.26777357876982372 0.45010753123404867 0 0.26600993858745892 0.42808938636359573 0 0.2480713074063006 0.45455858161591112 0 0.2508124586903176 0.47172026355836871 0 0.26777357876982372 0.45010753123404867 0 0.27585954767988607 0.47408041721782612 0 0.2508124586903176 0.47172026355836871 0 0.26777357876982372 0.45010753123404867 0 0.27585954767988607 0.47408041721782612 0 0.26777357876982372 0.45010753123404867 0 0.28975077836376328 0.45156795454144122 0 0.26777357876982372 0.45010753123404867 0 0.28975077836376328 0.45156795454144122 0 0.28607917402868899 0.43188291486824332 0 0.28975077836376328 0.45156795454144122 0 0.30610823095482448 0.43788140873538328 0 0.28607917402868899 0.43188291486824332 0 0.30059931196992168 0.47005809262963882 0 0.27585954767988607 0.47408041721782612 0 0.28975077836376328 0.45156795454144122 0 0.3263791186886712 0.4718105620932988 0 0.30059931196992168 0.47005809262963882 0 0.30909376894118562 0.45443190325323968 0 0.30059931196992168 0.47005809262963882 0 0.28975077836376328 0.45156795454144122 0 0.30909376894118562 0.45443190325323968 0 0.28975077836376328 0.45156795454144122 0 0.30909376894118562 0.45443190325323968 0 0.30610823095482448 0.43788140873538328 0 0.30610823095482448 0.43788140873538328 0 0.30869255759955722 0.41877018355733042 0 0.28607917402868899 0.43188291486824332 0 0.3075810200549029 0.4073564129674252 0 0.30869255759955722 0.41877018355733042 0 0.30232024370737348 0.40459188745546998 0 0.31142364564813352 0.41093370315849659 0 0.3075810200549029 0.4073564129674252 0 0.31015955469665918 0.40201373970895371 0 0.31142364564813352 0.41093370315849659 0 0.3075810200549029 0.4073564129674252 0 0.30869255759955722 0.41877018355733042 0 0.30869255759955722 0.41877018355733042 0 0.29605666041485018 0.40551048050067168 0 0.30232024370737348 0.40459188745546998 0 0.30869255759955722 0.41877018355733042 0 0.2819443595412231 0.40529087474680159 0 0.30869255759955722 0.41877018355733042 0 0.2819443595412231 0.40529087474680159 0 0.29605666041485018 0.40551048050067168 0 0.30869255759955722 0.41877018355733042 0 0.28607917402868899 0.43188291486824332 0 0.2819443595412231 0.40529087474680159 0 0.2490748840761759 0.41447913741323361 0 0.26600993858745892 0.42808938636359573 0 0.2819443595412231 0.40529087474680159 0 0.26777357876982372 0.45010753123404867 0 0.28607917402868899 0.43188291486824332 0 0.26600993858745892 0.42808938636359573 0 0.28607917402868899 0.43188291486824332 0 0.26600993858745892 0.42808938636359573 0 0.2819443595412231 0.40529087474680159 0 0.2490748840761759 0.41447913741323361 0 0.24517769652138269 0.43868647355565088 0 0.26600993858745892 0.42808938636359573 0 0.2490748840761759 0.41447913741323361 0 0.25519616148288887 0.39181156593627298 0 0.2819443595412231 0.40529087474680159 0 0.25519616148288887 0.39181156593627298 0 0.2618259464583832 0.36726095095448358 0 0.25519616148288887 0.39181156593627298 0 0.27405714121884811 0.38409687161834088 0 0.2618259464583832 0.36726095095448358 0 0.24305895760768401 0.36641304215893011 0 0.25519616148288887 0.39181156593627298 0 0.2618259464583832 0.36726095095448358 0 0.2490748840761759 0.41447913741323361 0 0.25519616148288887 0.39181156593627298 0 0.27405714121884811 0.38409687161834088 0 0.2819443595412231 0.40529087474680159 0 0.28762179706039948 0.39125587461843808 0 0.25519616148288887 0.39181156593627298 0 0.2819443595412231 0.40529087474680159 0 0.25519616148288887 0.39181156593627298 0 0.27405714121884811 0.38409687161834088 0 0.2819443595412231 0.40529087474680159 0 0.27405714121884811 0.38409687161834088 0 0.28403056220722062 0.37531448917755911 0 0.2737626695690904 0.37327007608818358 0 0.27405714121884811 0.38409687161834088 0 0.28403056220722062 0.37531448917755911 0 0.28762179706039948 0.39125587461843808 0 0.29405085274881382 0.37834813740539031 0 0.28762179706039948 0.39125587461843808 0 0.30049862001061489 0.39881078008944609 0 0.28403056220722062 0.37531448917755911 0 0.29405085274881382 0.37834813740539031 0 0.28762179706039948 0.39125587461843808 0 0.2819443595412231 0.40529087474680159 0 0.28762179706039948 0.39125587461843808 0 0.29316512877403511 0.40022580951085568 0 0.28762179706039948 0.39125587461843808 0 0.29316512877403511 0.40022580951085568 0 0.30049862001061489 0.39881078008944609 0 0.2819443595412231 0.40529087474680159 0 0.29316512877403511 0.40022580951085568 0 0.29605666041485018 0.40551048050067168 0 0.29316512877403511 0.40022580951085568 0 0.29605666041485018 0.40551048050067168 0 0.30042223720462058 0.4004666581126537 0 0.29605666041485018 0.40551048050067168 0 0.30232024370737348 0.40459188745546998 0 0.30042223720462058 0.4004666581126537 0 0.29316512877403511 0.40022580951085568 0 0.30042223720462058 0.4004666581126537 0 0.30049862001061489 0.39881078008944609 0 0.30042223720462058 0.4004666581126537 0 0.30049862001061489 0.39881078008944609 0 0.30232024370737348 0.40459188745546998 0 0.30049862001061489 0.39881078008944609 0 0.30232024370737348 0.40459188745546998 0 0.30049862001061489 0.39881078008944609 0 0.30430913302558388 0.40020258685778032 0 0.30232024370737348 0.40459188745546998 0 0.30042223720462058 0.4004666581126537 0 0.30049862001061489 0.39881078008944609 0 0.30049862001061489 0.39881078008944609 0 0.30098622665836988 0.38824011406760628 0 0.30049862001061489 0.39881078008944609 0 0.30430913302558388 0.40020258685778032 0 0.30098622665836988 0.38824011406760628 0 0.30098622665836988 0.38824011406760628 0 0.30110064445947421 0.38575968774854158 0 0.31262554991773928 0.39787599139405988 0 0.31015955469665918 0.40201373970895371 0 0.30098622665836988 0.38824011406760628 0 0.30110064445947421 0.38575968774854158 0 0.31262554991773928 0.39787599139405988 0 0.30430913302558388 0.40020258685778032 0 0.31015955469665918 0.40201373970895371 0 0.30098622665836988 0.38824011406760628 0 0.31015955469665918 0.40201373970895371 0 0.30098622665836988 0.38824011406760628 0 0.31262554991773928 0.39787599139405988 0 0.3075810200549029 0.4073564129674252 0 0.30232024370737348 0.40459188745546998 0 0.30430913302558388 0.40020258685778032 0 0.3075810200549029 0.4073564129674252 0 0.30430913302558388 0.40020258685778032 0 0.31015955469665918 0.40201373970895371 0 0.29405085274881382 0.37834813740539031 0 0.30049862001061489 0.39881078008944609 0 0.29405085274881382 0.37834813740539031 0 0.30049862001061489 0.39881078008944609 0 0.30098622665836988 0.38824011406760628 0 0.30110064445947421 0.38575968774854158 0 0.30177514978199971 0.3711373061071076 0 0.30110064445947421 0.38575968774854158 0 0.3104817065657739 0.3858680532317833 0 0.30177514978199971 0.3711373061071076 0 0.29405085274881382 0.37834813740539031 0 0.30110064445947421 0.38575968774854158 0 0.30177514978199971 0.3711373061071076 0 0.29405085274881382 0.37834813740539031 0 0.30110064445947421 0.38575968774854158 0 0.29405085274881382 0.37834813740539031 0 0.30098622665836988 0.38824011406760628 0 0.30110064445947421 0.38575968774854158 0 0.29405085274881382 0.37834813740539031 0 0.30098622665836988 0.38824011406760628 0 0.30098622665836988 0.38824011406760628 0 0.30110064445947421 0.38575968774854158 0 0.30110064445947421 0.38575968774854158 0 0.3104817065657739 0.3858680532317833 0 0.31262554991773928 0.39787599139405988 0 0.3104817065657739 0.3858680532317833 0 0.30177514978199971 0.3711373061071076 0 0.3104817065657739 0.3858680532317833 0 0.31717345926189522 0.3709258031848055 0 0.30177514978199971 0.3711373061071076 0 0.3104817065657739 0.3858680532317833 0 0.3376156911696272 0.37620073599141618 0 0.3104817065657739 0.3858680532317833 0 0.3376156911696272 0.37620073599141618 0 0.31717345926189522 0.3709258031848055 0 0.3104817065657739 0.3858680532317833 0 0.3376156911696272 0.37620073599141618 0 0.3351802944883514 0.39738750443412002 0 0.3376156911696272 0.37620073599141618 0 0.3351802944883514 0.39738750443412002 0 0.34879159400795012 0.38769315231290841 0 0.3351802944883514 0.39738750443412002 0 0.33658962428999861 0.41133204962483783 0 0.34988972217452752 0.40801784569160632 0 0.3351802944883514 0.39738750443412002 0 0.32415045537600512 0.40999229503957763 0 0.33658962428999861 0.41133204962483783 0 0.3351802944883514 0.39738750443412002 0 0.31909953512109351 0.40044867980609039 0 0.32415045537600512 0.40999229503957763 0 0.3104817065657739 0.3858680532317833 0 0.3351802944883514 0.39738750443412002 0 0.31909953512109351 0.40044867980609039 0 0.3104817065657739 0.3858680532317833 0 0.31909953512109351 0.40044867980609039 0 0.3104817065657739 0.3858680532317833 0 0.31262554991773928 0.39787599139405988 0 0.31909953512109351 0.40044867980609039 0 0.31262554991773928 0.39787599139405988 0 0.32415045537600512 0.40999229503957763 0 0.31015955469665918 0.40201373970895371 0 0.31262554991773928 0.39787599139405988 0 0.32415045537600512 0.40999229503957763 0 0.31262554991773928 0.39787599139405988 0 0.31909953512109351 0.40044867980609039 0 0.32415045537600512 0.40999229503957763 0 0.31015955469665918 0.40201373970895371 0 0.31933288273494848 0.41578736535030097 0 0.32415045537600512 0.40999229503957763 0 0.31142364564813352 0.41093370315849659 0 0.31015955469665918 0.40201373970895371 0 0.31933288273494848 0.41578736535030097 0 0.30869255759955722 0.41877018355733042 0 0.31933288273494848 0.41578736535030097 0 0.32906281765607392 0.42006619542527468 0 0.31015955469665918 0.40201373970895371 0 0.31933288273494848 0.41578736535030097 0 0.31142364564813352 0.41093370315849659 0 0.30869255759955722 0.41877018355733042 0 0.31933288273494848 0.41578736535030097 0 0.31933288273494848 0.41578736535030097 0 0.32415045537600512 0.40999229503957763 0 0.32906281765607392 0.42006619542527468 0 0.30869255759955722 0.41877018355733042 0 0.33457771181584611 0.43369686048393857 0 0.33544075565789128 0.43224949236785898 0 0.30869255759955722 0.41877018355733042 0 0.33544075565789128 0.43224949236785898 0 0.30610823095482448 0.43788140873538328 0 0.30869255759955722 0.41877018355733042 0 0.33457771181584611 0.43369686048393857 0 0.30869255759955722 0.41877018355733042 0 0.33544075565789128 0.43224949236785898 0 0.32906281765607392 0.42006619542527468 0 0.30610823095482448 0.43788140873538328 0 0.33457771181584611 0.43369686048393857 0 0.33457771181584611 0.43369686048393857 0 0.33544075565789128 0.43224949236785898 0 0.33746945485668051 0.4332718215327816 0 0.33457771181584611 0.43369686048393857 0 0.33544075565789128 0.43224949236785898 0 0.33544075565789128 0.43224949236785898 0 0.33746945485668051 0.4332718215327816 0 0.35001853239939229 0.42365555934674631 0 0.33544075565789128 0.43224949236785898 0 0.33746945485668051 0.4332718215327816 0 0.33457771181584611 0.43369686048393857 0 0.33746945485668051 0.4332718215327816 0 0.33544075565789128 0.43224949236785898 0 0.33658962428999861 0.41133204962483783 0 0.34988972217452752 0.40801784569160632 0 0.33544075565789128 0.43224949236785898 0 0.32906281765607392 0.42006619542527468 0 0.33658962428999861 0.41133204962483783 0 0.33544075565789128 0.43224949236785898 0 0.34988972217452752 0.40801784569160632 0 0.32415045537600512 0.40999229503957763 0 0.32906281765607392 0.42006619542527468 0 0.33658962428999861 0.41133204962483783 0 0.33544075565789128 0.43224949236785898 0 0.34988972217452752 0.40801784569160632 0 0.35001853239939229 0.42365555934674631 0 0.34988972217452752 0.40801784569160632 0 0.36165970526353591 0.41519797525725338 0 0.36412400085156282 0.39702719229323191 0 0.34988972217452752 0.40801784569160632 0 0.35001853239939229 0.42365555934674631 0 0.36165970526353591 0.41519797525725338 0 0.35494335133579169 0.44207750056399991 0 0.33746945485668051 0.4332718215327816 0 0.365542703577178 0.42914551292816783 0 0.33746945485668051 0.4332718215327816 0 0.35001853239939229 0.42365555934674631 0 0.365542703577178 0.42914551292816783 0 0.33746945485668051 0.4332718215327816 0 0.365542703577178 0.42914551292816783 0 0.35001853239939229 0.42365555934674631 0 0.365542703577178 0.42914551292816783 0 0.36165970526353591 0.41519797525725338 0 0.365542703577178 0.42914551292816783 0 0.36165970526353591 0.41519797525725338 0 0.37744029411777058 0.41252948965876268 0 0.36165970526353591 0.41519797525725338 0 0.36412400085156282 0.39702719229323191 0 0.37744029411777058 0.41252948965876268 0 0.36412400085156282 0.39702719229323191 0 0.38026367080056678 0.39066664182047522 0 0.37744029411777058 0.41252948965876268 0 0.34988972217452752 0.40801784569160632 0 0.36412400085156282 0.39702719229323191 0 0.36433868869116592 0.38378619901535488 0 0.36433868869116592 0.38378619901535488 0 0.3773824667175657 0.37546563606013739 0 0.38026367080056678 0.39066664182047522 0 0.36433868869116592 0.38378619901535488 0 0.36474967577348072 0.36653341875104961 0 0.3773824667175657 0.37546563606013739 0 0.36412400085156282 0.39702719229323191 0 0.36433868869116592 0.38378619901535488 0 0.38026367080056678 0.39066664182047522 0 0.36433868869116592 0.38378619901535488 0 0.36474967577348072 0.36653341875104961 0 0.36412400085156282 0.39702719229323191 0 0.36433868869116592 0.38378619901535488 0 0.3376156911696272 0.37620073599141618 0 0.34879159400795012 0.38769315231290841 0 0.36474967577348072 0.36653341875104961 0 0.36433868869116592 0.38378619901535488 0 0.34879159400795012 0.38769315231290841 0 0.36474967577348072 0.36653341875104961 0 0.3351802944883514 0.39738750443412002 0 0.34988972217452752 0.40801784569160632 0 0.34879159400795012 0.38769315231290841 0 0.34988972217452752 0.40801784569160632 0 0.36433868869116592 0.38378619901535488 0 0.34988972217452752 0.40801784569160632 0 0.36433868869116592 0.38378619901535488 0 0.34879159400795012 0.38769315231290841 0 0.34699100967064078 0.35539672769273539 0 0.36474967577348072 0.36653341875104961 0 0.36518945593320651 0.34509967395937191 0 0.34699100967064078 0.35539672769273539 0 0.36518945593320651 0.34509967395937191 0 0.348137396692076 0.34077307725183559 0 0.3376156911696272 0.37620073599141618 0 0.34699100967064078 0.35539672769273539 0 0.36474967577348072 0.36653341875104961 0 0.3376156911696272 0.37620073599141618 0 0.36474967577348072 0.36653341875104961 0 0.36474967577348072 0.36653341875104961 0 0.36518945593320651 0.34509967395937191 0 0.36474967577348072 0.36653341875104961 0 0.36518945593320651 0.34509967395937191 0 0.3855881021147175 0.35910908792858098 0 0.36518945593320651 0.34509967395937191 0 0.36562923609293069 0.32366592916769399 0 0.36518945593320651 0.34509967395937191 0 0.36562923609293069 0.32366592916769399 0 0.348137396692076 0.34077307725183559 0 0.36518945593320651 0.34509967395937191 0 0.36562923609293069 0.32366592916769399 0 0.38128435600444488 0.32837669887387311 0 0.36562923609293069 0.32366592916769399 0 0.36606901625265492 0.30223218437601618 0 0.38242981621443428 0.31397380775534678 0 0.36562923609293069 0.32366592916769399 0 0.36606901625265492 0.30223218437601618 0 0.36562923609293069 0.32366592916769399 0 0.34238706329751362 0.32476320095938682 0 0.35183379698966949 0.31056891257481539 0 0.36562923609293069 0.32366592916769399 0 0.348137396692076 0.34077307725183559 0 0.34238706329751362 0.32476320095938682 0 0.348137396692076 0.34077307725183559 0 0.33072504187423118 0.34237289876026822 0 0.34238706329751362 0.32476320095938682 0 0.33072504187423118 0.34237289876026822 0 0.34238706329751362 0.32476320095938682 0 0.32122702449841589 0.32177081607522939 0 0.34238706329751362 0.32476320095938682 0 0.33644502425256478 0.30910566618648461 0 0.35183379698966949 0.31056891257481539 0 0.34238706329751362 0.32476320095938682 0 0.32122702449841589 0.32177081607522939 0 0.33644502425256478 0.30910566618648461 0 0.32122702449841589 0.32177081607522939 0 0.31445651652981632 0.33878768779705848 0 0.30372390616191358 0.32889084998335888 0 0.33072504187423118 0.34237289876026822 0 0.32122702449841589 0.32177081607522939 0 0.31445651652981632 0.33878768779705848 0 0.33072504187423118 0.34237289876026822 0 0.31445651652981632 0.33878768779705848 0 0.31594857135045817 0.35062531106266931 0 0.33072504187423118 0.34237289876026822 0 0.31594857135045817 0.35062531106266931 0 0.32442852787466708 0.36030442639367111 0 0.31594857135045817 0.35062531106266931 0 0.32442852787466708 0.36030442639367111 0 0.31156622091740832 0.36111849420004938 0 0.34699100967064078 0.35539672769273539 0 0.348137396692076 0.34077307725183559 0 0.33072504187423118 0.34237289876026822 0 0.34699100967064078 0.35539672769273539 0 0.33072504187423118 0.34237289876026822 0 0.32442852787466708 0.36030442639367111 0 0.3376156911696272 0.37620073599141618 0 0.34699100967064078 0.35539672769273539 0 0.32442852787466708 0.36030442639367111 0 0.3376156911696272 0.37620073599141618 0 0.32442852787466708 0.36030442639367111 0 0.31717345926189522 0.3709258031848055 0 0.32442852787466708 0.36030442639367111 0 0.31717345926189522 0.3709258031848055 0 0.31156622091740832 0.36111849420004938 0 0.30177514978199971 0.3711373061071076 0 0.30274952797195698 0.35001407804523332 0 0.31717345926189522 0.3709258031848055 0 0.31156622091740832 0.36111849420004938 0 0.30177514978199971 0.3711373061071076 0 0.31156622091740832 0.36111849420004938 0 0.30177514978199971 0.3711373061071076 0 0.30274952797195698 0.35001407804523332 0 0.30177514978199971 0.3711373061071076 0 0.30274952797195698 0.35001407804523332 0 0.29106955940472562 0.3530243656434488 0 0.31445651652981632 0.33878768779705848 0 0.31594857135045817 0.35062531106266931 0 0.30274952797195698 0.35001407804523332 0 0.31594857135045817 0.35062531106266931 0 0.31156622091740832 0.36111849420004938 0 0.30274952797195698 0.35001407804523332 0 0.29106955940472562 0.3530243656434488 0 0.28705150305193838 0.35613499197806497 0 0.28036396902745148 0.33491142517978989 0 0.28705150305193838 0.35613499197806497 0 0.28036396902745148 0.33491142517978989 0 0.28705150305193838 0.35613499197806497 0 0.27644360280618341 0.34191623842927221 0 0.28036396902745148 0.33491142517978989 0 0.29106955940472562 0.3530243656434488 0 0.28036396902745148 0.33491142517978989 0 0.30274952797195698 0.35001407804523332 0 0.29106955940472562 0.3530243656434488 0 0.29374099595638509 0.3392252011883215 0 0.28705150305193838 0.35613499197806497 0 0.28458867991473008 0.36361942358965982 0 0.27543832275303448 0.34988028840297991 0 0.29405085274881382 0.37834813740539031 0 0.28705150305193838 0.35613499197806497 0 0.28458867991473008 0.36361942358965982 0 0.29405085274881382 0.37834813740539031 0 0.28705150305193838 0.35613499197806497 0 0.30177514978199971 0.3711373061071076 0 0.29106955940472562 0.3530243656434488 0 0.29405085274881382 0.37834813740539031 0 0.30177514978199971 0.3711373061071076 0 0.28705150305193838 0.35613499197806497 0 0.30177514978199971 0.3711373061071076 0 0.29106955940472562 0.3530243656434488 0 0.28705150305193838 0.35613499197806497 0 0.29405085274881382 0.37834813740539031 0 0.28458867991473008 0.36361942358965982 0 0.28403056220722062 0.37531448917755911 0 0.2815017213106239 0.3651550498314205 0 0.27898286169525299 0.37041503512408969 0 0.29405085274881382 0.37834813740539031 0 0.2815017213106239 0.3651550498314205 0 0.28403056220722062 0.37531448917755911 0 0.29405085274881382 0.37834813740539031 0 0.2815017213106239 0.3651550498314205 0 0.29405085274881382 0.37834813740539031 0 0.28458867991473008 0.36361942358965982 0 0.2815017213106239 0.3651550498314205 0 0.28403056220722062 0.37531448917755911 0 0.27898286169525299 0.37041503512408969 0 0.2737626695690904 0.37327007608818358 0 0.27663649369407689 0.36792052539919551 0 0.2737626695690904 0.37327007608818358 0 0.27125000512352843 0.36234153133647429 0 0.27405714121884811 0.38409687161834088 0 0.2737626695690904 0.37327007608818358 0 0.2618259464583832 0.36726095095448358 0 0.2815017213106239 0.3651550498314205 0 0.27898286169525299 0.37041503512408969 0 0.27663649369407689 0.36792052539919551 0 0.27898286169525299 0.37041503512408969 0 0.27663649369407689 0.36792052539919551 0 0.2737626695690904 0.37327007608818358 0 0.2737626695690904 0.37327007608818358 0 0.27125000512352843 0.36234153133647429 0 0.2618259464583832 0.36726095095448358 0 0.27125000512352843 0.36234153133647429 0 0.26895258987243392 0.3519619622574508 0 0.2618259464583832 0.36726095095448358 0 0.2815017213106239 0.3651550498314205 0 0.27125000512352843 0.36234153133647429 0 0.26895258987243392 0.3519619622574508 0 0.2815017213106239 0.3651550498314205 0 0.27663649369407689 0.36792052539919551 0 0.27125000512352843 0.36234153133647429 0 0.28458867991473008 0.36361942358965982 0 0.2815017213106239 0.3651550498314205 0 0.27543832275303448 0.34988028840297991 0 0.2815017213106239 0.3651550498314205 0 0.26895258987243392 0.3519619622574508 0 0.28458867991473008 0.36361942358965982 0 0.27543832275303448 0.34988028840297991 0 0.26895258987243392 0.3519619622574508 0 0.2618259464583832 0.36726095095448358 0 0.2684557314338783 0.34271033597269462 0 0.2815017213106239 0.3651550498314205 0 0.27543832275303448 0.34988028840297991 0 0.26895258987243392 0.3519619622574508 0 0.28705150305193838 0.35613499197806497 0 0.27543832275303448 0.34988028840297991 0 0.27644360280618341 0.34191623842927221 0 0.27543832275303448 0.34988028840297991 0 0.2684557314338783 0.34271033597269462 0 0.27644360280618341 0.34191623842927221 0 0.27543832275303448 0.34988028840297991 0 0.26895258987243392 0.3519619622574508 0 0.2684557314338783 0.34271033597269462 0 0.2618259464583832 0.36726095095448358 0 0.2684557314338783 0.34271033597269462 0 0.24521693247762111 0.35027114815259558 0 0.2618259464583832 0.36726095095448358 0 0.2684557314338783 0.34271033597269462 0 0.24305895760768401 0.36641304215893011 0 0.24521693247762111 0.35027114815259558 0 0.2618259464583832 0.36726095095448358 0 0.24490867605631639 0.32967072069511189 0 0.26050839607327853 0.32387463406168998 0 0.25114017462525878 0.31153615041935723 0 0.26050839607327853 0.32387463406168998 0 0.25114017462525878 0.31153615041935723 0 0.26342424027676908 0.31148804944983333 0 0.24490867605631639 0.32967072069511189 0 0.26050839607327853 0.32387463406168998 0 0.2684557314338783 0.34271033597269462 0 0.24490867605631639 0.32967072069511189 0 0.24521693247762111 0.35027114815259558 0 0.2684557314338783 0.34271033597269462 0 0.26050839607327853 0.32387463406168998 0 0.2684557314338783 0.34271033597269462 0 0.27508551640937329 0.31815972099090539 0 0.2684557314338783 0.34271033597269462 0 0.27508551640937329 0.31815972099090539 0 0.2684557314338783 0.34271033597269462 0 0.27787730485363338 0.33070420273373929 0 0.27508551640937329 0.31815972099090539 0 0.2684557314338783 0.34271033597269462 0 0.27644360280618341 0.34191623842927221 0 0.27787730485363338 0.33070420273373929 0 0.27644360280618341 0.34191623842927221 0 0.28036396902745148 0.33491142517978989 0 0.27787730485363338 0.33070420273373929 0 0.28036396902745148 0.33491142517978989 0 0.27787730485363338 0.33070420273373929 0 0.28036396902745148 0.33491142517978989 0 0.27787730485363338 0.33070420273373929 0 0.27508551640937329 0.31815972099090539 0 0.28036396902745148 0.33491142517978989 0 0.27508551640937329 0.31815972099090539 0 0.26050839607327853 0.32387463406168998 0 0.27508551640937329 0.31815972099090539 0 0.26342424027676908 0.31148804944983333 0 0.27584787744150779 0.31533663815394608 0 0.27508551640937329 0.31815972099090539 0 0.2839587577339367 0.31315639516335231 0 0.27584787744150779 0.31533663815394608 0 0.27508551640937329 0.31815972099090539 0 0.28036396902745148 0.33491142517978989 0 0.27508551640937329 0.31815972099090539 0 0.28884331716543121 0.32432796479040632 0 0.27508551640937329 0.31815972099090539 0 0.2839587577339367 0.31315639516335231 0 0.28884331716543121 0.32432796479040632 0 0.2839587577339367 0.31315639516335231 0 0.28884331716543121 0.32432796479040632 0 0.29436859405188742 0.31561290386725788 0 0.28884331716543121 0.32432796479040632 0 0.29436859405188742 0.31561290386725788 0 0.30372390616191358 0.32889084998335888 0 0.29106955940472562 0.3530243656434488 0 0.28036396902745148 0.33491142517978989 0 0.29374099595638509 0.3392252011883215 0 0.28036396902745148 0.33491142517978989 0 0.28884331716543121 0.32432796479040632 0 0.29374099595638509 0.3392252011883215 0 0.28884331716543121 0.32432796479040632 0 0.29374099595638509 0.3392252011883215 0 0.30372390616191358 0.32889084998335888 0 0.30274952797195698 0.35001407804523332 0 0.29374099595638509 0.3392252011883215 0 0.30372390616191358 0.32889084998335888 0 0.31445651652981632 0.33878768779705848 0 0.30274952797195698 0.35001407804523332 0 0.30372390616191358 0.32889084998335888 0 0.30274952797195698 0.35001407804523332 0 0.30372390616191358 0.32889084998335888 0 0.29436859405188742 0.31561290386725788 0 0.30372390616191358 0.32889084998335888 0 0.30469828435187041 0.30776762192148471 0 0.32122702449841589 0.32177081607522939 0 0.30372390616191358 0.32889084998335888 0 0.30469828435187041 0.30776762192148471 0 0.30372390616191358 0.32889084998335888 0 0.30469828435187041 0.30776762192148471 0 0.30469828435187041 0.30776762192148471 0 0.29887142377560671 0.29447355700322281 0 0.31975384086217118 0.29390073052843008 0 0.30469828435187041 0.30776762192148471 0 0.29887142377560671 0.29447355700322281 0 0.29061870484628499 0.30392168747768772 0 0.29887142377560671 0.29447355700322281 0 0.29803417524575498 0.27809430922643119 0 0.31975384086217118 0.29390073052843008 0 0.29887142377560671 0.29447355700322281 0 0.28125211357195179 0.28868343586208051 0 0.29803417524575498 0.27809430922643119 0 0.29887142377560671 0.29447355700322281 0 0.28125211357195179 0.28868343586208051 0 0.29061870484628499 0.30392168747768772 0 0.29436859405188742 0.31561290386725788 0 0.30469828435187041 0.30776762192148471 0 0.29061870484628499 0.30392168747768772 0 0.2839587577339367 0.31315639516335231 0 0.29436859405188742 0.31561290386725788 0 0.29061870484628499 0.30392168747768772 0 0.28125211357195179 0.28868343586208051 0 0.29061870484628499 0.30392168747768772 0 0.27979091010679558 0.3031930520058399 0 0.2839587577339367 0.31315639516335231 0 0.29061870484628499 0.30392168747768772 0 0.27979091010679558 0.3031930520058399 0 0.27584787744150779 0.31533663815394608 0 0.2839587577339367 0.31315639516335231 0 0.27979091010679558 0.3031930520058399 0 0.27584787744150779 0.31533663815394608 0 0.27979091010679558 0.3031930520058399 0 0.26696287399916629 0.2923816923273807 0 0.27508551640937329 0.31815972099090539 0 0.26696287399916629 0.2923816923273807 0 0.27508551640937329 0.31815972099090539 0 0.26696287399916629 0.2923816923273807 0 0.26342424027676908 0.31148804944983333 0 0.27584787744150779 0.31533663815394608 0 0.27508551640937329 0.31815972099090539 0 0.26696287399916629 0.2923816923273807 0 0.28125211357195179 0.28868343586208051 0 0.26696287399916629 0.2923816923273807 0 0.26185531842249993 0.2787869231154117 0 0.28125211357195179 0.28868343586208051 0 0.27979091010679558 0.3031930520058399 0 0.26696287399916629 0.2923816923273807 0 0.2454028482605469 0.29267792886045368 0 0.26696287399916629 0.2923816923273807 0 0.26185531842249993 0.2787869231154117 0 0.24818821145747599 0.27522177653690871 0 0.2454028482605469 0.29267792886045368 0 0.26185531842249993 0.2787869231154117 0 0.26696287399916629 0.2923816923273807 0 0.25114017462525878 0.31153615041935723 0 0.26342424027676908 0.31148804944983333 0 0.2454028482605469 0.29267792886045368 0 0.26696287399916629 0.2923816923273807 0 0.25114017462525878 0.31153615041935723 0 0.25404003316197471 0.25208422786308371 0 0.25530776412370298 0.26639583896058622 0 0.27103688063193948 0.26427270241964718 0 0.24090080429007341 0.26281353644332878 0 0.25404003316197471 0.25208422786308371 0 0.25530776412370298 0.26639583896058622 0 0.25530776412370298 0.26639583896058622 0 0.26185531842249993 0.2787869231154117 0 0.27103688063193948 0.26427270241964718 0 0.24818821145747599 0.27522177653690871 0 0.25530776412370298 0.26639583896058622 0 0.26185531842249993 0.2787869231154117 0 0.28125211357195179 0.28868343586208051 0 0.26185531842249993 0.2787869231154117 0 0.27103688063193948 0.26427270241964718 0 0.25404003316197471 0.25208422786308371 0 0.27103688063193948 0.26427270241964718 0 0.27355486584907379 0.24364475180805101 0 0.27103688063193948 0.26427270241964718 0 0.29692855903906679 0.25537037528416417 0 0.27355486584907379 0.24364475180805101 0 0.27103688063193948 0.26427270241964718 0 0.29803417524575498 0.27809430922643119 0 0.29692855903906679 0.25537037528416417 0 0.28125211357195179 0.28868343586208051 0 0.27103688063193948 0.26427270241964718 0 0.29803417524575498 0.27809430922643119 0 0.29803417524575498 0.27809430922643119 0 0.29692855903906679 0.25537037528416417 0 0.32239972953691409 0.26902358330948362 0 0.29692855903906679 0.25537037528416417 0 0.32239972953691409 0.26902358330948362 0 0.32448256229391081 0.244023600812113 0 0.34859232732963041 0.2656914204712259 0 0.32448256229391081 0.244023600812113 0 0.35052125483258301 0.2434514759103418 0 0.32239972953691409 0.26902358330948362 0 0.34859232732963041 0.2656914204712259 0 0.32448256229391081 0.244023600812113 0 0.32239972953691409 0.26902358330948362 0 0.34580587121379802 0.29027056413174801 0 0.34859232732963041 0.2656914204712259 0 0.32239972953691409 0.26902358330948362 0 0.34859232732963041 0.2656914204712259 0 0.29803417524575498 0.27809430922643119 0 0.32239972953691409 0.26902358330948362 0 0.31975384086217118 0.29390073052843008 0 0.32122702449841589 0.32177081607522939 0 0.30469828435187041 0.30776762192148471 0 0.31975384086217118 0.29390073052843008 0 0.32122702449841589 0.32177081607522939 0 0.31975384086217118 0.29390073052843008 0 0.33644502425256478 0.30910566618648461 0 0.31975384086217118 0.29390073052843008 0 0.33644502425256478 0.30910566618648461 0 0.34580587121379802 0.29027056413174801 0 0.32239972953691409 0.26902358330948362 0 0.31975384086217118 0.29390073052843008 0 0.34580587121379802 0.29027056413174801 0 0.34580587121379802 0.29027056413174801 0 0.35183379698966949 0.31056891257481539 0 0.36606901625265492 0.30223218437601618 0 0.33644502425256478 0.30910566618648461 0 0.34580587121379802 0.29027056413174801 0 0.35183379698966949 0.31056891257481539 0 0.36562923609293069 0.32366592916769399 0 0.35183379698966949 0.31056891257481539 0 0.36606901625265492 0.30223218437601618 0 0.36606901625265492 0.30223218437601618 0 0.37288852905391068 0.28307277276217568 0 0.38313639778678782 0.29894980138166888 0 0.34580587121379802 0.29027056413174801 0 0.36606901625265492 0.30223218437601618 0 0.37288852905391068 0.28307277276217568 0 0.37288852905391068 0.28307277276217568 0 0.37478492512234668 0.26235925763296819 0 0.34859232732963041 0.2656914204712259 0 0.37478492512234668 0.26235925763296819 0 0.34859232732963041 0.2656914204712259 0 0.37478492512234668 0.26235925763296819 0 0.34859232732963041 0.2656914204712259 0 0.35052125483258301 0.2434514759103418 0 0.34580587121379802 0.29027056413174801 0 0.37288852905391068 0.28307277276217568 0 0.34859232732963041 0.2656914204712259 0 0.40237095019481112 0.27711100542787093 0 0.40097752291506289 0.25902709479471048 0 0.38795285511664351 0.27501277358291848 0 0.40237095019481112 0.27711100542787093 0 0.38795285511664351 0.27501277358291848 0 0.39245341439736259 0.28869000139839213 0 0.37478492512234668 0.26235925763296819 0 0.40097752291506289 0.25902709479471048 0 0.37478492512234668 0.26235925763296819 0 0.40097752291506289 0.25902709479471048 0 0.38795285511664351 0.27501277358291848 0 0.37478492512234668 0.26235925763296819 0 0.40097752291506289 0.25902709479471048 0 0.39333580902427501 0.24081282939082621 0 0.37288852905391068 0.28307277276217568 0 0.37478492512234668 0.26235925763296819 0 0.38795285511664351 0.27501277358291848 0 0.37288852905391068 0.28307277276217568 0 0.38795285511664351 0.27501277358291848 0 0.39245341439736259 0.28869000139839213 0 0.37288852905391068 0.28307277276217568 0 0.38313639778678782 0.29894980138166888 0 0.39245341439736259 0.28869000139839213 0 0.38313639778678782 0.29894980138166888 0 0.40184121301557668 0.30678024061641418 0 0.38242981621443428 0.31397380775534678 0 0.36606901625265492 0.30223218437601618 0 0.38313639778678782 0.29894980138166888 0 0.38242981621443428 0.31397380775534678 0 0.38313639778678782 0.29894980138166888 0 0.40184121301557668 0.30678024061641418 0 0.39245341439736259 0.28869000139839213 0 0.40184121301557668 0.30678024061641418 0 0.39245341439736259 0.28869000139839213 0 0.4080647950624654 0.29173952990842672 0 0.40237095019481112 0.27711100542787093 0 0.39245341439736259 0.28869000139839213 0 0.4080647950624654 0.29173952990842672 0 0.4080647950624654 0.29173952990842672 0 0.42111158276914429 0.29961990628964941 0 0.41801819212357011 0.2740782959756311 0 0.42111158276914429 0.29961990628964941 0 0.41801819212357011 0.2740782959756311 0 0.42111158276914429 0.29961990628964941 0 0.41431845905081632 0.31211616404088999 0 0.42420497341471841 0.32516151660366771 0 0.40184121301557668 0.30678024061641418 0 0.41169384258873692 0.3030193229363472 0 0.41431845905081632 0.31211616404088999 0 0.4080647950624654 0.29173952990842672 0 0.41169384258873692 0.3030193229363472 0 0.42111158276914429 0.29961990628964941 0 0.40184121301557668 0.30678024061641418 0 0.4080647950624654 0.29173952990842672 0 0.41169384258873692 0.3030193229363472 0 0.41169384258873692 0.3030193229363472 0 0.42111158276914429 0.29961990628964941 0 0.41431845905081632 0.31211616404088999 0 0.42111158276914429 0.29961990628964941 0 0.42420497341471841 0.32516151660366771 0 0.42111158276914429 0.29961990628964941 0 0.42968026012840121 0.30115694743242971 0 0.43130474666914309 0.31304161877190062 0 0.42968026012840121 0.30115694743242971 0 0.44258646999382029 0.30990113159980692 0 0.42968026012840121 0.30115694743242971 0 0.44258646999382029 0.30990113159980692 0 0.43130474666914309 0.31304161877190062 0 0.42111158276914429 0.29961990628964941 0 0.42800801910193731 0.28582653817902792 0 0.41801819212357011 0.2740782959756311 0 0.42968026012840121 0.30115694743242971 0 0.42800801910193731 0.28582653817902792 0 0.44797459424715858 0.28113195035900113 0 0.42111158276914429 0.29961990628964941 0 0.42968026012840121 0.30115694743242971 0 0.42800801910193731 0.28582653817902792 0 0.4349067289361882 0.26981889711766149 0 0.41801819212357011 0.2740782959756311 0 0.42717012070777932 0.25569493195645271 0 0.42800801910193731 0.28582653817902792 0 0.4349067289361882 0.26981889711766149 0 0.44797459424715858 0.28113195035900113 0 0.42800801910193731 0.28582653817902792 0 0.4349067289361882 0.26981889711766149 0 0.41801819212357011 0.2740782959756311 0 0.40237095019481112 0.27711100542787093 0 0.4080647950624654 0.29173952990842672 0 0.41801819212357011 0.2740782959756311 0 0.40237095019481112 0.27711100542787093 0 0.40097752291506289 0.25902709479471048 0 0.41801819212357011 0.2740782959756311 0 0.40097752291506289 0.25902709479471048 0 0.42717012070777932 0.25569493195645271 0 0.40097752291506289 0.25902709479471048 0 0.41801819212357011 0.2740782959756311 0 0.42717012070777932 0.25569493195645271 0 0.40097752291506289 0.25902709479471048 0 0.42717012070777932 0.25569493195645271 0 0.41286841049430861 0.24788583003777651 0 0.42717012070777932 0.25569493195645271 0 0.45336271850049548 0.25236276911819511 0 0.42717012070777932 0.25569493195645271 0 0.45336271850049548 0.25236276911819511 0 0.44134696414428898 0.24814556957704689 0 0.4349067289361882 0.26981889711766149 0 0.42717012070777932 0.25569493195645271 0 0.45336271850049548 0.25236276911819511 0 0.44797459424715858 0.28113195035900113 0 0.45336271850049548 0.25236276911819511 0 0.4349067289361882 0.26981889711766149 0 0.44797459424715858 0.28113195035900113 0 0.45336271850049548 0.25236276911819511 0 0.44797459424715858 0.28113195035900113 0 0.46860043072286323 0.26090172283992602 0 0.47518926652314969 0.27560515809727743 0 0.44797459424715858 0.28113195035900113 0 0.45336271850049548 0.25236276911819511 0 0.46860043072286323 0.26090172283992602 0 0.45336271850049548 0.25236276911819511 0 0.46860043072286323 0.26090172283992602 0 0.48180965237011408 0.2487438147612096 0 0.45336271850049548 0.25236276911819511 0 0.48180965237011408 0.2487438147612096 0 0.46860043072286323 0.26090172283992602 0 0.48241006781490819 0.26268970127635521 0 0.48180965237011408 0.2487438147612096 0 0.46860043072286323 0.26090172283992602 0 0.48241006781490819 0.26268970127635521 0 0.47518926652314969 0.27560515809727743 0 0.48241006781490819 0.26268970127635521 0 0.47518926652314969 0.27560515809727743 0 0.48864569132575902 0.27555399191102209 0 0.48864569132575902 0.27555399191102209 0 0.5 0.25788891558126559 0 0.5 0.28784398070901179 0 0.48241006781490819 0.26268970127635521 0 0.5 0.25788891558126559 0 0.48180965237011408 0.2487438147612096 0 0.48241006781490819 0.26268970127635521 0 0.48864569132575902 0.27555399191102209 0 0.5 0.25788891558126559 0 0.49687855588093471 0.30562269631142192 0 0.5 0.28784398070901179 0 0.5 0.31779904583675789 0 0.48491490847636098 0.30901068293115042 0 0.49687855588093471 0.30562269631142192 0 0.48562912229073679 0.29374220389120048 0 0.48491490847636098 0.30901068293115042 0 0.49687855588093471 0.30562269631142192 0 0.48893996521802741 0.32077530068026477 0 0.48864569132575902 0.27555399191102209 0 0.5 0.28784398070901179 0 0.48562912229073679 0.29374220389120048 0 0.49687855588093471 0.30562269631142192 0 0.5 0.28784398070901179 0 0.48562912229073679 0.29374220389120048 0 0.47518926652314969 0.27560515809727743 0 0.48864569132575902 0.27555399191102209 0 0.48562912229073679 0.29374220389120048 0 0.47518926652314969 0.27560515809727743 0 0.48562912229073679 0.29374220389120048 0 0.46816558308298489 0.29083511245767268 0 0.48562912229073679 0.29374220389120048 0 0.47222103054853309 0.30536857664361422 0 0.46816558308298489 0.29083511245767268 0 0.48491490847636098 0.30901068293115042 0 0.48562912229073679 0.29374220389120048 0 0.47222103054853309 0.30536857664361422 0 0.48491490847636098 0.30901068293115042 0 0.47222103054853309 0.30536857664361422 0 0.47648252662976798 0.31886183994020412 0 0.47222103054853309 0.30536857664361422 0 0.45866337291811637 0.30169365927876157 0 0.46179392227446953 0.32291451832445861 0 0.45866337291811637 0.30169365927876157 0 0.44258646999382029 0.30990113159980692 0 0.46179392227446953 0.32291451832445861 0 0.47222103054853309 0.30536857664361422 0 0.45866337291811637 0.30169365927876157 0 0.46816558308298489 0.29083511245767268 0 0.44797459424715858 0.28113195035900113 0 0.45866337291811637 0.30169365927876157 0 0.46816558308298489 0.29083511245767268 0 0.44797459424715858 0.28113195035900113 0 0.47518926652314969 0.27560515809727743 0 0.46816558308298489 0.29083511245767268 0 0.44797459424715858 0.28113195035900113 0 0.44258646999382029 0.30990113159980692 0 0.42968026012840121 0.30115694743242971 0 0.44797459424715858 0.28113195035900113 0 0.44258646999382029 0.30990113159980692 0 0.44797459424715858 0.28113195035900113 0 0.45866337291811637 0.30169365927876157 0 0.44258646999382029 0.30990113159980692 0 0.44258646999382029 0.30990113159980692 0 0.46179392227446953 0.32291451832445861 0 0.44258646999382029 0.30990113159980692 0 0.43894044703962998 0.32936859193394902 0 0.46179392227446953 0.32291451832445861 0 0.44258646999382029 0.30990113159980692 0 0.43894044703962998 0.32936859193394902 0 0.44258646999382029 0.30990113159980692 0 0.43894044703962998 0.32936859193394902 0 0.43130474666914309 0.31304161877190062 0 0.43894044703962998 0.32936859193394902 0 0.45181909328986353 0.33594590439129729 0 0.43529442408543872 0.34883605226809089 0 0.43894044703962998 0.32936859193394902 0 0.45181909328986353 0.33594590439129729 0 0.46179392227446953 0.32291451832445861 0 0.45181909328986353 0.33594590439129729 0 0.46495921083649527 0.33796731498031379 0 0.45493863887308472 0.34850758154427958 0 0.45181909328986353 0.33594590439129729 0 0.46495921083649527 0.33796731498031379 0 0.46179392227446953 0.32291451832445861 0 0.47648252662976798 0.31886183994020412 0 0.48100137455512032 0.33592790504910791 0 0.48893996521802741 0.32077530068026477 0 0.46179392227446953 0.32291451832445861 0 0.47648252662976798 0.31886183994020412 0 0.48100137455512032 0.33592790504910791 0 0.47222103054853309 0.30536857664361422 0 0.46179392227446953 0.32291451832445861 0 0.47648252662976798 0.31886183994020412 0 0.48491490847636098 0.30901068293115042 0 0.47648252662976798 0.31886183994020412 0 0.48893996521802741 0.32077530068026477 0 0.46179392227446953 0.32291451832445861 0 0.48100137455512032 0.33592790504910791 0 0.46495921083649527 0.33796731498031379 0 0.48100137455512032 0.33592790504910791 0 0.47458285366073072 0.34817911082046721 0 0.46495921083649527 0.33796731498031379 0 0.46179392227446953 0.32291451832445861 0 0.48100137455512032 0.33592790504910791 0 0.48100137455512032 0.33592790504910791 0 0.47458285366073072 0.34817911082046721 0 0.48100137455512032 0.33592790504910791 0 0.48893996521802741 0.32077530068026477 0 0.48100137455512032 0.33592790504910791 0 0.4984937498586452 0.34777929695842291 0 0.5 0.31779904583675789 0 0.48893996521802741 0.32077530068026477 0 0.4984937498586452 0.34777929695842291 0 0.5 0.31779904583675789 0 0.4984937498586452 0.34777929695842291 0 0.50000000000000433 0.34775411096450393 0 0.48100137455512032 0.33592790504910791 0 0.48893996521802741 0.32077530068026477 0 0.4984937498586452 0.34777929695842291 0 0.49687855588093471 0.30562269631142192 0 0.48893996521802741 0.32077530068026477 0 0.49687855588093471 0.30562269631142192 0 0.5 0.31779904583675789 0 0.48893996521802741 0.32077530068026477 0 0.5 0.37175840028027313 0 0.48688174284785979 0.35971936811564431 0 0.50000000000000433 0.34775411096450393 0 0.5 0.37175840028027313 0 0.48688174284785979 0.35971936811564431 0 0.48177296974371542 0.3780796821533936 0 0.48100137455512032 0.33592790504910791 0 0.4984937498586452 0.34777929695842291 0 0.47458285366073072 0.34817911082046721 0 0.48688174284785979 0.35971936811564431 0 0.4984937498586452 0.34777929695842291 0 0.47458285366073072 0.34817911082046721 0 0.48688174284785979 0.35971936811564431 0 0.4984937498586452 0.34777929695842291 0 0.50000000000000433 0.34775411096450393 0 0.4984937498586452 0.34777929695842291 0 0.47458285366073072 0.34817911082046721 0 0.4984937498586452 0.34777929695842291 0 0.50000000000000433 0.34775411096450393 0 0.48688174284785979 0.35971936811564431 0 0.47458285366073072 0.34817911082046721 0 0.46644088382406917 0.36371991056145853 0 0.47458285366073072 0.34817911082046721 0 0.46644088382406917 0.36371991056145853 0 0.46644088382406917 0.36371991056145853 0 0.45829891398740957 0.37926071030245079 0 0.48177296974371542 0.3780796821533936 0 0.48688174284785979 0.35971936811564431 0 0.46644088382406917 0.36371991056145853 0 0.48177296974371542 0.3780796821533936 0 0.46644088382406917 0.36371991056145853 0 0.45829891398740957 0.37926071030245079 0 0.46644088382406917 0.36371991056145853 0 0.45450488254489102 0.36219879314378839 0 0.45829891398740957 0.37926071030245079 0 0.46495921083649527 0.33796731498031379 0 0.47458285366073072 0.34817911082046721 0 0.45493863887308472 0.34850758154427958 0 0.47458285366073072 0.34817911082046721 0 0.45493863887308472 0.34850758154427958 0 0.47458285366073072 0.34817911082046721 0 0.46644088382406917 0.36371991056145853 0 0.45493863887308472 0.34850758154427958 0 0.46644088382406917 0.36371991056145853 0 0.45450488254489102 0.36219879314378839 0 0.45493863887308472 0.34850758154427958 0 0.45181909328986353 0.33594590439129729 0 0.45493863887308472 0.34850758154427958 0 0.43529442408543872 0.34883605226809089 0 0.45493863887308472 0.34850758154427958 0 0.44448268479035308 0.35511800724889642 0 0.43529442408543872 0.34883605226809089 0 0.45493863887308472 0.34850758154427958 0 0.43529442408543872 0.34883605226809089 0 0.45450488254489102 0.36219879314378839 0 0.45493863887308472 0.34850758154427958 0 0.44448268479035308 0.35511800724889642 0 0.44448268479035308 0.35511800724889642 0 0.44279863902385319 0.36498191861006751 0 0.43487683942449812 0.35106569067825599 0 0.44448268479035308 0.35511800724889642 0 0.43529442408543872 0.34883605226809089 0 0.43487683942449812 0.35106569067825599 0 0.45450488254489102 0.36219879314378839 0 0.44279863902385319 0.36498191861006751 0 0.45829891398740957 0.37926071030245079 0 0.44279863902385319 0.36498191861006751 0 0.45829891398740957 0.37926071030245079 0 0.45450488254489102 0.36219879314378839 0 0.44448268479035308 0.35511800724889642 0 0.44279863902385319 0.36498191861006751 0 0.42892444364691579 0.3641293946929936 0 0.42225433889660879 0.37545697575276449 0 0.43605286711449009 0.38080977408974359 0 0.44279863902385319 0.36498191861006751 0 0.42892444364691579 0.3641293946929936 0 0.43605286711449009 0.38080977408974359 0 0.44279863902385319 0.36498191861006751 0 0.42892444364691579 0.3641293946929936 0 0.42729836406029548 0.35070312691768563 0 0.42892444364691579 0.3641293946929936 0 0.41660844069210962 0.35988002802349189 0 0.42225433889660879 0.37545697575276449 0 0.41660844069210962 0.35988002802349189 0 0.40918213701441342 0.3736144609854074 0 0.42225433889660879 0.37545697575276449 0 0.41660844069210962 0.35988002802349189 0 0.40918213701441342 0.3736144609854074 0 0.40205795884979889 0.36380219258680641 0 0.40642652845595439 0.35168475710611302 0 0.41593005466970517 0.35003896004439389 0 0.41338688547046137 0.33788792813028518 0 0.41660844069210962 0.35988002802349189 0 0.40642652845595439 0.35168475710611302 0 0.40205795884979889 0.36380219258680641 0 0.41660844069210962 0.35988002802349189 0 0.40642652845595439 0.35168475710611302 0 0.41593005466970517 0.35003896004439389 0 0.41660844069210962 0.35988002802349189 0 0.41593005466970517 0.35003896004439389 0 0.42729836406029548 0.35070312691768563 0 0.42729836406029548 0.35070312691768563 0 0.41338688547046137 0.33788792813028518 0 0.41593005466970517 0.35003896004439389 0 0.42729836406029548 0.35070312691768563 0 0.41338688547046137 0.33788792813028518 0 0.42892444364691579 0.3641293946929936 0 0.41660844069210962 0.35988002802349189 0 0.42729836406029548 0.35070312691768563 0 0.42892444364691579 0.3641293946929936 0 0.42729836406029548 0.35070312691768563 0 0.44279863902385319 0.36498191861006751 0 0.42729836406029548 0.35070312691768563 0 0.43487683942449812 0.35106569067825599 0 0.44279863902385319 0.36498191861006751 0 0.42729836406029548 0.35070312691768563 0 0.43109136567724748 0.3489063315667284 0 0.43529442408543872 0.34883605226809089 0 0.42729836406029548 0.35070312691768563 0 0.43109136567724748 0.3489063315667284 0 0.43487683942449812 0.35106569067825599 0 0.43109136567724748 0.3489063315667284 0 0.43529442408543872 0.34883605226809089 0 0.43487683942449812 0.35106569067825599 0 0.43529442408543872 0.34883605226809089 0 0.43487683942449812 0.35106569067825599 0 0.42729836406029548 0.35070312691768563 0 0.42420497341471841 0.32516151660366771 0 0.43894044703962998 0.32936859193394902 0 0.43529442408543872 0.34883605226809089 0 0.43894044703962998 0.32936859193394902 0 0.43109136567724748 0.3489063315667284 0 0.43529442408543872 0.34883605226809089 0 0.42729836406029548 0.35070312691768563 0 0.43109136567724748 0.3489063315667284 0 0.42420497341471841 0.32516151660366771 0 0.43894044703962998 0.32936859193394902 0 0.43109136567724748 0.3489063315667284 0 0.42420497341471841 0.32516151660366771 0 0.43894044703962998 0.32936859193394902 0 0.43130474666914309 0.31304161877190062 0 0.42420497341471841 0.32516151660366771 0 0.42111158276914429 0.29961990628964941 0 0.43130474666914309 0.31304161877190062 0 0.42420497341471841 0.32516151660366771 0 0.40184121301557668 0.30678024061641418 0 0.41431845905081632 0.31211616404088999 0 0.41140534993910638 0.32360132811636988 0 0.41431845905081632 0.31211616404088999 0 0.42420497341471841 0.32516151660366771 0 0.41140534993910638 0.32360132811636988 0 0.42729836406029548 0.35070312691768563 0 0.42420497341471841 0.32516151660366771 0 0.41338688547046137 0.33788792813028518 0 0.42420497341471841 0.32516151660366771 0 0.41140534993910638 0.32360132811636988 0 0.41338688547046137 0.33788792813028518 0 0.41140534993910638 0.32360132811636988 0 0.41338688547046137 0.33788792813028518 0 0.39947540688062583 0.32507272934288628 0 0.41338688547046137 0.33788792813028518 0 0.39947540688062583 0.32507272934288628 0 0.40642652845595439 0.35168475710611302 0 0.41338688547046137 0.33788792813028518 0 0.39105145014164849 0.3414869239971704 0 0.41338688547046137 0.33788792813028518 0 0.39105145014164849 0.3414869239971704 0 0.39947540688062583 0.32507272934288628 0 0.40184121301557668 0.30678024061641418 0 0.41140534993910638 0.32360132811636988 0 0.39947540688062583 0.32507272934288628 0 0.40184121301557668 0.30678024061641418 0 0.39947540688062583 0.32507272934288628 0 0.38242981621443428 0.31397380775534678 0 0.36562923609293069 0.32366592916769399 0 0.38242981621443428 0.31397380775534678 0 0.38128435600444488 0.32837669887387311 0 0.39947540688062583 0.32507272934288628 0 0.38242981621443428 0.31397380775534678 0 0.38128435600444488 0.32837669887387311 0 0.39105145014164849 0.3414869239971704 0 0.39947540688062583 0.32507272934288628 0 0.38128435600444488 0.32837669887387311 0 0.36518945593320651 0.34509967395937191 0 0.39105145014164849 0.3414869239971704 0 0.38128435600444488 0.32837669887387311 0 0.36518945593320651 0.34509967395937191 0 0.39105145014164849 0.3414869239971704 0 0.3855881021147175 0.35910908792858098 0 0.36474967577348072 0.36653341875104961 0 0.3855881021147175 0.35910908792858098 0 0.3855881021147175 0.35910908792858098 0 0.39248458597179969 0.37472262889043839 0 0.3773824667175657 0.37546563606013739 0 0.36474967577348072 0.36653341875104961 0 0.3855881021147175 0.35910908792858098 0 0.3773824667175657 0.37546563606013739 0 0.40918213701441342 0.3736144609854074 0 0.39248458597179969 0.37472262889043839 0 0.40205795884979889 0.36380219258680641 0 0.3855881021147175 0.35910908792858098 0 0.39248458597179969 0.37472262889043839 0 0.40205795884979889 0.36380219258680641 0 0.40642652845595439 0.35168475710611302 0 0.39105145014164849 0.3414869239971704 0 0.3855881021147175 0.35910908792858098 0 0.40642652845595439 0.35168475710611302 0 0.3855881021147175 0.35910908792858098 0 0.40642652845595439 0.35168475710611302 0 0.3855881021147175 0.35910908792858098 0 0.40205795884979889 0.36380219258680641 0 0.39221066862400811 0.40518894945558848 0 0.39940032860097008 0.38986983405391068 0 0.41033309730305728 0.40785957742124029 0 0.40918213701441342 0.3736144609854074 0 0.39248458597179969 0.37472262889043839 0 0.39940032860097008 0.38986983405391068 0 0.39248458597179969 0.37472262889043839 0 0.39940032860097008 0.38986983405391068 0 0.38026367080056678 0.39066664182047522 0 0.39248458597179969 0.37472262889043839 0 0.3773824667175657 0.37546563606013739 0 0.38026367080056678 0.39066664182047522 0 0.39221066862400811 0.40518894945558848 0 0.39940032860097008 0.38986983405391068 0 0.38026367080056678 0.39066664182047522 0 0.39221066862400811 0.40518894945558848 0 0.38026367080056678 0.39066664182047522 0 0.37744029411777058 0.41252948965876268 0 0.39221066862400811 0.40518894945558848 0 0.37744029411777058 0.41252948965876268 0 0.39361595229767549 0.42501920432355378 0 0.365542703577178 0.42914551292816783 0 0.39361595229767549 0.42501920432355378 0 0.37809165231809289 0.44568724501072521 0 0.365542703577178 0.42914551292816783 0 0.37744029411777058 0.41252948965876268 0 0.39361595229767549 0.42501920432355378 0 0.365542703577178 0.42914551292816783 0 0.39361595229767549 0.42501920432355378 0 0.39361595229767549 0.42501920432355378 0 0.41035062152962531 0.4256058815429955 0 0.40092741287151468 0.44093224530230651 0 0.39361595229767549 0.42501920432355378 0 0.40092741287151468 0.44093224530230651 0 0.37809165231809289 0.44568724501072521 0 0.39361595229767549 0.42501920432355378 0 0.41033309730305728 0.40785957742124029 0 0.41035062152962531 0.4256058815429955 0 0.39221066862400811 0.40518894945558848 0 0.39361595229767549 0.42501920432355378 0 0.41033309730305728 0.40785957742124029 0 0.41033309730305728 0.40785957742124029 0 0.41035062152962531 0.4256058815429955 0 0.42646345733135449 0.42088686527347441 0 0.41035062152962531 0.4256058815429955 0 0.4216403136361262 0.43569606407888728 0 0.42646345733135449 0.42088686527347441 0 0.41035062152962531 0.4256058815429955 0 0.4216403136361262 0.43569606407888728 0 0.40092741287151468 0.44093224530230651 0 0.43504649219903713 0.43385430946487219 0 0.42646345733135449 0.42088686527347441 0 0.44292677264660579 0.42392515796168401 0 0.4216403136361262 0.43569606407888728 0 0.43504649219903713 0.43385430946487219 0 0.42646345733135449 0.42088686527347441 0 0.4216403136361262 0.43569606407888728 0 0.43504649219903713 0.43385430946487219 0 0.4309855774719657 0.44262377444488737 0 0.41033309730305728 0.40785957742124029 0 0.42646345733135449 0.42088686527347441 0 0.43473852811684172 0.40482082561786309 0 0.42646345733135449 0.42088686527347441 0 0.43473852811684172 0.40482082561786309 0 0.44292677264660579 0.42392515796168401 0 0.43473852811684172 0.40482082561786309 0 0.42003555557297712 0.38799376876492359 0 0.43605286711449009 0.38080977408974359 0 0.41033309730305728 0.40785957742124029 0 0.43473852811684172 0.40482082561786309 0 0.42003555557297712 0.38799376876492359 0 0.39940032860097008 0.38986983405391068 0 0.41033309730305728 0.40785957742124029 0 0.42003555557297712 0.38799376876492359 0 0.40918213701441342 0.3736144609854074 0 0.39940032860097008 0.38986983405391068 0 0.42003555557297712 0.38799376876492359 0 0.40918213701441342 0.3736144609854074 0 0.42003555557297712 0.38799376876492359 0 0.42225433889660879 0.37545697575276449 0 0.42003555557297712 0.38799376876492359 0 0.42225433889660879 0.37545697575276449 0 0.43605286711449009 0.38080977408974359 0 0.44279863902385319 0.36498191861006751 0 0.43605286711449009 0.38080977408974359 0 0.45829891398740957 0.37926071030245079 0 0.43605286711449009 0.38080977408974359 0 0.44916269767969552 0.39669925538146661 0 0.45829891398740957 0.37926071030245079 0 0.43473852811684172 0.40482082561786309 0 0.43605286711449009 0.38080977408974359 0 0.44916269767969552 0.39669925538146661 0 0.43473852811684172 0.40482082561786309 0 0.44916269767969552 0.39669925538146661 0 0.45819524916971172 0.41557138043250991 0 0.44916269767969552 0.39669925538146661 0 0.47914945699370431 0.3984681476517854 0 0.45819524916971172 0.41557138043250991 0 0.44916269767969552 0.39669925538146661 0 0.45829891398740957 0.37926071030245079 0 0.47914945699370431 0.3984681476517854 0 0.45829891398740957 0.37926071030245079 0 0.47914945699370431 0.3984681476517854 0 0.44916269767969552 0.39669925538146661 0 0.45829891398740957 0.37926071030245079 0 0.45829891398740957 0.37926071030245079 0 0.48177296974371542 0.3780796821533936 0 0.47914945699370431 0.3984681476517854 0 0.47914945699370431 0.3984681476517854 0 0.5 0.39471699264069632 0 0.49999999999999928 0.41767558500111929 0 0.48177296974371542 0.3780796821533936 0 0.47914945699370431 0.3984681476517854 0 0.5 0.39471699264069632 0 0.5 0.37175840028027313 0 0.48177296974371542 0.3780796821533936 0 0.5 0.39471699264069632 0 0.48950419912568011 0.43203648207583117 0 0.49999999999999928 0.41767558500111929 0 0.47941257652712138 0.42859526255965119 0 0.48950419912568011 0.43203648207583117 0 0.49999999999999928 0.41767558500111929 0 0.50000000000000022 0.44212157098762489 0 0.49999999999999928 0.41767558500111929 0 0.47638758820359789 0.4177788365799131 0 0.47941257652712138 0.42859526255965119 0 0.47914945699370431 0.3984681476517854 0 0.49999999999999928 0.41767558500111929 0 0.47638758820359789 0.4177788365799131 0 0.47914945699370431 0.3984681476517854 0 0.49999999999999928 0.41767558500111929 0 0.47914945699370431 0.3984681476517854 0 0.47638758820359789 0.4177788365799131 0 0.45819524916971172 0.41557138043250991 0 0.47638758820359789 0.4177788365799131 0 0.46959145424244531 0.42892785421681912 0 0.47941257652712138 0.42859526255965119 0 0.48950419912568011 0.43203648207583117 0 0.47941257652712138 0.42859526255965119 0 0.47860421997559988 0.43975350975492877 0 0.46959145424244531 0.42892785421681912 0 0.47941257652712138 0.42859526255965119 0 0.47860421997559988 0.43975350975492877 0 0.46959145424244531 0.42892785421681912 0 0.45720843995119947 0.43738544852223271 0 0.45819524916971172 0.41557138043250991 0 0.46959145424244531 0.42892785421681912 0 0.45720843995119947 0.43738544852223271 0 0.47860421997559988 0.43975350975492877 0 0.47638758820359789 0.4177788365799131 0 0.46959145424244531 0.42892785421681912 0 0.45819524916971172 0.41557138043250991 0 0.43473852811684172 0.40482082561786309 0 0.45819524916971172 0.41557138043250991 0 0.44292677264660579 0.42392515796168401 0 0.45720843995119947 0.43738544852223271 0 0.45819524916971172 0.41557138043250991 0 0.44292677264660579 0.42392515796168401 0 0.45720843995119947 0.43738544852223271 0 0.44292677264660579 0.42392515796168401 0 0.44501475256406542 0.43710487641451851 0 0.43504649219903713 0.43385430946487219 0 0.44292677264660579 0.42392515796168401 0 0.44501475256406542 0.43710487641451851 0 0.44501475256406542 0.43710487641451851 0 0.44086930591740259 0.443703986550611 0 0.44426520485267701 0.44828521544284999 0 0.43504649219903713 0.43385430946487219 0 0.44501475256406542 0.43710487641451851 0 0.44086930591740259 0.443703986550611 0 0.44576605402647751 0.45131382091928901 0 0.43097115028835131 0.45382894378787952 0 0.4371491165808723 0.44919465112914592 0 0.44086930591740259 0.443703986550611 0 0.44106718496795649 0.44783878756079798 0 0.4371491165808723 0.44919465112914592 0 0.44106718496795649 0.44783878756079798 0 0.44576605402647751 0.45131382091928901 0 0.4371491165808723 0.44919465112914592 0 0.44086930591740259 0.443703986550611 0 0.44426520485267701 0.44828521544284999 0 0.44106718496795649 0.44783878756079798 0 0.44426520485267701 0.44828521544284999 0 0.44576605402647751 0.45131382091928901 0 0.44086930591740259 0.443703986550611 0 0.44106718496795649 0.44783878756079798 0 0.44426520485267701 0.44828521544284999 0 0.45720843995119947 0.43738544852223271 0 0.44501475256406542 0.43710487641451851 0 0.44426520485267701 0.44828521544284999 0 0.44576605402647751 0.45131382091928901 0 0.44334270512280699 0.46695283516179431 0 0.45751300038554987 0.46615712058798953 0 0.44426520485267701 0.44828521544284999 0 0.45751300038554987 0.46615712058798953 0 0.44576605402647751 0.45131382091928901 0 0.44334270512280699 0.46695283516179431 0 0.42744619309891668 0.4675425472795256 0 0.44426520485267701 0.44828521544284999 0 0.44576605402647751 0.45131382091928901 0 0.45751300038554987 0.46615712058798953 0 0.44426520485267701 0.44828521544284999 0 0.45751300038554987 0.46615712058798953 0 0.47213260242633898 0.44992772785007767 0 0.44426520485267701 0.44828521544284999 0 0.47213260242633898 0.44992772785007767 0 0.45720843995119947 0.43738544852223271 0 0.47860421997559988 0.43975350975492877 0 0.45720843995119947 0.43738544852223271 0 0.44426520485267701 0.44828521544284999 0 0.47213260242633898 0.44992772785007767 0 0.47213260242633898 0.44992772785007767 0 0.47860421997559988 0.43975350975492877 0 0.50000000000000067 0.45157024025730719 0 0.45720843995119947 0.43738544852223271 0 0.47213260242633898 0.44992772785007767 0 0.47860421997559988 0.43975350975492877 0 0.47213260242633898 0.44992772785007767 0 0.48064266697128027 0.4673483066551633 0 0.50000000000000067 0.45157024025730719 0 0.45751300038554987 0.46615712058798953 0 0.47213260242633898 0.44992772785007767 0 0.48064266697128027 0.4673483066551633 0 0.48064266697128027 0.4673483066551633 0 0.5 0.46843982966384828 0 0.50000000000000067 0.45157024025730719 0 0.47860421997559988 0.43975350975492877 0 0.50000000000000022 0.44212157098762489 0 0.47860421997559988 0.43975350975492877 0 0.50000000000000067 0.45157024025730719 0 0.50000000000000022 0.44212157098762489 0 0.47213260242633898 0.44992772785007767 0 0.50000000000000067 0.45157024025730719 0 0.48950419912568011 0.43203648207583117 0 0.47860421997559988 0.43975350975492877 0 0.50000000000000022 0.44212157098762489 0 0.48834007405180069 0.49233461120087918 0 0.50000000000000222 0.48530941907038949 0 0.47076079591842229 0.48402902573312923 0 0.48834007405180069 0.49233461120087918 0 0.5 0.5 0 0.48259950028877657 0.49999999999999922 0 0.50000000000000222 0.48530941907038949 0 0.47076079591842229 0.48402902573312923 0 0.48834007405180069 0.49233461120087918 0 0.5 0.5 0 0.50000000000000222 0.48530941907038949 0 0.50000000000000222 0.48530941907038949 0 0.48785086572242647 0.47628164528063233 0 0.47076079591842229 0.48402902573312923 0 0.48064266697128027 0.4673483066551633 0 0.5 0.46843982966384828 0 0.48785086572242647 0.47628164528063233 0 0.5 0.46843982966384828 0 0.50000000000000222 0.48530941907038949 0 0.48785086572242647 0.47628164528063233 0 0.45751300038554987 0.46615712058798953 0 0.48064266697128027 0.4673483066551633 0 0.47076079591842229 0.48402902573312923 0 0.48064266697128027 0.4673483066551633 0 0.48785086572242647 0.47628164528063233 0 0.47076079591842229 0.48402902573312923 0 0.47076079591842229 0.48402902573312923 0 0.48259950028877657 0.49999999999999922 0 0.45965124302753141 0.5 0 0.48834007405180069 0.49233461120087918 0 0.47076079591842229 0.48402902573312923 0 0.48259950028877657 0.49999999999999922 0 0.47076079591842229 0.48402902573312923 0 0.48259950028877657 0.49999999999999922 0 0.47076079591842229 0.48402902573312923 0 0.45965124302753141 0.5 0 0.44264557298028417 0.48279785186037327 0 0.45751300038554987 0.46615712058798953 0 0.47076079591842229 0.48402902573312923 0 0.47076079591842229 0.48402902573312923 0 0.44264557298028417 0.48279785186037327 0 0.45751300038554987 0.46615712058798953 0 0.47076079591842229 0.48402902573312923 0 0.44264557298028417 0.48279785186037327 0 0.44334270512280699 0.46695283516179431 0 0.44264557298028417 0.48279785186037327 0 0.42744619309891668 0.4675425472795256 0 0.44334270512280699 0.46695283516179431 0 0.45751300038554987 0.46615712058798953 0 0.44264557298028417 0.48279785186037327 0 0.45965124302753141 0.5 0 0.44264557298028417 0.48279785186037327 0 0.43670298576628619 0.5 0 0.44264557298028417 0.48279785186037327 0 0.42814010978677508 0.48883471415535268 0 0.41453035004214622 0.48156667798761449 0 0.43670298576628619 0.5 0 0.42814010978677508 0.48883471415535268 0 0.41868153035838401 0.49097432677342312 0 0.44264557298028417 0.48279785186037327 0 0.43670298576628619 0.5 0 0.42814010978677508 0.48883471415535268 0 0.43670298576628619 0.5 0 0.41375472850504103 0.5 0 0.41868153035838401 0.49097432677342312 0 0.41375472850504103 0.5 0 0.41868153035838401 0.49097432677342312 0 0.40912633217135602 0.48377127363976219 0 0.42814010978677508 0.48883471415535268 0 0.41868153035838401 0.49097432677342312 0 0.41453035004214622 0.48156667798761449 0 0.41868153035838401 0.49097432677342312 0 0.40912633217135602 0.48377127363976219 0 0.41453035004214622 0.48156667798761449 0 0.40882198151684829 0.470458307354371 0 0.40912633217135602 0.48377127363976219 0 0.42744619309891668 0.4675425472795256 0 0.40912633217135602 0.48377127363976219 0 0.42744619309891668 0.4675425472795256 0 0.40912633217135602 0.48377127363976219 0 0.41453035004214622 0.48156667798761449 0 0.42744619309891668 0.4675425472795256 0 0.40882198151684829 0.470458307354371 0 0.40912633217135602 0.48377127363976219 0 0.40257181831080802 0.47789339995616598 0 0.44264557298028417 0.48279785186037327 0 0.41453035004214622 0.48156667798761449 0 0.44264557298028417 0.48279785186037327 0 0.41453035004214622 0.48156667798761449 0 0.42744619309891668 0.4675425472795256 0 0.44576605402647751 0.45131382091928901 0 0.42744619309891668 0.4675425472795256 0 0.44576605402647751 0.45131382091928901 0 0.43097115028835131 0.45382894378787952 0 0.42744619309891668 0.4675425472795256 0 0.43097115028835131 0.45382894378787952 0 0.42744619309891668 0.4675425472795256 0 0.41709851720120961 0.46055572465752248 0 0.44086930591740259 0.443703986550611 0 0.4309855774719657 0.44262377444488737 0 0.4371491165808723 0.44919465112914592 0 0.43504649219903713 0.43385430946487219 0 0.44086930591740259 0.443703986550611 0 0.4309855774719657 0.44262377444488737 0 0.43097115028835131 0.45382894378787952 0 0.4309855774719657 0.44262377444488737 0 0.4371491165808723 0.44919465112914592 0 0.43097115028835131 0.45382894378787952 0 0.4309855774719657 0.44262377444488737 0 0.41665312800777271 0.44940921386284588 0 0.4216403136361262 0.43569606407888728 0 0.4309855774719657 0.44262377444488737 0 0.41665312800777271 0.44940921386284588 0 0.41665312800777271 0.44940921386284588 0 0.4029362549212489 0.45832899449672349 0 0.40092741287151468 0.44093224530230651 0 0.4216403136361262 0.43569606407888728 0 0.41665312800777271 0.44940921386284588 0 0.40092741287151468 0.44093224530230651 0 0.40882198151684829 0.470458307354371 0 0.42744619309891668 0.4675425472795256 0 0.41709851720120961 0.46055572465752248 0 0.43097115028835131 0.45382894378787952 0 0.41665312800777271 0.44940921386284588 0 0.41709851720120961 0.46055572465752248 0 0.41665312800777271 0.44940921386284588 0 0.41709851720120961 0.46055572465752248 0 0.4029362549212489 0.45832899449672349 0 0.40882198151684829 0.470458307354371 0 0.41709851720120961 0.46055572465752248 0 0.4029362549212489 0.45832899449672349 0 0.40882198151684829 0.470458307354371 0 0.4029362549212489 0.45832899449672349 0 0.3944208343110962 0.47305259584339332 0 0.4029362549212489 0.45832899449672349 0 0.38943508825963058 0.45629052964312111 0 0.3944208343110962 0.47305259584339332 0 0.4029362549212489 0.45832899449672349 0 0.40092741287151468 0.44093224530230651 0 0.38943508825963058 0.45629052964312111 0 0.40092741287151468 0.44093224530230651 0 0.37809165231809289 0.44568724501072521 0 0.38943508825963058 0.45629052964312111 0 0.37809165231809289 0.44568724501072521 0 0.38943508825963058 0.45629052964312111 0 0.37844435483634198 0.4675903904274426 0 0.38943508825963058 0.45629052964312111 0 0.37844435483634198 0.4675903904274426 0 0.3944208343110962 0.47305259584339332 0 0.37844435483634198 0.4675903904274426 0 0.38120033573297152 0.48442634992442057 0 0.3944208343110962 0.47305259584339332 0 0.38120033573297152 0.48442634992442057 0 0.3944208343110962 0.47305259584339332 0 0.39562515835400552 0.48382872387274839 0 0.36196284501337178 0.5 0 0.38120033573297152 0.48442634992442057 0 0.39080647124379558 0.49999999999999922 0 0.38120033573297152 0.48442634992442057 0 0.39080647124379558 0.49999999999999922 0 0.39562515835400552 0.48382872387274839 0 0.40912633217135602 0.48377127363976219 0 0.39080647124379558 0.49999999999999922 0 0.40912633217135602 0.48377127363976219 0 0.39080647124379558 0.49999999999999922 0 0.39562515835400552 0.48382872387274839 0 0.41375472850504103 0.5 0 0.40912633217135602 0.48377127363976219 0 0.39080647124379558 0.49999999999999922 0 0.40912633217135602 0.48377127363976219 0 0.40257181831080802 0.47789339995616598 0 0.39562515835400552 0.48382872387274839 0 0.40882198151684829 0.470458307354371 0 0.40257181831080802 0.47789339995616598 0 0.3944208343110962 0.47305259584339332 0 0.40257181831080802 0.47789339995616598 0 0.3944208343110962 0.47305259584339332 0 0.39562515835400552 0.48382872387274839 0 0.34137977846588119 0.091947059702449957 0 0.3184977734976509 0.082531855017860187 0 0.34137977846588119 0.091947059702449957 0 0.33853514524224232 0.092154422351098803 0 0.3184977734976509 0.082531855017860187 0 0.33853514524224232 0.092154422351098803 0 0.3184977734976509 0.082531855017860187 0 0.3305269393921435 0.093893314460775035 0 0.34137977846588119 0.091947059702449957 0 0.33488127772135701 0.070909675734900868 0 0.3184977734976509 0.082531855017860187 0 0.33488127772135701 0.070909675734900868 0 0.35624300874513559 0.071190975121652081 0 0.33828509493208109 0.051113002016081502 0 0.3184977734976509 0.082531855017860187 0 0.31750720709783492 0.060828210965220328 0 0.30506359630307739 0.067813250175554993 0 0.33488127772135701 0.070909675734900868 0 0.32846421329825382 0.059059627678852658 0 0.31750720709783492 0.060828210965220328 0 0.33488127772135701 0.070909675734900868 0 0.3184977734976509 0.082531855017860187 0 0.31750720709783492 0.060828210965220328 0 0.3184977734976509 0.082531855017860187 0 0.3254096333834442 0.096971455496547829 0 0.3305269393921435 0.093893314460775035 0 0.3184977734976509 0.082531855017860187 0 0.3254096333834442 0.096971455496547829 0 0.31111548734401751 0.094174984339189319 0 0.3254096333834442 0.096971455496547829 0 0.33219394353324039 0.1121017755840282 0 0.31111548734401751 0.094174984339189319 0 0.33219394353324039 0.1121017755840282 0 0.31111548734401751 0.094174984339189319 0 0.33219394353324039 0.1121017755840282 0 0.31151194808720201 0.1150643222194616 0 0.31111548734401751 0.094174984339189319 0 0.33219394353324039 0.1121017755840282 0 0.31151194808720201 0.1150643222194616 0 0.32387679174541939 0.1297141718462434 0 0.33219394353324039 0.1121017755840282 0 0.32387679174541939 0.1297141718462434 0 0.35327239972246333 0.1300285668288671 0 0.33219394353324039 0.1121017755840282 0 0.35327239972246333 0.1300285668288671 0 0.33219394353324039 0.1121017755840282 0 0.34279585490336462 0.1026082003979065 0 0.35159211237321392 0.11222190062690381 0 0.33853514524224232 0.092154422351098803 0 0.3305269393921435 0.093893314460775035 0 0.33650548478629722 0.09727411407467923 0 0.3254096333834442 0.096971455496547829 0 0.33351858274250701 0.1005678965871936 0 0.3305269393921435 0.093893314460775035 0 0.33351858274250701 0.1005678965871936 0 0.3305269393921435 0.093893314460775035 0 0.33650548478629722 0.09727411407467923 0 0.3254096333834442 0.096971455496547829 0 0.33219394353324039 0.1121017755840282 0 0.33351858274250701 0.1005678965871936 0 0.33219394353324039 0.1121017755840282 0 0.33351858274250701 0.1005678965871936 0 0.34279585490336462 0.1026082003979065 0 0.33351858274250701 0.1005678965871936 0 0.34279585490336462 0.1026082003979065 0 0.33650548478629722 0.09727411407467923 0 0.33853514524224232 0.092154422351098803 0 0.34279585490336462 0.1026082003979065 0 0.33650548478629722 0.09727411407467923 0 0.34279585490336462 0.1026082003979065 0 0.35159211237321392 0.11222190062690381 0 0.36426178343411147 0.1013622643870397 0 0.33853514524224232 0.092154422351098803 0 0.34279585490336462 0.1026082003979065 0 0.36426178343411147 0.1013622643870397 0 0.34137977846588119 0.091947059702449957 0 0.33853514524224232 0.092154422351098803 0 0.36426178343411147 0.1013622643870397 0 0.33853514524224232 0.092154422351098803 0 0.36426178343411147 0.1013622643870397 0 0.34137977846588119 0.091947059702449957 0 0.36426178343411147 0.1013622643870397 0 0.33219394353324039 0.1121017755840282 0 0.35159211237321392 0.11222190062690381 0 0.35327239972246333 0.1300285668288671 0 0.35159211237321392 0.11222190062690381 0 0.36649271172908648 0.1176987398754743 0 0.35327239972246333 0.1300285668288671 0 0.35159211237321392 0.11222190062690381 0 0.36649271172908648 0.1176987398754743 0 0.36426178343411147 0.1013622643870397 0 0.36649271172908648 0.1176987398754743 0 0.36938385952287339 0.13266757129752671 0 0.38138511069115272 0.12353481432135879 0 0.36649271172908648 0.1176987398754743 0 0.36426178343411147 0.1013622643870397 0 0.3795225325030368 0.1068242515199407 0 0.36426178343411147 0.1013622643870397 0 0.3795225325030368 0.1068242515199407 0 0.36426178343411147 0.1013622643870397 0 0.3742009225581896 0.091268948227223284 0 0.3795225325030368 0.1068242515199407 0 0.3742009225581896 0.091268948227223284 0 0.35754778501084228 0.087847667021068221 0 0.35624300874513559 0.071190975121652081 0 0.36426178343411147 0.1013622643870397 0 0.3742009225581896 0.091268948227223284 0 0.35754778501084228 0.087847667021068221 0 0.3742009225581896 0.091268948227223284 0 0.35624300874513559 0.071190975121652081 0 0.34137977846588119 0.091947059702449957 0 0.35754778501084228 0.087847667021068221 0 0.35624300874513559 0.071190975121652081 0 0.34137977846588119 0.091947059702449957 0 0.36426178343411147 0.1013622643870397 0 0.35754778501084228 0.087847667021068221 0 0.34137977846588119 0.091947059702449957 0 0.33488127772135701 0.070909675734900868 0 0.35624300874513559 0.071190975121652081 0 0.3742009225581896 0.091268948227223284 0 0.35624300874513559 0.071190975121652081 0 0.37575225644292037 0.071709270247263784 0 0.35624300874513559 0.071190975121652081 0 0.36737709041569239 0.056764699852256018 0 0.37575225644292037 0.071709270247263784 0 0.36737709041569239 0.056764699852256018 0 0.36443667806580698 0.054513224756226962 0 0.39058826119953283 0.057913447496371839 0 0.36443667806580698 0.054513224756226962 0 0.36984281421283938 0.03924660656396721 0 0.37608467898805159 0.048096788967416412 0 0.36984281421283938 0.03924660656396721 0 0.35576481933353549 0.041718099984820838 0 0.3798040161112804 0.028996110171619349 0 0.35576481933353549 0.041718099984820838 0 0.36136411866671431 0.026161729739540451 0 0.37786156531075732 0.02725125369877367 0 0.35576481933353549 0.041718099984820838 0 0.3798040161112804 0.028996110171619349 0 0.37786156531075732 0.02725125369877367 0 0.35576481933353549 0.041718099984820838 0 0.3798040161112804 0.028996110171619349 0 0.36984281421283938 0.03924660656396721 0 0.37726993283737248 0.041439113600633092 0 0.37608467898805159 0.048096788967416412 0 0.36984281421283938 0.03924660656396721 0 0.37675727284589372 0.036323400775862158 0 0.37726993283737248 0.041439113600633092 0 0.36443667806580698 0.054513224756226962 0 0.36984281421283938 0.03924660656396721 0 0.35576481933353549 0.041718099984820838 0 0.35576481933353549 0.041718099984820838 0 0.36136411866671431 0.026161729739540451 0 0.34099279295720591 0.031691385536231111 0 0.35576481933353549 0.041718099984820838 0 0.34539840685914608 0.044617690611648012 0 0.34099279295720591 0.031691385536231111 0 0.35624300874513559 0.071190975121652081 0 0.34416591963185211 0.055615952208139578 0 0.33828509493208109 0.051113002016081502 0 0.36443667806580698 0.054513224756226962 0 0.34416591963185211 0.055615952208139578 0 0.33828509493208109 0.051113002016081502 0 0.36737709041569239 0.056764699852256018 0 0.34416591963185211 0.055615952208139578 0 0.35624300874513559 0.071190975121652081 0 0.33828509493208109 0.051113002016081502 0 0.35624300874513559 0.071190975121652081 0 0.36737709041569239 0.056764699852256018 0 0.34416591963185211 0.055615952208139578 0 0.36443667806580698 0.054513224756226962 0 0.33828509493208109 0.051113002016081502 0 0.36443667806580698 0.054513224756226962 0 0.34539840685914608 0.044617690611648012 0 0.33828509493208109 0.051113002016081502 0 0.36443667806580698 0.054513224756226962 0 0.35576481933353549 0.041718099984820838 0 0.34539840685914608 0.044617690611648012 0 0.36737709041569239 0.056764699852256018 0 0.36443667806580698 0.054513224756226962 0 0.34416591963185211 0.055615952208139578 0 0.35686418876597309 0.010252504770385159 0 0.37537418671591988 0.012891754799621079 0 0.3700201466167648 -0.002195575246397889 0 0.35686418876597309 0.010252504770385159 0 0.37786156531075732 0.02725125369877367 0 0.36136411866671431 0.026161729739540451 0 0.35686418876597309 0.010252504770385159 0 0.37786156531075732 0.02725125369877367 0 0.35686418876597309 0.010252504770385159 0 0.37537418671591988 0.012891754799621079 0 0.37786156531075732 0.02725125369877367 0 0.36136411866671431 0.026161729739540451 0 0.35686418876597309 0.010252504770385159 0 0.34167945108238768 0.015605415956853899 0 0.36136411866671431 0.026161729739540451 0 0.34167945108238768 0.015605415956853899 0 0.34099279295720591 0.031691385536231111 0 0.35686418876597309 0.010252504770385159 0 0.34167945108238768 0.015605415956853899 0 0.33586681222118892 -0.0067462441580033658 0 0.35686418876597309 0.010252504770385159 0 0.33586681222118892 -0.0067462441580033658 0 0.34167945108238768 0.015605415956853899 0 0.32490055802469708 0.021190940670656921 0 0.33586681222118892 -0.0067462441580033658 0 0.34167945108238768 0.015605415956853899 0 0.32490055802469708 0.021190940670656921 0 0.34099279295720591 0.031691385536231111 0 0.32490055802469708 0.021190940670656921 0 0.34099279295720591 0.031691385536231111 0 0.32801258046435111 0.036170166979635328 0 0.32490055802469708 0.021190940670656921 0 0.31497710433926901 0.036033128519756527 0 0.30595588987094691 0.026092456194660541 0 0.32490055802469708 0.021190940670656921 0 0.31046320235639918 0.0067575729804437252 0 0.30595588987094691 0.026092456194660541 0 0.32490055802469708 0.021190940670656921 0 0.32801258046435111 0.036170166979635328 0 0.31497710433926901 0.036033128519756527 0 0.32490055802469708 0.021190940670656921 0 0.31046320235639918 0.0067575729804437252 0 0.33586681222118892 -0.0067462441580033658 0 0.33488127772135701 0.070909675734900868 0 0.32846421329825382 0.059059627678852658 0 0.33828509493208109 0.051113002016081502 0 0.33828509493208109 0.051113002016081502 0 0.33632782521092219 0.048924662700562782 0 0.31456469921871788 0.048028881697348168 0 0.34539840685914608 0.044617690611648012 0 0.33828509493208109 0.051113002016081502 0 0.33632782521092219 0.048924662700562782 0 0.33828509493208109 0.051113002016081502 0 0.33632782521092219 0.048924662700562782 0 0.34539840685914608 0.044617690611648012 0 0.33609782728063148 0.04111054955314445 0 0.34099279295720591 0.031691385536231111 0 0.34539840685914608 0.044617690611648012 0 0.33632782521092219 0.048924662700562782 0 0.33609782728063148 0.04111054955314445 0 0.33609782728063148 0.04111054955314445 0 0.34099279295720591 0.031691385536231111 0 0.32801258046435111 0.036170166979635328 0 0.33632782521092219 0.048924662700562782 0 0.33609782728063148 0.04111054955314445 0 0.33051084790212298 0.042529329228536181 0 0.33632782521092219 0.048924662700562782 0 0.33051084790212298 0.042529329228536181 0 0.32327528761916352 0.043108517346294839 0 0.33609782728063148 0.04111054955314445 0 0.33051084790212298 0.042529329228536181 0 0.32801258046435111 0.036170166979635328 0 0.33632782521092219 0.048924662700562782 0 0.32327528761916352 0.043108517346294839 0 0.31456469921871788 0.048028881697348168 0 0.33051084790212298 0.042529329228536181 0 0.32327528761916352 0.043108517346294839 0 0.32801258046435111 0.036170166979635328 0 0.32327528761916352 0.043108517346294839 0 0.32801258046435111 0.036170166979635328 0 0.31497710433926901 0.036033128519756527 0 0.32327528761916352 0.043108517346294839 0 0.31497710433926901 0.036033128519756527 0 0.31456469921871788 0.048028881697348168 0 0.33828509493208109 0.051113002016081502 0 0.31456469921871788 0.048028881697348168 0 0.32846421329825382 0.059059627678852658 0 0.33828509493208109 0.051113002016081502 0 0.31456469921871788 0.048028881697348168 0 0.32846421329825382 0.059059627678852658 0 0.31456469921871788 0.048028881697348168 0 0.31750720709783492 0.060828210965220328 0 0.31456469921871788 0.048028881697348168 0 0.31750720709783492 0.060828210965220328 0 0.30386903740065402 0.05697431224277244 0 0.31750720709783492 0.060828210965220328 0 0.30386903740065402 0.05697431224277244 0 0.30506359630307739 0.067813250175554993 0 0.31456469921871788 0.048028881697348168 0 0.30386903740065402 0.05697431224277244 0 0.29084430350535467 0.044944761378613682 0 0.30386903740065402 0.05697431224277244 0 0.29325963230024937 0.057606978803657879 0 0.29690158384745241 0.06457818982176422 0 0.31456469921871788 0.048028881697348168 0 0.30257644158749403 0.037675663858353942 0 0.29084430350535467 0.044944761378613682 0 0.31456469921871788 0.048028881697348168 0 0.29084430350535467 0.044944761378613682 0 0.30257644158749403 0.037675663858353942 0 0.28728110375769011 0.032980092644635972 0 0.30595588987094691 0.026092456194660541 0 0.31497710433926901 0.036033128519756527 0 0.31456469921871788 0.048028881697348168 0 0.30257644158749403 0.037675663858353942 0 0.31497710433926901 0.036033128519756527 0 0.30257644158749403 0.037675663858353942 0 0.30595588987094691 0.026092456194660541 0 0.28728110375769011 0.032980092644635972 0 0.28354425329012439 0.021068516806879451 0 0.27754771987688809 0.040797440569893019 0 0.30257644158749403 0.037675663858353942 0 0.29084430350535467 0.044944761378613682 0 0.28728110375769011 0.032980092644635972 0 0.28728110375769011 0.032980092644635972 0 0.2844924432277231 0.043204628682168907 0 0.27754771987688809 0.040797440569893019 0 0.29084430350535467 0.044944761378613682 0 0.28728110375769011 0.032980092644635972 0 0.2844924432277231 0.043204628682168907 0 0.2844924432277231 0.043204628682168907 0 0.28229664577095948 0.054096220135532967 0 0.27754771987688809 0.040797440569893019 0 0.29084430350535467 0.044944761378613682 0 0.2844924432277231 0.043204628682168907 0 0.28229664577095948 0.054096220135532967 0 0.29084430350535467 0.044944761378613682 0 0.28229664577095948 0.054096220135532967 0 0.29325963230024937 0.057606978803657879 0 0.28229664577095948 0.054096220135532967 0 0.28695696052130792 0.062426000594819037 0 0.29325963230024937 0.057606978803657879 0 0.28229664577095948 0.054096220135532967 0 0.28695696052130792 0.062426000594819037 0 0.27961998430175328 0.060695812266760227 0 0.28695696052130792 0.062426000594819037 0 0.29325963230024937 0.057606978803657879 0 0.29690158384745241 0.06457818982176422 0 0.30386903740065402 0.05697431224277244 0 0.29084430350535467 0.044944761378613682 0 0.29325963230024937 0.057606978803657879 0 0.31046320235639918 0.0067575729804437252 0 0.29633736445586178 0.016145334388179639 0 0.2895407867033607 0.0013395930438658619 0 0.31046320235639918 0.0067575729804437252 0 0.30595588987094691 0.026092456194660541 0 0.29633736445586178 0.016145334388179639 0 0.28728110375769011 0.032980092644635972 0 0.29633736445586178 0.016145334388179639 0 0.28354425329012439 0.021068516806879451 0 0.28728110375769011 0.032980092644635972 0 0.30595588987094691 0.026092456194660541 0 0.29633736445586178 0.016145334388179639 0 0.29633736445586178 0.016145334388179639 0 0.28354425329012439 0.021068516806879451 0 0.2895407867033607 0.0013395930438658619 0 0.28354425329012439 0.021068516806879451 0 0.2895407867033607 0.0013395930438658619 0 0.27605408581287011 0.0090157940159830471 0 0.28354425329012439 0.021068516806879451 0 0.2895407867033607 0.0013395930438658619 0 0.2895407867033607 0.0013395930438658619 0 0.27605408581287011 0.0090157940159830471 0 0.26778398551549509 -0.0036893303100333872 0 0.27605408581287011 0.0090157940159830471 0 0.26417056773795178 0.0090152440179189393 0 0.26778398551549509 -0.0036893303100333872 0 0.27605408581287011 0.0090157940159830471 0 0.26936383070045983 0.02007531215695801 0 0.26417056773795178 0.0090152440179189393 0 0.28354425329012439 0.021068516806879451 0 0.27754771987688809 0.040797440569893019 0 0.28354425329012439 0.021068516806879451 0 0.27605408581287011 0.0090157940159830471 0 0.26936383070045983 0.02007531215695801 0 0.28354425329012439 0.021068516806879451 0 0.26936383070045983 0.02007531215695801 0 0.27332262009486957 0.033728107725222278 0 0.26936383070045983 0.02007531215695801 0 0.26667678125960848 0.028969541142501901 0 0.27332262009486957 0.033728107725222278 0 0.26936383070045983 0.02007531215695801 0 0.26667678125960848 0.028969541142501901 0 0.25978705670837199 0.02772172808684556 0 0.26667678125960848 0.028969541142501901 0 0.25978705670837199 0.02772172808684556 0 0.26423361753473251 0.034353016600981737 0 0.24818833723327199 0.02644705719899533 0 0.25978705670837199 0.02772172808684556 0 0.25442723867738032 0.016379625870619269 0 0.24818833723327199 0.02644705719899533 0 0.25978705670837199 0.02772172808684556 0 0.25704478259505842 0.035809011079610743 0 0.26936383070045983 0.02007531215695801 0 0.25978705670837199 0.02772172808684556 0 0.25442723867738032 0.016379625870619269 0 0.26936383070045983 0.02007531215695801 0 0.25442723867738032 0.016379625870619269 0 0.26417056773795178 0.0090152440179189393 0 0.25442723867738032 0.016379625870619269 0 0.26417056773795178 0.0090152440179189393 0 0.25322369798355371 0.0032948183560677501 0 0.26417056773795178 0.0090152440179189393 0 0.25322369798355371 0.0032948183560677501 0 0.26778398551549509 -0.0036893303100333872 0 0.28229664577095948 0.054096220135532967 0 0.27155118646365262 0.060526364332906778 0 0.27754771987688809 0.040797440569893019 0 0.26803735397675288 0.057537922442449492 0 0.27155118646365262 0.060526364332906778 0 0.27754771987688809 0.040797440569893019 0 0.27155118646365262 0.060526364332906778 0 0.27754771987688809 0.040797440569893019 0 0.26803735397675288 0.057537922442449492 0 0.26717674565759131 0.061414912581717808 0 0.27155118646365262 0.060526364332906778 0 0.26803735397675288 0.057537922442449492 0 0.26717674565759131 0.061414912581717808 0 0.26717674565759131 0.061414912581717808 0 0.27082486665434358 0.062915996334918609 0 0.26717674565759131 0.061414912581717808 0 0.27155118646365262 0.060526364332906778 0 0.27082486665434358 0.062915996334918609 0 0.27155118646365262 0.060526364332906778 0 0.27082486665434358 0.062915996334918609 0 0.26803735397675288 0.057537922442449492 0 0.27155118646365262 0.060526364332906778 0 0.27155118646365262 0.060526364332906778 0 0.27961998430175328 0.060695812266760227 0 0.27767514445109232 0.065734664003783444 0 0.28229664577095948 0.054096220135532967 0 0.27155118646365262 0.060526364332906778 0 0.27961998430175328 0.060695812266760227 0 0.28354425329012439 0.021068516806879451 0 0.27754771987688809 0.040797440569893019 0 0.27332262009486957 0.033728107725222278 0 0.26803735397675288 0.057537922442449492 0 0.27754771987688809 0.040797440569893019 0 0.27332262009486957 0.033728107725222278 0 0.26803735397675288 0.057537922442449492 0 0.27332262009486957 0.033728107725222278 0 0.26337349528673171 0.044011131262296957 0 0.26803735397675288 0.057537922442449492 0 0.27332262009486957 0.033728107725222278 0 0.26667678125960848 0.028969541142501901 0 0.27332262009486957 0.033728107725222278 0 0.26423361753473251 0.034353016600981737 0 0.27332262009486957 0.033728107725222278 0 0.26337349528673171 0.044011131262296957 0 0.26423361753473251 0.034353016600981737 0 0.25978705670837199 0.02772172808684556 0 0.26423361753473251 0.034353016600981737 0 0.25704478259505842 0.035809011079610743 0 0.26337349528673171 0.044011131262296957 0 0.26423361753473251 0.034353016600981737 0 0.25704478259505842 0.035809011079610743 0 0.2492733855269578 0.041579555173777823 0 0.24818833723327199 0.02644705719899533 0 0.25704478259505842 0.035809011079610743 0 0.2492733855269578 0.041579555173777823 0 0.26337349528673171 0.044011131262296957 0 0.25704478259505842 0.035809011079610743 0 0.2492733855269578 0.041579555173777823 0 0.26803735397675288 0.057537922442449492 0 0.26337349528673171 0.044011131262296957 0 0.2492733855269578 0.041579555173777823 0 0.26803735397675288 0.057537922442449492 0 0.24629062771517271 0.052820950830226497 0 0.2492733855269578 0.041579555173777823 0 0.26803735397675288 0.057537922442449492 0 0.24874122334595 0.07170785510379532 0 0.24629062771517271 0.052820950830226497 0 0.26717674565759131 0.061414912581717808 0 0.24629062771517271 0.052820950830226497 0 0.26717674565759131 0.061414912581717808 0 0.24629062771517271 0.052820950830226497 0 0.26803735397675288 0.057537922442449492 0 0.26717674565759131 0.061414912581717808 0 0.24874122334595 0.07170785510379532 0 0.26717674565759131 0.061414912581717808 0 0.26207170159221099 0.084412837492877896 0 0.26717674565759131 0.061414912581717808 0 0.26207170159221099 0.084412837492877896 0 0.26717674565759131 0.061414912581717808 0 0.26459661937193729 0.083407271434054076 0 0.26207170159221099 0.084412837492877896 0 0.24736227196270541 0.090270970101712061 0 0.24874122334595 0.07170785510379532 0 0.26207170159221099 0.084412837492877896 0 0.24736227196270541 0.090270970101712061 0 0.26207170159221099 0.084412837492877896 0 0.24736227196270541 0.090270970101712061 0 0.26016144869860108 0.09301841504440217 0 0.25459763100830068 0.096141582858552177 0 0.24736227196270541 0.090270970101712061 0 0.26207170159221099 0.084412837492877896 0 0.26016144869860108 0.09301841504440217 0 0.24736227196270541 0.090270970101712061 0 0.25459763100830068 0.096141582858552177 0 0.26459661937193729 0.083407271434054076 0 0.26207170159221099 0.084412837492877896 0 0.26207170159221099 0.084412837492877896 0 0.26016144869860108 0.09301841504440217 0 0.26459661937193729 0.083407271434054076 0 0.2619867778419176 0.09199379318438361 0 0.26207170159221099 0.084412837492877896 0 0.2619867778419176 0.09199379318438361 0 0.26016144869860108 0.09301841504440217 0 0.26459661937193729 0.083407271434054076 0 0.26207170159221099 0.084412837492877896 0 0.2619867778419176 0.09199379318438361 0 0.2619867778419176 0.09199379318438361 0 0.26016144869860108 0.09301841504440217 0 0.26459661937193729 0.083407271434054076 0 0.28765643041333783 0.074223541376674432 0 0.26459661937193729 0.083407271434054076 0 0.27601190449835611 0.084120993139366301 0 0.28765643041333783 0.074223541376674432 0 0.2619867778419176 0.09199379318438361 0 0.27601190449835611 0.084120993139366301 0 0.27597760534302263 0.093816081557894046 0 0.2619867778419176 0.09199379318438361 0 0.27601190449835611 0.084120993139366301 0 0.26459661937193729 0.083407271434054076 0 0.2619867778419176 0.09199379318438361 0 0.27601190449835611 0.084120993139366301 0 0.27601190449835611 0.084120993139366301 0 0.28527214605629803 0.093542631019163408 0 0.27597760534302263 0.093816081557894046 0 0.26459661937193729 0.083407271434054076 0 0.27082486665434358 0.062915996334918609 0 0.26717674565759131 0.061414912581717808 0 0.26459661937193729 0.083407271434054076 0 0.27082486665434358 0.062915996334918609 0 0.26459661937193729 0.083407271434054076 0 0.27082486665434358 0.062915996334918609 0 0.27767514445109232 0.065734664003783444 0 0.26459661937193729 0.083407271434054076 0 0.27767514445109232 0.065734664003783444 0 0.28765643041333783 0.074223541376674432 0 0.27155118646365262 0.060526364332906778 0 0.27082486665434358 0.062915996334918609 0 0.27767514445109232 0.065734664003783444 0 0.27082486665434358 0.062915996334918609 0 0.27767514445109232 0.065734664003783444 0 0.27155118646365262 0.060526364332906778 0 0.27767514445109232 0.065734664003783444 0 0.27767514445109232 0.065734664003783444 0 0.28765643041333783 0.074223541376674432 0 0.27767514445109232 0.065734664003783444 0 0.29306802488508721 0.072068336257275281 0 0.28695696052130792 0.062426000594819037 0 0.27961998430175328 0.060695812266760227 0 0.27767514445109232 0.065734664003783444 0 0.28695696052130792 0.062426000594819037 0 0.27767514445109232 0.065734664003783444 0 0.29306802488508721 0.072068336257275281 0 0.28695696052130792 0.062426000594819037 0 0.29306802488508721 0.072068336257275281 0 0.29690158384745241 0.06457818982176422 0 0.29561576852942001 0.073116650333272012 0 0.29306802488508721 0.072068336257275281 0 0.29561576852942001 0.073116650333272012 0 0.29306802488508721 0.072068336257275281 0 0.29003703115479512 0.076248193094349867 0 0.29306802488508721 0.072068336257275281 0 0.28765643041333783 0.074223541376674432 0 0.29306802488508721 0.072068336257275281 0 0.29003703115479512 0.076248193094349867 0 0.28765643041333783 0.074223541376674432 0 0.29561576852942001 0.073116650333272012 0 0.29003703115479512 0.076248193094349867 0 0.27767514445109232 0.065734664003783444 0 0.29306802488508721 0.072068336257275281 0 0.28765643041333783 0.074223541376674432 0 0.29003703115479512 0.076248193094349867 0 0.28765643041333783 0.074223541376674432 0 0.27601190449835611 0.084120993139366301 0 0.29003703115479512 0.076248193094349867 0 0.27601190449835611 0.084120993139366301 0 0.29003703115479512 0.076248193094349867 0 0.28765643041333783 0.074223541376674432 0 0.27601190449835611 0.084120993139366301 0 0.29003703115479512 0.076248193094349867 0 0.28870857493654689 0.086239244916881869 0 0.27601190449835611 0.084120993139366301 0 0.28870857493654689 0.086239244916881869 0 0.28527214605629803 0.093542631019163408 0 0.28870857493654689 0.086239244916881869 0 0.28527214605629803 0.093542631019163408 0 0.29246213629446111 0.095768124011444758 0 0.28870857493654689 0.086239244916881869 0 0.29698271976236568 0.089899813846382556 0 0.29246213629446111 0.095768124011444758 0 0.29003703115479512 0.076248193094349867 0 0.28870857493654689 0.086239244916881869 0 0.29698271976236568 0.089899813846382556 0 0.29561576852942001 0.073116650333272012 0 0.29003703115479512 0.076248193094349867 0 0.31111548734401751 0.094174984339189319 0 0.29003703115479512 0.076248193094349867 0 0.31111548734401751 0.094174984339189319 0 0.29003703115479512 0.076248193094349867 0 0.29698271976236568 0.089899813846382556 0 0.31111548734401751 0.094174984339189319 0 0.3184977734976509 0.082531855017860187 0 0.29561576852942001 0.073116650333272012 0 0.31111548734401751 0.094174984339189319 0 0.3184977734976509 0.082531855017860187 0 0.29561576852942001 0.073116650333272012 0 0.3184977734976509 0.082531855017860187 0 0.29561576852942001 0.073116650333272012 0 0.30506359630307739 0.067813250175554993 0 0.31750720709783492 0.060828210965220328 0 0.30506359630307739 0.067813250175554993 0 0.29306802488508721 0.072068336257275281 0 0.30506359630307739 0.067813250175554993 0 0.29690158384745241 0.06457818982176422 0 0.30386903740065402 0.05697431224277244 0 0.30506359630307739 0.067813250175554993 0 0.29690158384745241 0.06457818982176422 0 0.29306802488508721 0.072068336257275281 0 0.30506359630307739 0.067813250175554993 0 0.29561576852942001 0.073116650333272012 0 0.30506359630307739 0.067813250175554993 0 0.29561576852942001 0.073116650333272012 0 0.29306802488508721 0.072068336257275281 0 0.30506359630307739 0.067813250175554993 0 0.31151194808720201 0.1150643222194616 0 0.30247500772594699 0.1071381656543656 0 0.29129275041579278 0.1172303442398579 0 0.31151194808720201 0.1150643222194616 0 0.29622008012258699 0.12991313160987961 0 0.32387679174541939 0.1297141718462434 0 0.31151194808720201 0.1150643222194616 0 0.29129275041579278 0.1172303442398579 0 0.29622008012258699 0.12991313160987961 0 0.31151194808720201 0.1150643222194616 0 0.31111548734401751 0.094174984339189319 0 0.30247500772594699 0.1071381656543656 0 0.31111548734401751 0.094174984339189319 0 0.30128354362195031 0.098124169066782854 0 0.30247500772594699 0.1071381656543656 0 0.29698271976236568 0.089899813846382556 0 0.30128354362195031 0.098124169066782854 0 0.29246213629446111 0.095768124011444758 0 0.29698271976236568 0.089899813846382556 0 0.31111548734401751 0.094174984339189319 0 0.30128354362195031 0.098124169066782854 0 0.30128354362195031 0.098124169066782854 0 0.30247500772594699 0.1071381656543656 0 0.29260899031297011 0.10538418601464609 0 0.29260899031297011 0.10538418601464609 0 0.29246213629446111 0.095768124011444758 0 0.28702757351663483 0.1001100210532227 0 0.30128354362195031 0.098124169066782854 0 0.29260899031297011 0.10538418601464609 0 0.29246213629446111 0.095768124011444758 0 0.28527214605629803 0.093542631019163408 0 0.29246213629446111 0.095768124011444758 0 0.28702757351663483 0.1001100210532227 0 0.28527214605629803 0.093542631019163408 0 0.28702757351663483 0.1001100210532227 0 0.28108272677848523 0.099874609951530163 0 0.29260899031297011 0.10538418601464609 0 0.28356239405763972 0.106033323917978 0 0.28664880997705461 0.11131452551203889 0 0.29260899031297011 0.10538418601464609 0 0.28702757351663483 0.1001100210532227 0 0.28356239405763972 0.106033323917978 0 0.28702757351663483 0.1001100210532227 0 0.28356239405763972 0.106033323917978 0 0.28108272677848523 0.099874609951530163 0 0.28356239405763972 0.106033323917978 0 0.2814598539497668 0.10990299155730229 0 0.28664880997705461 0.11131452551203889 0 0.27786688771157569 0.1150217509861922 0 0.29622008012258699 0.12991313160987961 0 0.28664880997705461 0.11131452551203889 0 0.29129275041579278 0.1172303442398579 0 0.27786688771157569 0.1150217509861922 0 0.27786688771157569 0.1150217509861922 0 0.27913813953766042 0.12972245958528131 0 0.29622008012258699 0.12991313160987961 0 0.29129275041579278 0.1172303442398579 0 0.27786688771157569 0.1150217509861922 0 0.29622008012258699 0.12991313160987961 0 0.2814598539497668 0.10990299155730229 0 0.28664880997705461 0.11131452551203889 0 0.27786688771157569 0.1150217509861922 0 0.30247500772594699 0.1071381656543656 0 0.29260899031297011 0.10538418601464609 0 0.29129275041579278 0.1172303442398579 0 0.29260899031297011 0.10538418601464609 0 0.28664880997705461 0.11131452551203889 0 0.29129275041579278 0.1172303442398579 0 0.27418517611644572 0.1163335826691398 0 0.26638390190257438 0.1102685147937751 0 0.25655208948606423 0.10927836717886751 0 0.27786688771157569 0.1150217509861922 0 0.27418517611644572 0.1163335826691398 0 0.27913813953766042 0.12972245958528131 0 0.27418517611644572 0.1163335826691398 0 0.27248198541775659 0.12784311929978001 0 0.27913813953766042 0.12972245958528131 0 0.2814598539497668 0.10990299155730229 0 0.27786688771157569 0.1150217509861922 0 0.27702128122739278 0.10689832557857171 0 0.27786688771157569 0.1150217509861922 0 0.27418517611644572 0.1163335826691398 0 0.26638390190257438 0.1102685147937751 0 0.27418517611644572 0.1163335826691398 0 0.26888095198589312 0.11979825388229511 0 0.26487973471170051 0.1148861259760711 0 0.27418517611644572 0.1163335826691398 0 0.26888095198589312 0.11979825388229511 0 0.27248198541775659 0.12784311929978001 0 0.26888095198589312 0.11979825388229511 0 0.26519442307348812 0.1188177922564181 0 0.26487973471170051 0.1148861259760711 0 0.26888095198589312 0.11979825388229511 0 0.26562400985315288 0.1251654340079911 0 0.27248198541775659 0.12784311929978001 0 0.26888095198589312 0.11979825388229511 0 0.26519442307348812 0.1188177922564181 0 0.26562400985315288 0.1251654340079911 0 0.27786688771157569 0.1150217509861922 0 0.26638390190257438 0.1102685147937751 0 0.25872482925013801 0.09949030162923457 0 0.27786688771157569 0.1150217509861922 0 0.25872482925013801 0.09949030162923457 0 0.27786688771157569 0.1150217509861922 0 0.27150352658480642 0.1040925172930806 0 0.25872482925013801 0.09949030162923457 0 0.28527214605629803 0.093542631019163408 0 0.27597760534302263 0.093816081557894046 0 0.28108272677848523 0.099874609951530163 0 0.27597760534302263 0.093816081557894046 0 0.28108272677848523 0.099874609951530163 0 0.27461357126647679 0.10027579108255071 0 0.27786688771157569 0.1150217509861922 0 0.27702128122739278 0.10689832557857171 0 0.27150352658480642 0.1040925172930806 0 0.27461357126647679 0.10027579108255071 0 0.27702128122739278 0.10689832557857171 0 0.27150352658480642 0.1040925172930806 0 0.28356239405763972 0.106033323917978 0 0.28108272677848523 0.099874609951530163 0 0.27702128122739278 0.10689832557857171 0 0.28108272677848523 0.099874609951530163 0 0.27461357126647679 0.10027579108255071 0 0.27702128122739278 0.10689832557857171 0 0.28356239405763972 0.106033323917978 0 0.2814598539497668 0.10990299155730229 0 0.27702128122739278 0.10689832557857171 0 0.2619867778419176 0.09199379318438361 0 0.27597760534302263 0.093816081557894046 0 0.26850219741802223 0.0981363484555835 0 0.27150352658480642 0.1040925172930806 0 0.26850219741802223 0.0981363484555835 0 0.25872482925013801 0.09949030162923457 0 0.27461357126647679 0.10027579108255071 0 0.27150352658480642 0.1040925172930806 0 0.26850219741802223 0.0981363484555835 0 0.27597760534302263 0.093816081557894046 0 0.27461357126647679 0.10027579108255071 0 0.26850219741802223 0.0981363484555835 0 0.2619867778419176 0.09199379318438361 0 0.26850219741802223 0.0981363484555835 0 0.25872482925013801 0.09949030162923457 0 0.2619867778419176 0.09199379318438361 0 0.26016144869860108 0.09301841504440217 0 0.25872482925013801 0.09949030162923457 0 0.2619867778419176 0.09199379318438361 0 0.25872482925013801 0.09949030162923457 0 0.26016144869860108 0.09301841504440217 0 0.25872482925013801 0.09949030162923457 0 0.26016144869860108 0.09301841504440217 0 0.25872482925013801 0.09949030162923457 0 0.25459763100830068 0.096141582858552177 0 0.26638390190257438 0.1102685147937751 0 0.25872482925013801 0.09949030162923457 0 0.26054083413963042 0.1068609537315081 0 0.26638390190257438 0.1102685147937751 0 0.26054083413963042 0.1068609537315081 0 0.25655208948606423 0.10927836717886751 0 0.25872482925013801 0.09949030162923457 0 0.258042440935632 0.10497087790269199 0 0.26054083413963042 0.1068609537315081 0 0.25872482925013801 0.09949030162923457 0 0.258042440935632 0.10497087790269199 0 0.258042440935632 0.10497087790269199 0 0.26054083413963042 0.1068609537315081 0 0.25655208948606423 0.10927836717886751 0 0.25872482925013801 0.09949030162923457 0 0.25655208948606423 0.10927836717886751 0 0.25872482925013801 0.09949030162923457 0 0.25655208948606423 0.10927836717886751 0 0.25459763100830068 0.096141582858552177 0 0.24174744587836799 0.1033548466348798 0 0.25655208948606423 0.10927836717886751 0 0.25459763100830068 0.096141582858552177 0 0.25872482925013801 0.09949030162923457 0 0.258042440935632 0.10497087790269199 0 0.25655208948606423 0.10927836717886751 0 0.25872482925013801 0.09949030162923457 0 0.25459763100830068 0.096141582858552177 0 0.26016144869860108 0.09301841504440217 0 0.25459763100830068 0.096141582858552177 0 0.27418517611644572 0.1163335826691398 0 0.25655208948606423 0.10927836717886751 0 0.26487973471170051 0.1148861259760711 0 0.27418517611644572 0.1163335826691398 0 0.25655208948606423 0.10927836717886751 0 0.2613903323121034 0.11972876860365821 0 0.25824300399834771 0.11754386918627879 0 0.25813574029091341 0.12532111527980791 0 0.2613903323121034 0.11972876860365821 0 0.25824300399834771 0.11754386918627879 0 0.26064106818342869 0.11649387083006101 0 0.2613903323121034 0.11972876860365821 0 0.26303182906276251 0.1167652494283456 0 0.26064106818342869 0.11649387083006101 0 0.2613903323121034 0.11972876860365821 0 0.25813574029091341 0.12532111527980791 0 0.26562400985315288 0.1251654340079911 0 0.2613903323121034 0.11972876860365821 0 0.26519442307348812 0.1188177922564181 0 0.26562400985315288 0.1251654340079911 0 0.2613903323121034 0.11972876860365821 0 0.26519442307348812 0.1188177922564181 0 0.26303182906276251 0.1167652494283456 0 0.26487973471170051 0.1148861259760711 0 0.2618287337373767 0.1148464313763837 0 0.2589676606418963 0.1122376160430168 0 0.25655208948606423 0.10927836717886751 0 0.26487973471170051 0.1148861259760711 0 0.2589676606418963 0.1122376160430168 0 0.26519442307348812 0.1188177922564181 0 0.26487973471170051 0.1148861259760711 0 0.26303182906276251 0.1167652494283456 0 0.26487973471170051 0.1148861259760711 0 0.2618287337373767 0.1148464313763837 0 0.26303182906276251 0.1167652494283456 0 0.2618287337373767 0.1148464313763837 0 0.26303182906276251 0.1167652494283456 0 0.26064106818342869 0.11649387083006101 0 0.2618287337373767 0.1148464313763837 0 0.26064106818342869 0.11649387083006101 0 0.26015078570541528 0.1146524558252945 0 0.2618287337373767 0.1148464313763837 0 0.2589676606418963 0.1122376160430168 0 0.26015078570541528 0.1146524558252945 0 0.2589676606418963 0.1122376160430168 0 0.26015078570541528 0.1146524558252945 0 0.25777400528710798 0.1147846643059361 0 0.25824300399834771 0.11754386918627879 0 0.26015078570541528 0.1146524558252945 0 0.25777400528710798 0.1147846643059361 0 0.25824300399834771 0.11754386918627879 0 0.26064106818342869 0.11649387083006101 0 0.26015078570541528 0.1146524558252945 0 0.24646482385440791 0.1109165710353929 0 0.25655208948606423 0.10927836717886751 0 0.255186127323073 0.11543194682551421 0 0.25824300399834771 0.11754386918627879 0 0.25777400528710798 0.1147846643059361 0 0.255186127323073 0.11543194682551421 0 0.2589676606418963 0.1122376160430168 0 0.25777400528710798 0.1147846643059361 0 0.255186127323073 0.11543194682551421 0 0.25655208948606423 0.10927836717886751 0 0.255186127323073 0.11543194682551421 0 0.25655208948606423 0.10927836717886751 0 0.2589676606418963 0.1122376160430168 0 0.255186127323073 0.11543194682551421 0 0.255186127323073 0.11543194682551421 0 0.25238596385504641 0.12804651946228041 0 0.24420216851797599 0.1292372680552665 0 0.255186127323073 0.11543194682551421 0 0.25238596385504641 0.12804651946228041 0 0.255186127323073 0.11543194682551421 0 0.25238596385504641 0.12804651946228041 0 0.25813574029091341 0.12532111527980791 0 0.25824300399834771 0.11754386918627879 0 0.255186127323073 0.11543194682551421 0 0.25813574029091341 0.12532111527980791 0 0.25238596385504641 0.12804651946228041 0 0.25813574029091341 0.12532111527980791 0 0.26818611498992623 0.1403022215883418 0 0.24420216851797599 0.1292372680552665 0 0.26818611498992623 0.1403022215883418 0 0.24301228879775941 0.13939302681245261 0 0.24420216851797599 0.1292372680552665 0 0.26818611498992623 0.1403022215883418 0 0.24420216851797599 0.1292372680552665 0 0.25238596385504641 0.12804651946228041 0 0.26818611498992623 0.1403022215883418 0 0.25813574029091341 0.12532111527980791 0 0.26562400985315288 0.1251654340079911 0 0.26818611498992623 0.1403022215883418 0 0.27248198541775659 0.12784311929978001 0 0.26818611498992623 0.1403022215883418 0 0.27913813953766042 0.12972245958528131 0 0.26562400985315288 0.1251654340079911 0 0.27248198541775659 0.12784311929978001 0 0.26818611498992623 0.1403022215883418 0 0.26818611498992623 0.1403022215883418 0 0.27913813953766042 0.12972245958528131 0 0.28414721419066807 0.1482284927670183 0 0.26818611498992623 0.1403022215883418 0 0.26583546295036609 0.16369396270660089 0 0.28414721419066807 0.1482284927670183 0 0.26818611498992623 0.1403022215883418 0 0.25486404381895789 0.1523024957907583 0 0.26583546295036609 0.16369396270660089 0 0.24301228879775941 0.13939302681245261 0 0.26818611498992623 0.1403022215883418 0 0.25486404381895789 0.1523024957907583 0 0.2424223085377801 0.16582077205563811 0 0.25486404381895789 0.1523024957907583 0 0.26583546295036609 0.16369396270660089 0 0.2424223085377801 0.16582077205563811 0 0.26032431562704572 0.18342712708893841 0 0.26583546295036609 0.16369396270660089 0 0.26032431562704572 0.18342712708893841 0 0.27712404590978218 0.18082877805207789 0 0.26583546295036609 0.16369396270660089 0 0.27712404590978218 0.18082877805207789 0 0.26583546295036609 0.16369396270660089 0 0.28977860037431658 0.16805367250728201 0 0.26583546295036609 0.16369396270660089 0 0.28977860037431658 0.16805367250728201 0 0.28414721419066807 0.1482284927670183 0 0.27712404590978218 0.18082877805207789 0 0.28977860037431658 0.16805367250728201 0 0.29478084704188562 0.18627619782702401 0 0.28977860037431658 0.16805367250728201 0 0.29478084704188562 0.18627619782702401 0 0.31259037162619269 0.16725562300018509 0 0.29478084704188562 0.18627619782702401 0 0.31732062797233113 0.1926592597090995 0 0.31259037162619269 0.16725562300018509 0 0.28977860037431658 0.16805367250728201 0 0.29946190776947251 0.15165108642358641 0 0.31259037162619269 0.16725562300018509 0 0.29946190776947251 0.15165108642358641 0 0.31457327253359829 0.14480451223356691 0 0.31259037162619269 0.16725562300018509 0 0.29946190776947251 0.15165108642358641 0 0.29622008012258699 0.12991313160987961 0 0.31457327253359829 0.14480451223356691 0 0.29622008012258699 0.12991313160987961 0 0.31457327253359829 0.14480451223356691 0 0.29622008012258699 0.12991313160987961 0 0.32387679174541939 0.1297141718462434 0 0.31457327253359829 0.14480451223356691 0 0.27913813953766042 0.12972245958528131 0 0.29622008012258699 0.12991313160987961 0 0.28414721419066807 0.1482284927670183 0 0.29946190776947251 0.15165108642358641 0 0.29622008012258699 0.12991313160987961 0 0.28414721419066807 0.1482284927670183 0 0.28977860037431658 0.16805367250728201 0 0.29946190776947251 0.15165108642358641 0 0.28414721419066807 0.1482284927670183 0 0.27355486584907379 0.24364475180805101 0 0.25452501640087027 0.2374112721999547 0 0.26408278890255732 0.22479217687295791 0 0.25404003316197471 0.25208422786308371 0 0.27355486584907379 0.24364475180805101 0 0.25452501640087027 0.2374112721999547 0 0.24523436150048811 0.24199469982198529 0 0.25404003316197471 0.25208422786308371 0 0.25452501640087027 0.2374112721999547 0 0.24868260911088891 0.2303107595792985 0 0.2471090749199483 0.2357199094212839 0 0.25452501640087027 0.2374112721999547 0 0.24868260911088891 0.2303107595792985 0 0.25452501640087027 0.2374112721999547 0 0.26408278890255732 0.22479217687295791 0 0.24868260911088891 0.2303107595792985 0 0.26408278890255732 0.22479217687295791 0 0.25357276657721323 0.21641202867955539 0 0.27355486584907379 0.24364475180805101 0 0.26408278890255732 0.22479217687295791 0 0.28109637724199782 0.22150209212538899 0 0.26408278890255732 0.22479217687295791 0 0.28109637724199782 0.22150209212538899 0 0.27306509823529962 0.19947215684549871 0 0.26408278890255732 0.22479217687295791 0 0.25357276657721323 0.21641202867955539 0 0.27306509823529962 0.19947215684549871 0 0.25357276657721323 0.21641202867955539 0 0.25471258750952741 0.20148162901819469 0 0.27306509823529962 0.19947215684549871 0 0.25357276657721323 0.21641202867955539 0 0.27306509823529962 0.19947215684549871 0 0.2418323282778008 0.1922485172988235 0 0.26032431562704572 0.18342712708893841 0 0.25471258750952741 0.20148162901819469 0 0.26032431562704572 0.18342712708893841 0 0.25471258750952741 0.20148162901819469 0 0.27306509823529962 0.19947215684549871 0 0.26032431562704572 0.18342712708893841 0 0.27712404590978218 0.18082877805207789 0 0.27306509823529962 0.19947215684549871 0 0.29478084704188562 0.18627619782702401 0 0.27306509823529962 0.19947215684549871 0 0.29788838547339219 0.20777731020547871 0 0.27712404590978218 0.18082877805207789 0 0.29478084704188562 0.18627619782702401 0 0.27306509823529962 0.19947215684549871 0 0.29478084704188562 0.18627619782702401 0 0.29788838547339219 0.20777731020547871 0 0.31732062797233113 0.1926592597090995 0 0.29788838547339219 0.20777731020547871 0 0.31916040529159301 0.2166328624030785 0 0.31732062797233113 0.1926592597090995 0 0.28109637724199782 0.22150209212538899 0 0.27306509823529962 0.19947215684549871 0 0.29788838547339219 0.20777731020547871 0 0.28109637724199782 0.22150209212538899 0 0.29788838547339219 0.20777731020547871 0 0.29668368374297521 0.23238313674276659 0 0.27355486584907379 0.24364475180805101 0 0.28109637724199782 0.22150209212538899 0 0.29668368374297521 0.23238313674276659 0 0.29788838547339219 0.20777731020547871 0 0.29668368374297521 0.23238313674276659 0 0.31916040529159301 0.2166328624030785 0 0.29692855903906679 0.25537037528416417 0 0.29668368374297521 0.23238313674276659 0 0.32448256229391081 0.244023600812113 0 0.29692855903906679 0.25537037528416417 0 0.27355486584907379 0.24364475180805101 0 0.29668368374297521 0.23238313674276659 0 0.32448256229391081 0.244023600812113 0 0.33724611662768478 0.226971671205 0 0.35052125483258301 0.2434514759103418 0 0.32448256229391081 0.244023600812113 0 0.33724611662768478 0.226971671205 0 0.31916040529159301 0.2166328624030785 0 0.29668368374297521 0.23238313674276659 0 0.32448256229391081 0.244023600812113 0 0.31916040529159301 0.2166328624030785 0 0.33724611662768478 0.226971671205 0 0.31916040529159301 0.2166328624030785 0 0.34036716376080012 0.20191553243135291 0 0.31916040529159301 0.2166328624030785 0 0.31732062797233113 0.1926592597090995 0 0.34036716376080012 0.20191553243135291 0 0.31732062797233113 0.1926592597090995 0 0.34036716376080012 0.20191553243135291 0 0.33327910971122948 0.1769249887409369 0 0.34036716376080012 0.20191553243135291 0 0.33327910971122948 0.1769249887409369 0 0.35363051640006049 0.1838751638919715 0 0.34036716376080012 0.20191553243135291 0 0.36940151407566268 0.20038014978660379 0 0.35363051640006049 0.1838751638919715 0 0.36940151407566268 0.20038014978660379 0 0.35418005050780299 0.2186338278764331 0 0.36970064025412291 0.2313836502337521 0 0.34036716376080012 0.20191553243135291 0 0.36940151407566268 0.20038014978660379 0 0.35418005050780299 0.2186338278764331 0 0.33724611662768478 0.226971671205 0 0.34036716376080012 0.20191553243135291 0 0.35418005050780299 0.2186338278764331 0 0.33724611662768478 0.226971671205 0 0.35418005050780299 0.2186338278764331 0 0.35052125483258301 0.2434514759103418 0 0.35418005050780299 0.2186338278764331 0 0.36970064025412291 0.2313836502337521 0 0.35052125483258301 0.2434514759103418 0 0.37478492512234668 0.26235925763296819 0 0.36970064025412291 0.2313836502337521 0 0.35052125483258301 0.2434514759103418 0 0.33497932682518311 0.1519205034936916 0 0.32387679174541939 0.1297141718462434 0 0.35327239972246333 0.1300285668288671 0 0.33497932682518311 0.1519205034936916 0 0.31457327253359829 0.14480451223356691 0 0.31259037162619269 0.16725562300018509 0 0.33497932682518311 0.1519205034936916 0 0.32387679174541939 0.1297141718462434 0 0.31457327253359829 0.14480451223356691 0 0.33497932682518311 0.1519205034936916 0 0.31259037162619269 0.16725562300018509 0 0.33327910971122948 0.1769249887409369 0 0.31732062797233113 0.1926592597090995 0 0.31259037162619269 0.16725562300018509 0 0.33327910971122948 0.1769249887409369 0 0.33497932682518311 0.1519205034936916 0 0.33327910971122948 0.1769249887409369 0 0.34907151432127381 0.16521020144779211 0 0.34907151432127381 0.16521020144779211 0 0.35363051640006049 0.1838751638919715 0 0.37277469716236061 0.17385369407461371 0 0.33327910971122948 0.1769249887409369 0 0.34907151432127381 0.16521020144779211 0 0.35363051640006049 0.1838751638919715 0 0.36940151407566268 0.20038014978660379 0 0.35363051640006049 0.1838751638919715 0 0.37277469716236061 0.17385369407461371 0 0.37277469716236061 0.17385369407461371 0 0.36285879787080821 0.15032831482926681 0 0.3843829660287168 0.1587008111838667 0 0.34907151432127381 0.16521020144779211 0 0.37277469716236061 0.17385369407461371 0 0.36285879787080821 0.15032831482926681 0 0.36285879787080821 0.15032831482926681 0 0.36938385952287339 0.13266757129752671 0 0.38232915319187621 0.14145147187989651 0 0.33497932682518311 0.1519205034936916 0 0.36285879787080821 0.15032831482926681 0 0.35327239972246333 0.1300285668288671 0 0.33497932682518311 0.1519205034936916 0 0.34907151432127381 0.16521020144779211 0 0.36285879787080821 0.15032831482926681 0 0.36649271172908648 0.1176987398754743 0 0.35327239972246333 0.1300285668288671 0 0.36938385952287339 0.13266757129752671 0 0.36285879787080821 0.15032831482926681 0 0.35327239972246333 0.1300285668288671 0 0.36938385952287339 0.13266757129752671 0 0.39421974672685411 0.13240309148155921 0 0.38232915319187621 0.14145147187989651 0 0.38138511069115272 0.12353481432135879 0 0.36938385952287339 0.13266757129752671 0 0.38232915319187621 0.14145147187989651 0 0.38138511069115272 0.12353481432135879 0 0.39421974672685411 0.13240309148155921 0 0.41199731756477831 0.13352747615702071 0 0.3942733283070321 0.11371104406223111 0 0.39421974672685411 0.13240309148155921 0 0.40120830104283178 0.15077536395034899 0 0.41199731756477831 0.13352747615702071 0 0.39421974672685411 0.13240309148155921 0 0.40120830104283178 0.15077536395034899 0 0.38232915319187621 0.14145147187989651 0 0.36285879787080821 0.15032831482926681 0 0.38232915319187621 0.14145147187989651 0 0.3843829660287168 0.1587008111838667 0 0.40120830104283178 0.15077536395034899 0 0.38232915319187621 0.14145147187989651 0 0.3843829660287168 0.1587008111838667 0 0.37277469716236061 0.17385369407461371 0 0.3843829660287168 0.1587008111838667 0 0.39936082591505218 0.176604797209717 0 0.37277469716236061 0.17385369407461371 0 0.39936082591505218 0.176604797209717 0 0.38992891259608609 0.19548318162929729 0 0.40120830104283178 0.15077536395034899 0 0.39936082591505218 0.176604797209717 0 0.41410660213767347 0.1652382216241598 0 0.40120830104283178 0.15077536395034899 0 0.3843829660287168 0.1587008111838667 0 0.39936082591505218 0.176604797209717 0 0.40120830104283178 0.15077536395034899 0 0.41410660213767347 0.1652382216241598 0 0.42972130682252457 0.1533439082518103 0 0.39936082591505218 0.176604797209717 0 0.41410660213767347 0.1652382216241598 0 0.42626679864566441 0.18172907206941921 0 0.42626679864566441 0.18172907206941921 0 0.42972130682252457 0.1533439082518103 0 0.45055708181009879 0.1690731760043504 0 0.41410660213767347 0.1652382216241598 0 0.42626679864566441 0.18172907206941921 0 0.42972130682252457 0.1533439082518103 0 0.42972130682252457 0.1533439082518103 0 0.43054248402473921 0.1250848439374013 0 0.44904083753606949 0.1441389705362057 0 0.42972130682252457 0.1533439082518103 0 0.43054248402473921 0.1250848439374013 0 0.41199731756477831 0.13352747615702071 0 0.43054248402473921 0.1250848439374013 0 0.41199731756477831 0.13352747615702071 0 0.41135066019799099 0.1182158826350982 0 0.40120830104283178 0.15077536395034899 0 0.42972130682252457 0.1533439082518103 0 0.41199731756477831 0.13352747615702071 0 0.42972130682252457 0.1533439082518103 0 0.41199731756477831 0.13352747615702071 0 0.40097752291506289 0.25902709479471048 0 0.39333580902427501 0.24081282939082621 0 0.41286841049430861 0.24788583003777651 0 0.37478492512234668 0.26235925763296819 0 0.36970064025412291 0.2313836502337521 0 0.39333580902427501 0.24081282939082621 0 0.36970064025412291 0.2313836502337521 0 0.39333580902427501 0.24081282939082621 0 0.39338333076520482 0.2163019563834182 0 0.39338333076520482 0.2163019563834182 0 0.41736514745474701 0.23222376298023259 0 0.39333580902427501 0.24081282939082621 0 0.39338333076520482 0.2163019563834182 0 0.41736514745474701 0.23222376298023259 0 0.39338333076520482 0.2163019563834182 0 0.38992891259608609 0.19548318162929729 0 0.41508715600771068 0.20488700545500521 0 0.36940151407566268 0.20038014978660379 0 0.39338333076520482 0.2163019563834182 0 0.36940151407566268 0.20038014978660379 0 0.39338333076520482 0.2163019563834182 0 0.38992891259608609 0.19548318162929729 0 0.36940151407566268 0.20038014978660379 0 0.36970064025412291 0.2313836502337521 0 0.39338333076520482 0.2163019563834182 0 0.36940151407566268 0.20038014978660379 0 0.37277469716236061 0.17385369407461371 0 0.38992891259608609 0.19548318162929729 0 0.39936082591505218 0.176604797209717 0 0.38992891259608609 0.19548318162929729 0 0.41508715600771068 0.20488700545500521 0 0.39936082591505218 0.176604797209717 0 0.42626679864566441 0.18172907206941921 0 0.41508715600771068 0.20488700545500521 0 0.42626679864566441 0.18172907206941921 0 0.44140000057487638 0.20455834627575151 0 0.44473765559285833 0.18692520255949671 0 0.42626679864566441 0.18172907206941921 0 0.41508715600771068 0.20488700545500521 0 0.44140000057487638 0.20455834627575151 0 0.41508715600771068 0.20488700545500521 0 0.43790507610234408 0.2273079216372012 0 0.44140000057487638 0.20455834627575151 0 0.39338333076520482 0.2163019563834182 0 0.41508715600771068 0.20488700545500521 0 0.41736514745474701 0.23222376298023259 0 0.41508715600771068 0.20488700545500521 0 0.41736514745474701 0.23222376298023259 0 0.43790507610234408 0.2273079216372012 0 0.42717012070777932 0.25569493195645271 0 0.41736514745474701 0.23222376298023259 0 0.44134696414428898 0.24814556957704689 0 0.41736514745474701 0.23222376298023259 0 0.44134696414428898 0.24814556957704689 0 0.41736514745474701 0.23222376298023259 0 0.44134696414428898 0.24814556957704689 0 0.43790507610234408 0.2273079216372012 0 0.39333580902427501 0.24081282939082621 0 0.41736514745474701 0.23222376298023259 0 0.41286841049430861 0.24788583003777651 0 0.42717012070777932 0.25569493195645271 0 0.41736514745474701 0.23222376298023259 0 0.41286841049430861 0.24788583003777651 0 0.45336271850049548 0.25236276911819511 0 0.45602225988021539 0.23816249748875179 0 0.48180965237011408 0.2487438147612096 0 0.45336271850049548 0.25236276911819511 0 0.45602225988021539 0.23816249748875179 0 0.44134696414428898 0.24814556957704689 0 0.44600400848591359 0.23698591979390529 0 0.43790507610234408 0.2273079216372012 0 0.45336271850049548 0.25236276911819511 0 0.44134696414428898 0.24814556957704689 0 0.44600400848591359 0.23698591979390529 0 0.45336271850049548 0.25236276911819511 0 0.45602225988021539 0.23816249748875179 0 0.44600400848591359 0.23698591979390529 0 0.45602225988021539 0.23816249748875179 0 0.44600400848591359 0.23698591979390529 0 0.45492939023952461 0.2194397610932603 0 0.44600400848591359 0.23698591979390529 0 0.43790507610234408 0.2273079216372012 0 0.45492939023952461 0.2194397610932603 0 0.45602225988021539 0.23816249748875179 0 0.45492939023952461 0.2194397610932603 0 0.47419086539053962 0.2296972043723752 0 0.45492939023952461 0.2194397610932603 0 0.46072674134079361 0.19234021588846559 0 0.47847088324409548 0.2092058758105422 0 0.45492939023952461 0.2194397610932603 0 0.44140000057487638 0.20455834627575151 0 0.46072674134079361 0.19234021588846559 0 0.43790507610234408 0.2273079216372012 0 0.45492939023952461 0.2194397610932603 0 0.44140000057487638 0.20455834627575151 0 0.44140000057487638 0.20455834627575151 0 0.46072674134079361 0.19234021588846559 0 0.44473765559285833 0.18692520255949671 0 0.46072674134079361 0.19234021588846559 0 0.4812983336831132 0.1885899983914231 0 0.47847088324409548 0.2092058758105422 0 0.4812983336831132 0.1885899983914231 0 0.5 0.19797878532577309 0 0.47847088324409548 0.2092058758105422 0 0.5 0.19797878532577309 0 0.47847088324409548 0.2092058758105422 0 0.5 0.22793385045351919 0 0.47847088324409548 0.2092058758105422 0 0.47419086539053962 0.2296972043723752 0 0.5 0.22793385045351919 0 0.45492939023952461 0.2194397610932603 0 0.47847088324409548 0.2092058758105422 0 0.47419086539053962 0.2296972043723752 0 0.5 0.25788891558126559 0 0.5 0.22793385045351919 0 0.48180965237011408 0.2487438147612096 0 0.47419086539053962 0.2296972043723752 0 0.5 0.22793385045351919 0 0.48180965237011408 0.2487438147612096 0 0.45602225988021539 0.23816249748875179 0 0.47419086539053962 0.2296972043723752 0 0.48180965237011408 0.2487438147612096 0 0.46287167922105149 0.15545842773829099 0 0.44904083753606949 0.1441389705362057 0 0.45055708181009879 0.1690731760043504 0 0.46287167922105149 0.15545842773829099 0 0.46355845200513762 0.13850516077978961 0 0.47909635670674228 0.14767892477560191 0 0.46287167922105149 0.15545842773829099 0 0.46355845200513762 0.13850516077978961 0 0.44904083753606949 0.1441389705362057 0 0.46355845200513762 0.13850516077978961 0 0.47795750643906171 0.12649365297180731 0 0.4559740449914913 0.1245921335342187 0 0.46355845200513762 0.13850516077978961 0 0.44904083753606949 0.1441389705362057 0 0.4559740449914913 0.1245921335342187 0 0.43054248402473921 0.1250848439374013 0 0.44904083753606949 0.1441389705362057 0 0.4559740449914913 0.1245921335342187 0 0.42972130682252457 0.1533439082518103 0 0.44904083753606949 0.1441389705362057 0 0.45055708181009879 0.1690731760043504 0 0.42626679864566441 0.18172907206941921 0 0.45055708181009879 0.1690731760043504 0 0.44473765559285833 0.18692520255949671 0 0.46072674134079361 0.19234021588846559 0 0.45055708181009879 0.1690731760043504 0 0.44473765559285833 0.18692520255949671 0 0.46072674134079361 0.19234021588846559 0 0.45055708181009879 0.1690731760043504 0 0.4752785409050499 0.1685484481011886 0 0.46287167922105149 0.15545842773829099 0 0.45055708181009879 0.1690731760043504 0 0.4752785409050499 0.1685484481011886 0 0.45055708181009879 0.1690731760043504 0 0.4752785409050499 0.1685484481011886 0 0.46287167922105149 0.15545842773829099 0 0.4752785409050499 0.1685484481011886 0 0.47909635670674228 0.14767892477560191 0 0.46072674134079361 0.19234021588846559 0 0.4812983336831132 0.1885899983914231 0 0.4752785409050499 0.1685484481011886 0 0.4812983336831132 0.1885899983914231 0 0.4752785409050499 0.1685484481011886 0 0.50000000000000111 0.1680237201980268 0 0.4812983336831132 0.1885899983914231 0 0.5 0.19797878532577309 0 0.50000000000000111 0.1680237201980268 0 0.4752785409050499 0.1685484481011886 0 0.50000000000000111 0.1680237201980268 0 0.4752785409050499 0.1685484481011886 0 0.50000000000000111 0.1680237201980268 0 0.47909635670674228 0.14767892477560191 0 0.50000000000000111 0.1680237201980268 0 0.5 0.14405257421324749 0 0.47909635670674228 0.14767892477560191 0 0.46355845200513762 0.13850516077978961 0 0.47909635670674228 0.14767892477560191 0 0.47795750643906171 0.12649365297180731 0 0.5 0.14405257421324749 0 0.47795750643906171 0.12649365297180731 0 0.5 0.12008142822846821 0 0.5 0.14405257421324749 0 0.47909635670674228 0.14767892477560191 0 0.47795750643906171 0.12649365297180731 0 0.47795750643906171 0.12649365297180731 0 0.5 0.12008142822846821 0 0.48437617198066579 0.1083096126220475 0 0.48437617198066579 0.1083096126220475 0 0.5 0.096110282243688894 0 0.4787628640296252 0.09057766153942011 0 0.5 0.12008142822846821 0 0.48437617198066579 0.1083096126220475 0 0.5 0.096110282243688894 0 0.48437617198066579 0.1083096126220475 0 0.4787628640296252 0.09057766153942011 0 0.46516048943464161 0.10828503812685281 0 0.47795750643906171 0.12649365297180731 0 0.48437617198066579 0.1083096126220475 0 0.46516048943464161 0.10828503812685281 0 0.49999999999999389 0.072139136258909636 0 0.47264706529987838 0.068582714068275596 0 0.5 0.096110282243688894 0 0.49999999999999389 0.072139136258909636 0 0.4787628640296252 0.09057766153942011 0 0.49999999999999389 0.072139136258909636 0 0.4787628640296252 0.09057766153942011 0 0.47264706529987838 0.068582714068275596 0 0.47264706529987838 0.068582714068275596 0 0.44529413059976319 0.065026291877640793 0 0.47264706529987838 0.068582714068275596 0 0.45009241250792742 0.089848104882156193 0 0.44529413059976319 0.065026291877640793 0 0.4787628640296252 0.09057766153942011 0 0.47264706529987838 0.068582714068275596 0 0.45009241250792742 0.089848104882156193 0 0.45009241250792742 0.089848104882156193 0 0.44529413059976319 0.065026291877640793 0 0.42710943965072512 0.080764761008918995 0 0.4559740449914913 0.1245921335342187 0 0.46516048943464161 0.10828503812685281 0 0.44660059903698529 0.1095612823054605 0 0.47795750643906171 0.12649365297180731 0 0.4559740449914913 0.1245921335342187 0 0.46516048943464161 0.10828503812685281 0 0.45009241250792742 0.089848104882156193 0 0.46516048943464161 0.10828503812685281 0 0.44660059903698529 0.1095612823054605 0 0.4787628640296252 0.09057766153942011 0 0.45009241250792742 0.089848104882156193 0 0.46516048943464161 0.10828503812685281 0 0.45009241250792742 0.089848104882156193 0 0.44660059903698529 0.1095612823054605 0 0.42999027194599682 0.1018780191517587 0 0.43054248402473921 0.1250848439374013 0 0.4559740449914913 0.1245921335342187 0 0.44660059903698529 0.1095612823054605 0 0.43054248402473921 0.1250848439374013 0 0.44660059903698529 0.1095612823054605 0 0.42999027194599682 0.1018780191517587 0 0.43054248402473921 0.1250848439374013 0 0.41661501870526302 0.10782610780512 0 0.42999027194599682 0.1018780191517587 0 0.43054248402473921 0.1250848439374013 0 0.41135066019799099 0.1182158826350982 0 0.41661501870526302 0.10782610780512 0 0.43054248402473921 0.1250848439374013 0 0.41135066019799099 0.1182158826350982 0 0.41135066019799099 0.1182158826350982 0 0.41661501870526302 0.10782610780512 0 0.40605193543095291 0.1101899923625959 0 0.41199731756477831 0.13352747615702071 0 0.40856435551682457 0.1195913393650266 0 0.41135066019799099 0.1182158826350982 0 0.41661501870526302 0.10782610780512 0 0.42999027194599682 0.1018780191517587 0 0.41050144950628809 0.092342992232264526 0 0.41661501870526302 0.10782610780512 0 0.41050144950628809 0.092342992232264526 0 0.40408322644931421 0.10337105767737099 0 0.41661501870526302 0.10782610780512 0 0.40605193543095291 0.1101899923625959 0 0.40408322644931421 0.10337105767737099 0 0.45009241250792742 0.089848104882156193 0 0.42999027194599682 0.1018780191517587 0 0.42710943965072512 0.080764761008918995 0 0.42999027194599682 0.1018780191517587 0 0.42710943965072512 0.080764761008918995 0 0.41050144950628809 0.092342992232264526 0 0.44529413059976319 0.065026291877640793 0 0.42710943965072512 0.080764761008918995 0 0.41794119589964812 0.061469869687005997 0 0.44529413059976319 0.065026291877640793 0 0.41794119589964812 0.061469869687005997 0 0.42710943965072512 0.080764761008918995 0 0.40780427562880051 0.074340584248736047 0 0.41794119589964812 0.061469869687005997 0 0.42710943965072512 0.080764761008918995 0 0.40780427562880051 0.074340584248736047 0 0.41050144950628809 0.092342992232264526 0 0.41050144950628809 0.092342992232264526 0 0.39288103188780799 0.079211850819119467 0 0.39173805803946632 0.094638931286680023 0 0.40780427562880051 0.074340584248736047 0 0.41050144950628809 0.092342992232264526 0 0.39288103188780799 0.079211850819119467 0 0.40780427562880051 0.074340584248736047 0 0.39058826119953283 0.057913447496371839 0 0.41794119589964812 0.061469869687005997 0 0.40780427562880051 0.074340584248736047 0 0.39288103188780799 0.079211850819119467 0 0.39058826119953283 0.057913447496371839 0 0.39288103188780799 0.079211850819119467 0 0.37575225644292037 0.071709270247263784 0 0.39058826119953283 0.057913447496371839 0 0.3742009225581896 0.091268948227223284 0 0.39288103188780799 0.079211850819119467 0 0.39173805803946632 0.094638931286680023 0 0.3742009225581896 0.091268948227223284 0 0.39288103188780799 0.079211850819119467 0 0.37575225644292037 0.071709270247263784 0 0.3742009225581896 0.091268948227223284 0 0.39215883637124299 0.11134692133279479 0 0.39173805803946632 0.094638931286680023 0 0.3742009225581896 0.091268948227223284 0 0.39215883637124299 0.11134692133279479 0 0.3742009225581896 0.091268948227223284 0 0.3795225325030368 0.1068242515199407 0 0.39215883637124299 0.11134692133279479 0 0.3795225325030368 0.1068242515199407 0 0.39215883637124299 0.11134692133279479 0 0.3795225325030368 0.1068242515199407 0 0.38138511069115272 0.12353481432135879 0 0.3942733283070321 0.11371104406223111 0 0.36649271172908648 0.1176987398754743 0 0.3795225325030368 0.1068242515199407 0 0.38138511069115272 0.12353481432135879 0 0.39421974672685411 0.13240309148155921 0 0.38138511069115272 0.12353481432135879 0 0.3942733283070321 0.11371104406223111 0 0.3795225325030368 0.1068242515199407 0 0.3942733283070321 0.11371104406223111 0 0.3795225325030368 0.1068242515199407 0 0.39215883637124299 0.11134692133279479 0 0.3942733283070321 0.11371104406223111 0 0.41135066019799099 0.1182158826350982 0 0.39215883637124299 0.11134692133279479 0 0.40605193543095291 0.1101899923625959 0 0.41135066019799099 0.1182158826350982 0 0.39215883637124299 0.11134692133279479 0 0.3942733283070321 0.11371104406223111 0 0.41135066019799099 0.1182158826350982 0 0.39215883637124299 0.11134692133279479 0 0.41199731756477831 0.13352747615702071 0 0.40856435551682457 0.1195913393650266 0 0.3942733283070321 0.11371104406223111 0 0.41199731756477831 0.13352747615702071 0 0.3942733283070321 0.11371104406223111 0 0.40856435551682457 0.1195913393650266 0 0.41135066019799099 0.1182158826350982 0 0.3942733283070321 0.11371104406223111 0 0.39215883637124299 0.11134692133279479 0 0.3942733283070321 0.11371104406223111 0 0.40856435551682457 0.1195913393650266 0 0.3942733283070321 0.11371104406223111 0 0.39215883637124299 0.11134692133279479 0 0.40408322644931421 0.10337105767737099 0 0.39173805803946632 0.094638931286680023 0 0.39215883637124299 0.11134692133279479 0 0.40605193543095291 0.1101899923625959 0 0.40408322644931421 0.10337105767737099 0 0.41050144950628809 0.092342992232264526 0 0.40408322644931421 0.10337105767737099 0 0.39173805803946632 0.094638931286680023 0 0.4038432128890253 0.016274120358417851 0 0.39452024459155199 0.029629145094844 0 0.3798040161112804 0.028996110171619349 0 0.4038432128890253 0.016274120358417851 0 0.39452024459155199 0.029629145094844 0 0.40714332068978548 0.032011032787191827 0 0.4038432128890253 0.016274120358417851 0 0.3798040161112804 0.028996110171619349 0 0.4038432128890253 0.016274120358417851 0 0.39390920682105918 0.0040204267233196643 0 0.38813729234829519 0.016219836643301819 0 0.4038432128890253 0.016274120358417851 0 0.39390920682105918 0.0040204267233196643 0 0.40369857438468087 -0.0060371637805465179 0 0.39390920682105918 0.0040204267233196643 0 0.38212023564171321 0.001094655884648786 0 0.38813729234829519 0.016219836643301819 0 0.38212023564171321 0.001094655884648786 0 0.37537418671591988 0.012891754799621079 0 0.3700201466167648 -0.002195575246397889 0 0.38212023564171321 0.001094655884648786 0 0.37537418671591988 0.012891754799621079 0 0.38813729234829519 0.016219836643301819 0 0.38029426512156322 0.021339738828328979 0 0.38813729234829519 0.016219836643301819 0 0.3798040161112804 0.028996110171619349 0 0.4038432128890253 0.016274120358417851 0 0.38813729234829519 0.016219836643301819 0 0.3798040161112804 0.028996110171619349 0 0.37537418671591988 0.012891754799621079 0 0.38029426512156322 0.021339738828328979 0 0.37786156531075732 0.02725125369877367 0 0.37537418671591988 0.012891754799621079 0 0.38029426512156322 0.021339738828328979 0 0.38813729234829519 0.016219836643301819 0 0.39452024459155199 0.029629145094844 0 0.3798040161112804 0.028996110171619349 0 0.384792923869274 0.033192425096464057 0 0.38029426512156322 0.021339738828328979 0 0.3798040161112804 0.028996110171619349 0 0.37786156531075732 0.02725125369877367 0 0.36984281421283938 0.03924660656396721 0 0.3798040161112804 0.028996110171619349 0 0.37675727284589372 0.036323400775862158 0 0.3798040161112804 0.028996110171619349 0 0.38012370578730592 0.033949837724153123 0 0.37675727284589372 0.036323400775862158 0 0.3798040161112804 0.028996110171619349 0 0.38012370578730592 0.033949837724153123 0 0.384792923869274 0.033192425096464057 0 0.38012370578730592 0.033949837724153123 0 0.38115894465086869 0.037510150111343843 0 0.384792923869274 0.033192425096464057 0 0.38012370578730592 0.033949837724153123 0 0.38115894465086869 0.037510150111343843 0 0.37675727284589372 0.036323400775862158 0 0.38115894465086869 0.037510150111343843 0 0.37675727284589372 0.036323400775862158 0 0.37726993283737248 0.041439113600633092 0 0.37726993283737248 0.041439113600633092 0 0.38325871491723518 0.0441773091346798 0 0.37608467898805159 0.048096788967416412 0 0.38115894465086869 0.037510150111343843 0 0.37726993283737248 0.041439113600633092 0 0.38325871491723518 0.0441773091346798 0 0.38115894465086869 0.037510150111343843 0 0.38325871491723518 0.0441773091346798 0 0.38884635116990662 0.036871995634108659 0 0.38325871491723518 0.0441773091346798 0 0.38884635116990662 0.036871995634108659 0 0.39118926401298038 0.043344116461786472 0 0.39452024459155199 0.029629145094844 0 0.38884635116990662 0.036871995634108659 0 0.384792923869274 0.033192425096464057 0 0.38115894465086869 0.037510150111343843 0 0.38884635116990662 0.036871995634108659 0 0.384792923869274 0.033192425096464057 0 0.36737709041569239 0.056764699852256018 0 0.39058826119953283 0.057913447496371839 0 0.36443667806580698 0.054513224756226962 0 0.37608467898805159 0.048096788967416412 0 0.39058826119953283 0.057913447496371839 0 0.36737709041569239 0.056764699852256018 0 0.37575225644292037 0.071709270247263784 0 0.39058826119953283 0.057913447496371839 0 0.36443667806580698 0.054513224756226962 0 0.39058826119953283 0.057913447496371839 0 0.38325871491723518 0.0441773091346798 0 0.37608467898805159 0.048096788967416412 0 0.39058826119953283 0.057913447496371839 0 0.38325871491723518 0.0441773091346798 0 0.39058826119953283 0.057913447496371839 0 0.39118926401298038 0.043344116461786472 0 0.39058826119953283 0.057913447496371839 0 0.39917917489280202 0.048669550515315511 0 0.40824027372044169 0.058787065978875973 0 0.39058826119953283 0.057913447496371839 0 0.40824027372044169 0.058787065978875973 0 0.39058826119953283 0.057913447496371839 0 0.41794119589964812 0.061469869687005997 0 0.40824027372044169 0.058787065978875973 0 0.39058826119953283 0.057913447496371839 0 0.41794119589964812 0.061469869687005997 0 0.39058826119953283 0.057913447496371839 0 0.39917917489280202 0.048669550515315511 0 0.39118926401298038 0.043344116461786472 0 0.39917917489280202 0.048669550515315511 0 0.40803146459590139 0.044566129264659721 0 0.40824027372044169 0.058787065978875973 0 0.39452024459155199 0.029629145094844 0 0.38884635116990662 0.036871995634108659 0 0.39784661093515339 0.038736993374884177 0 0.39917917489280202 0.048669550515315511 0 0.39784661093515339 0.038736993374884177 0 0.39118926401298038 0.043344116461786472 0 0.38884635116990662 0.036871995634108659 0 0.39784661093515339 0.038736993374884177 0 0.39118926401298038 0.043344116461786472 0 0.39917917489280202 0.048669550515315511 0 0.39784661093515339 0.038736993374884177 0 0.40803146459590139 0.044566129264659721 0 0.39452024459155199 0.029629145094844 0 0.39784661093515339 0.038736993374884177 0 0.40714332068978548 0.032011032787191827 0 0.39784661093515339 0.038736993374884177 0 0.40714332068978548 0.032011032787191827 0 0.40803146459590139 0.044566129264659721 0 0.40714332068978548 0.032011032787191827 0 0.40803146459590139 0.044566129264659721 0 0.41964440497126981 0.040250358009145122 0 0.40803146459590139 0.044566129264659721 0 0.41964440497126981 0.040250358009145122 0 0.41733432138732551 0.050785193364838402 0 0.40714332068978548 0.032011032787191827 0 0.41964440497126981 0.040250358009145122 0 0.41891932927970088 0.026081136014491389 0 0.40824027372044169 0.058787065978875973 0 0.41733432138732551 0.050785193364838402 0 0.42589228624135061 0.059660684461379461 0 0.40824027372044169 0.058787065978875973 0 0.42589228624135061 0.059660684461379461 0 0.41794119589964812 0.061469869687005997 0 0.40824027372044169 0.058787065978875973 0 0.42589228624135061 0.059660684461379461 0 0.40803146459590139 0.044566129264659721 0 0.40824027372044169 0.058787065978875973 0 0.41733432138732551 0.050785193364838402 0 0.41964440497126981 0.040250358009145122 0 0.41733432138732551 0.050785193364838402 0 0.42647272639553008 0.050672874727357403 0 0.44529413059976319 0.065026291877640793 0 0.42589228624135061 0.059660684461379461 0 0.43583307009461808 0.053135938561971199 0 0.44529413059976319 0.065026291877640793 0 0.41794119589964812 0.061469869687005997 0 0.42589228624135061 0.059660684461379461 0 0.42589228624135061 0.059660684461379461 0 0.42647272639553008 0.050672874727357403 0 0.43583307009461808 0.053135938561971199 0 0.41733432138732551 0.050785193364838402 0 0.42589228624135061 0.059660684461379461 0 0.42647272639553008 0.050672874727357403 0 0.42647272639553008 0.050672874727357403 0 0.43583307009461808 0.053135938561971199 0 0.4340740022190257 0.043822740937536728 0 0.41964440497126981 0.040250358009145122 0 0.42987588244635011 0.033334548906864728 0 0.41891932927970088 0.026081136014491389 0 0.41964440497126981 0.040250358009145122 0 0.4340740022190257 0.043822740937536728 0 0.42987588244635011 0.033334548906864728 0 0.41964440497126981 0.040250358009145122 0 0.42647272639553008 0.050672874727357403 0 0.4340740022190257 0.043822740937536728 0 0.4340740022190257 0.043822740937536728 0 0.42987588244635011 0.033334548906864728 0 0.44528176508543132 0.032905620831071007 0 0.42987588244635011 0.033334548906864728 0 0.43184963590009789 0.021236349906575389 0 0.44528176508543132 0.032905620831071007 0 0.43184963590009789 0.021236349906575389 0 0.42259879527057942 0.015927249454054739 0 0.43188165484739188 0.01287087804949661 0 0.43184963590009789 0.021236349906575389 0 0.42259879527057942 0.015927249454054739 0 0.41891932927970088 0.026081136014491389 0 0.42987588244635011 0.033334548906864728 0 0.43184963590009789 0.021236349906575389 0 0.41891932927970088 0.026081136014491389 0 0.4038432128890253 0.016274120358417851 0 0.42259879527057942 0.015927249454054739 0 0.41891932927970088 0.026081136014491389 0 0.4038432128890253 0.016274120358417851 0 0.40714332068978548 0.032011032787191827 0 0.41891932927970088 0.026081136014491389 0 0.4038432128890253 0.016274120358417851 0 0.41402040698134779 -0.0025911497673051101 0 0.40369857438468087 -0.0060371637805465179 0 0.4038432128890253 0.016274120358417851 0 0.42788240966677021 0.003552130545216341 0 0.4038432128890253 0.016274120358417851 0 0.42101935538117791 0.0050386314779034547 0 0.41402040698134779 -0.0025911497673051101 0 0.4038432128890253 0.016274120358417851 0 0.42259879527057942 0.015927249454054739 0 0.42788240966677021 0.003552130545216341 0 0.4038432128890253 0.016274120358417851 0 0.42101935538117791 0.0050386314779034547 0 0.42788240966677021 0.003552130545216341 0 0.42788240966677021 0.003552130545216341 0 0.43188165484739188 0.01287087804949661 0 0.44740740452026229 0.01137317045841814 0 0.42259879527057942 0.015927249454054739 0 0.42788240966677021 0.003552130545216341 0 0.43188165484739188 0.01287087804949661 0 0.43184963590009789 0.021236349906575389 0 0.43188165484739188 0.01287087804949661 0 0.44740740452026229 0.01137317045841814 0 0.42788240966677021 0.003552130545216341 0 0.44740740452026229 0.01137317045841814 0 0.45192160644451512 -0.0091698592679851504 0 0.43184963590009789 0.021236349906575389 0 0.44740740452026229 0.01137317045841814 0 0.44528176508543132 0.032905620831071007 0 0.44740740452026229 0.01137317045841814 0 0.44528176508543132 0.032905620831071007 0 0.46875558315454652 0.02621282055229885 0 0.44740740452026229 0.01137317045841814 0 0.4740075662235973 0.0028935560396234419 0 0.46875558315454652 0.02621282055229885 0 0.44740740452026229 0.01137317045841814 0 0.4740075662235973 0.0028935560396234419 0 0.45192160644451512 -0.0091698592679851504 0 0.44529413059976319 0.065026291877640793 0 0.44587589901867808 0.047550444472131762 0 0.4614262583005877 0.04791767975015173 0 0.44529413059976319 0.065026291877640793 0 0.43583307009461808 0.053135938561971199 0 0.44587589901867808 0.047550444472131762 0 0.43583307009461808 0.053135938561971199 0 0.4340740022190257 0.043822740937536728 0 0.44587589901867808 0.047550444472131762 0 0.44587589901867808 0.047550444472131762 0 0.44528176508543132 0.032905620831071007 0 0.4614262583005877 0.04791767975015173 0 0.4340740022190257 0.043822740937536728 0 0.44587589901867808 0.047550444472131762 0 0.44528176508543132 0.032905620831071007 0 0.44528176508543132 0.032905620831071007 0 0.4614262583005877 0.04791767975015173 0 0.46875558315454652 0.02621282055229885 0 0.47264706529987838 0.068582714068275596 0 0.44529413059976319 0.065026291877640793 0 0.4614262583005877 0.04791767975015173 0 0.47264706529987838 0.068582714068275596 0 0.4614262583005877 0.04791767975015173 0 0.48053199367993171 0.043851827509569327 0 0.4614262583005877 0.04791767975015173 0 0.48053199367993171 0.043851827509569327 0 0.46875558315454652 0.02621282055229885 0 0.48053199367993171 0.043851827509569327 0 0.5 0.04545089247058498 0 0.5 0.018762648682260189 0 0.49999999999999389 0.072139136258909636 0 0.47264706529987838 0.068582714068275596 0 0.48053199367993171 0.043851827509569327 0 0.49999999999999389 0.072139136258909636 0 0.48053199367993171 0.043851827509569327 0 0.5 0.04545089247058498 0 0.48053199367993171 0.043851827509569327 0 0.46875558315454652 0.02621282055229885 0 0.5 0.018762648682260189 0 0.4740075662235973 0.0028935560396234419 0 0.46875558315454652 0.02621282055229885 0 0.5 0.018762648682260189 0 0.4740075662235973 0.0028935560396234419 0 0.5 0.018762648682260189 0 0.5 -0.0079255951060647756 0 0.4740075662235973 0.0028935560396234419 0 0.5 -0.0079255951060647756 0 0.47596080322225992 -0.02189184908118659 0 0.47596080322225992 -0.02189184908118659 0 0.50000000000000377 -0.034613838894389633 0 0.5 -0.0079255951060647756 0 0.47596080322225992 -0.02189184908118659 0 0.50000000000000377 -0.034613838894389633 0 0.47596080322225992 -0.02189184908118659 0 0.50000000000000377 -0.034613838894389633 0 0.48339532061042467 -0.042675677639817791 0 0.50000000000000377 -0.034613838894389633 0 0.5 -0.052291970509826757 0 0.48339532061042467 -0.042675677639817791 0 0.5 -0.052291970509826757 0 0.48378938215607542 -0.060491629721736481 0 0.49999999999999678 -0.069970102125263903 0 0.5 -0.052291970509826757 0 0.48378938215607542 -0.060491629721736481 0 0.48339532061042467 -0.042675677639817791 0 0.48378938215607542 -0.060491629721736481 0 0.47035919737641452 -0.05083356829212015 0 0.48339532061042467 -0.042675677639817791 0 0.48378938215607542 -0.060491629721736481 0 0.47035919737641452 -0.05083356829212015 0 0.46263532094350251 -0.0655193079319734 0 0.47596080322225992 -0.02189184908118659 0 0.48339532061042467 -0.042675677639817791 0 0.46122373864745198 -0.034064038759572521 0 0.47035919737641452 -0.05083356829212015 0 0.48339532061042467 -0.042675677639817791 0 0.46122373864745198 -0.034064038759572521 0 0.46122373864745198 -0.034064038759572521 0 0.45641225836005789 -0.05051217933658872 0 0.44483042593949818 -0.041063070916932051 0 0.47035919737641452 -0.05083356829212015 0 0.46122373864745198 -0.034064038759572521 0 0.45641225836005789 -0.05051217933658872 0 0.45641225836005789 -0.05051217933658872 0 0.44526353314296241 -0.062107813217869068 0 0.46263532094350251 -0.0655193079319734 0 0.47035919737641452 -0.05083356829212015 0 0.45641225836005789 -0.05051217933658872 0 0.46263532094350251 -0.0655193079319734 0 0.45641225836005789 -0.05051217933658872 0 0.44526353314296241 -0.062107813217869068 0 0.44483042593949818 -0.041063070916932051 0 0.44526353314296241 -0.062107813217869068 0 0.44483042593949818 -0.041063070916932051 0 0.42768193525564641 -0.052738548234870043 0 0.46122373864745198 -0.034064038759572521 0 0.44483042593949818 -0.041063070916932051 0 0.44260817666721519 -0.025216613737701819 0 0.44483042593949818 -0.041063070916932051 0 0.44260817666721519 -0.025216613737701819 0 0.43454865465473302 -0.032105158367880783 0 0.46122373864745198 -0.034064038759572521 0 0.44260817666721519 -0.025216613737701819 0 0.45192160644451512 -0.0091698592679851504 0 0.42788240966677021 0.003552130545216341 0 0.45192160644451512 -0.0091698592679851504 0 0.44260817666721519 -0.025216613737701819 0 0.45192160644451512 -0.0091698592679851504 0 0.43543049063324413 -0.012350052332502739 0 0.42788240966677021 0.003552130545216341 0 0.45192160644451512 -0.0091698592679851504 0 0.43543049063324413 -0.012350052332502739 0 0.4740075662235973 0.0028935560396234419 0 0.47596080322225992 -0.02189184908118659 0 0.45192160644451512 -0.0091698592679851504 0 0.47596080322225992 -0.02189184908118659 0 0.45192160644451512 -0.0091698592679851504 0 0.47596080322225992 -0.02189184908118659 0 0.46122373864745198 -0.034064038759572521 0 0.45192160644451512 -0.0091698592679851504 0 0.47621403880257929 -0.099362679963144546 0 0.45825176112352212 -0.1171944005084963 0 0.47461064769812122 -0.12772964805397971 0 0.50000000000000433 -0.1143432737178363 0 0.47621403880257929 -0.099362679963144546 0 0.47461064769812122 -0.12772964805397971 0 0.50000000000000433 -0.1143432737178363 0 0.47461064769812122 -0.12772964805397971 0 0.49999999999998102 -0.1000967699598443 0 0.47621403880257929 -0.099362679963144546 0 0.49999999999998102 -0.1000967699598443 0 0.47621403880257929 -0.099362679963144546 0 0.48785951469139027 -0.086657123706384981 0 0.50000000000000433 -0.1143432737178363 0 0.49999999999998102 -0.1000967699598443 0 0.47621403880257929 -0.099362679963144546 0 0.47621403880257929 -0.099362679963144546 0 0.48785951469139027 -0.086657123706384981 0 0.47522401996300467 -0.077198942777287505 0 0.47621403880257929 -0.099362679963144546 0 0.47522401996300467 -0.077198942777287505 0 0.46460819440086443 -0.0896918568577834 0 0.49999999999998102 -0.1000967699598443 0 0.48785951469139027 -0.086657123706384981 0 0.49999999999999678 -0.069970102125263903 0 0.49999999999999678 -0.069970102125263903 0 0.47522401996300467 -0.077198942777287505 0 0.48785951469139027 -0.086657123706384981 0 0.49999999999999678 -0.069970102125263903 0 0.47522401996300467 -0.077198942777287505 0 0.48378938215607542 -0.060491629721736481 0 0.49999999999999678 -0.069970102125263903 0 0.47522401996300467 -0.077198942777287505 0 0.48378938215607542 -0.060491629721736481 0 0.47522401996300467 -0.077198942777287505 0 0.46263532094350251 -0.0655193079319734 0 0.47522401996300467 -0.077198942777287505 0 0.46263532094350251 -0.0655193079319734 0 0.4504480399260129 -0.084427783429311939 0 0.44526353314296241 -0.062107813217869068 0 0.46263532094350251 -0.0655193079319734 0 0.4504480399260129 -0.084427783429311939 0 0.44526353314296241 -0.062107813217869068 0 0.4504480399260129 -0.084427783429311939 0 0.43069868055782679 -0.078899440675300136 0 0.4504480399260129 -0.084427783429311939 0 0.45242807760517778 -0.098628589966444233 0 0.42864211640777627 -0.097894499969741214 0 0.4504480399260129 -0.084427783429311939 0 0.42567205988902129 -0.091656624081337568 0 0.47522401996300467 -0.077198942777287505 0 0.4504480399260129 -0.084427783429311939 0 0.47522401996300467 -0.077198942777287505 0 0.4504480399260129 -0.084427783429311939 0 0.46460819440086443 -0.0896918568577834 0 0.4504480399260129 -0.084427783429311939 0 0.46460819440086443 -0.0896918568577834 0 0.45242807760517778 -0.098628589966444233 0 0.47621403880257929 -0.099362679963144546 0 0.45242807760517778 -0.098628589966444233 0 0.45825176112352212 -0.1171944005084963 0 0.47621403880257929 -0.099362679963144546 0 0.45242807760517778 -0.098628589966444233 0 0.47621403880257929 -0.099362679963144546 0 0.46460819440086443 -0.0896918568577834 0 0.45242807760517778 -0.098628589966444233 0 0.45242807760517778 -0.098628589966444233 0 0.42864211640777627 -0.097894499969741214 0 0.45242807760517778 -0.098628589966444233 0 0.43893170590200609 -0.1195052611799315 0 0.42864211640777627 -0.097894499969741214 0 0.45242807760517778 -0.098628589966444233 0 0.43893170590200609 -0.1195052611799315 0 0.45825176112352212 -0.1171944005084963 0 0.42080162445294911 -0.1170697999396166 0 0.40604313277712428 -0.1171380761358455 0 0.41368108829086198 -0.13554811058748131 0 0.42080162445294911 -0.1170697999396166 0 0.40662173914453831 -0.097214899993173481 0 0.40604313277712428 -0.1171380761358455 0 0.43893170590200609 -0.1195052611799315 0 0.42080162445294911 -0.1170697999396166 0 0.430889964195386 -0.135117951771525 0 0.43893170590200609 -0.1195052611799315 0 0.42080162445294911 -0.1170697999396166 0 0.42864211640777627 -0.097894499969741214 0 0.43893170590200609 -0.1195052611799315 0 0.42864211640777627 -0.097894499969741214 0 0.42864211640777627 -0.097894499969741214 0 0.42567205988902129 -0.091656624081337568 0 0.42864211640777627 -0.097894499969741214 0 0.40662173914453831 -0.097214899993173481 0 0.42567205988902129 -0.091656624081337568 0 0.42080162445294911 -0.1170697999396166 0 0.42864211640777627 -0.097894499969741214 0 0.40662173914453831 -0.097214899993173481 0 0.42864211640777627 -0.097894499969741214 0 0.40662173914453831 -0.097214899993173481 0 0.40662173914453831 -0.097214899993173481 0 0.42567205988902129 -0.091656624081337568 0 0.40662173914453831 -0.097214899993173481 0 0.41829766411352998 -0.087706900461061957 0 0.42567205988902129 -0.091656624081337568 0 0.40662173914453831 -0.097214899993173481 0 0.41020628866808312 -0.08357079425946129 0 0.41829766411352998 -0.087706900461061957 0 0.41020628866808312 -0.08357079425946129 0 0.42012861486432151 -0.07981881462850364 0 0.41094109939792961 -0.074512111623280808 0 0.41020628866808312 -0.08357079425946129 0 0.41094109939792961 -0.074512111623280808 0 0.40556094342569721 -0.078918860306745137 0 0.41020628866808312 -0.08357079425946129 0 0.42012861486432151 -0.07981881462850364 0 0.41829766411352998 -0.087706900461061957 0 0.42012861486432151 -0.07981881462850364 0 0.41829766411352998 -0.087706900461061957 0 0.42254342745458301 -0.084546146485576762 0 0.41829766411352998 -0.087706900461061957 0 0.42461385466063262 -0.08943412331831832 0 0.42254342745458301 -0.084546146485576762 0 0.42567205988902129 -0.091656624081337568 0 0.42461385466063262 -0.08943412331831832 0 0.43069868055782679 -0.078899440675300136 0 0.4504480399260129 -0.084427783429311939 0 0.42567205988902129 -0.091656624081337568 0 0.43069868055782679 -0.078899440675300136 0 0.4504480399260129 -0.084427783429311939 0 0.42864211640777627 -0.097894499969741214 0 0.42567205988902129 -0.091656624081337568 0 0.42567205988902129 -0.091656624081337568 0 0.42461385466063262 -0.08943412331831832 0 0.41829766411352998 -0.087706900461061957 0 0.42567205988902129 -0.091656624081337568 0 0.42461385466063262 -0.08943412331831832 0 0.42012861486432151 -0.07981881462850364 0 0.43069868055782679 -0.078899440675300136 0 0.42254342745458301 -0.084546146485576762 0 0.42461385466063262 -0.08943412331831832 0 0.43069868055782679 -0.078899440675300136 0 0.42254342745458301 -0.084546146485576762 0 0.43069868055782679 -0.078899440675300136 0 0.42085386234523608 -0.065266903626460593 0 0.41911482919747139 -0.073234494934215744 0 0.43069868055782679 -0.078899440675300136 0 0.42085386234523608 -0.065266903626460593 0 0.42768193525564641 -0.052738548234870043 0 0.44526353314296241 -0.062107813217869068 0 0.43069868055782679 -0.078899440675300136 0 0.42768193525564641 -0.052738548234870043 0 0.43069868055782679 -0.078899440675300136 0 0.42768193525564641 -0.052738548234870043 0 0.42012861486432151 -0.07981881462850364 0 0.43069868055782679 -0.078899440675300136 0 0.41911482919747139 -0.073234494934215744 0 0.42085386234523608 -0.065266903626460593 0 0.41911482919747139 -0.073234494934215744 0 0.41247118756252621 -0.068972059658544485 0 0.41911482919747139 -0.073234494934215744 0 0.41094109939792961 -0.074512111623280808 0 0.41247118756252621 -0.068972059658544485 0 0.42012861486432151 -0.07981881462850364 0 0.41911482919747139 -0.073234494934215744 0 0.41094109939792961 -0.074512111623280808 0 0.41094109939792961 -0.074512111623280808 0 0.41247118756252621 -0.068972059658544485 0 0.40519344017519737 -0.069697512887539489 0 0.42085386234523608 -0.065266903626460593 0 0.41247118756252621 -0.068972059658544485 0 0.40625270669679608 -0.06214927522122575 0 0.41247118756252621 -0.068972059658544485 0 0.40519344017519737 -0.069697512887539489 0 0.40625270669679608 -0.06214927522122575 0 0.40519344017519737 -0.069697512887539489 0 0.3909339432522656 -0.07145852807871525 0 0.40625270669679608 -0.06214927522122575 0 0.41094109939792961 -0.074512111623280808 0 0.40094221169150912 -0.074554002884685597 0 0.40556094342569721 -0.078918860306745137 0 0.40519344017519737 -0.069697512887539489 0 0.40094221169150912 -0.074554002884685597 0 0.3909339432522656 -0.07145852807871525 0 0.41094109939792961 -0.074512111623280808 0 0.40519344017519737 -0.069697512887539489 0 0.40094221169150912 -0.074554002884685597 0 0.40094221169150912 -0.074554002884685597 0 0.3909339432522656 -0.07145852807871525 0 0.39616481607021642 -0.077435810443283751 0 0.3909339432522656 -0.07145852807871525 0 0.39616481607021642 -0.077435810443283751 0 0.39262893539182381 -0.080692178350181262 0 0.39181446083091098 -0.066763706552935329 0 0.38421934743036401 -0.068446750892908373 0 0.38398729378694407 -0.058429379279077209 0 0.38421934743036401 -0.068446750892908373 0 0.37813424473731178 -0.068262582352726586 0 0.38398729378694407 -0.058429379279077209 0 0.37813424473731178 -0.068262582352726586 0 0.38294139036628899 -0.080331335386894381 0 0.37353404377441052 -0.075370636612477671 0 0.38421934743036401 -0.068446750892908373 0 0.37813424473731178 -0.068262582352726586 0 0.38294139036628899 -0.080331335386894381 0 0.39181446083091098 -0.066763706552935329 0 0.38294139036628899 -0.080331335386894381 0 0.39181446083091098 -0.066763706552935329 0 0.38421934743036401 -0.068446750892908373 0 0.38294139036628899 -0.080331335386894381 0 0.3909339432522656 -0.07145852807871525 0 0.39181446083091098 -0.066763706552935329 0 0.38294139036628899 -0.080331335386894381 0 0.38598565568847482 -0.085166122563822014 0 0.39289996883908601 -0.089154852807517448 0 0.39262893539182381 -0.080692178350181262 0 0.3909339432522656 -0.07145852807871525 0 0.38598565568847482 -0.085166122563822014 0 0.39262893539182381 -0.080692178350181262 0 0.3909339432522656 -0.07145852807871525 0 0.37406831990166722 -0.093898964220853504 0 0.3909339432522656 -0.07145852807871525 0 0.38598565568847482 -0.085166122563822014 0 0.37406831990166722 -0.093898964220853504 0 0.3909339432522656 -0.07145852807871525 0 0.38294139036628899 -0.080331335386894381 0 0.37406831990166722 -0.093898964220853504 0 0.38294139036628899 -0.080331335386894381 0 0.37406831990166722 -0.093898964220853504 0 0.38598565568847482 -0.085166122563822014 0 0.38240509603332101 -0.092127683864182172 0 0.37406831990166722 -0.093898964220853504 0 0.38240509603332101 -0.092127683864182172 0 0.39289996883908601 -0.089154852807517448 0 0.38960421283109031 -0.096689699614190994 0 0.38598565568847482 -0.085166122563822014 0 0.38240509603332101 -0.092127683864182172 0 0.39289996883908601 -0.089154852807517448 0 0.39289996883908601 -0.089154852807517448 0 0.39262893539182381 -0.080692178350181262 0 0.40015417394526698 -0.083038532459552866 0 0.39616481607021642 -0.077435810443283751 0 0.39262893539182381 -0.080692178350181262 0 0.40015417394526698 -0.083038532459552866 0 0.40094221169150912 -0.074554002884685597 0 0.40556094342569721 -0.078918860306745137 0 0.40015417394526698 -0.083038532459552866 0 0.40094221169150912 -0.074554002884685597 0 0.39616481607021642 -0.077435810443283751 0 0.40015417394526698 -0.083038532459552866 0 0.41020628866808312 -0.08357079425946129 0 0.40556094342569721 -0.078918860306745137 0 0.40015417394526698 -0.083038532459552866 0 0.40662173914453831 -0.097214899993173481 0 0.39289996883908601 -0.089154852807517448 0 0.40015417394526698 -0.083038532459552866 0 0.40662173914453831 -0.097214899993173481 0 0.41020628866808312 -0.08357079425946129 0 0.40015417394526698 -0.083038532459552866 0 0.40662173914453831 -0.097214899993173481 0 0.3851668720105898 -0.10347474583943909 0 0.38960421283109031 -0.096689699614190994 0 0.40662173914453831 -0.097214899993173481 0 0.3851668720105898 -0.10347474583943909 0 0.40662173914453831 -0.097214899993173481 0 0.39289996883908601 -0.089154852807517448 0 0.38960421283109031 -0.096689699614190994 0 0.40662173914453831 -0.097214899993173481 0 0.38960421283109031 -0.096689699614190994 0 0.40662173914453831 -0.097214899993173481 0 0.3851668720105898 -0.10347474583943909 0 0.39374350655696688 -0.1137959578468639 0 0.38960421283109031 -0.096689699614190994 0 0.37237061700676077 -0.09615783082836224 0 0.3851668720105898 -0.10347474583943909 0 0.38960421283109031 -0.096689699614190994 0 0.37237061700676077 -0.09615783082836224 0 0.38240509603332101 -0.092127683864182172 0 0.38960421283109031 -0.096689699614190994 0 0.37237061700676077 -0.09615783082836224 0 0.38240509603332101 -0.092127683864182172 0 0.37406831990166722 -0.093898964220853504 0 0.37237061700676077 -0.09615783082836224 0 0.3785150876385216 -0.1195111518185689 0 0.39374350655696688 -0.1137959578468639 0 0.39237070121405998 -0.13164091544729051 0 0.3851668720105898 -0.10347474583943909 0 0.3785150876385216 -0.1195111518185689 0 0.36371200487664068 -0.10973459168570281 0 0.3851668720105898 -0.10347474583943909 0 0.3785150876385216 -0.1195111518185689 0 0.39374350655696688 -0.1137959578468639 0 0.40662173914453831 -0.097214899993173481 0 0.39374350655696688 -0.1137959578468639 0 0.40604313277712428 -0.1171380761358455 0 0.39374350655696688 -0.1137959578468639 0 0.40604313277712428 -0.1171380761358455 0 0.39237070121405998 -0.13164091544729051 0 0.41728163952739061 -0.019334187549187701 0 0.42284227266732188 -0.010769512158268201 0 0.42466518995346408 -0.026577655794440151 0 0.41728163952739061 -0.019334187549187701 0 0.41227128108974659 -0.029924501558089681 0 0.42466518995346408 -0.026577655794440151 0 0.41227128108974659 -0.029924501558089681 0 0.40863720631140932 -0.019892986955346081 0 0.40014031603924488 -0.033106741091830219 0 0.41728163952739061 -0.019334187549187701 0 0.41227128108974659 -0.029924501558089681 0 0.40863720631140932 -0.019892986955346081 0 0.41728163952739061 -0.019334187549187701 0 0.40863720631140932 -0.019892986955346081 0 0.41436166681859882 -0.01226683791037885 0 0.40863720631140932 -0.019892986955346081 0 0.41436166681859882 -0.01226683791037885 0 0.40369857438468087 -0.0060371637805465179 0 0.42101935538117791 0.0050386314779034547 0 0.41402040698134779 -0.0025911497673051101 0 0.42284227266732188 -0.010769512158268201 0 0.41402040698134779 -0.0025911497673051101 0 0.41436166681859882 -0.01226683791037885 0 0.40369857438468087 -0.0060371637805465179 0 0.41402040698134779 -0.0025911497673051101 0 0.41436166681859882 -0.01226683791037885 0 0.42284227266732188 -0.010769512158268201 0 0.41728163952739061 -0.019334187549187701 0 0.41436166681859882 -0.01226683791037885 0 0.42284227266732188 -0.010769512158268201 0 0.42284227266732188 -0.010769512158268201 0 0.43543049063324413 -0.012350052332502739 0 0.42769414368384923 -0.02254750278133769 0 0.42101935538117791 0.0050386314779034547 0 0.42284227266732188 -0.010769512158268201 0 0.42101935538117791 0.0050386314779034547 0 0.42788240966677021 0.003552130545216341 0 0.42284227266732188 -0.010769512158268201 0 0.42788240966677021 0.003552130545216341 0 0.42284227266732188 -0.010769512158268201 0 0.43543049063324413 -0.012350052332502739 0 0.42284227266732188 -0.010769512158268201 0 0.42466518995346408 -0.026577655794440151 0 0.42284227266732188 -0.010769512158268201 0 0.42769414368384923 -0.02254750278133769 0 0.42466518995346408 -0.026577655794440151 0 0.44260817666721519 -0.025216613737701819 0 0.43543049063324413 -0.012350052332502739 0 0.42769414368384923 -0.02254750278133769 0 0.42769414368384923 -0.02254750278133769 0 0.42466518995346408 -0.026577655794440151 0 0.43454865465473302 -0.032105158367880783 0 0.42769414368384923 -0.02254750278133769 0 0.42466518995346408 -0.026577655794440151 0 0.44260817666721519 -0.025216613737701819 0 0.42769414368384923 -0.02254750278133769 0 0.43454865465473302 -0.032105158367880783 0 0.42466518995346408 -0.026577655794440151 0 0.43454865465473302 -0.032105158367880783 0 0.42768193525564641 -0.052738548234870043 0 0.42466518995346408 -0.026577655794440151 0 0.42768193525564641 -0.052738548234870043 0 0.44483042593949818 -0.041063070916932051 0 0.43454865465473302 -0.032105158367880783 0 0.42768193525564641 -0.052738548234870043 0 0.42085386234523608 -0.065266903626460593 0 0.42768193525564641 -0.052738548234870043 0 0.40779956660286398 -0.049018091936576927 0 0.42085386234523608 -0.065266903626460593 0 0.40779956660286398 -0.049018091936576927 0 0.40625270669679608 -0.06214927522122575 0 0.42466518995346408 -0.026577655794440151 0 0.42768193525564641 -0.052738548234870043 0 0.40779956660286398 -0.049018091936576927 0 0.42466518995346408 -0.026577655794440151 0 0.40779956660286398 -0.049018091936576927 0 0.41227128108974659 -0.029924501558089681 0 0.42466518995346408 -0.026577655794440151 0 0.40779956660286398 -0.049018091936576927 0 0.41227128108974659 -0.029924501558089681 0 0.40779956660286398 -0.049018091936576927 0 0.40014031603924488 -0.033106741091830219 0 0.40779956660286398 -0.049018091936576927 0 0.40014031603924488 -0.033106741091830219 0 0.3912967176308087 -0.04756724484766426 0 0.40014031603924488 -0.033106741091830219 0 0.3912967176308087 -0.04756724484766426 0 0.38547037370043469 -0.032308846426106139 0 0.3909339432522656 -0.07145852807871525 0 0.40779956660286398 -0.049018091936576927 0 0.40625270669679608 -0.06214927522122575 0 0.3909339432522656 -0.07145852807871525 0 0.39181446083091098 -0.066763706552935329 0 0.40779956660286398 -0.049018091936576927 0 0.39181446083091098 -0.066763706552935329 0 0.40779956660286398 -0.049018091936576927 0 0.3912967176308087 -0.04756724484766426 0 0.3909339432522656 -0.07145852807871525 0 0.40779956660286398 -0.049018091936576927 0 0.3912967176308087 -0.04756724484766426 0 0.38398729378694407 -0.058429379279077209 0 0.37514153202862571 -0.045861082966856079 0 0.39181446083091098 -0.066763706552935329 0 0.3912967176308087 -0.04756724484766426 0 0.38398729378694407 -0.058429379279077209 0 0.38398729378694407 -0.058429379279077209 0 0.37514153202862571 -0.045861082966856079 0 0.37192531576168952 -0.05914395824800911 0 0.37813424473731178 -0.068262582352726586 0 0.38398729378694407 -0.058429379279077209 0 0.37192531576168952 -0.05914395824800911 0 0.3912967176308087 -0.04756724484766426 0 0.38547037370043469 -0.032308846426106139 0 0.37514153202862571 -0.045861082966856079 0 0.38547037370043469 -0.032308846426106139 0 0.37514153202862571 -0.045861082966856079 0 0.36877413775607049 -0.02995327657106206 0 0.38547037370043469 -0.032308846426106139 0 0.37927030083329177 -0.015743113788958679 0 0.36877413775607049 -0.02995327657106206 0 0.38547037370043469 -0.032308846426106139 0 0.37927030083329177 -0.015743113788958679 0 0.39536675090020662 -0.019928774827198261 0 0.40014031603924488 -0.033106741091830219 0 0.38547037370043469 -0.032308846426106139 0 0.39536675090020662 -0.019928774827198261 0 0.40863720631140932 -0.019892986955346081 0 0.40014031603924488 -0.033106741091830219 0 0.39536675090020662 -0.019928774827198261 0 0.40863720631140932 -0.019892986955346081 0 0.39536675090020662 -0.019928774827198261 0 0.40369857438468087 -0.0060371637805465179 0 0.39536675090020662 -0.019928774827198261 0 0.40369857438468087 -0.0060371637805465179 0 0.39174671884158141 -0.0074493154892236006 0 0.39390920682105918 0.0040204267233196643 0 0.40369857438468087 -0.0060371637805465179 0 0.39174671884158141 -0.0074493154892236006 0 0.38212023564171321 0.001094655884648786 0 0.37927030083329177 -0.015743113788958679 0 0.39174671884158141 -0.0074493154892236006 0 0.38212023564171321 0.001094655884648786 0 0.37927030083329177 -0.015743113788958679 0 0.3700201466167648 -0.002195575246397889 0 0.37927030083329177 -0.015743113788958679 0 0.39536675090020662 -0.019928774827198261 0 0.39174671884158141 -0.0074493154892236006 0 0.39390920682105918 0.0040204267233196643 0 0.38212023564171321 0.001094655884648786 0 0.39174671884158141 -0.0074493154892236006 0 0.35686418876597309 0.010252504770385159 0 0.3700201466167648 -0.002195575246397889 0 0.35727920934793722 -0.0129667368589869 0 0.37927030083329177 -0.015743113788958679 0 0.3700201466167648 -0.002195575246397889 0 0.35727920934793722 -0.0129667368589869 0 0.36877413775607049 -0.02995327657106206 0 0.35727920934793722 -0.0129667368589869 0 0.35227314840285812 -0.03152257084722427 0 0.37927030083329177 -0.015743113788958679 0 0.36877413775607049 -0.02995327657106206 0 0.35727920934793722 -0.0129667368589869 0 0.35727920934793722 -0.0129667368589869 0 0.33875503928457851 -0.02222753562310531 0 0.35227314840285812 -0.03152257084722427 0 0.35727920934793722 -0.0129667368589869 0 0.33586681222118892 -0.0067462441580033658 0 0.33875503928457851 -0.02222753562310531 0 0.35686418876597309 0.010252504770385159 0 0.35727920934793722 -0.0129667368589869 0 0.33586681222118892 -0.0067462441580033658 0 0.33586681222118892 -0.0067462441580033658 0 0.33875503928457851 -0.02222753562310531 0 0.31486943567640469 -0.023744993086391868 0 0.33875503928457851 -0.02222753562310531 0 0.31486943567640469 -0.023744993086391868 0 0.33348659077450338 -0.036157133164920148 0 0.33875503928457851 -0.02222753562310531 0 0.33348659077450338 -0.036157133164920148 0 0.35227314840285812 -0.03152257084722427 0 0.31046320235639918 0.0067575729804437252 0 0.33586681222118892 -0.0067462441580033658 0 0.3153830815233527 -0.0087530987426132929 0 0.33586681222118892 -0.0067462441580033658 0 0.31486943567640469 -0.023744993086391868 0 0.3153830815233527 -0.0087530987426132929 0 0.33586681222118892 -0.0067462441580033658 0 0.31486943567640469 -0.023744993086391868 0 0.32115491610998381 -0.052976688016941227 0 0.32092150739102382 -0.073097043805500014 0 0.30601744289912669 -0.055409131432484229 0 0.32115491610998381 -0.052976688016941227 0 0.31197137499350902 -0.041008225260955711 0 0.30601744289912669 -0.055409131432484229 0 0.31486943567640469 -0.023744993086391868 0 0.33348659077450338 -0.036157133164920148 0 0.31197137499350902 -0.041008225260955711 0 0.32115491610998381 -0.052976688016941227 0 0.33348659077450338 -0.036157133164920148 0 0.31197137499350902 -0.041008225260955711 0 0.33348659077450338 -0.036157133164920148 0 0.3363568723602065 -0.050864743298462772 0 0.35116628403686417 -0.048621598638038131 0 0.32115491610998381 -0.052976688016941227 0 0.33348659077450338 -0.036157133164920148 0 0.3363568723602065 -0.050864743298462772 0 0.32115491610998381 -0.052976688016941227 0 0.3363568723602065 -0.050864743298462772 0 0.33388625794764348 -0.064812423232177271 0 0.3363568723602065 -0.050864743298462772 0 0.34794047334546518 -0.063974584280765273 0 0.33388625794764348 -0.064812423232177271 0 0.3363568723602065 -0.050864743298462772 0 0.35116628403686417 -0.048621598638038131 0 0.34794047334546518 -0.063974584280765273 0 0.35116628403686417 -0.048621598638038131 0 0.35914505774559541 -0.060409417065886872 0 0.36392372675137458 -0.051574144679805103 0 0.35116628403686417 -0.048621598638038131 0 0.36240463436463582 -0.041692596330413237 0 0.36392372675137458 -0.051574144679805103 0 0.35116628403686417 -0.048621598638038131 0 0.35914505774559541 -0.060409417065886872 0 0.34794047334546518 -0.063974584280765273 0 0.35116628403686417 -0.048621598638038131 0 0.35227314840285812 -0.03152257084722427 0 0.36240463436463582 -0.041692596330413237 0 0.33348659077450338 -0.036157133164920148 0 0.35116628403686417 -0.048621598638038131 0 0.35227314840285812 -0.03152257084722427 0 0.37514153202862571 -0.045861082966856079 0 0.36877413775607049 -0.02995327657106206 0 0.36240463436463582 -0.041692596330413237 0 0.36877413775607049 -0.02995327657106206 0 0.35227314840285812 -0.03152257084722427 0 0.36240463436463582 -0.041692596330413237 0 0.37514153202862571 -0.045861082966856079 0 0.36240463436463582 -0.041692596330413237 0 0.36392372675137458 -0.051574144679805103 0 0.35914505774559541 -0.060409417065886872 0 0.36392372675137458 -0.051574144679805103 0 0.37192531576168952 -0.05914395824800911 0 0.37514153202862571 -0.045861082966856079 0 0.36392372675137458 -0.051574144679805103 0 0.37192531576168952 -0.05914395824800911 0 0.37813424473731178 -0.068262582352726586 0 0.37192531576168952 -0.05914395824800911 0 0.3680772617285144 -0.06977757947088653 0 0.35914505774559541 -0.060409417065886872 0 0.37192531576168952 -0.05914395824800911 0 0.3680772617285144 -0.06977757947088653 0 0.35914505774559541 -0.060409417065886872 0 0.3680772617285144 -0.06977757947088653 0 0.35837286676988928 -0.071968688592424085 0 0.3680772617285144 -0.06977757947088653 0 0.36498327826552668 -0.083111049239403226 0 0.35837286676988928 -0.071968688592424085 0 0.3680772617285144 -0.06977757947088653 0 0.37353404377441052 -0.075370636612477671 0 0.36498327826552668 -0.083111049239403226 0 0.37813424473731178 -0.068262582352726586 0 0.3680772617285144 -0.06977757947088653 0 0.37353404377441052 -0.075370636612477671 0 0.38294139036628899 -0.080331335386894381 0 0.37353404377441052 -0.075370636612477671 0 0.36498327826552668 -0.083111049239403226 0 0.36498327826552668 -0.083111049239403226 0 0.37237061700676077 -0.09615783082836224 0 0.34241852099989789 -0.095233439592861846 0 0.38294139036628899 -0.080331335386894381 0 0.36498327826552668 -0.083111049239403226 0 0.37406831990166722 -0.093898964220853504 0 0.36498327826552668 -0.083111049239403226 0 0.37406831990166722 -0.093898964220853504 0 0.37237061700676077 -0.09615783082836224 0 0.36498327826552668 -0.083111049239403226 0 0.3449175019875389 -0.076917716904771144 0 0.34241852099989789 -0.095233439592861846 0 0.36498327826552668 -0.083111049239403226 0 0.3449175019875389 -0.076917716904771144 0 0.35837286676988928 -0.071968688592424085 0 0.3449175019875389 -0.076917716904771144 0 0.34794047334546518 -0.063974584280765273 0 0.35837286676988928 -0.071968688592424085 0 0.35914505774559541 -0.060409417065886872 0 0.34794047334546518 -0.063974584280765273 0 0.35837286676988928 -0.071968688592424085 0 0.36371200487664068 -0.10973459168570281 0 0.35664352332635268 -0.13060513793896061 0 0.36779594019891898 -0.12729788290040461 0 0.3785150876385216 -0.1195111518185689 0 0.36371200487664068 -0.10973459168570281 0 0.36779594019891898 -0.12729788290040461 0 0.36371200487664068 -0.10973459168570281 0 0.37237061700676077 -0.09615783082836224 0 0.34241852099989789 -0.095233439592861846 0 0.3851668720105898 -0.10347474583943909 0 0.36371200487664068 -0.10973459168570281 0 0.37237061700676077 -0.09615783082836224 0 0.3851668720105898 -0.10347474583943909 0 0.36371200487664068 -0.10973459168570281 0 0.36371200487664068 -0.10973459168570281 0 0.37237061700676077 -0.09615783082836224 0 0.37406831990166722 -0.093898964220853504 0 0.37237061700676077 -0.09615783082836224 0 0.36371200487664068 -0.10973459168570281 0 0.34332012240242971 -0.1020930362129598 0 0.34241852099989789 -0.095233439592861846 0 0.36371200487664068 -0.10973459168570281 0 0.35002252173753962 -0.112446561286345 0 0.34332012240242971 -0.1020930362129598 0 0.37237061700676077 -0.09615783082836224 0 0.34241852099989789 -0.095233439592861846 0 0.35002252173753962 -0.112446561286345 0 0.34025414842832208 -0.11782241666052221 0 0.34332012240242971 -0.1020930362129598 0 0.36371200487664068 -0.10973459168570281 0 0.35355367174401742 -0.1211945845718113 0 0.34779048707731292 -0.1340798558009649 0 0.36371200487664068 -0.10973459168570281 0 0.35664352332635268 -0.13060513793896061 0 0.34779048707731292 -0.1340798558009649 0 0.36371200487664068 -0.10973459168570281 0 0.34779048707731292 -0.1340798558009649 0 0.36371200487664068 -0.10973459168570281 0 0.35002252173753962 -0.112446561286345 0 0.35355367174401742 -0.1211945845718113 0 0.36371200487664068 -0.10973459168570281 0 0.35355367174401742 -0.1211945845718113 0 0.35002252173753962 -0.112446561286345 0 0.35355367174401742 -0.1211945845718113 0 0.34025414842832208 -0.11782241666052221 0 0.35355367174401742 -0.1211945845718113 0 0.34025414842832208 -0.11782241666052221 0 0.34381162934489939 -0.12854128697128539 0 0.33094534805706732 -0.1177437606496905 0 0.31854024801571379 -0.1183964408803808 0 0.33718817445421712 -0.13355179710808501 0 0.34025414842832208 -0.11782241666052221 0 0.33378984816934337 -0.1086297847084315 0 0.34332012240242971 -0.1020930362129598 0 0.33094534805706732 -0.1177437606496905 0 0.34025414842832208 -0.11782241666052221 0 0.33718817445421712 -0.13355179710808501 0 0.34025414842832208 -0.11782241666052221 0 0.34332012240242971 -0.1020930362129598 0 0.33094534805706732 -0.1177437606496905 0 0.33378984816934337 -0.1086297847084315 0 0.32495432121773932 -0.110318363891034 0 0.33094534805706732 -0.1177437606496905 0 0.34025414842832208 -0.11782241666052221 0 0.33378984816934337 -0.1086297847084315 0 0.33378984816934337 -0.1086297847084315 0 0.32725903490077729 -0.10071499943534749 0 0.32495432121773932 -0.110318363891034 0 0.33378984816934337 -0.1086297847084315 0 0.33669688161811212 -0.1016678149874002 0 0.32725903490077729 -0.10071499943534749 0 0.33378984816934337 -0.1086297847084315 0 0.34332012240242971 -0.1020930362129598 0 0.33669688161811212 -0.1016678149874002 0 0.34332012240242971 -0.1020930362129598 0 0.33669688161811212 -0.1016678149874002 0 0.34241852099989789 -0.095233439592861846 0 0.33669688161811212 -0.1016678149874002 0 0.34241852099989789 -0.095233439592861846 0 0.32725903490077729 -0.10071499943534749 0 0.34241852099989789 -0.095233439592861846 0 0.31246642499303512 -0.0943090483573608 0 0.34241852099989789 -0.095233439592861846 0 0.32725903490077729 -0.10071499943534749 0 0.31246642499303512 -0.0943090483573608 0 0.32725903490077729 -0.10071499943534749 0 0.31716114910448651 -0.10565591717263 0 0.31246642499303512 -0.0943090483573608 0 0.32725903490077729 -0.10071499943534749 0 0.31716114910448651 -0.10565591717263 0 0.32495432121773932 -0.110318363891034 0 0.33094534805706732 -0.1177437606496905 0 0.32495432121773932 -0.110318363891034 0 0.31854024801571379 -0.1183964408803808 0 0.31716114910448651 -0.10565591717263 0 0.32495432121773932 -0.110318363891034 0 0.31854024801571379 -0.1183964408803808 0 0.31716114910448651 -0.10565591717263 0 0.31854024801571379 -0.1183964408803808 0 0.30531265091832138 -0.10738965970164049 0 0.3449175019875389 -0.076917716904771144 0 0.33388625794764348 -0.064812423232177271 0 0.32092150739102382 -0.073097043805500014 0 0.3449175019875389 -0.076917716904771144 0 0.34794047334546518 -0.063974584280765273 0 0.33388625794764348 -0.064812423232177271 0 0.3449175019875389 -0.076917716904771144 0 0.34241852099989789 -0.095233439592861846 0 0.32092150739102382 -0.073097043805500014 0 0.34241852099989789 -0.095233439592861846 0 0.32092150739102382 -0.073097043805500014 0 0.31246642499303512 -0.0943090483573608 0 0.32115491610998381 -0.052976688016941227 0 0.33388625794764348 -0.064812423232177271 0 0.32092150739102382 -0.073097043805500014 0 0.32092150739102382 -0.073097043805500014 0 0.28819319405889499 -0.06706419956831737 0 0.31246642499303512 -0.0943090483573608 0 0.32092150739102382 -0.073097043805500014 0 0.28819319405889499 -0.06706419956831737 0 0.30601744289912669 -0.055409131432484229 0 0.28251432898617262 -0.093384657121855619 0 0.28819319405889499 -0.06706419956831737 0 0.31246642499303512 -0.0943090483573608 0 0.28251432898617262 -0.093384657121855619 0 0.28819319405889499 -0.06706419956831737 0 0.28251432898617262 -0.093384657121855619 0 0.28819319405889499 -0.06706419956831737 0 0.2788070763813692 -0.075616481315712358 0 0.30531265091832138 -0.10738965970164049 0 0.29209333803684512 -0.1204183792118467 0 0.30316218715013699 -0.13585617877411299 0 0.31854024801571379 -0.1183964408803808 0 0.30531265091832138 -0.10738965970164049 0 0.30316218715013699 -0.13585617877411299 0 0.30531265091832138 -0.10738965970164049 0 0.30316218715013699 -0.13585617877411299 0 0.30531265091832138 -0.10738965970164049 0 0.31246642499303512 -0.0943090483573608 0 0.2913954051317153 -0.1063448066268642 0 0.28251432898617262 -0.093384657121855619 0 0.31246642499303512 -0.0943090483573608 0 0.31716114910448651 -0.10565591717263 0 0.30531265091832138 -0.10738965970164049 0 0.31246642499303512 -0.0943090483573608 0 0.28251432898617262 -0.093384657121855619 0 0.31246642499303512 -0.0943090483573608 0 0.2913954051317153 -0.1063448066268642 0 0.28251432898617262 -0.093384657121855619 0 0.2913954051317153 -0.1063448066268642 0 0.27794998204403759 -0.11453953550188679 0 0.30531265091832138 -0.10738965970164049 0 0.2913954051317153 -0.1063448066268642 0 0.29209333803684512 -0.1204183792118467 0 0.2913954051317153 -0.1063448066268642 0 0.29209333803684512 -0.1204183792118467 0 0.27794998204403759 -0.11453953550188679 0 0.27794998204403759 -0.11453953550188679 0 0.25915390151091949 -0.11811210275817149 0 0.27338563510190422 -0.1356944138819183 0 0.29209333803684512 -0.1204183792118467 0 0.27794998204403759 -0.11453953550188679 0 0.27338563510190422 -0.1356944138819183 0 0.28251432898617262 -0.093384657121855619 0 0.27794998204403759 -0.11453953550188679 0 0.25666672159796139 -0.092586939936295867 0 0.28251432898617262 -0.093384657121855619 0 0.27794998204403759 -0.11453953550188679 0 0.25915390151091949 -0.11811210275817149 0 0.25666672159796139 -0.092586939936295867 0 0.23839025179526999 -0.1151992729885977 0 0.27794998204403759 -0.11453953550188679 0 0.25915390151091949 -0.11811210275817149 0 0.25666672159796139 -0.092586939936295867 0 0.28819319405889499 -0.06706419956831737 0 0.27512965144911827 -0.070681904186227995 0 0.27783686619476677 -0.05372527893061739 0 0.26897876163713708 -0.070467118147906876 0 0.27512965144911827 -0.070681904186227995 0 0.27783686619476677 -0.05372527893061739 0 0.26897876163713708 -0.070467118147906876 0 0.26180167325791431 -0.066706815846455908 0 0.27783686619476677 -0.05372527893061739 0 0.27067132333055188 -0.076788874412469815 0 0.26897876163713708 -0.070467118147906876 0 0.26145119023330071 -0.079000043976386408 0 0.27067132333055188 -0.076788874412469815 0 0.26897876163713708 -0.070467118147906876 0 0.2788070763813692 -0.075616481315712358 0 0.26897876163713708 -0.070467118147906876 0 0.27512965144911827 -0.070681904186227995 0 0.28819319405889499 -0.06706419956831737 0 0.2788070763813692 -0.075616481315712358 0 0.27512965144911827 -0.070681904186227995 0 0.26897876163713708 -0.070467118147906876 0 0.2788070763813692 -0.075616481315712358 0 0.26897876163713708 -0.070467118147906876 0 0.2788070763813692 -0.075616481315712358 0 0.27512965144911827 -0.070681904186227995 0 0.28251432898617262 -0.093384657121855619 0 0.25666672159796139 -0.092586939936295867 0 0.28251432898617262 -0.093384657121855619 0 0.27051227275229911 -0.08315566172012806 0 0.25666672159796139 -0.092586939936295867 0 0.28251432898617262 -0.093384657121855619 0 0.2788070763813692 -0.075616481315712358 0 0.27051227275229911 -0.08315566172012806 0 0.27067132333055188 -0.076788874412469815 0 0.27051227275229911 -0.08315566172012806 0 0.26145119023330071 -0.079000043976386408 0 0.27067132333055188 -0.076788874412469815 0 0.2788070763813692 -0.075616481315712358 0 0.27051227275229911 -0.08315566172012806 0 0.26145119023330071 -0.079000043976386408 0 0.25666672159796139 -0.092586939936295867 0 0.24423239209720191 -0.080930297464084477 0 0.27051227275229911 -0.08315566172012806 0 0.26145119023330071 -0.079000043976386408 0 0.25666672159796139 -0.092586939936295867 0 0.26180167325791431 -0.066706815846455908 0 0.25764566998465072 -0.070071372177431313 0 0.24120587699226881 -0.055916030502087773 0 0.26145119023330071 -0.079000043976386408 0 0.25764566998465072 -0.070071372177431313 0 0.24423239209720191 -0.080930297464084477 0 0.25764566998465072 -0.070071372177431313 0 0.24423239209720191 -0.080930297464084477 0 0.26897876163713708 -0.070467118147906876 0 0.26145119023330071 -0.079000043976386408 0 0.25764566998465072 -0.070071372177431313 0 0.26897876163713708 -0.070467118147906876 0 0.26180167325791431 -0.066706815846455908 0 0.25764566998465072 -0.070071372177431313 0 0.26897876163713708 -0.070467118147906876 0 0.25764566998465072 -0.070071372177431313 0 0.26897876163713708 -0.070467118147906876 0 0.26180167325791431 -0.066706815846455908 0 0.26180167325791431 -0.066706815846455908 0 0.25764566998465072 -0.070071372177431313 0 0.26180167325791431 -0.066706815846455908 0 0.26029261894245981 -0.048826031507571623 0 0.24120587699226881 -0.055916030502087773 0 0.26180167325791431 -0.066706815846455908 0 0.24120587699226881 -0.055916030502087773 0 0.26180167325791431 -0.066706815846455908 0 0.26029261894245981 -0.048826031507571623 0 0.27783686619476677 -0.05372527893061739 0 0.26180167325791431 -0.066706815846455908 0 0.27783686619476677 -0.05372527893061739 0 0.26029261894245981 -0.048826031507571623 0 0.27783686619476677 -0.05372527893061739 0 0.27031708646619812 -0.033638605470610219 0 0.27783686619476677 -0.05372527893061739 0 0.27031708646619812 -0.033638605470610219 0 0.28437966209514692 -0.033534114227583768 0 0.26029261894245981 -0.048826031507571623 0 0.27031708646619812 -0.033638605470610219 0 0.25030159180115191 -0.034143426788088307 0 0.26029261894245981 -0.048826031507571623 0 0.25030159180115191 -0.034143426788088307 0 0.24120587699226881 -0.055916030502087773 0 0.25030159180115191 -0.034143426788088307 0 0.26299580833271302 -0.019789195105520681 0 0.2464198669495459 -0.012097030270161889 0 0.27031708646619812 -0.033638605470610219 0 0.25030159180115191 -0.034143426788088307 0 0.26299580833271302 -0.019789195105520681 0 0.25322369798355371 0.0032948183560677501 0 0.26778398551549509 -0.0036893303100333872 0 0.2464198669495459 -0.012097030270161889 0 0.26299580833271302 -0.019789195105520681 0 0.26778398551549509 -0.0036893303100333872 0 0.2464198669495459 -0.012097030270161889 0 0.26299580833271302 -0.019789195105520681 0 0.26778398551549509 -0.0036893303100333872 0 0.28231604015163769 -0.018351258625531171 0 0.2895407867033607 0.0013395930438658619 0 0.26778398551549509 -0.0036893303100333872 0 0.28231604015163769 -0.018351258625531171 0 0.27031708646619812 -0.033638605470610219 0 0.26299580833271302 -0.019789195105520681 0 0.28231604015163769 -0.018351258625531171 0 0.27031708646619812 -0.033638605470610219 0 0.28231604015163769 -0.018351258625531171 0 0.28437966209514692 -0.033534114227583768 0 0.28231604015163769 -0.018351258625531171 0 0.29600028882747859 -0.03087980289019443 0 0.28437966209514692 -0.033534114227583768 0 0.28231604015163769 -0.018351258625531171 0 0.29600028882747859 -0.03087980289019443 0 0.30132541624728598 -0.01217829343577128 0 0.2895407867033607 0.0013395930438658619 0 0.28231604015163769 -0.018351258625531171 0 0.30132541624728598 -0.01217829343577128 0 0.31046320235639918 0.0067575729804437252 0 0.2895407867033607 0.0013395930438658619 0 0.30132541624728598 -0.01217829343577128 0 0.31046320235639918 0.0067575729804437252 0 0.3153830815233527 -0.0087530987426132929 0 0.30132541624728598 -0.01217829343577128 0 0.31486943567640469 -0.023744993086391868 0 0.3153830815233527 -0.0087530987426132929 0 0.30132541624728598 -0.01217829343577128 0 0.31486943567640469 -0.023744993086391868 0 0.29600028882747859 -0.03087980289019443 0 0.30132541624728598 -0.01217829343577128 0 0.31486943567640469 -0.023744993086391868 0 0.31197137499350902 -0.041008225260955711 0 0.29387205913161968 -0.04074374201477949 0 0.31486943567640469 -0.023744993086391868 0 0.29600028882747859 -0.03087980289019443 0 0.29387205913161968 -0.04074374201477949 0 0.31486943567640469 -0.023744993086391868 0 0.29387205913161968 -0.04074374201477949 0 0.31197137499350902 -0.041008225260955711 0 0.30601744289912669 -0.055409131432484229 0 0.29387205913161968 -0.04074374201477949 0 0.28819319405889499 -0.06706419956831737 0 0.27783686619476677 -0.05372527893061739 0 0.29387205913161968 -0.04074374201477949 0 0.28819319405889499 -0.06706419956831737 0 0.29387205913161968 -0.04074374201477949 0 0.27783686619476677 -0.05372527893061739 0 0.29387205913161968 -0.04074374201477949 0 0.28819319405889499 -0.06706419956831737 0 0.30601744289912669 -0.055409131432484229 0 0.29387205913161968 -0.04074374201477949 0 0.27783686619476677 -0.05372527893061739 0 0.28437966209514692 -0.033534114227583768 0 0.29387205913161968 -0.04074374201477949 0 0.29600028882747859 -0.03087980289019443 0 0.28437966209514692 -0.033534114227583768 0 0.29387205913161968 -0.04074374201477949 0 0.29600028882747859 -0.03087980289019443 0 0.29387205913161968 -0.04074374201477949 0 0.28925369461552242 -0.21547475378801551 0 0.29798535605087828 -0.20438389051808681 0 0.27851755886665591 -0.20371457102860641 0 0.28925369461552242 -0.21547475378801551 0 0.28465086540799672 -0.2254021489655588 0 0.27851755886665591 -0.20371457102860641 0 0.28925369461552242 -0.21547475378801551 0 0.29798535605087828 -0.20438389051808681 0 0.29625974568445868 -0.22722646109941139 0 0.28994099481116897 -0.19128490440727269 0 0.29798535605087828 -0.20438389051808681 0 0.29971096641729777 -0.18154131993676231 0 0.28994099481116897 -0.19128490440727269 0 0.27851755886665591 -0.20371457102860641 0 0.28355009790984409 -0.17549983614563519 0 0.28994099481116897 -0.19128490440727269 0 0.29798535605087828 -0.20438389051808681 0 0.27851755886665591 -0.20371457102860641 0 0.30866677822314281 -0.19370433905286669 0 0.29798535605087828 -0.20438389051808681 0 0.29971096641729777 -0.18154131993676231 0 0.29798535605087828 -0.20438389051808681 0 0.29971096641729777 -0.18154131993676231 0 0.30866677822314281 -0.19370433905286669 0 0.30817512199612251 -0.208018461664154 0 0.29798535605087828 -0.20438389051808681 0 0.29798535605087828 -0.20438389051808681 0 0.29625974568445868 -0.22722646109941139 0 0.30367267472900389 -0.2178556058656746 0 0.31200739898088131 -0.22851072207886541 0 0.31883562653249692 -0.20986103607638071 0 0.29798535605087828 -0.20438389051808681 0 0.30367267472900389 -0.2178556058656746 0 0.29625974568445868 -0.22722646109941139 0 0.30817512199612251 -0.208018461664154 0 0.29798535605087828 -0.20438389051808681 0 0.30367267472900389 -0.2178556058656746 0 0.30817512199612251 -0.208018461664154 0 0.30367267472900389 -0.2178556058656746 0 0.31883562653249692 -0.20986103607638071 0 0.30367267472900389 -0.2178556058656746 0 0.31883562653249692 -0.20986103607638071 0 0.31200739898088131 -0.22851072207886541 0 0.30517917142926537 -0.24716040808135001 0 0.29625974568445868 -0.22722646109941139 0 0.30367267472900389 -0.2178556058656746 0 0.31200739898088131 -0.22851072207886541 0 0.29625974568445868 -0.22722646109941139 0 0.31200739898088131 -0.22851072207886541 0 0.30517917142926537 -0.24716040808135001 0 0.30517917142926537 -0.24716040808135001 0 0.28765229627979871 -0.24304032400626949 0 0.29625974568445868 -0.22722646109941139 0 0.28765229627979871 -0.24304032400626949 0 0.29625974568445868 -0.22722646109941139 0 0.28465086540799672 -0.2254021489655588 0 0.28765229627979871 -0.24304032400626949 0 0.28465086540799672 -0.2254021489655588 0 0.27348501982346762 -0.23192930591157759 0 0.28925369461552242 -0.21547475378801551 0 0.29625974568445868 -0.22722646109941139 0 0.28465086540799672 -0.2254021489655588 0 0.28465086540799672 -0.2254021489655588 0 0.27348501982346762 -0.23192930591157759 0 0.27851755886665591 -0.20371457102860641 0 0.27348501982346762 -0.23192930591157759 0 0.25787859859726192 -0.24372773219337371 0 0.26845248078028039 -0.26014404079454911 0 0.28765229627979871 -0.24304032400626949 0 0.27348501982346762 -0.23192930591157759 0 0.26845248078028039 -0.26014404079454911 0 0.27348501982346762 -0.23192930591157759 0 0.26845248078028039 -0.26014404079454911 0 0.27348501982346762 -0.23192930591157759 0 0.25787859859726192 -0.24372773219337371 0 0.2485278721491469 -0.22983386195931649 0 0.27348501982346762 -0.23192930591157759 0 0.25806059678156651 -0.21160485628964759 0 0.2485278721491469 -0.22983386195931649 0 0.27348501982346762 -0.23192930591157759 0 0.27851755886665591 -0.20371457102860641 0 0.27348501982346762 -0.23192930591157759 0 0.25806059678156651 -0.21160485628964759 0 0.27851755886665591 -0.20371457102860641 0 0.27851755886665591 -0.20371457102860641 0 0.26140201073716351 -0.19316186481753209 0 0.27335445324682811 -0.1824409541049711 0 0.25806059678156651 -0.21160485628964759 0 0.27851755886665591 -0.20371457102860641 0 0.26140201073716351 -0.19316186481753209 0 0.27851755886665591 -0.20371457102860641 0 0.28355009790984409 -0.17549983614563519 0 0.25806059678156651 -0.21160485628964759 0 0.26140201073716351 -0.19316186481753209 0 0.24624710011957149 -0.19756578472926509 0 0.26140201073716351 -0.19316186481753209 0 0.25030889548151403 -0.1837077448593728 0 0.24624710011957149 -0.19756578472926509 0 0.25969225384889538 -0.18295045636353721 0 0.2550208565069661 -0.17514012483034949 0 0.27335445324682811 -0.1824409541049711 0 0.26140201073716351 -0.19316186481753209 0 0.25030889548151403 -0.1837077448593728 0 0.25969225384889538 -0.18295045636353721 0 0.25030889548151403 -0.1837077448593728 0 0.25969225384889538 -0.18295045636353721 0 0.2550208565069661 -0.17514012483034949 0 0.2550208565069661 -0.17514012483034949 0 0.2530488896403309 -0.16079061319898569 0 0.27335445324682811 -0.1824409541049711 0 0.26140201073716351 -0.19316186481753209 0 0.25969225384889538 -0.18295045636353721 0 0.27335445324682811 -0.1824409541049711 0 0.2530488896403309 -0.16079061319898569 0 0.272260185211738 -0.168331689764908 0 0.26878477807763418 -0.16016356734556891 0 0.2530488896403309 -0.16079061319898569 0 0.26878477807763418 -0.16016356734556891 0 0.26293682869207591 -0.15391070786642169 0 0.2530488896403309 -0.16079061319898569 0 0.27335445324682811 -0.1824409541049711 0 0.272260185211738 -0.168331689764908 0 0.27899515764395177 -0.15443660918041571 0 0.28355009790984409 -0.17549983614563519 0 0.2530488896403309 -0.16079061319898569 0 0.272260185211738 -0.168331689764908 0 0.27335445324682811 -0.1824409541049711 0 0.272260185211738 -0.168331689764908 0 0.26878477807763418 -0.16016356734556891 0 0.27899515764395177 -0.15443660918041571 0 0.272260185211738 -0.168331689764908 0 0.27335445324682811 -0.1824409541049711 0 0.28355009790984409 -0.17549983614563519 0 0.27851755886665591 -0.20371457102860641 0 0.27335445324682811 -0.1824409541049711 0 0.28355009790984409 -0.17549983614563519 0 0.25915390151091949 -0.11811210275817149 0 0.25133622254172122 -0.13557462765415079 0 0.27338563510190422 -0.1356944138819183 0 0.25133622254172122 -0.13557462765415079 0 0.27338563510190422 -0.1356944138819183 0 0.25133622254172122 -0.13557462765415079 0 0.25208407187516418 -0.1419613505697605 0 0.27338563510190422 -0.1356944138819183 0 0.26557247671991108 -0.14774187414890411 0 0.25208407187516418 -0.1419613505697605 0 0.27142481771649529 -0.14478242884651979 0 0.25208407187516418 -0.1419613505697605 0 0.27142481771649529 -0.14478242884651979 0 0.2530488896403309 -0.16079061319898569 0 0.25208407187516418 -0.1419613505697605 0 0.26293682869207591 -0.15391070786642169 0 0.26557247671991108 -0.14774187414890411 0 0.25208407187516418 -0.1419613505697605 0 0.26293682869207591 -0.15391070786642169 0 0.27899515764395177 -0.15443660918041571 0 0.27142481771649529 -0.14478242884651979 0 0.28858263695303038 -0.1472851012626637 0 0.25208407187516418 -0.1419613505697605 0 0.27142481771649529 -0.14478242884651979 0 0.27338563510190422 -0.1356944138819183 0 0.27142481771649529 -0.14478242884651979 0 0.28858263695303038 -0.1472851012626637 0 0.27142481771649529 -0.14478242884651979 0 0.27338563510190422 -0.1356944138819183 0 0.28952553314766588 -0.14199879033185039 0 0.26878477807763418 -0.16016356734556891 0 0.27009527632936597 -0.15279308215900331 0 0.27899515764395177 -0.15443660918041571 0 0.26557247671991108 -0.14774187414890411 0 0.27009527632936597 -0.15279308215900331 0 0.27142481771649529 -0.14478242884651979 0 0.26878477807763418 -0.16016356734556891 0 0.26293682869207591 -0.15391070786642169 0 0.27009527632936597 -0.15279308215900331 0 0.26557247671991108 -0.14774187414890411 0 0.26293682869207591 -0.15391070786642169 0 0.27009527632936597 -0.15279308215900331 0 0.27009527632936597 -0.15279308215900331 0 0.27899515764395177 -0.15443660918041571 0 0.27142481771649529 -0.14478242884651979 0 0.27794998204403759 -0.11453953550188679 0 0.27338563510190422 -0.1356944138819183 0 0.27142481771649529 -0.14478242884651979 0 0.27338563510190422 -0.1356944138819183 0 0.27338563510190422 -0.1356944138819183 0 0.30316218715013699 -0.13585617877411299 0 0.29209333803684512 -0.1204183792118467 0 0.27338563510190422 -0.1356944138819183 0 0.30316218715013699 -0.13585617877411299 0 0.27338563510190422 -0.1356944138819183 0 0.28952553314766588 -0.14199879033185039 0 0.30316218715013699 -0.13585617877411299 0 0.27142481771649529 -0.14478242884651979 0 0.28952553314766588 -0.14199879033185039 0 0.28858263695303038 -0.1472851012626637 0 0.28858263695303038 -0.1472851012626637 0 0.30013596324633868 -0.14897029159077979 0 0.28952553314766588 -0.14199879033185039 0 0.28858263695303038 -0.1472851012626637 0 0.30013596324633868 -0.14897029159077979 0 0.28952553314766588 -0.14199879033185039 0 0.28858263695303038 -0.1472851012626637 0 0.28858263695303038 -0.1472851012626637 0 0.30013596324633868 -0.14897029159077979 0 0.29372711844303928 -0.1600295372122347 0 0.30316218715013699 -0.13585617877411299 0 0.30143657678371732 -0.15869874935543771 0 0.30013596324633868 -0.14897029159077979 0 0.30316218715013699 -0.13585617877411299 0 0.30143657678371732 -0.15869874935543771 0 0.30316218715013699 -0.13585617877411299 0 0.30143657678371732 -0.15869874935543771 0 0.31253980123811259 -0.14771969478669131 0 0.30013596324633868 -0.14897029159077979 0 0.29372711844303928 -0.1600295372122347 0 0.30143657678371732 -0.15869874935543771 0 0.30143657678371732 -0.15869874935543771 0 0.31557079919726838 -0.1590044961535387 0 0.31253980123811259 -0.14771969478669131 0 0.28952553314766588 -0.14199879033185039 0 0.30013596324633868 -0.14897029159077979 0 0.30316218715013699 -0.13585617877411299 0 0.30316218715013699 -0.13585617877411299 0 0.31993283661344418 -0.13594728745244961 0 0.31253980123811259 -0.14771969478669131 0 0.30316218715013699 -0.13585617877411299 0 0.31993283661344418 -0.13594728745244961 0 0.28994099481116897 -0.19128490440727269 0 0.28355009790984409 -0.17549983614563519 0 0.29971096641729777 -0.18154131993676231 0 0.28355009790984409 -0.17549983614563519 0 0.29493031732226571 -0.16969370770665679 0 0.29971096641729777 -0.18154131993676231 0 0.27899515764395177 -0.15443660918041571 0 0.28858263695303038 -0.1472851012626637 0 0.28355009790984409 -0.17549983614563519 0 0.28858263695303038 -0.1472851012626637 0 0.28355009790984409 -0.17549983614563519 0 0.28858263695303038 -0.1472851012626637 0 0.28355009790984409 -0.17549983614563519 0 0.29372711844303928 -0.1600295372122347 0 0.29372711844303928 -0.1600295372122347 0 0.29493031732226571 -0.16969370770665679 0 0.30143657678371732 -0.15869874935543771 0 0.28355009790984409 -0.17549983614563519 0 0.29372711844303928 -0.1600295372122347 0 0.29493031732226571 -0.16969370770665679 0 0.30143657678371732 -0.15869874935543771 0 0.29971096641729777 -0.18154131993676231 0 0.30143657678371732 -0.15869874935543771 0 0.30809610970482848 -0.16795036279156811 0 0.29971096641729777 -0.18154131993676231 0 0.29493031732226571 -0.16969370770665679 0 0.30143657678371732 -0.15869874935543771 0 0.29971096641729777 -0.18154131993676231 0 0.30143657678371732 -0.15869874935543771 0 0.30809610970482848 -0.16795036279156811 0 0.31557079919726838 -0.1590044961535387 0 0.29971096641729777 -0.18154131993676231 0 0.31498869866721663 -0.1848028620899877 0 0.3156660964210305 -0.17255688572053399 0 0.30809610970482848 -0.16795036279156811 0 0.29971096641729777 -0.18154131993676231 0 0.3156660964210305 -0.17255688572053399 0 0.30866677822314281 -0.19370433905286669 0 0.29971096641729777 -0.18154131993676231 0 0.31498869866721663 -0.1848028620899877 0 0.32729102930978993 -0.18432716657830939 0 0.3156660964210305 -0.17255688572053399 0 0.33199725769327038 -0.160182781354547 0 0.31498869866721663 -0.1848028620899877 0 0.32729102930978993 -0.18432716657830939 0 0.3156660964210305 -0.17255688572053399 0 0.3156660964210305 -0.17255688572053399 0 0.31557079919726838 -0.1590044961535387 0 0.33199725769327038 -0.160182781354547 0 0.30809610970482848 -0.16795036279156811 0 0.3156660964210305 -0.17255688572053399 0 0.31557079919726838 -0.1590044961535387 0 0.32729102930978993 -0.18432716657830939 0 0.34572674800851178 -0.17666980330527179 0 0.34152908302092871 -0.19789605564194099 0 0.32729102930978993 -0.18432716657830939 0 0.33199725769327038 -0.160182781354547 0 0.34572674800851178 -0.17666980330527179 0 0.32729102930978993 -0.18432716657830939 0 0.33199725769327038 -0.160182781354547 0 0.31854024801571379 -0.1183964408803808 0 0.30316218715013699 -0.13585617877411299 0 0.31993283661344418 -0.13594728745244961 0 0.31993283661344418 -0.13594728745244961 0 0.32334883616376942 -0.1477785311756023 0 0.33670348607675138 -0.13603839613078461 0 0.31854024801571379 -0.1183964408803808 0 0.31993283661344418 -0.13594728745244961 0 0.33718817445421712 -0.13355179710808501 0 0.31854024801571379 -0.1183964408803808 0 0.33718817445421712 -0.13355179710808501 0 0.31557079919726838 -0.1590044961535387 0 0.33199725769327038 -0.160182781354547 0 0.32334883616376942 -0.1477785311756023 0 0.31993283661344418 -0.13594728745244961 0 0.32334883616376942 -0.1477785311756023 0 0.31253980123811259 -0.14771969478669131 0 0.31557079919726838 -0.1590044961535387 0 0.32334883616376942 -0.1477785311756023 0 0.31253980123811259 -0.14771969478669131 0 0.33199725769327038 -0.160182781354547 0 0.34027166502062639 -0.13605778071504529 0 0.33670348607675138 -0.13603839613078461 0 0.33199725769327038 -0.160182781354547 0 0.32334883616376942 -0.1477785311756023 0 0.33670348607675138 -0.13603839613078461 0 0.33199725769327038 -0.160182781354547 0 0.33670348607675138 -0.13603839613078461 0 0.31993283661344418 -0.13594728745244961 0 0.33670348607675138 -0.13603839613078461 0 0.31993283661344418 -0.13594728745244961 0 0.33670348607675138 -0.13603839613078461 0 0.33718817445421712 -0.13355179710808501 0 0.34025414842832208 -0.11782241666052221 0 0.33718817445421712 -0.13355179710808501 0 0.34381162934489939 -0.12854128697128539 0 0.34025414842832208 -0.11782241666052221 0 0.33718817445421712 -0.13355179710808501 0 0.34027166502062639 -0.13605778071504529 0 0.33670348607675138 -0.13603839613078461 0 0.33718817445421712 -0.13355179710808501 0 0.34027166502062639 -0.13605778071504529 0 0.33718817445421712 -0.13355179710808501 0 0.34027166502062639 -0.13605778071504529 0 0.33670348607675138 -0.13603839613078461 0 0.33670348607675138 -0.13603839613078461 0 0.33718817445421712 -0.13355179710808501 0 0.34027166502062639 -0.13605778071504529 0 0.33718817445421712 -0.13355179710808501 0 0.34381162934489939 -0.12854128697128539 0 0.33199725769327038 -0.160182781354547 0 0.34027166502062639 -0.13605778071504529 0 0.36359383050920879 -0.15501193774405861 0 0.35355367174401742 -0.1211945845718113 0 0.34381162934489939 -0.12854128697128539 0 0.34779048707731292 -0.1340798558009649 0 0.34027166502062639 -0.13605778071504529 0 0.34884821061351562 -0.13610437388577321 0 0.35664352332635268 -0.13060513793896061 0 0.34779048707731292 -0.1340798558009649 0 0.34884821061351562 -0.13610437388577321 0 0.34027166502062639 -0.13605778071504529 0 0.34779048707731292 -0.1340798558009649 0 0.34884821061351562 -0.13610437388577321 0 0.34027166502062639 -0.13605778071504529 0 0.34381162934489939 -0.12854128697128539 0 0.34779048707731292 -0.1340798558009649 0 0.35664352332635268 -0.13060513793896061 0 0.34884821061351562 -0.13610437388577321 0 0.36374720336072303 -0.13810563056468389 0 0.34884821061351562 -0.13610437388577321 0 0.36359383050920879 -0.15501193774405861 0 0.36374720336072303 -0.13810563056468389 0 0.34027166502062639 -0.13605778071504529 0 0.36359383050920879 -0.15501193774405861 0 0.34027166502062639 -0.13605778071504529 0 0.34884821061351562 -0.13610437388577321 0 0.36359383050920879 -0.15501193774405861 0 0.36359383050920879 -0.15501193774405861 0 0.36374720336072303 -0.13810563056468389 0 0.37656812491251679 -0.13846106794218549 0 0.3785150876385216 -0.1195111518185689 0 0.36779594019891898 -0.12729788290040461 0 0.37656812491251679 -0.13846106794218549 0 0.36374720336072303 -0.13810563056468389 0 0.36779594019891898 -0.12729788290040461 0 0.37656812491251679 -0.13846106794218549 0 0.35664352332635268 -0.13060513793896061 0 0.36374720336072303 -0.13810563056468389 0 0.36779594019891898 -0.12729788290040461 0 0.33199725769327038 -0.160182781354547 0 0.36359383050920879 -0.15501193774405861 0 0.34572674800851178 -0.17666980330527179 0 0.34572674800851178 -0.17666980330527179 0 0.36422253950936112 -0.1859310752075029 0 0.34152908302092871 -0.19789605564194099 0 0.36359383050920879 -0.15501193774405861 0 0.34572674800851178 -0.17666980330527179 0 0.36422253950936112 -0.1859310752075029 0 0.36359383050920879 -0.15501193774405861 0 0.36422253950936112 -0.1859310752075029 0 0.38691599599779503 -0.1739660947730671 0 0.36422253950936112 -0.1859310752075029 0 0.37220629557919183 -0.19612338441269381 0 0.37910290544765168 -0.18685571494790659 0 0.36422253950936112 -0.1859310752075029 0 0.37220629557919183 -0.19612338441269381 0 0.35685044422528578 -0.20027094664828951 0 0.37220629557919183 -0.19612338441269381 0 0.3556522221671049 -0.2162457527497984 0 0.35685044422528578 -0.20027094664828951 0 0.37220629557919183 -0.19612338441269381 0 0.3556522221671049 -0.2162457527497984 0 0.37273333868611941 -0.2093978965492076 0 0.3556522221671049 -0.2162457527497984 0 0.3731990688381891 -0.2228302363117915 0 0.37220629557919183 -0.19612338441269381 0 0.37273333868611941 -0.2093978965492076 0 0.3556522221671049 -0.2162457527497984 0 0.34913249600123192 -0.20719712371303781 0 0.34152908302092871 -0.19789605564194099 0 0.34144894007629428 -0.2139395960038605 0 0.3556522221671049 -0.2162457527497984 0 0.34913249600123192 -0.20719712371303781 0 0.35685044422528578 -0.20027094664828951 0 0.3556522221671049 -0.2162457527497984 0 0.34913249600123192 -0.20719712371303781 0 0.34144894007629428 -0.2139395960038605 0 0.36422253950936112 -0.1859310752075029 0 0.35685044422528578 -0.20027094664828951 0 0.34152908302092871 -0.19789605564194099 0 0.36422253950936112 -0.1859310752075029 0 0.34152908302092871 -0.19789605564194099 0 0.34913249600123192 -0.20719712371303781 0 0.35685044422528578 -0.20027094664828951 0 0.34152908302092871 -0.19789605564194099 0 0.32729102930978993 -0.18432716657830939 0 0.34152908302092871 -0.19789605564194099 0 0.32289957828838461 -0.19876131457419149 0 0.34152908302092871 -0.19789605564194099 0 0.31883562653249692 -0.20986103607638071 0 0.34152908302092871 -0.19789605564194099 0 0.34144894007629428 -0.2139395960038605 0 0.31883562653249692 -0.20986103607638071 0 0.34144894007629428 -0.2139395960038605 0 0.31883562653249692 -0.20986103607638071 0 0.32331405575278033 -0.23055000204260581 0 0.31883562653249692 -0.20986103607638071 0 0.32289957828838461 -0.19876131457419149 0 0.30817512199612251 -0.208018461664154 0 0.31883562653249692 -0.20986103607638071 0 0.32289957828838461 -0.19876131457419149 0 0.30866677822314281 -0.19370433905286669 0 0.30817512199612251 -0.208018461664154 0 0.32289957828838461 -0.19876131457419149 0 0.34152908302092871 -0.19789605564194099 0 0.31883562653249692 -0.20986103607638071 0 0.32289957828838461 -0.19876131457419149 0 0.30866677822314281 -0.19370433905286669 0 0.31498869866721663 -0.1848028620899877 0 0.32289957828838461 -0.19876131457419149 0 0.31498869866721663 -0.1848028620899877 0 0.32729102930978993 -0.18432716657830939 0 0.32289957828838461 -0.19876131457419149 0 0.30517917142926537 -0.24716040808135001 0 0.32331405575278033 -0.23055000204260581 0 0.30517917142926537 -0.24716040808135001 0 0.32331405575278033 -0.23055000204260581 0 0.322544075342931 -0.25649048942400782 0 0.31200739898088131 -0.22851072207886541 0 0.30517917142926537 -0.24716040808135001 0 0.32331405575278033 -0.23055000204260581 0 0.31200739898088131 -0.22851072207886541 0 0.31883562653249692 -0.20986103607638071 0 0.31200739898088131 -0.22851072207886541 0 0.31883562653249692 -0.20986103607638071 0 0.32331405575278033 -0.23055000204260581 0 0.34144894007629428 -0.2139395960038605 0 0.32331405575278033 -0.23055000204260581 0 0.34144894007629428 -0.2139395960038605 0 0.32331405575278033 -0.23055000204260581 0 0.33909814875501798 -0.23636812108690311 0 0.33909814875501798 -0.23636812108690311 0 0.322544075342931 -0.25649048942400782 0 0.32331405575278033 -0.23055000204260581 0 0.33909814875501798 -0.23636812108690311 0 0.322544075342931 -0.25649048942400782 0 0.33909814875501798 -0.23636812108690311 0 0.35007299243335749 -0.24785688602667111 0 0.33700232267718733 -0.25494009872172468 0 0.33909814875501798 -0.23636812108690311 0 0.322544075342931 -0.25649048942400782 0 0.33700232267718733 -0.25494009872172468 0 0.33909814875501798 -0.23636812108690311 0 0.35007299243335749 -0.24785688602667111 0 0.35471840821638012 -0.232162972911199 0 0.35007299243335749 -0.24785688602667111 0 0.35471840821638012 -0.232162972911199 0 0.36225179838031341 -0.2439392928582107 0 0.35007299243335749 -0.24785688602667111 0 0.36225179838031341 -0.2439392928582107 0 0.36124693131331159 -0.25807728632712912 0 0.3556522221671049 -0.2162457527497984 0 0.33909814875501798 -0.23636812108690311 0 0.3556522221671049 -0.2162457527497984 0 0.33909814875501798 -0.23636812108690311 0 0.35471840821638012 -0.232162972911199 0 0.3556522221671049 -0.2162457527497984 0 0.34144894007629428 -0.2139395960038605 0 0.33909814875501798 -0.23636812108690311 0 0.35471840821638012 -0.232162972911199 0 0.3731990688381891 -0.2228302363117915 0 0.36225179838031341 -0.2439392928582107 0 0.3556522221671049 -0.2162457527497984 0 0.35471840821638012 -0.232162972911199 0 0.3731990688381891 -0.2228302363117915 0 0.3731990688381891 -0.2228302363117915 0 0.36225179838031341 -0.2439392928582107 0 0.3731990688381891 -0.2228302363117915 0 0.36225179838031341 -0.2439392928582107 0 0.38186963046980549 -0.2367879359972051 0 0.36225179838031341 -0.2439392928582107 0 0.38186963046980549 -0.2367879359972051 0 0.37510228513818711 -0.25237727586059511 0 0.38186963046980549 -0.2367879359972051 0 0.39206528024080278 -0.24921397013056479 0 0.37510228513818711 -0.25237727586059511 0 0.39206528024080278 -0.24921397013056479 0 0.40137725565661481 -0.22692044649349019 0 0.4148006158986044 -0.24103970595398019 0 0.39206528024080278 -0.24921397013056479 0 0.4148006158986044 -0.24103970595398019 0 0.40884184876520419 -0.25890250189124958 0 0.38186963046980549 -0.2367879359972051 0 0.39206528024080278 -0.24921397013056479 0 0.40137725565661481 -0.22692044649349019 0 0.40137725565661481 -0.22692044649349019 0 0.39915185452682361 -0.21610044156742811 0 0.41396763236883027 -0.21470461273584779 0 0.40137725565661481 -0.22692044649349019 0 0.38700545273377529 -0.2233412248148075 0 0.39915185452682361 -0.21610044156742811 0 0.38186963046980549 -0.2367879359972051 0 0.40137725565661481 -0.22692044649349019 0 0.38700545273377529 -0.2233412248148075 0 0.3731990688381891 -0.2228302363117915 0 0.38186963046980549 -0.2367879359972051 0 0.38700545273377529 -0.2233412248148075 0 0.3731990688381891 -0.2228302363117915 0 0.38414633929606479 -0.2017211797653724 0 0.37273333868611941 -0.2093978965492076 0 0.3731990688381891 -0.2228302363117915 0 0.38414633929606479 -0.2017211797653724 0 0.3731990688381891 -0.2228302363117915 0 0.38675328488958288 -0.2095276895359276 0 0.38414633929606479 -0.2017211797653724 0 0.3731990688381891 -0.2228302363117915 0 0.38700545273377529 -0.2233412248148075 0 0.38675328488958288 -0.2095276895359276 0 0.38675328488958288 -0.2095276895359276 0 0.38414633929606479 -0.2017211797653724 0 0.39287005569986072 -0.20314648074516001 0 0.38414633929606479 -0.2017211797653724 0 0.38373621375160438 -0.1885238144486111 0 0.39509360975394031 -0.18061212321895309 0 0.38414633929606479 -0.2017211797653724 0 0.39509360975394031 -0.18061212321895309 0 0.37999921147615667 -0.19503406661491049 0 0.38373621375160438 -0.1885238144486111 0 0.37910290544765168 -0.18685571494790659 0 0.37999921147615667 -0.19503406661491049 0 0.38414633929606479 -0.2017211797653724 0 0.38373621375160438 -0.1885238144486111 0 0.37220629557919183 -0.19612338441269381 0 0.37999921147615667 -0.19503406661491049 0 0.37910290544765168 -0.18685571494790659 0 0.37220629557919183 -0.19612338441269381 0 0.37273333868611941 -0.2093978965492076 0 0.38414633929606479 -0.2017211797653724 0 0.37220629557919183 -0.19612338441269381 0 0.37999921147615667 -0.19503406661491049 0 0.38414633929606479 -0.2017211797653724 0 0.38414633929606479 -0.2017211797653724 0 0.39694758591794982 -0.18886739411602391 0 0.39509360975394031 -0.18061212321895309 0 0.39694758591794982 -0.18886739411602391 0 0.3969424320709618 -0.1972324897541754 0 0.40101572763622523 -0.19231380306325679 0 0.38414633929606479 -0.2017211797653724 0 0.39694758591794982 -0.18886739411602391 0 0.3969424320709618 -0.1972324897541754 0 0.38414633929606479 -0.2017211797653724 0 0.3969424320709618 -0.1972324897541754 0 0.39287005569986072 -0.20314648074516001 0 0.3969424320709618 -0.1972324897541754 0 0.400612395600416 -0.20053006859666331 0 0.39287005569986072 -0.20314648074516001 0 0.3969424320709618 -0.1972324897541754 0 0.4059814476455269 -0.19573306963025069 0 0.400612395600416 -0.20053006859666331 0 0.4059814476455269 -0.19573306963025069 0 0.400612395600416 -0.20053006859666331 0 0.40665564698531481 -0.2060082342570673 0 0.3969424320709618 -0.1972324897541754 0 0.4059814476455269 -0.19573306963025069 0 0.40101572763622523 -0.19231380306325679 0 0.4059814476455269 -0.19573306963025069 0 0.40101572763622523 -0.19231380306325679 0 0.40419144491046238 -0.1874222587525772 0 0.39694758591794982 -0.18886739411602391 0 0.40101572763622523 -0.19231380306325679 0 0.40419144491046238 -0.1874222587525772 0 0.38675328488958288 -0.2095276895359276 0 0.40665564698531481 -0.2060082342570673 0 0.38675328488958288 -0.2095276895359276 0 0.39915185452682361 -0.21610044156742811 0 0.40665564698531481 -0.2060082342570673 0 0.38675328488958288 -0.2095276895359276 0 0.39287005569986072 -0.20314648074516001 0 0.40665564698531481 -0.2060082342570673 0 0.38700545273377529 -0.2233412248148075 0 0.38675328488958288 -0.2095276895359276 0 0.39915185452682361 -0.21610044156742811 0 0.400612395600416 -0.20053006859666331 0 0.39287005569986072 -0.20314648074516001 0 0.40665564698531481 -0.2060082342570673 0 0.41396763236883027 -0.21470461273584779 0 0.40665564698531481 -0.2060082342570673 0 0.42655800908104652 -0.20248877897820619 0 0.40665564698531481 -0.2060082342570673 0 0.42655800908104652 -0.20248877897820619 0 0.39915185452682361 -0.21610044156742811 0 0.41396763236883027 -0.21470461273584779 0 0.40665564698531481 -0.2060082342570673 0 0.41396763236883027 -0.21470461273584779 0 0.42655800908104652 -0.20248877897820619 0 0.40665564698531481 -0.2060082342570673 0 0.41640017291144837 -0.19588579121564459 0 0.42655800908104652 -0.20248877897820619 0 0.4059814476455269 -0.19573306963025069 0 0.41640017291144837 -0.19588579121564459 0 0.41453364601533049 -0.1862870086825022 0 0.4059814476455269 -0.19573306963025069 0 0.40419144491046238 -0.1874222587525772 0 0.41453364601533049 -0.1862870086825022 0 0.4059814476455269 -0.19573306963025069 0 0.40665564698531481 -0.2060082342570673 0 0.41640017291144837 -0.19588579121564459 0 0.41640017291144837 -0.19588579121564459 0 0.42581299264578848 -0.18832250896932939 0 0.41453364601533049 -0.1862870086825022 0 0.42655800908104652 -0.20248877897820619 0 0.444302871767289 -0.18527179670816579 0 0.42581299264578848 -0.18832250896932939 0 0.42655800908104652 -0.20248877897820619 0 0.444302871767289 -0.18527179670816579 0 0.41640017291144837 -0.19588579121564459 0 0.42581299264578848 -0.18832250896932939 0 0.42655800908104652 -0.20248877897820619 0 0.42655800908104652 -0.20248877897820619 0 0.43237997939727391 -0.21969514264188619 0 0.44995934289594253 -0.19835057932979169 0 0.41396763236883027 -0.21470461273584779 0 0.42655800908104652 -0.20248877897820619 0 0.43237997939727391 -0.21969514264188619 0 0.43237997939727391 -0.21969514264188619 0 0.43199948472716282 -0.23703470349933331 0 0.4148006158986044 -0.24103970595398019 0 0.43237997939727391 -0.21969514264188619 0 0.4148006158986044 -0.24103970595398019 0 0.43199948472716282 -0.23703470349933331 0 0.4148006158986044 -0.24103970595398019 0 0.42892204251950339 -0.2594807324876427 0 0.43199948472716282 -0.23703470349933331 0 0.44338493428344739 -0.24574379201886831 0 0.42892204251950339 -0.2594807324876427 0 0.43237997939727391 -0.21969514264188619 0 0.4148006158986044 -0.24103970595398019 0 0.41563137083033092 -0.22558997695630109 0 0.41396763236883027 -0.21470461273584779 0 0.43237997939727391 -0.21969514264188619 0 0.41563137083033092 -0.22558997695630109 0 0.40137725565661481 -0.22692044649349019 0 0.4148006158986044 -0.24103970595398019 0 0.41563137083033092 -0.22558997695630109 0 0.40137725565661481 -0.22692044649349019 0 0.41396763236883027 -0.21470461273584779 0 0.40137725565661481 -0.22692044649349019 0 0.41396763236883027 -0.21470461273584779 0 0.41563137083033092 -0.22558997695630109 0 0.39237070121405998 -0.13164091544729051 0 0.39988799210863701 -0.14408364481314989 0 0.41368108829086198 -0.13554811058748131 0 0.40604313277712428 -0.1171380761358455 0 0.39237070121405998 -0.13164091544729051 0 0.41368108829086198 -0.13554811058748131 0 0.39237070121405998 -0.13164091544729051 0 0.37656812491251679 -0.13846106794218549 0 0.38605620033535121 -0.1499684147877679 0 0.3785150876385216 -0.1195111518185689 0 0.39237070121405998 -0.13164091544729051 0 0.37656812491251679 -0.13846106794218549 0 0.36359383050920879 -0.15501193774405861 0 0.37656812491251679 -0.13846106794218549 0 0.38605620033535121 -0.1499684147877679 0 0.39237070121405998 -0.13164091544729051 0 0.38605620033535121 -0.1499684147877679 0 0.39988799210863701 -0.14408364481314989 0 0.38605620033535121 -0.1499684147877679 0 0.39988799210863701 -0.14408364481314989 0 0.39700055726989097 -0.15664682800685811 0 0.39988799210863701 -0.14408364481314989 0 0.39700055726989097 -0.15664682800685811 0 0.40766935758353628 -0.1563629578155839 0 0.40291487034120532 -0.16553079014728059 0 0.39700055726989097 -0.15664682800685811 0 0.38691599599779503 -0.1739660947730671 0 0.40291487034120532 -0.16553079014728059 0 0.38691599599779503 -0.1739660947730671 0 0.40291487034120532 -0.16553079014728059 0 0.39700055726989097 -0.15664682800685811 0 0.40766935758353628 -0.1563629578155839 0 0.40291487034120532 -0.16553079014728059 0 0.40766935758353628 -0.1563629578155839 0 0.38605620033535121 -0.1499684147877679 0 0.39700055726989097 -0.15664682800685811 0 0.38691599599779503 -0.1739660947730671 0 0.36359383050920879 -0.15501193774405861 0 0.38691599599779503 -0.1739660947730671 0 0.36359383050920879 -0.15501193774405861 0 0.38605620033535121 -0.1499684147877679 0 0.38691599599779503 -0.1739660947730671 0 0.36422253950936112 -0.1859310752075029 0 0.38691599599779503 -0.1739660947730671 0 0.37910290544765168 -0.18685571494790659 0 0.36422253950936112 -0.1859310752075029 0 0.38691599599779503 -0.1739660947730671 0 0.38691599599779503 -0.1739660947730671 0 0.38753717637180268 -0.18155585423065651 0 0.39509360975394031 -0.18061212321895309 0 0.38373621375160438 -0.1885238144486111 0 0.38753717637180268 -0.18155585423065651 0 0.39509360975394031 -0.18061212321895309 0 0.38691599599779503 -0.1739660947730671 0 0.37910290544765168 -0.18685571494790659 0 0.38753717637180268 -0.18155585423065651 0 0.38373621375160438 -0.1885238144486111 0 0.37910290544765168 -0.18685571494790659 0 0.38753717637180268 -0.18155585423065651 0 0.40291487034120532 -0.16553079014728059 0 0.38691599599779503 -0.1739660947730671 0 0.39509360975394031 -0.18061212321895309 0 0.39694758591794982 -0.18886739411602391 0 0.39665445354372708 -0.18451779314135289 0 0.39509360975394031 -0.18061212321895309 0 0.39694758591794982 -0.18886739411602391 0 0.39665445354372708 -0.18451779314135289 0 0.40021252966215071 -0.18382207331845951 0 0.39665445354372708 -0.18451779314135289 0 0.39509360975394031 -0.18061212321895309 0 0.40021252966215071 -0.18382207331845951 0 0.38691599599779503 -0.1739660947730671 0 0.39509360975394031 -0.18061212321895309 0 0.40291487034120532 -0.16553079014728059 0 0.39509360975394031 -0.18061212321895309 0 0.40549068313545528 -0.17742909809594989 0 0.40291487034120532 -0.16553079014728059 0 0.39509360975394031 -0.18061212321895309 0 0.40549068313545528 -0.17742909809594989 0 0.40419144491046238 -0.1874222587525772 0 0.40021252966215071 -0.18382207331845951 0 0.39509360975394031 -0.18061212321895309 0 0.40549068313545528 -0.17742909809594989 0 0.40021252966215071 -0.18382207331845951 0 0.39694758591794982 -0.18886739411602391 0 0.40419144491046238 -0.1874222587525772 0 0.40021252966215071 -0.18382207331845951 0 0.42581299264578848 -0.18832250896932939 0 0.41453364601533049 -0.1862870086825022 0 0.42235201908535791 -0.17050045814039369 0 0.40549068313545528 -0.17742909809594989 0 0.41453364601533049 -0.1862870086825022 0 0.42235201908535791 -0.17050045814039369 0 0.40549068313545528 -0.17742909809594989 0 0.40419144491046238 -0.1874222587525772 0 0.41453364601533049 -0.1862870086825022 0 0.42235201908535791 -0.17050045814039369 0 0.44127751826325029 -0.16493106072254701 0 0.444302871767289 -0.18527179670816579 0 0.42581299264578848 -0.18832250896932939 0 0.42235201908535791 -0.17050045814039369 0 0.444302871767289 -0.18527179670816579 0 0.42235201908535791 -0.17050045814039369 0 0.42606808286872072 -0.1533234062687002 0 0.44127751826325029 -0.16493106072254701 0 0.40291487034120532 -0.16553079014728059 0 0.40766935758353628 -0.1563629578155839 0 0.42606808286872072 -0.1533234062687002 0 0.40291487034120532 -0.16553079014728059 0 0.42606808286872072 -0.1533234062687002 0 0.40291487034120532 -0.16553079014728059 0 0.42235201908535791 -0.17050045814039369 0 0.42606808286872072 -0.1533234062687002 0 0.40291487034120532 -0.16553079014728059 0 0.40549068313545528 -0.17742909809594989 0 0.42235201908535791 -0.17050045814039369 0 0.41182663021293903 -0.1473295298712288 0 0.42606808286872072 -0.1533234062687002 0 0.41368108829086198 -0.13554811058748131 0 0.40766935758353628 -0.1563629578155839 0 0.41182663021293903 -0.1473295298712288 0 0.42606808286872072 -0.1533234062687002 0 0.39988799210863701 -0.14408364481314989 0 0.40766935758353628 -0.1563629578155839 0 0.41182663021293903 -0.1473295298712288 0 0.39988799210863701 -0.14408364481314989 0 0.41182663021293903 -0.1473295298712288 0 0.41368108829086198 -0.13554811058748131 0 0.42606808286872072 -0.1533234062687002 0 0.430889964195386 -0.135117951771525 0 0.44922129539623712 -0.14111602239012119 0 0.42606808286872072 -0.1533234062687002 0 0.430889964195386 -0.135117951771525 0 0.41368108829086198 -0.13554811058748131 0 0.42080162445294911 -0.1170697999396166 0 0.430889964195386 -0.135117951771525 0 0.41368108829086198 -0.13554811058748131 0 0.45825176112352212 -0.1171944005084963 0 0.44922129539623712 -0.14111602239012119 0 0.47461064769812122 -0.12772964805397971 0 0.44922129539623712 -0.14111602239012119 0 0.47461064769812122 -0.12772964805397971 0 0.44922129539623712 -0.14111602239012119 0 0.47041229806123103 -0.14236165737458781 0 0.47461064769812122 -0.12772964805397971 0 0.43893170590200609 -0.1195052611799315 0 0.430889964195386 -0.135117951771525 0 0.44922129539623712 -0.14111602239012119 0 0.43893170590200609 -0.1195052611799315 0 0.45825176112352212 -0.1171944005084963 0 0.44922129539623712 -0.14111602239012119 0 0.43893170590200609 -0.1195052611799315 0 0.44922129539623712 -0.14111602239012119 0 0.42606808286872072 -0.1533234062687002 0 0.44922129539623712 -0.14111602239012119 0 0.44127751826325029 -0.16493106072254701 0 0.42606808286872072 -0.1533234062687002 0 0.44922129539623712 -0.14111602239012119 0 0.44922129539623712 -0.14111602239012119 0 0.46204773445353348 -0.16805481443812731 0 0.44922129539623712 -0.14111602239012119 0 0.46204773445353348 -0.16805481443812731 0 0.47041229806123103 -0.14236165737458781 0 0.44922129539623712 -0.14111602239012119 0 0.46204773445353348 -0.16805481443812731 0 0.44127751826325029 -0.16493106072254701 0 0.46204773445353348 -0.16805481443812731 0 0.44127751826325029 -0.16493106072254701 0 0.444302871767289 -0.18527179670816579 0 0.46204773445353348 -0.16805481443812731 0 0.444302871767289 -0.18527179670816579 0 0.46675991992270621 -0.1779516052682695 0 0.47013600328087812 -0.185042241033678 0 0.44995934289594253 -0.19835057932979169 0 0.444302871767289 -0.18527179670816579 0 0.46675991992270621 -0.1779516052682695 0 0.44995934289594253 -0.19835057932979169 0 0.46204773445353348 -0.16805481443812731 0 0.444302871767289 -0.18527179670816579 0 0.46675991992270621 -0.1779516052682695 0 0.46204773445353348 -0.16805481443812731 0 0.46675991992270621 -0.1779516052682695 0 0.46675991992270621 -0.1779516052682695 0 0.47013600328087812 -0.185042241033678 0 0.46675991992270621 -0.1779516052682695 0 0.48388214138120561 -0.17390417728894431 0 0.47927416581767118 -0.18397687174081401 0 0.46675991992270621 -0.1779516052682695 0 0.47013600328087812 -0.185042241033678 0 0.47927416581767118 -0.18397687174081401 0 0.48388214138120561 -0.17390417728894431 0 0.47927416581767118 -0.18397687174081401 0 0.48987334582395858 -0.18140433091368091 0 0.48987334582395858 -0.18140433091368091 0 0.5 -0.16492372169971509 0 0.5 -0.19225537639104809 0 0.48388214138120561 -0.17390417728894431 0 0.48987334582395858 -0.18140433091368091 0 0.5 -0.16492372169971509 0 0.47927416581767118 -0.18397687174081401 0 0.48987334582395858 -0.18140433091368091 0 0.48552241192915191 -0.19206174635411891 0 0.48388214138120561 -0.17390417728894431 0 0.5 -0.16492372169971509 0 0.48337995996135552 -0.1577718361383266 0 0.46675991992270621 -0.1779516052682695 0 0.48388214138120561 -0.17390417728894431 0 0.48337995996135552 -0.1577718361383266 0 0.46204773445353348 -0.16805481443812731 0 0.46675991992270621 -0.1779516052682695 0 0.48337995996135552 -0.1577718361383266 0 0.46204773445353348 -0.16805481443812731 0 0.48337995996135552 -0.1577718361383266 0 0.47713463147989749 -0.15341672773068571 0 0.46675991992270621 -0.1779516052682695 0 0.48337995996135552 -0.1577718361383266 0 0.46204773445353348 -0.16805481443812731 0 0.47713463147989749 -0.15341672773068571 0 0.46204773445353348 -0.16805481443812731 0 0.47041229806123103 -0.14236165737458781 0 0.47713463147989749 -0.15341672773068571 0 0.48337995996135552 -0.1577718361383266 0 0.47713463147989749 -0.15341672773068571 0 0.48456351921585428 -0.1397192317593817 0 0.47041229806123103 -0.14236165737458781 0 0.47713463147989749 -0.15341672773068571 0 0.48456351921585428 -0.1397192317593817 0 0.48337995996135552 -0.1577718361383266 0 0.50000000000000311 -0.1375920670083822 0 0.48456351921585428 -0.1397192317593817 0 0.5 -0.16492372169971509 0 0.48337995996135552 -0.1577718361383266 0 0.50000000000000311 -0.1375920670083822 0 0.48337995996135552 -0.1577718361383266 0 0.50000000000000311 -0.1375920670083822 0 0.50000000000000433 -0.1143432737178363 0 0.50000000000000311 -0.1375920670083822 0 0.48456351921585428 -0.1397192317593817 0 0.50000000000000433 -0.1143432737178363 0 0.48456351921585428 -0.1397192317593817 0 0.47461064769812122 -0.12772964805397971 0 0.47041229806123103 -0.14236165737458781 0 0.48456351921585428 -0.1397192317593817 0 0.47461064769812122 -0.12772964805397971 0 0.46695018322910392 -0.22473955239466681 0 0.44975785303280541 -0.2255898949688982 0 0.46528918090086291 -0.2095084705765255 0 0.46695018322910392 -0.22473955239466681 0 0.46086119099944728 -0.24298014516654151 0 0.44975785303280541 -0.2255898949688982 0 0.46086119099944728 -0.24298014516654151 0 0.44338493428344739 -0.24574379201886831 0 0.44975785303280541 -0.2255898949688982 0 0.43199948472716282 -0.23703470349933331 0 0.44338493428344739 -0.24574379201886831 0 0.44975785303280541 -0.2255898949688982 0 0.46086119099944728 -0.24298014516654151 0 0.44338493428344739 -0.24574379201886831 0 0.45165913482636821 -0.26068325523694041 0 0.43237997939727391 -0.21969514264188619 0 0.43199948472716282 -0.23703470349933331 0 0.44975785303280541 -0.2255898949688982 0 0.43237997939727391 -0.21969514264188619 0 0.44975785303280541 -0.2255898949688982 0 0.44995934289594253 -0.19835057932979169 0 0.43237997939727391 -0.21969514264188619 0 0.44995934289594253 -0.19835057932979169 0 0.42655800908104652 -0.20248877897820619 0 0.444302871767289 -0.18527179670816579 0 0.44995934289594253 -0.19835057932979169 0 0.42655800908104652 -0.20248877897820619 0 0.44995934289594253 -0.19835057932979169 0 0.46675991992270621 -0.1779516052682695 0 0.44995934289594253 -0.19835057932979169 0 0.44995934289594253 -0.19835057932979169 0 0.46774087741254722 -0.19520616284195491 0 0.47013600328087812 -0.185042241033678 0 0.44995934289594253 -0.19835057932979169 0 0.46774087741254722 -0.19520616284195491 0 0.44995934289594253 -0.19835057932979169 0 0.46774087741254722 -0.19520616284195491 0 0.46528918090086291 -0.2095084705765255 0 0.44975785303280541 -0.2255898949688982 0 0.44995934289594253 -0.19835057932979169 0 0.46528918090086291 -0.2095084705765255 0 0.46695018322910392 -0.22473955239466681 0 0.46528918090086291 -0.2095084705765255 0 0.48029579162163721 -0.21558854579597769 0 0.46528918090086291 -0.2095084705765255 0 0.47801733861628259 -0.20339364304417529 0 0.48029579162163721 -0.21558854579597769 0 0.47801733861628259 -0.20339364304417529 0 0.48029579162163721 -0.21558854579597769 0 0.48876710843341442 -0.20457726853354019 0 0.46774087741254722 -0.19520616284195491 0 0.47801733861628259 -0.20339364304417529 0 0.48552241192915191 -0.19206174635411891 0 0.47927416581767118 -0.18397687174081401 0 0.46774087741254722 -0.19520616284195491 0 0.48552241192915191 -0.19206174635411891 0 0.46774087741254722 -0.19520616284195491 0 0.48552241192915191 -0.19206174635411891 0 0.47013600328087812 -0.185042241033678 0 0.47927416581767118 -0.18397687174081401 0 0.46774087741254722 -0.19520616284195491 0 0.46774087741254722 -0.19520616284195491 0 0.46528918090086291 -0.2095084705765255 0 0.47801733861628259 -0.20339364304417529 0 0.47801733861628259 -0.20339364304417529 0 0.48552241192915191 -0.19206174635411891 0 0.48876710843341442 -0.20457726853354019 0 0.48987334582395858 -0.18140433091368091 0 0.48552241192915191 -0.19206174635411891 0 0.5 -0.19225537639104809 0 0.48552241192915191 -0.19206174635411891 0 0.5 -0.19225537639104809 0 0.48876710843341442 -0.20457726853354019 0 0.5 -0.19225537639104809 0 0.48876710843341442 -0.20457726853354019 0 0.5 -0.21958703108238101 0 0.48029579162163721 -0.21558854579597769 0 0.48876710843341442 -0.20457726853354019 0 0.5 -0.21958703108238101 0 0.5 -0.21958703108238101 0 0.48033598971293961 -0.23536730169414519 0 0.5 -0.24691868577371379 0 0.48029579162163721 -0.21558854579597769 0 0.5 -0.21958703108238101 0 0.48033598971293961 -0.23536730169414519 0 0.46695018322910392 -0.22473955239466681 0 0.46086119099944728 -0.24298014516654151 0 0.48033598971293961 -0.23536730169414519 0 0.46695018322910392 -0.22473955239466681 0 0.48029579162163721 -0.21558854579597769 0 0.48033598971293961 -0.23536730169414519 0 0.46086119099944728 -0.24298014516654151 0 0.48033598971293961 -0.23536730169414519 0 0.47450143065275591 -0.2599846894272051 0 0.48033598971293961 -0.23536730169414519 0 0.5 -0.24691868577371379 0 0.47450143065275591 -0.2599846894272051 0 0.5 -0.24691868577371379 0 0.50000000000000222 -0.27425034046504659 0 0.47450143065275591 -0.2599846894272051 0 0.50000000000000222 -0.27425034046504659 0 0.47605513413645029 -0.28008102786359129 0 0.47450143065275591 -0.2599846894272051 0 0.47605513413645029 -0.28008102786359129 0 0.47450143065275591 -0.2599846894272051 0 0.45931845050930209 -0.27772900618102819 0 0.46086119099944728 -0.24298014516654151 0 0.47450143065275591 -0.2599846894272051 0 0.45165913482636821 -0.26068325523694041 0 0.47450143065275591 -0.2599846894272051 0 0.45931845050930209 -0.27772900618102819 0 0.45165913482636821 -0.26068325523694041 0 0.45931845050930209 -0.27772900618102819 0 0.44355941821905998 -0.27577600561597132 0 0.45165913482636821 -0.26068325523694041 0 0.44338493428344739 -0.24574379201886831 0 0.45165913482636821 -0.26068325523694041 0 0.42892204251950339 -0.2594807324876427 0 0.44355941821905998 -0.27577600561597132 0 0.45165913482636821 -0.26068325523694041 0 0.42892204251950339 -0.2594807324876427 0 0.44743457629936911 -0.29125199491084608 0 0.45088585771739531 -0.31517042999936162 0 0.43686388954492023 -0.30206384222820981 0 0.45088585771739531 -0.31517042999936162 0 0.43602078127065758 -0.31524868357114688 0 0.43686388954492023 -0.30206384222820981 0 0.45931845050930209 -0.27772900618102819 0 0.44355941821905998 -0.27577600561597132 0 0.44743457629936911 -0.29125199491084608 0 0.44355941821905998 -0.27577600561597132 0 0.44743457629936911 -0.29125199491084608 0 0.42611848489587972 -0.28658767974219163 0 0.47605513413645029 -0.28008102786359129 0 0.45931845050930209 -0.27772900618102819 0 0.46516191830632447 -0.295844547827811 0 0.45931845050930209 -0.27772900618102819 0 0.44743457629936911 -0.29125199491084608 0 0.46516191830632447 -0.295844547827811 0 0.44743457629936911 -0.29125199491084608 0 0.46516191830632447 -0.295844547827811 0 0.45088585771739531 -0.31517042999936162 0 0.46516191830632447 -0.295844547827811 0 0.47218478901913252 -0.31616939882945228 0 0.45088585771739531 -0.31517042999936162 0 0.4860923945095682 -0.29520986964724988 0 0.47218478901913252 -0.31616939882945228 0 0.50000000000000222 -0.27425034046504659 0 0.4860923945095682 -0.29520986964724988 0 0.5 -0.307151228172029 0 0.46516191830632447 -0.295844547827811 0 0.4860923945095682 -0.29520986964724988 0 0.47218478901913252 -0.31616939882945228 0 0.47605513413645029 -0.28008102786359129 0 0.46516191830632447 -0.295844547827811 0 0.4860923945095682 -0.29520986964724988 0 0.50000000000000222 -0.27425034046504659 0 0.47605513413645029 -0.28008102786359129 0 0.4860923945095682 -0.29520986964724988 0 0.50000000000000222 -0.27425034046504659 0 0.4860923945095682 -0.29520986964724988 0 0.4860923945095682 -0.29520986964724988 0 0.5 -0.307151228172029 0 0.47218478901913252 -0.31616939882945228 0 0.5 -0.307151228172029 0 0.47500442815187882 -0.33618410333150461 0 0.5 -0.35237408365171952 0 0.5 -0.307151228172029 0 0.47500442815187882 -0.33618410333150461 0 0.47218478901913252 -0.31616939882945228 0 0.47500442815187882 -0.33618410333150461 0 0.5 -0.35237408365171952 0 0.46252966193221051 -0.36479181955861489 0 0.5 -0.35237408365171952 0 0.46252966193221051 -0.36479181955861489 0 0.4680243894331878 -0.39009447735167219 0 0.46252966193221051 -0.36479181955861489 0 0.44439653888602387 -0.37108278870097211 0 0.45518384933885458 -0.37953704158418422 0 0.46252966193221051 -0.36479181955861489 0 0.4490308344886651 -0.35295870566956811 0 0.45703493443123322 -0.33948916176555749 0 0.47500442815187882 -0.33618410333150461 0 0.46252966193221051 -0.36479181955861489 0 0.45703493443123322 -0.33948916176555749 0 0.46252966193221051 -0.36479181955861489 0 0.45703493443123322 -0.33948916176555749 0 0.4490308344886651 -0.35295870566956811 0 0.44439653888602387 -0.37108278870097211 0 0.43547581015886039 -0.35374612963373181 0 0.44432011104097457 -0.34600420025309703 0 0.4490308344886651 -0.35295870566956811 0 0.45042795048268808 -0.34263813410543531 0 0.4490308344886651 -0.35295870566956811 0 0.45703493443123322 -0.33948916176555749 0 0.45042795048268808 -0.34263813410543531 0 0.44432011104097457 -0.34600420025309703 0 0.4490308344886651 -0.35295870566956811 0 0.43547581015886039 -0.35374612963373181 0 0.44432011104097457 -0.34600420025309703 0 0.43877314986606192 -0.33818418946214152 0 0.43547581015886039 -0.35374612963373181 0 0.46252966193221051 -0.36479181955861489 0 0.4490308344886651 -0.35295870566956811 0 0.44439653888602387 -0.37108278870097211 0 0.47218478901913252 -0.31616939882945228 0 0.45845081404400378 -0.32484725803309861 0 0.45088585771739531 -0.31517042999936162 0 0.47218478901913252 -0.31616939882945228 0 0.45845081404400378 -0.32484725803309861 0 0.45827718352869679 -0.33712892801165451 0 0.47218478901913252 -0.31616939882945228 0 0.45827718352869679 -0.33712892801165451 0 0.45845081404400378 -0.32484725803309861 0 0.45465012105844921 -0.33200612518688721 0 0.44755831468875862 -0.32470483606049327 0 0.47500442815187882 -0.33618410333150461 0 0.45703493443123322 -0.33948916176555749 0 0.45827718352869679 -0.33712892801165451 0 0.47500442815187882 -0.33618410333150461 0 0.47218478901913252 -0.31616939882945228 0 0.45827718352869679 -0.33712892801165451 0 0.45703493443123322 -0.33948916176555749 0 0.4547926195999189 -0.33699511694280199 0 0.45042795048268808 -0.34263813410543531 0 0.45703493443123322 -0.33948916176555749 0 0.45827718352869679 -0.33712892801165451 0 0.4547926195999189 -0.33699511694280199 0 0.45845081404400378 -0.32484725803309861 0 0.45827718352869679 -0.33712892801165451 0 0.45465012105844921 -0.33200612518688721 0 0.4547926195999189 -0.33699511694280199 0 0.45465012105844921 -0.33200612518688721 0 0.45190540097192972 -0.33615439765103378 0 0.45827718352869679 -0.33712892801165451 0 0.4547926195999189 -0.33699511694280199 0 0.45465012105844921 -0.33200612518688721 0 0.45465012105844921 -0.33200612518688721 0 0.44749393872662357 -0.33307274595813069 0 0.44755831468875862 -0.32470483606049327 0 0.45465012105844921 -0.33200612518688721 0 0.44749393872662357 -0.33307274595813069 0 0.45190540097192972 -0.33615439765103378 0 0.4547926195999189 -0.33699511694280199 0 0.45042795048268808 -0.34263813410543531 0 0.45190540097192972 -0.33615439765103378 0 0.45042795048268808 -0.34263813410543531 0 0.45190540097192972 -0.33615439765103378 0 0.44691761172297523 -0.33872250108465612 0 0.44749393872662357 -0.33307274595813069 0 0.45190540097192972 -0.33615439765103378 0 0.44691761172297523 -0.33872250108465612 0 0.44432011104097457 -0.34600420025309703 0 0.45042795048268808 -0.34263813410543531 0 0.44691761172297523 -0.33872250108465612 0 0.44432011104097457 -0.34600420025309703 0 0.44691761172297523 -0.33872250108465612 0 0.43877314986606192 -0.33818418946214152 0 0.44749393872662357 -0.33307274595813069 0 0.44691761172297523 -0.33872250108465612 0 0.43877314986606192 -0.33818418946214152 0 0.44749393872662357 -0.33307274595813069 0 0.43877314986606192 -0.33818418946214152 0 0.43784837531542259 -0.32788377361433518 0 0.44749393872662357 -0.33307274595813069 0 0.43784837531542259 -0.32788377361433518 0 0.44755831468875862 -0.32470483606049327 0 0.43784837531542259 -0.32788377361433518 0 0.44755831468875862 -0.32470483606049327 0 0.43602078127065758 -0.31524868357114688 0 0.45845081404400378 -0.32484725803309861 0 0.44755831468875862 -0.32470483606049327 0 0.45088585771739531 -0.31517042999936162 0 0.44755831468875862 -0.32470483606049327 0 0.45088585771739531 -0.31517042999936162 0 0.43602078127065758 -0.31524868357114688 0 0.43784837531542259 -0.32788377361433518 0 0.42583518759170652 -0.33528639298719382 0 0.41775460495295358 -0.31793141321765611 0 0.43784837531542259 -0.32788377361433518 0 0.43602078127065758 -0.31524868357114688 0 0.41775460495295358 -0.31793141321765611 0 0.43877314986606192 -0.33818418946214152 0 0.43784837531542259 -0.32788377361433518 0 0.42583518759170652 -0.33528639298719382 0 0.43877314986606192 -0.33818418946214152 0 0.42583518759170652 -0.33528639298719382 0 0.43547581015886039 -0.35374612963373181 0 0.41250416259223432 -0.33960725990233392 0 0.41775460495295358 -0.31793141321765611 0 0.39805431729583179 -0.33510365622952631 0 0.41250416259223432 -0.33960725990233392 0 0.41775460495295358 -0.31793141321765611 0 0.42583518759170652 -0.33528639298719382 0 0.41250416259223432 -0.33960725990233392 0 0.41775460495295358 -0.31793141321765611 0 0.42583518759170652 -0.33528639298719382 0 0.41250416259223432 -0.33960725990233392 0 0.42034794007649889 -0.35298104146800569 0 0.43547581015886039 -0.35374612963373181 0 0.42034794007649889 -0.35298104146800569 0 0.42578668388574042 -0.37577956855813549 0 0.44439653888602387 -0.37108278870097211 0 0.43547581015886039 -0.35374612963373181 0 0.42578668388574042 -0.37577956855813549 0 0.42583518759170652 -0.33528639298719382 0 0.43547581015886039 -0.35374612963373181 0 0.42034794007649889 -0.35298104146800569 0 0.41250416259223432 -0.33960725990233392 0 0.42034794007649889 -0.35298104146800569 0 0.40725372023151529 -0.36128310658701179 0 0.41250416259223432 -0.33960725990233392 0 0.40725372023151529 -0.36128310658701179 0 0.40725372023151529 -0.36128310658701179 0 0.42578668388574042 -0.37577956855813549 0 0.40193856510946419 -0.3832261124550107 0 0.40725372023151529 -0.36128310658701179 0 0.42578668388574042 -0.37577956855813549 0 0.42034794007649889 -0.35298104146800569 0 0.40725372023151529 -0.36128310658701179 0 0.42578668388574042 -0.37577956855813549 0 0.40725372023151529 -0.36128310658701179 0 0.39425043507280438 -0.36432915978129837 0 0.40193856510946419 -0.3832261124550107 0 0.40725372023151529 -0.36128310658701179 0 0.40193856510946419 -0.3832261124550107 0 0.39425043507280438 -0.36432915978129837 0 0.38081427771294768 -0.36737052156009248 0 0.40193856510946419 -0.3832261124550107 0 0.40725372023151529 -0.36128310658701179 0 0.38699517723729038 -0.34543689852307891 0 0.39805431729583179 -0.33510365622952631 0 0.40725372023151529 -0.36128310658701179 0 0.39425043507280438 -0.36432915978129837 0 0.38699517723729038 -0.34543689852307891 0 0.40725372023151529 -0.36128310658701179 0 0.38699517723729038 -0.34543689852307891 0 0.41250416259223432 -0.33960725990233392 0 0.40725372023151529 -0.36128310658701179 0 0.39805431729583179 -0.33510365622952631 0 0.38699517723729038 -0.34543689852307891 0 0.38081427771294768 -0.36737052156009248 0 0.37640125955739012 -0.35149107478397351 0 0.38465179156333151 -0.34360390505586791 0 0.36805061276354478 -0.3427907498460791 0 0.39425043507280438 -0.36432915978129837 0 0.38699517723729038 -0.34543689852307891 0 0.38081427771294768 -0.36737052156009248 0 0.38699517723729038 -0.34543689852307891 0 0.37640125955739012 -0.35149107478397351 0 0.38081427771294768 -0.36737052156009248 0 0.38699517723729038 -0.34543689852307891 0 0.38465179156333151 -0.34360390505586791 0 0.38699517723729038 -0.34543689852307891 0 0.37640125955739012 -0.35149107478397351 0 0.38465179156333151 -0.34360390505586791 0 0.41775460495295358 -0.31793141321765611 0 0.39401776620237461 -0.32051644503610022 0 0.39805431729583179 -0.33510365622952631 0 0.38699517723729038 -0.34543689852307891 0 0.39401776620237461 -0.32051644503610022 0 0.39805431729583179 -0.33510365622952631 0 0.38699517723729038 -0.34543689852307891 0 0.39401776620237461 -0.32051644503610022 0 0.38465179156333151 -0.34360390505586791 0 0.37858644206980091 -0.32769985780377792 0 0.36805061276354478 -0.3427907498460791 0 0.38699517723729038 -0.34543689852307891 0 0.39401776620237461 -0.32051644503610022 0 0.38465179156333151 -0.34360390505586791 0 0.39401776620237461 -0.32051644503610022 0 0.38465179156333151 -0.34360390505586791 0 0.37858644206980091 -0.32769985780377792 0 0.39401776620237461 -0.32051644503610022 0 0.37858644206980091 -0.32769985780377792 0 0.37861767820969228 -0.30691821554646831 0 0.41775460495295358 -0.31793141321765611 0 0.39401776620237461 -0.32051644503610022 0 0.40104035516745928 -0.29559599154912142 0 0.39401776620237461 -0.32051644503610022 0 0.37861767820969228 -0.30691821554646831 0 0.40104035516745928 -0.29559599154912142 0 0.39401776620237461 -0.32051644503610022 0 0.40104035516745928 -0.29559599154912142 0 0.40104035516745928 -0.29559599154912142 0 0.38498320530945151 -0.287592927137584 0 0.39655653748852282 -0.27284147297554762 0 0.38498320530945151 -0.287592927137584 0 0.37764450162479901 -0.26965755496232408 0 0.36873774536035581 -0.28861226174546889 0 0.37861767820969228 -0.30691821554646831 0 0.40104035516745928 -0.29559599154912142 0 0.38498320530945151 -0.287592927137584 0 0.37861767820969228 -0.30691821554646831 0 0.38498320530945151 -0.287592927137584 0 0.36873774536035581 -0.28861226174546889 0 0.38498320530945151 -0.287592927137584 0 0.37764450162479901 -0.26965755496232408 0 0.39655653748852282 -0.27284147297554762 0 0.39206528024080278 -0.24921397013056479 0 0.37764450162479901 -0.26965755496232408 0 0.39655653748852282 -0.27284147297554762 0 0.39206528024080278 -0.24921397013056479 0 0.37764450162479901 -0.26965755496232408 0 0.37510228513818711 -0.25237727586059511 0 0.39206528024080278 -0.24921397013056479 0 0.39655653748852282 -0.27284147297554762 0 0.40884184876520419 -0.25890250189124958 0 0.40104035516745928 -0.29559599154912142 0 0.39655653748852282 -0.27284147297554762 0 0.4136044294752057 -0.2739163227279473 0 0.39655653748852282 -0.27284147297554762 0 0.4136044294752057 -0.2739163227279473 0 0.40884184876520419 -0.25890250189124958 0 0.4148006158986044 -0.24103970595398019 0 0.40884184876520419 -0.25890250189124958 0 0.42892204251950339 -0.2594807324876427 0 0.4136044294752057 -0.2739163227279473 0 0.40884184876520419 -0.25890250189124958 0 0.42892204251950339 -0.2594807324876427 0 0.4136044294752057 -0.2739163227279473 0 0.42892204251950339 -0.2594807324876427 0 0.42611848489587972 -0.28658767974219163 0 0.44355941821905998 -0.27577600561597132 0 0.42892204251950339 -0.2594807324876427 0 0.42611848489587972 -0.28658767974219163 0 0.44743457629936911 -0.29125199491084608 0 0.42611848489587972 -0.28658767974219163 0 0.43686388954492023 -0.30206384222820981 0 0.43602078127065758 -0.31524868357114688 0 0.41775460495295358 -0.31793141321765611 0 0.42179240152309172 -0.30222108271158582 0 0.42611848489587972 -0.28658767974219163 0 0.43686388954492023 -0.30206384222820981 0 0.42179240152309172 -0.30222108271158582 0 0.43602078127065758 -0.31524868357114688 0 0.43686388954492023 -0.30206384222820981 0 0.42179240152309172 -0.30222108271158582 0 0.41775460495295358 -0.31793141321765611 0 0.40104035516745928 -0.29559599154912142 0 0.42179240152309172 -0.30222108271158582 0 0.40104035516745928 -0.29559599154912142 0 0.4136044294752057 -0.2739163227279473 0 0.42611848489587972 -0.28658767974219163 0 0.40104035516745928 -0.29559599154912142 0 0.42611848489587972 -0.28658767974219163 0 0.42179240152309172 -0.30222108271158582 0 0.5 -0.5 0 0.478892924595126 -0.45923392689990328 0 0.5 -0.41454166856117469 0 0.5 -0.5 0 0.47943423265092072 -0.49342116463239621 0 0.40014079662082208 -0.5 0 0.43983937115661631 -0.46972557693384148 0 0.47943423265092072 -0.49342116463239621 0 0.40014079662082208 -0.5 0 0.43983937115661631 -0.46972557693384148 0 0.46715606132834708 -0.47012790102379598 0 0.47943423265092072 -0.49342116463239621 0 0.5 -0.5 0 0.47943423265092072 -0.49342116463239621 0 0.478892924595126 -0.45923392689990328 0 0.46715606132834708 -0.47012790102379598 0 0.47943423265092072 -0.49342116463239621 0 0.478892924595126 -0.45923392689990328 0 0.46715606132834708 -0.47012790102379598 0 0.47943423265092072 -0.49342116463239621 0 0.478892924595126 -0.45923392689990328 0 0.45487789000577361 -0.44683463741519602 0 0.47188936358571532 -0.4304781897668572 0 0.46715606132834708 -0.47012790102379598 0 0.45487789000577361 -0.44683463741519602 0 0.46715606132834708 -0.47012790102379598 0 0.478892924595126 -0.45923392689990328 0 0.45487789000577361 -0.44683463741519602 0 0.43983937115661631 -0.46972557693384148 0 0.46715606132834708 -0.47012790102379598 0 0.45487789000577361 -0.44683463741519602 0 0.43983937115661631 -0.46972557693384148 0 0.45487789000577361 -0.44683463741519602 0 0.43095981599733307 -0.44753658110846528 0 0.45487789000577361 -0.44683463741519602 0 0.43408281430989271 -0.43319973453275151 0 0.43095981599733307 -0.44753658110846528 0 0.45487789000577361 -0.44683463741519602 0 0.44259971868320003 -0.42354137380659601 0 0.45487789000577361 -0.44683463741519602 0 0.44259971868320003 -0.42354137380659601 0 0.43408281430989271 -0.43319973453275151 0 0.45487789000577361 -0.44683463741519602 0 0.44259971868320003 -0.42354137380659601 0 0.45959372781066021 -0.42263882295877442 0 0.44259971868320003 -0.42354137380659601 0 0.45186952978880229 -0.40983589673226128 0 0.45959372781066021 -0.42263882295877442 0 0.44259971868320003 -0.42354137380659601 0 0.45186952978880229 -0.40983589673226128 0 0.44161148704613862 -0.40579593671517361 0 0.44259971868320003 -0.42354137380659601 0 0.44161148704613862 -0.40579593671517361 0 0.43098246877755192 -0.41858878846052949 0 0.45186952978880229 -0.40983589673226128 0 0.45959372781066021 -0.42263882295877442 0 0.46285261119418991 -0.40477249250038388 0 0.45959372781066021 -0.42263882295877442 0 0.4735191169341651 -0.41539713514472942 0 0.46285261119418991 -0.40477249250038388 0 0.45959372781066021 -0.42263882295877442 0 0.47188936358571532 -0.4304781897668572 0 0.4735191169341651 -0.41539713514472942 0 0.45487789000577361 -0.44683463741519602 0 0.45959372781066021 -0.42263882295877442 0 0.47188936358571532 -0.4304781897668572 0 0.5 -0.41454166856117469 0 0.4735191169341651 -0.41539713514472942 0 0.4680243894331878 -0.39009447735167219 0 0.478892924595126 -0.45923392689990328 0 0.47188936358571532 -0.4304781897668572 0 0.5 -0.41454166856117469 0 0.47188936358571532 -0.4304781897668572 0 0.5 -0.41454166856117469 0 0.4735191169341651 -0.41539713514472942 0 0.5 -0.35237408365171952 0 0.5 -0.41454166856117469 0 0.4680243894331878 -0.39009447735167219 0 0.4735191169341651 -0.41539713514472942 0 0.4680243894331878 -0.39009447735167219 0 0.46252966193221051 -0.36479181955861489 0 0.45518384933885458 -0.37953704158418422 0 0.4680243894331878 -0.39009447735167219 0 0.45518384933885458 -0.37953704158418422 0 0.4680243894331878 -0.39009447735167219 0 0.44431964753996511 -0.39027603052925969 0 0.46252966193221051 -0.36479181955861489 0 0.4680243894331878 -0.39009447735167219 0 0.4735191169341651 -0.41539713514472942 0 0.4680243894331878 -0.39009447735167219 0 0.46285261119418991 -0.40477249250038388 0 0.4680243894331878 -0.39009447735167219 0 0.46285261119418991 -0.40477249250038388 0 0.44431964753996511 -0.39027603052925969 0 0.46285261119418991 -0.40477249250038388 0 0.44431964753996511 -0.39027603052925969 0 0.45186952978880229 -0.40983589673226128 0 0.44161148704613862 -0.40579593671517361 0 0.44431964753996511 -0.39027603052925969 0 0.45186952978880229 -0.40983589673226128 0 0.46285261119418991 -0.40477249250038388 0 0.44431964753996511 -0.39027603052925969 0 0.44439653888602387 -0.37108278870097211 0 0.44431964753996511 -0.39027603052925969 0 0.42578668388574042 -0.37577956855813549 0 0.44439653888602387 -0.37108278870097211 0 0.45518384933885458 -0.37953704158418422 0 0.44431964753996511 -0.39027603052925969 0 0.44431964753996511 -0.39027603052925969 0 0.42578668388574042 -0.37577956855813549 0 0.42627525148907153 -0.39512359141131242 0 0.44431964753996511 -0.39027603052925969 0 0.42578668388574042 -0.37577956855813549 0 0.44161148704613862 -0.40579593671517361 0 0.44431964753996511 -0.39027603052925969 0 0.42627525148907153 -0.39512359141131242 0 0.44161148704613862 -0.40579593671517361 0 0.42627525148907153 -0.39512359141131242 0 0.41380476734409732 -0.40903711363024231 0 0.41288573556315727 -0.39366710087554208 0 0.39662340998741341 -0.40516911832300972 0 0.41380476734409732 -0.40903711363024231 0 0.42627525148907153 -0.39512359141131242 0 0.41288573556315727 -0.39366710087554208 0 0.41380476734409732 -0.40903711363024231 0 0.42578668388574042 -0.37577956855813549 0 0.41288573556315727 -0.39366710087554208 0 0.40193856510946419 -0.3832261124550107 0 0.42578668388574042 -0.37577956855813549 0 0.42627525148907153 -0.39512359141131242 0 0.41288573556315727 -0.39366710087554208 0 0.38081427771294768 -0.36737052156009248 0 0.37463337818860382 -0.38930414459710588 0 0.3737028077843495 -0.38742295831448542 0 0.38081427771294768 -0.36737052156009248 0 0.38897026210220897 -0.39170162293651239 0 0.37463337818860382 -0.38930414459710588 0 0.38081427771294768 -0.36737052156009248 0 0.37463337818860382 -0.38930414459710588 0 0.38081427771294768 -0.36737052156009248 0 0.40193856510946419 -0.3832261124550107 0 0.38897026210220897 -0.39170162293651239 0 0.38599804764205609 -0.41227829054531151 0 0.37463337818860382 -0.38930414459710588 0 0.38897026210220897 -0.39170162293651239 0 0.39662340998741341 -0.40516911832300972 0 0.38599804764205609 -0.41227829054531151 0 0.38599804764205609 -0.41227829054531151 0 0.36755341006792419 -0.41442821452601158 0 0.37463337818860382 -0.38930414459710588 0 0.38897026210220897 -0.39170162293651239 0 0.38599804764205609 -0.41227829054531151 0 0.37463337818860382 -0.38930414459710588 0 0.40193856510946419 -0.3832261124550107 0 0.38897026210220897 -0.39170162293651239 0 0.39662340998741341 -0.40516911832300972 0 0.41288573556315727 -0.39366710087554208 0 0.40193856510946419 -0.3832261124550107 0 0.39662340998741341 -0.40516911832300972 0 0.40193856510946419 -0.3832261124550107 0 0.39662340998741341 -0.40516911832300972 0 0.38599804764205609 -0.41227829054531151 0 0.41380476734409732 -0.40903711363024231 0 0.39662340998741341 -0.40516911832300972 0 0.38599804764205609 -0.41227829054531151 0 0.41380476734409732 -0.40903711363024231 0 0.40147331832312588 -0.42054231308375889 0 0.38599804764205609 -0.41227829054531151 0 0.41380476734409732 -0.40903711363024231 0 0.38599804764205609 -0.41227829054531151 0 0.36755341006792419 -0.41442821452601158 0 0.38599804764205609 -0.41227829054531151 0 0.37837193070639508 -0.43074191130029282 0 0.36755341006792419 -0.41442821452601158 0 0.38599804764205609 -0.41227829054531151 0 0.37837193070639508 -0.43074191130029282 0 0.39716653888589531 -0.43485585418744782 0 0.37837193070639508 -0.43074191130029282 0 0.39716653888589531 -0.43485585418744782 0 0.38455236834147782 -0.44235831893697952 0 0.38599804764205609 -0.41227829054531151 0 0.39716653888589531 -0.43485585418744782 0 0.40147331832312588 -0.42054231308375889 0 0.38599804764205609 -0.41227829054531151 0 0.39716653888589531 -0.43485585418744782 0 0.40147331832312588 -0.42054231308375889 0 0.39716653888589531 -0.43485585418744782 0 0.40988830344794153 -0.42850982814637428 0 0.39716653888589531 -0.43485585418744782 0 0.40988830344794153 -0.42850982814637428 0 0.41424956646142452 -0.44145335337101582 0 0.40988830344794153 -0.42850982814637428 0 0.42255857874347952 -0.42798536962106742 0 0.41424956646142452 -0.44145335337101582 0 0.40147331832312588 -0.42054231308375889 0 0.40988830344794153 -0.42850982814637428 0 0.41380476734409732 -0.40903711363024231 0 0.40988830344794153 -0.42850982814637428 0 0.41380476734409732 -0.40903711363024231 0 0.42255857874347952 -0.42798536962106742 0 0.44161148704613862 -0.40579593671517361 0 0.41380476734409732 -0.40903711363024231 0 0.43098246877755192 -0.41858878846052949 0 0.44161148704613862 -0.40579593671517361 0 0.41380476734409732 -0.40903711363024231 0 0.41380476734409732 -0.40903711363024231 0 0.43098246877755192 -0.41858878846052949 0 0.42255857874347952 -0.42798536962106742 0 0.43408281430989271 -0.43319973453275151 0 0.42255857874347952 -0.42798536962106742 0 0.43095981599733307 -0.44753658110846528 0 0.44259971868320003 -0.42354137380659601 0 0.43098246877755192 -0.41858878846052949 0 0.43408281430989271 -0.43319973453275151 0 0.43098246877755192 -0.41858878846052949 0 0.43408281430989271 -0.43319973453275151 0 0.42255857874347952 -0.42798536962106742 0 0.42255857874347952 -0.42798536962106742 0 0.43095981599733307 -0.44753658110846528 0 0.41424956646142452 -0.44145335337101582 0 0.43983937115661631 -0.46972557693384148 0 0.42706067288056998 -0.45966910190407051 0 0.41707216494033877 -0.46659444091922031 0 0.43983937115661631 -0.46972557693384148 0 0.43095981599733307 -0.44753658110846528 0 0.42706067288056998 -0.45966910190407051 0 0.43095981599733307 -0.44753658110846528 0 0.42706067288056998 -0.45966910190407051 0 0.42037133942799187 -0.45481980865475502 0 0.42037133942799187 -0.45481980865475502 0 0.41707216494033877 -0.46659444091922031 0 0.40833503012973449 -0.45743341782958391 0 0.42706067288056998 -0.45966910190407051 0 0.42037133942799187 -0.45481980865475502 0 0.41707216494033877 -0.46659444091922031 0 0.41707216494033877 -0.46659444091922031 0 0.40833503012973449 -0.45743341782958391 0 0.39424227281986102 -0.46676003377889269 0 0.43095981599733307 -0.44753658110846528 0 0.42037133942799187 -0.45481980865475502 0 0.41424956646142452 -0.44145335337101582 0 0.42037133942799187 -0.45481980865475502 0 0.40833503012973449 -0.45743341782958391 0 0.41424956646142452 -0.44145335337101582 0 0.39716653888589531 -0.43485585418744782 0 0.40833503012973449 -0.45743341782958391 0 0.41424956646142452 -0.44145335337101582 0 0.39716653888589531 -0.43485585418744782 0 0.39345157537004599 -0.45057062730194619 0 0.38455236834147782 -0.44235831893697952 0 0.39716653888589531 -0.43485585418744782 0 0.40833503012973449 -0.45743341782958391 0 0.39345157537004599 -0.45057062730194619 0 0.39716653888589531 -0.43485585418744782 0 0.40833503012973449 -0.45743341782958391 0 0.39345157537004599 -0.45057062730194619 0 0.38455236834147782 -0.44235831893697952 0 0.38182359321740972 -0.45292134106576409 0 0.38455236834147782 -0.44235831893697952 0 0.38182359321740972 -0.45292134106576409 0 0.37194820352764257 -0.4427018608294464 0 0.37837193070639508 -0.43074191130029282 0 0.38455236834147782 -0.44235831893697952 0 0.37194820352764257 -0.4427018608294464 0 0.38182359321740972 -0.45292134106576409 0 0.39424227281986102 -0.46676003377889269 0 0.37141238069938332 -0.46692562663856529 0 0.39345157537004599 -0.45057062730194619 0 0.38182359321740972 -0.45292134106576409 0 0.39424227281986102 -0.46676003377889269 0 0.39424227281986102 -0.46676003377889269 0 0.37141238069938332 -0.46692562663856529 0 0.40833503012973449 -0.45743341782958391 0 0.39345157537004599 -0.45057062730194619 0 0.39424227281986102 -0.46676003377889269 0 0.41707216494033877 -0.46659444091922031 0 0.39424227281986102 -0.46676003377889269 0 0.41707216494033877 -0.46659444091922031 0 0.39424227281986102 -0.46676003377889269 0 0.40014079662082208 -0.5 0 0.39424227281986102 -0.46676003377889269 0 0.40014079662082208 -0.5 0 0.37141238069938332 -0.46692562663856529 0 0.43983937115661631 -0.46972557693384148 0 0.41707216494033877 -0.46659444091922031 0 0.40014079662082208 -0.5 0 0.40014079662082208 -0.5 0 0.32546065004022617 -0.5 0 0.3462765218470546 -0.48033279556006703 0 0.32546065004022617 -0.5 0 0.3462765218470546 -0.48033279556006703 0 0.30631021868456298 -0.48072311486568892 0 0.3462765218470546 -0.48033279556006703 0 0.32575259645842791 -0.46725681235791028 0 0.30631021868456298 -0.48072311486568892 0 0.3462765218470546 -0.48033279556006703 0 0.3485824885789055 -0.46709121949823779 0 0.32575259645842791 -0.46725681235791028 0 0.40014079662082208 -0.5 0 0.3462765218470546 -0.48033279556006703 0 0.37141238069938332 -0.46692562663856529 0 0.3462765218470546 -0.48033279556006703 0 0.3485824885789055 -0.46709121949823779 0 0.37141238069938332 -0.46692562663856529 0 0.3485824885789055 -0.46709121949823779 0 0.37141238069938332 -0.46692562663856529 0 0.35324569388809701 -0.44989359131069062 0 0.3485824885789055 -0.46709121949823779 0 0.35324569388809701 -0.44989359131069062 0 0.33806214337105372 -0.45777686618061397 0 0.38182359321740972 -0.45292134106576409 0 0.37141238069938332 -0.46692562663856529 0 0.35324569388809701 -0.44989359131069062 0 0.3485824885789055 -0.46709121949823779 0 0.37141238069938332 -0.46692562663856529 0 0.36060935802898147 -0.43906997082244181 0 0.37194820352764257 -0.4427018608294464 0 0.35324569388809701 -0.44989359131069062 0 0.38182359321740972 -0.45292134106576409 0 0.35324569388809701 -0.44989359131069062 0 0.37837193070639508 -0.43074191130029282 0 0.36060935802898147 -0.43906997082244181 0 0.37194820352764257 -0.4427018608294464 0 0.38182359321740972 -0.45292134106576409 0 0.37194820352764257 -0.4427018608294464 0 0.35324569388809701 -0.44989359131069062 0 0.36060935802898147 -0.43906997082244181 0 0.35324569388809701 -0.44989359131069062 0 0.34315104194743368 -0.43483422324315929 0 0.32466779455878442 -0.44686584155561709 0 0.32761501992215097 -0.43116249501185328 0 0.34315104194743368 -0.43483422324315929 0 0.35324569388809701 -0.44989359131069062 0 0.33806214337105372 -0.45777686618061397 0 0.32466779455878442 -0.44686584155561709 0 0.35324569388809701 -0.44989359131069062 0 0.32466779455878442 -0.44686584155561709 0 0.34315104194743368 -0.43483422324315929 0 0.35324569388809701 -0.44989359131069062 0 0.32466779455878442 -0.44686584155561709 0 0.3485824885789055 -0.46709121949823779 0 0.32575259645842791 -0.46725681235791028 0 0.3485824885789055 -0.46709121949823779 0 0.33806214337105372 -0.45777686618061397 0 0.32575259645842791 -0.46725681235791028 0 0.33806214337105372 -0.45777686618061397 0 0.32575259645842791 -0.46725681235791028 0 0.32466779455878442 -0.44686584155561709 0 0.32575259645842791 -0.46725681235791028 0 0.30904716904302271 -0.45792120175055678 0 0.30631021868456298 -0.48072311486568892 0 0.32575259645842791 -0.46725681235791028 0 0.32466779455878442 -0.44686584155561709 0 0.30904716904302271 -0.45792120175055678 0 0.32466779455878442 -0.44686584155561709 0 0.31800868577585262 -0.43516031519895321 0 0.30735360635596409 -0.43632211706289747 0 0.32466779455878442 -0.44686584155561709 0 0.32761501992215097 -0.43116249501185328 0 0.31800868577585262 -0.43516031519895321 0 0.32761501992215097 -0.43116249501185328 0 0.32339131420283213 -0.41656724990055422 0 0.31239832226651099 -0.42629080716544471 0 0.32761501992215097 -0.43116249501185328 0 0.31800868577585262 -0.43516031519895321 0 0.31239832226651099 -0.42629080716544471 0 0.31800868577585262 -0.43516031519895321 0 0.31239832226651099 -0.42629080716544471 0 0.30735360635596409 -0.43632211706289747 0 0.32339131420283213 -0.41656724990055422 0 0.31120060169272079 -0.4133373498197 0 0.31239832226651099 -0.42629080716544471 0 0.32339131420283213 -0.41656724990055422 0 0.319673984964159 -0.40346676889879052 0 0.31120060169272079 -0.4133373498197 0 0.319673984964159 -0.40346676889879052 0 0.30884060304287331 -0.40229515593698711 0 0.31120060169272079 -0.4133373498197 0 0.32339131420283213 -0.41656724990055422 0 0.33281994217864741 -0.40778505865636938 0 0.319673984964159 -0.40346676889879052 0 0.32761501992215097 -0.43116249501185328 0 0.32339131420283213 -0.41656724990055422 0 0.33796042338316851 -0.41787760036937549 0 0.32339131420283213 -0.41656724990055422 0 0.33281994217864741 -0.40778505865636938 0 0.33796042338316851 -0.41787760036937549 0 0.33281994217864741 -0.40778505865636938 0 0.33796042338316851 -0.41787760036937549 0 0.34601675315157321 -0.40486547886918423 0 0.32761501992215097 -0.43116249501185328 0 0.33796042338316851 -0.41787760036937549 0 0.34315104194743368 -0.43483422324315929 0 0.33796042338316851 -0.41787760036937549 0 0.34315104194743368 -0.43483422324315929 0 0.35231855835687692 -0.42655250224024699 0 0.36060935802898147 -0.43906997082244181 0 0.34315104194743368 -0.43483422324315929 0 0.35231855835687692 -0.42655250224024699 0 0.37837193070639508 -0.43074191130029282 0 0.36060935802898147 -0.43906997082244181 0 0.36755341006792419 -0.41442821452601158 0 0.36060935802898147 -0.43906997082244181 0 0.35231855835687692 -0.42655250224024699 0 0.36755341006792419 -0.41442821452601158 0 0.36060935802898147 -0.43906997082244181 0 0.36755341006792419 -0.41442821452601158 0 0.33796042338316851 -0.41787760036937549 0 0.35231855835687692 -0.42655250224024699 0 0.36755341006792419 -0.41442821452601158 0 0.33796042338316851 -0.41787760036937549 0 0.36755341006792419 -0.41442821452601158 0 0.34601675315157321 -0.40486547886918423 0 0.33796042338316851 -0.41787760036937549 0 0.36755341006792419 -0.41442821452601158 0 0.36755341006792419 -0.41442821452601158 0 0.34601675315157321 -0.40486547886918423 0 0.35566250251704978 -0.3975177511027051 0 0.34601675315157321 -0.40486547886918423 0 0.34667365318154342 -0.39629832909528578 0 0.35566250251704978 -0.3975177511027051 0 0.34667365318154342 -0.39629832909528578 0 0.34795812186604658 -0.38666189116531141 0 0.33705723519150399 -0.3961481952439429 0 0.34667365318154342 -0.39629832909528578 0 0.35566250251704978 -0.3975177511027051 0 0.34795812186604658 -0.38666189116531141 0 0.36755341006792419 -0.41442821452601158 0 0.35566250251704978 -0.3975177511027051 0 0.36706103815962848 -0.39187921332532882 0 0.36755341006792419 -0.41442821452601158 0 0.37463337818860382 -0.38930414459710588 0 0.36755341006792419 -0.41442821452601158 0 0.36706103815962848 -0.39187921332532882 0 0.37463337818860382 -0.38930414459710588 0 0.35566250251704978 -0.3975177511027051 0 0.36706103815962848 -0.39187921332532882 0 0.35924801608749379 -0.38543857686598643 0 0.38081427771294768 -0.36737052156009248 0 0.36848073339739068 -0.37517807712711049 0 0.3737028077843495 -0.38742295831448542 0 0.36848073339739068 -0.37517807712711049 0 0.3737028077843495 -0.38742295831448542 0 0.36599997940964812 -0.38379980358563692 0 0.36706103815962848 -0.39187921332532882 0 0.3737028077843495 -0.38742295831448542 0 0.36599997940964812 -0.38379980358563692 0 0.36706103815962848 -0.39187921332532882 0 0.37463337818860382 -0.38930414459710588 0 0.3737028077843495 -0.38742295831448542 0 0.37463337818860382 -0.38930414459710588 0 0.3737028077843495 -0.38742295831448542 0 0.36706103815962848 -0.39187921332532882 0 0.36599997940964812 -0.38379980358563692 0 0.35924801608749379 -0.38543857686598643 0 0.36599997940964812 -0.38379980358563692 0 0.36207090148421361 -0.37959838259465167 0 0.35924801608749379 -0.38543857686598643 0 0.36848073339739068 -0.37517807712711049 0 0.36599997940964812 -0.38379980358563692 0 0.36207090148421361 -0.37959838259465167 0 0.36848073339739068 -0.37517807712711049 0 0.36207090148421361 -0.37959838259465167 0 0.3554566368260581 -0.37480617727887811 0 0.36207090148421361 -0.37959838259465167 0 0.35924801608749379 -0.38543857686598643 0 0.3554566368260581 -0.37480617727887811 0 0.35924801608749379 -0.38543857686598643 0 0.34795812186604658 -0.38666189116531141 0 0.3554566368260581 -0.37480617727887811 0 0.35566250251704978 -0.3975177511027051 0 0.35924801608749379 -0.38543857686598643 0 0.34795812186604658 -0.38666189116531141 0 0.34795812186604658 -0.38666189116531141 0 0.34537995690420659 -0.3737828605913362 0 0.3554566368260581 -0.37480617727887811 0 0.34795812186604658 -0.38666189116531141 0 0.33323562740676532 -0.37769939737979058 0 0.34537995690420659 -0.3737828605913362 0 0.34795812186604658 -0.38666189116531141 0 0.33323562740676532 -0.37769939737979058 0 0.33705723519150399 -0.3961481952439429 0 0.33323562740676532 -0.37769939737979058 0 0.33705723519150399 -0.3961481952439429 0 0.319673984964159 -0.40346676889879052 0 0.33281994217864741 -0.40778505865636938 0 0.33705723519150399 -0.3961481952439429 0 0.319673984964159 -0.40346676889879052 0 0.33281994217864741 -0.40778505865636938 0 0.34601675315157321 -0.40486547886918423 0 0.33705723519150399 -0.3961481952439429 0 0.34601675315157321 -0.40486547886918423 0 0.34667365318154342 -0.39629832909528578 0 0.33705723519150399 -0.3961481952439429 0 0.33323562740676532 -0.37769939737979058 0 0.319673984964159 -0.40346676889879052 0 0.31422368515007948 -0.393427126581603 0 0.319673984964159 -0.40346676889879052 0 0.31422368515007948 -0.393427126581603 0 0.30884060304287331 -0.40229515593698711 0 0.33323562740676532 -0.37769939737979058 0 0.319673984964159 -0.40346676889879052 0 0.31422368515007948 -0.393427126581603 0 0.30591552541026101 -0.37751124227982003 0 0.32002671755222051 -0.36641101040373808 0 0.33323562740676532 -0.37769939737979058 0 0.31422368515007948 -0.393427126581603 0 0.32002671755222051 -0.36641101040373808 0 0.31422368515007948 -0.393427126581603 0 0.32002671755222051 -0.36641101040373808 0 0.30591552541026101 -0.37751124227982003 0 0.29934269892459558 -0.39453707190143028 0 0.28871394442674109 -0.38265385864092483 0 0.31422368515007948 -0.393427126581603 0 0.30591552541026101 -0.37751124227982003 0 0.29934269892459558 -0.39453707190143028 0 0.31422368515007948 -0.393427126581603 0 0.30884060304287331 -0.40229515593698711 0 0.29934269892459558 -0.39453707190143028 0 0.30884060304287331 -0.40229515593698711 0 0.29934269892459558 -0.39453707190143028 0 0.29896657827583012 -0.40866065312134409 0 0.28871394442674109 -0.38265385864092483 0 0.27786210523133942 -0.40981541802129928 0 0.29934269892459558 -0.39453707190143028 0 0.27786210523133942 -0.40981541802129928 0 0.29896657827583012 -0.40866065312134409 0 0.29934269892459558 -0.39453707190143028 0 0.28871394442674109 -0.38265385864092483 0 0.27786210523133942 -0.40981541802129928 0 0.28871394442674109 -0.38265385864092483 0 0.26416245427686541 -0.38049931320234009 0 0.26125098829365018 -0.39969694482297641 0 0.28871394442674109 -0.38265385864092483 0 0.26416245427686541 -0.38049931320234009 0 0.27571190406721402 -0.36345127203525351 0 0.26416245427686541 -0.38049931320234009 0 0.24971336314328341 -0.36520417674804972 0 0.24502858373403441 -0.39146921073642488 0 0.26416245427686541 -0.38049931320234009 0 0.26125098829365018 -0.39969694482297641 0 0.24502858373403441 -0.39146921073642488 0 0.28871394442674109 -0.38265385864092483 0 0.26125098829365018 -0.39969694482297641 0 0.27786210523133942 -0.40981541802129928 0 0.26125098829365018 -0.39969694482297641 0 0.25610826383841628 -0.42120346698794331 0 0.2333640889907381 -0.41241884790723538 0 0.26125098829365018 -0.39969694482297641 0 0.27786210523133942 -0.40981541802129928 0 0.25610826383841628 -0.42120346698794331 0 0.25610826383841628 -0.42120346698794331 0 0.26701026603593758 -0.43697697740167368 0 0.2518592606704963 -0.43815060111373921 0 0.27786210523133942 -0.40981541802129928 0 0.26701026603593758 -0.43697697740167368 0 0.28078102790119369 -0.4274552938509788 0 0.27786210523133942 -0.40981541802129928 0 0.26701026603593758 -0.43697697740167368 0 0.27786210523133942 -0.40981541802129928 0 0.25610826383841628 -0.42120346698794331 0 0.26701026603593758 -0.43697697740167368 0 0.26701026603593758 -0.43697697740167368 0 0.28078102790119369 -0.4274552938509788 0 0.27712236562531017 -0.4375193999175232 0 0.28078102790119369 -0.4274552938509788 0 0.28865243891263809 -0.43215364344327012 0 0.27712236562531017 -0.4375193999175232 0 0.28865243891263809 -0.43215364344327012 0 0.28959476197880307 -0.44168956347039928 0 0.27712236562531017 -0.4375193999175232 0 0.28865243891263809 -0.43215364344327012 0 0.29503220707493127 -0.43614369036708622 0 0.29829711678041942 -0.42866378264525379 0 0.28865243891263809 -0.43215364344327012 0 0.29503220707493127 -0.43614369036708622 0 0.28959476197880307 -0.44168956347039928 0 0.28865243891263809 -0.43215364344327012 0 0.29108715411517122 -0.42145013040837909 0 0.29829711678041942 -0.42866378264525379 0 0.28078102790119369 -0.4274552938509788 0 0.28865243891263809 -0.43215364344327012 0 0.29108715411517122 -0.42145013040837909 0 0.27786210523133942 -0.40981541802129928 0 0.28078102790119369 -0.4274552938509788 0 0.29108715411517122 -0.42145013040837909 0 0.27786210523133942 -0.40981541802129928 0 0.29108715411517122 -0.42145013040837909 0 0.29896657827583012 -0.40866065312134409 0 0.29108715411517122 -0.42145013040837909 0 0.30377653118007591 -0.4205559058691733 0 0.29896657827583012 -0.40866065312134409 0 0.30377653118007591 -0.4205559058691733 0 0.29896657827583012 -0.40866065312134409 0 0.31120060169272079 -0.4133373498197 0 0.30884060304287331 -0.40229515593698711 0 0.29896657827583012 -0.40866065312134409 0 0.31120060169272079 -0.4133373498197 0 0.30377653118007591 -0.4205559058691733 0 0.31120060169272079 -0.4133373498197 0 0.31239832226651099 -0.42629080716544471 0 0.30377653118007591 -0.4205559058691733 0 0.31239832226651099 -0.42629080716544471 0 0.29829711678041942 -0.42866378264525379 0 0.31239832226651099 -0.42629080716544471 0 0.30735360635596409 -0.43632211706289747 0 0.29829711678041942 -0.42866378264525379 0 0.29503220707493127 -0.43614369036708622 0 0.30735360635596409 -0.43632211706289747 0 0.29829711678041942 -0.42866378264525379 0 0.29108715411517122 -0.42145013040837909 0 0.30377653118007591 -0.4205559058691733 0 0.29829711678041942 -0.42866378264525379 0 0.32466779455878442 -0.44686584155561709 0 0.30904716904302271 -0.45792120175055678 0 0.29608989522947149 -0.44383809180054362 0 0.32466779455878442 -0.44686584155561709 0 0.29608989522947149 -0.44383809180054362 0 0.32466779455878442 -0.44686584155561709 0 0.30735360635596409 -0.43632211706289747 0 0.29608989522947149 -0.44383809180054362 0 0.30904716904302271 -0.45792120175055678 0 0.29860320416278402 -0.45529674645956592 0 0.29608989522947149 -0.44383809180054362 0 0.29503220707493127 -0.43614369036708622 0 0.30735360635596409 -0.43632211706289747 0 0.29608989522947149 -0.44383809180054362 0 0.30904716904302271 -0.45792120175055678 0 0.29721119201091789 -0.46522563712477349 0 0.30631021868456298 -0.48072311486568892 0 0.30904716904302271 -0.45792120175055678 0 0.29721119201091789 -0.46522563712477349 0 0.29860320416278402 -0.45529674645956592 0 0.28932919617959602 -0.45338424297023883 0 0.27756010650442758 -0.45518222858252849 0 0.28072062580449653 -0.47155582870540619 0 0.29721119201091789 -0.46522563712477349 0 0.28932919617959602 -0.45338424297023883 0 0.28072062580449653 -0.47155582870540619 0 0.29721119201091789 -0.46522563712477349 0 0.29860320416278402 -0.45529674645956592 0 0.28932919617959602 -0.45338424297023883 0 0.28932919617959602 -0.45338424297023883 0 0.28959476197880307 -0.44168956347039928 0 0.27756010650442758 -0.45518222858252849 0 0.29860320416278402 -0.45529674645956592 0 0.28932919617959602 -0.45338424297023883 0 0.29608989522947149 -0.44383809180054362 0 0.28932919617959602 -0.45338424297023883 0 0.29608989522947149 -0.44383809180054362 0 0.28959476197880307 -0.44168956347039928 0 0.29503220707493127 -0.43614369036708622 0 0.29608989522947149 -0.44383809180054362 0 0.28959476197880307 -0.44168956347039928 0 0.28959476197880307 -0.44168956347039928 0 0.26138620688844749 -0.44792543592233808 0 0.26701026603593758 -0.43697697740167368 0 0.27712236562531017 -0.4375193999175232 0 0.26138620688844749 -0.44792543592233808 0 0.28959476197880307 -0.44168956347039928 0 0.26138620688844749 -0.44792543592233808 0 0.27756010650442758 -0.45518222858252849 0 0.28959476197880307 -0.44168956347039928 0 0.27712236562531017 -0.4375193999175232 0 0.26138620688844749 -0.44792543592233808 0 0.26701026603593758 -0.43697697740167368 0 0.26138620688844749 -0.44792543592233808 0 0.2518592606704963 -0.43815060111373921 0 0.26138620688844749 -0.44792543592233808 0 0.26339579246569877 -0.46312143350125029 0 0.23317765179809191 -0.45416130837427687 0 0.26138620688844749 -0.44792543592233808 0 0.26339579246569877 -0.46312143350125029 0 0.27756010650442758 -0.45518222858252849 0 0.26339579246569877 -0.46312143350125029 0 0.27756010650442758 -0.45518222858252849 0 0.28072062580449653 -0.47155582870540619 0 0.28072062580449653 -0.47155582870540619 0 0.2532296876789632 -0.47497352743918242 0 0.27004646425256568 -0.5 0 0.26339579246569877 -0.46312143350125029 0 0.28072062580449653 -0.47155582870540619 0 0.2532296876789632 -0.47497352743918242 0 0.32546065004022617 -0.5 0 0.27004646425256568 -0.5 0 0.30631021868456298 -0.48072311486568892 0 0.28072062580449653 -0.47155582870540619 0 0.27004646425256568 -0.5 0 0.30631021868456298 -0.48072311486568892 0 0.29721119201091789 -0.46522563712477349 0 0.28072062580449653 -0.47155582870540619 0 0.30631021868456298 -0.48072311486568892 0 0.33743581475864359 -0.28536266187014298 0 0.3388307833371127 -0.27886836189579028 0 0.34706744656536048 -0.28007479224216619 0 0.33743581475864359 -0.28536266187014298 0 0.3388307833371127 -0.27886836189579028 0 0.33743581475864359 -0.28536266187014298 0 0.33163278235650262 -0.31237877804800812 0 0.33743581475864359 -0.28536266187014298 0 0.33163278235650262 -0.31237877804800812 0 0.34308905326158867 -0.30070827197480321 0 0.33743581475864359 -0.28536266187014298 0 0.33163278235650262 -0.31237877804800812 0 0.32364365619397351 -0.29600562892690968 0 0.33163278235650262 -0.31237877804800812 0 0.32364365619397351 -0.29600562892690968 0 0.30954970221622308 -0.30462347215273478 0 0.31296692944630888 -0.29314018565426941 0 0.32364365619397351 -0.29600562892690968 0 0.30954970221622308 -0.30462347215273478 0 0.31296692944630888 -0.29314018565426941 0 0.32364365619397351 -0.29600562892690968 0 0.31569414790308259 -0.28159305760617132 0 0.33743581475864359 -0.28536266187014298 0 0.32364365619397351 -0.29600562892690968 0 0.31569414790308259 -0.28159305760617132 0 0.33743581475864359 -0.28536266187014298 0 0.31569414790308259 -0.28159305760617132 0 0.33743581475864359 -0.28536266187014298 0 0.31569414790308259 -0.28159305760617132 0 0.32852563272885182 -0.27784073863383552 0 0.31569414790308259 -0.28159305760617132 0 0.31275786215232049 -0.27168837282467972 0 0.32066228436037369 -0.27402337931129878 0 0.31275786215232049 -0.27168837282467972 0 0.32001527731196461 -0.26686042829596718 0 0.31054181011664339 -0.26140137874582919 0 0.31275786215232049 -0.27168837282467972 0 0.32001527731196461 -0.26686042829596718 0 0.32066228436037369 -0.27402337931129878 0 0.32001527731196461 -0.26686042829596718 0 0.32631850170564902 -0.27213429919584042 0 0.32066228436037369 -0.27402337931129878 0 0.32001527731196461 -0.26686042829596718 0 0.32631850170564902 -0.27213429919584042 0 0.32861545200372733 -0.26431566092564712 0 0.32631850170564902 -0.27213429919584042 0 0.32066228436037369 -0.27402337931129878 0 0.32852563272885182 -0.27784073863383552 0 0.31569414790308259 -0.28159305760617132 0 0.32066228436037369 -0.27402337931129878 0 0.32852563272885182 -0.27784073863383552 0 0.30517917142926537 -0.24716040808135001 0 0.322544075342931 -0.25649048942400782 0 0.31054181011664339 -0.26140137874582919 0 0.32001527731196461 -0.26686042829596718 0 0.322544075342931 -0.25649048942400782 0 0.31054181011664339 -0.26140137874582919 0 0.32001527731196461 -0.26686042829596718 0 0.322544075342931 -0.25649048942400782 0 0.32861545200372733 -0.26431566092564712 0 0.322544075342931 -0.25649048942400782 0 0.32861545200372733 -0.26431566092564712 0 0.33700232267718733 -0.25494009872172468 0 0.32861545200372733 -0.26431566092564712 0 0.33700232267718733 -0.25494009872172468 0 0.3370936559567923 -0.26597622971595652 0 0.33700232267718733 -0.25494009872172468 0 0.3370936559567923 -0.26597622971595652 0 0.34612034525793539 -0.26165354425485998 0 0.32852563272885182 -0.27784073863383552 0 0.33374486488877292 -0.2728357791174113 0 0.3388307833371127 -0.27886836189579028 0 0.33743581475864359 -0.28536266187014298 0 0.32852563272885182 -0.27784073863383552 0 0.3388307833371127 -0.27886836189579028 0 0.32631850170564902 -0.27213429919584042 0 0.32852563272885182 -0.27784073863383552 0 0.33374486488877292 -0.2728357791174113 0 0.32631850170564902 -0.27213429919584042 0 0.32861545200372733 -0.26431566092564712 0 0.33374486488877292 -0.2728357791174113 0 0.32861545200372733 -0.26431566092564712 0 0.33374486488877292 -0.2728357791174113 0 0.3370936559567923 -0.26597622971595652 0 0.34349817463331772 -0.27223575233246988 0 0.3370936559567923 -0.26597622971595652 0 0.34612034525793539 -0.26165354425485998 0 0.33374486488877292 -0.2728357791174113 0 0.34349817463331772 -0.27223575233246988 0 0.3370936559567923 -0.26597622971595652 0 0.33374486488877292 -0.2728357791174113 0 0.34349817463331772 -0.27223575233246988 0 0.3388307833371127 -0.27886836189579028 0 0.34349817463331772 -0.27223575233246988 0 0.3388307833371127 -0.27886836189579028 0 0.34706744656536048 -0.28007479224216619 0 0.34349817463331772 -0.27223575233246988 0 0.34706744656536048 -0.28007479224216619 0 0.35711558672006172 -0.27354793744083078 0 0.34349817463331772 -0.27223575233246988 0 0.35711558672006172 -0.27354793744083078 0 0.34612034525793539 -0.26165354425485998 0 0.34706744656536048 -0.28007479224216619 0 0.35711558672006172 -0.27354793744083078 0 0.35357832102308678 -0.28816147489813743 0 0.35007299243335749 -0.24785688602667111 0 0.33700232267718733 -0.25494009872172468 0 0.34612034525793539 -0.26165354425485998 0 0.35711558672006172 -0.27354793744083078 0 0.34612034525793539 -0.26165354425485998 0 0.36124693131331159 -0.25807728632712912 0 0.35007299243335749 -0.24785688602667111 0 0.34612034525793539 -0.26165354425485998 0 0.36124693131331159 -0.25807728632712912 0 0.37764450162479901 -0.26965755496232408 0 0.37510228513818711 -0.25237727586059511 0 0.36124693131331159 -0.25807728632712912 0 0.36225179838031341 -0.2439392928582107 0 0.37510228513818711 -0.25237727586059511 0 0.36124693131331159 -0.25807728632712912 0 0.37764450162479901 -0.26965755496232408 0 0.35711558672006172 -0.27354793744083078 0 0.36124693131331159 -0.25807728632712912 0 0.37764450162479901 -0.26965755496232408 0 0.35711558672006172 -0.27354793744083078 0 0.36873774536035581 -0.28861226174546889 0 0.36873774536035581 -0.28861226174546889 0 0.35357832102308678 -0.28816147489813743 0 0.36087634202934032 -0.30211297570133377 0 0.35711558672006172 -0.27354793744083078 0 0.36873774536035581 -0.28861226174546889 0 0.35357832102308678 -0.28816147489813743 0 0.33743581475864359 -0.28536266187014298 0 0.35357832102308678 -0.28816147489813743 0 0.33743581475864359 -0.28536266187014298 0 0.34706744656536048 -0.28007479224216619 0 0.35357832102308678 -0.28816147489813743 0 0.33743581475864359 -0.28536266187014298 0 0.34308905326158867 -0.30070827197480321 0 0.35357832102308678 -0.28816147489813743 0 0.34308905326158867 -0.30070827197480321 0 0.36087634202934032 -0.30211297570133377 0 0.3603589122919777 -0.32616465434179109 0 0.34308905326158867 -0.30070827197480321 0 0.35357832102308678 -0.28816147489813743 0 0.36087634202934032 -0.30211297570133377 0 0.37861767820969228 -0.30691821554646831 0 0.36873774536035581 -0.28861226174546889 0 0.36087634202934032 -0.30211297570133377 0 0.37861767820969228 -0.30691821554646831 0 0.36087634202934032 -0.30211297570133377 0 0.3603589122919777 -0.32616465434179109 0 0.37858644206980091 -0.32769985780377792 0 0.37861767820969228 -0.30691821554646831 0 0.3603589122919777 -0.32616465434179109 0 0.37858644206980091 -0.32769985780377792 0 0.3603589122919777 -0.32616465434179109 0 0.36805061276354478 -0.3427907498460791 0 0.3603589122919777 -0.32616465434179109 0 0.34679726984937148 -0.35193202586079081 0 0.3603589122919777 -0.32616465434179109 0 0.34679726984937148 -0.35193202586079081 0 0.3423644242317993 -0.33453707324987059 0 0.3603589122919777 -0.32616465434179109 0 0.36805061276354478 -0.3427907498460791 0 0.34679726984937148 -0.35193202586079081 0 0.33163278235650262 -0.31237877804800812 0 0.34308905326158867 -0.30070827197480321 0 0.3603589122919777 -0.32616465434179109 0 0.33163278235650262 -0.31237877804800812 0 0.3603589122919777 -0.32616465434179109 0 0.3423644242317993 -0.33453707324987059 0 0.37640125955739012 -0.35149107478397351 0 0.38081427771294768 -0.36737052156009248 0 0.36600013168445039 -0.36059477107615401 0 0.36848073339739068 -0.37517807712711049 0 0.36600013168445039 -0.36059477107615401 0 0.3554566368260581 -0.37480617727887811 0 0.38081427771294768 -0.36737052156009248 0 0.36848073339739068 -0.37517807712711049 0 0.36600013168445039 -0.36059477107615401 0 0.36805061276354478 -0.3427907498460791 0 0.36600013168445039 -0.36059477107615401 0 0.34679726984937148 -0.35193202586079081 0 0.37640125955739012 -0.35149107478397351 0 0.36805061276354478 -0.3427907498460791 0 0.36600013168445039 -0.36059477107615401 0 0.36600013168445039 -0.36059477107615401 0 0.34679726984937148 -0.35193202586079081 0 0.3554566368260581 -0.37480617727887811 0 0.34679726984937148 -0.35193202586079081 0 0.34537995690420659 -0.3737828605913362 0 0.3554566368260581 -0.37480617727887811 0 0.33323562740676532 -0.37769939737979058 0 0.33171275220581908 -0.35441984147836231 0 0.32002671755222051 -0.36641101040373808 0 0.33323562740676532 -0.37769939737979058 0 0.34679726984937148 -0.35193202586079081 0 0.33323562740676532 -0.37769939737979058 0 0.34679726984937148 -0.35193202586079081 0 0.34537995690420659 -0.3737828605913362 0 0.33323562740676532 -0.37769939737979058 0 0.34679726984937148 -0.35193202586079081 0 0.33171275220581908 -0.35441984147836231 0 0.34679726984937148 -0.35193202586079081 0 0.33171275220581908 -0.35441984147836231 0 0.3423644242317993 -0.33453707324987059 0 0.33171275220581908 -0.35441984147836231 0 0.32002671755222051 -0.36641101040373808 0 0.32582974995436148 -0.33939489422587321 0 0.32002671755222051 -0.36641101040373808 0 0.32582974995436148 -0.33939489422587321 0 0.31500009593534162 -0.35119999692538878 0 0.32002671755222051 -0.36641101040373808 0 0.32582974995436148 -0.33939489422587321 0 0.33163278235650262 -0.31237877804800812 0 0.32582974995436148 -0.33939489422587321 0 0.33163278235650262 -0.31237877804800812 0 0.3423644242317993 -0.33453707324987059 0 0.32582974995436148 -0.33939489422587321 0 0.33171275220581908 -0.35441984147836231 0 0.3423644242317993 -0.33453707324987059 0 0.32582974995436148 -0.33939489422587321 0 0.31500009593534162 -0.35119999692538878 0 0.32582974995436148 -0.33939489422587321 0 0.31041762281754448 -0.32833073988017608 0 0.33163278235650262 -0.31237877804800812 0 0.32582974995436148 -0.33939489422587321 0 0.31041762281754448 -0.32833073988017608 0 0.33163278235650262 -0.31237877804800812 0 0.31041762281754448 -0.32833073988017608 0 0.30954970221622308 -0.30462347215273478 0 0.31041762281754448 -0.32833073988017608 0 0.29592063247569211 -0.31558436997640987 0 0.30954970221622308 -0.30462347215273478 0 0.31041762281754448 -0.32833073988017608 0 0.29132656616613523 -0.33188180257029998 0 0.29592063247569211 -0.31558436997640987 0 0.31041762281754448 -0.32833073988017608 0 0.29132656616613523 -0.33188180257029998 0 0.29956578362214281 -0.35549229926055048 0 0.31041762281754448 -0.32833073988017608 0 0.29956578362214281 -0.35549229926055048 0 0.29132656616613523 -0.33188180257029998 0 0.28219501787468609 -0.34702129220438421 0 0.27282035448602859 -0.33554085100614839 0 0.29132656616613523 -0.33188180257029998 0 0.29592063247569211 -0.31558436997640987 0 0.27986439667319313 -0.31630171845149863 0 0.29132656616613523 -0.33188180257029998 0 0.27986439667319313 -0.31630171845149863 0 0.27282035448602859 -0.33554085100614839 0 0.30591552541026101 -0.37751124227982003 0 0.28871394442674109 -0.38265385864092483 0 0.29956578362214281 -0.35549229926055048 0 0.30591552541026101 -0.37751124227982003 0 0.32002671755222051 -0.36641101040373808 0 0.29956578362214281 -0.35549229926055048 0 0.31500009593534162 -0.35119999692538878 0 0.32002671755222051 -0.36641101040373808 0 0.29956578362214281 -0.35549229926055048 0 0.31500009593534162 -0.35119999692538878 0 0.31041762281754448 -0.32833073988017608 0 0.29956578362214281 -0.35549229926055048 0 0.29956578362214281 -0.35549229926055048 0 0.28219501787468609 -0.34702129220438421 0 0.27571190406721402 -0.36345127203525351 0 0.29132656616613523 -0.33188180257029998 0 0.29956578362214281 -0.35549229926055048 0 0.28219501787468609 -0.34702129220438421 0 0.28871394442674109 -0.38265385864092483 0 0.29956578362214281 -0.35549229926055048 0 0.27571190406721402 -0.36345127203525351 0 0.28871394442674109 -0.38265385864092483 0 0.29956578362214281 -0.35549229926055048 0 0.28219501787468609 -0.34702129220438421 0 0.27571190406721402 -0.36345127203525351 0 0.2669677564247489 -0.35003134695070198 0 0.28219501787468609 -0.34702129220438421 0 0.2669677564247489 -0.35003134695070198 0 0.27282035448602859 -0.33554085100614839 0 0.2669677564247489 -0.35003134695070198 0 0.2543981425525324 -0.33893914275967452 0 0.24971336314328341 -0.36520417674804972 0 0.2543981425525324 -0.33893914275967452 0 0.24971336314328341 -0.36520417674804972 0 0.26416245427686541 -0.38049931320234009 0 0.27571190406721402 -0.36345127203525351 0 0.24971336314328341 -0.36520417674804972 0 0.27571190406721402 -0.36345127203525351 0 0.2669677564247489 -0.35003134695070198 0 0.24971336314328341 -0.36520417674804972 0 0.27986439667319313 -0.31630171845149863 0 0.27282035448602859 -0.33554085100614839 0 0.27986439667319313 -0.31630171845149863 0 0.27282035448602859 -0.33554085100614839 0 0.2590829219617814 -0.31267410877129931 0 0.2669677564247489 -0.35003134695070198 0 0.27282035448602859 -0.33554085100614839 0 0.2543981425525324 -0.33893914275967452 0 0.27282035448602859 -0.33554085100614839 0 0.2543981425525324 -0.33893914275967452 0 0.2590829219617814 -0.31267410877129931 0 0.2543981425525324 -0.33893914275967452 0 0.2590829219617814 -0.31267410877129931 0 0.24087195768162309 -0.32614810142562012 0 0.2543981425525324 -0.33893914275967452 0 0.2590829219617814 -0.31267410877129931 0 0.2590829219617814 -0.31267410877129931 0 0.26376770137103039 -0.2864090747829241 0 0.27385105082646688 -0.29718155094811333 0 0.2590829219617814 -0.31267410877129931 0 0.26376770137103039 -0.2864090747829241 0 0.24821325608307901 -0.29522124281265988 0 0.2590829219617814 -0.31267410877129931 0 0.26376770137103039 -0.2864090747829241 0 0.26376770137103039 -0.2864090747829241 0 0.24785603391849151 -0.27709942466880599 0 0.24821325608307901 -0.29522124281265988 0 0.26376770137103039 -0.2864090747829241 0 0.27275834958840189 -0.28372268528309152 0 0.2724225943816766 -0.27409056785933389 0 0.26376770137103039 -0.2864090747829241 0 0.27275834958840189 -0.28372268528309152 0 0.27385105082646688 -0.29718155094811333 0 0.28072449650403741 -0.28691913250301798 0 0.27385105082646688 -0.29718155094811333 0 0.2869084388603575 -0.29706258589684881 0 0.27275834958840189 -0.28372268528309152 0 0.28072449650403741 -0.28691913250301798 0 0.27385105082646688 -0.29718155094811333 0 0.27275834958840189 -0.28372268528309152 0 0.28072449650403741 -0.28691913250301798 0 0.27996448038040939 -0.28063895974691061 0 0.27986439667319313 -0.31630171845149863 0 0.2590829219617814 -0.31267410877129931 0 0.27385105082646688 -0.29718155094811333 0 0.27986439667319313 -0.31630171845149863 0 0.27385105082646688 -0.29718155094811333 0 0.2869084388603575 -0.29706258589684881 0 0.27986439667319313 -0.31630171845149863 0 0.2869084388603575 -0.29706258589684881 0 0.29592063247569211 -0.31558436997640987 0 0.27986439667319313 -0.31630171845149863 0 0.2869084388603575 -0.29706258589684881 0 0.2869084388603575 -0.29706258589684881 0 0.30298021147195658 -0.29033858393126172 0 0.29395248104752192 -0.27782345334219888 0 0.28072449650403741 -0.28691913250301798 0 0.2869084388603575 -0.29706258589684881 0 0.29395248104752192 -0.27782345334219888 0 0.2869084388603575 -0.29706258589684881 0 0.29395248104752192 -0.27782345334219888 0 0.28072449650403741 -0.28691913250301798 0 0.29395248104752192 -0.27782345334219888 0 0.27996448038040939 -0.28063895974691061 0 0.31569414790308259 -0.28159305760617132 0 0.30298021147195658 -0.29033858393126172 0 0.29395248104752192 -0.27782345334219888 0 0.31296692944630888 -0.29314018565426941 0 0.31569414790308259 -0.28159305760617132 0 0.30298021147195658 -0.29033858393126172 0 0.31296692944630888 -0.29314018565426941 0 0.30298021147195658 -0.29033858393126172 0 0.30954970221622308 -0.30462347215273478 0 0.2869084388603575 -0.29706258589684881 0 0.30298021147195658 -0.29033858393126172 0 0.30954970221622308 -0.30462347215273478 0 0.29592063247569211 -0.31558436997640987 0 0.2869084388603575 -0.29706258589684881 0 0.30954970221622308 -0.30462347215273478 0 0.30517917142926537 -0.24716040808135001 0 0.31054181011664339 -0.26140137874582919 0 0.2976408850071105 -0.26774945168120262 0 0.30517917142926537 -0.24716040808135001 0 0.2976408850071105 -0.26774945168120262 0 0.31275786215232049 -0.27168837282467972 0 0.2976408850071105 -0.26774945168120262 0 0.29395248104752192 -0.27782345334219888 0 0.31275786215232049 -0.27168837282467972 0 0.2976408850071105 -0.26774945168120262 0 0.31275786215232049 -0.27168837282467972 0 0.31054181011664339 -0.26140137874582919 0 0.2976408850071105 -0.26774945168120262 0 0.31569414790308259 -0.28159305760617132 0 0.29395248104752192 -0.27782345334219888 0 0.31569414790308259 -0.28159305760617132 0 0.31275786215232049 -0.27168837282467972 0 0.29395248104752192 -0.27782345334219888 0 0.2976408850071105 -0.26774945168120262 0 0.28600938745522969 -0.26471871668720698 0 0.2976408850071105 -0.26774945168120262 0 0.29395248104752192 -0.27782345334219888 0 0.29395248104752192 -0.27782345334219888 0 0.27996448038040939 -0.28063895974691061 0 0.2724225943816766 -0.27409056785933389 0 0.29395248104752192 -0.27782345334219888 0 0.28600938745522969 -0.26471871668720698 0 0.27658132089261911 -0.27335422882897692 0 0.2976408850071105 -0.26774945168120262 0 0.29395248104752192 -0.27782345334219888 0 0.28600938745522969 -0.26471871668720698 0 0.29395248104752192 -0.27782345334219888 0 0.2724225943816766 -0.27409056785933389 0 0.28600938745522969 -0.26471871668720698 0 0.27658132089261911 -0.27335422882897692 0 0.30517917142926537 -0.24716040808135001 0 0.28600938745522969 -0.26471871668720698 0 0.30517917142926537 -0.24716040808135001 0 0.2976408850071105 -0.26774945168120262 0 0.28600938745522969 -0.26471871668720698 0 0.30517917142926537 -0.24716040808135001 0 0.28765229627979871 -0.24304032400626949 0 0.28600938745522969 -0.26471871668720698 0 0.28600938745522969 -0.26471871668720698 0 0.26845248078028039 -0.26014404079454911 0 0.28765229627979871 -0.24304032400626949 0 0.28600938745522969 -0.26471871668720698 0 0.26845248078028039 -0.26014404079454911 0 0.26376770137103039 -0.2864090747829241 0 0.26845248078028039 -0.26014404079454911 0 0.2724225943816766 -0.27409056785933389 0 0.28600938745522969 -0.26471871668720698 0 0.26845248078028039 -0.26014404079454911 0 0.27658132089261911 -0.27335422882897692 0 0.26376770137103039 -0.2864090747829241 0 0.26845248078028039 -0.26014404079454911 0 0.29395248104752192 -0.27782345334219888 0 0.27658132089261911 -0.27335422882897692 0 0.2724225943816766 -0.27409056785933389 0 0.27275834958840189 -0.28372268528309152 0 0.27996448038040939 -0.28063895974691061 0 0.2724225943816766 -0.27409056785933389 0 0.26845248078028039 -0.26014404079454911 0 0.27658132089261911 -0.27335422882897692 0 0.2724225943816766 -0.27409056785933389 0 0.26376770137103039 -0.2864090747829241 0 0.26845248078028039 -0.26014404079454911 0 0.24785603391849151 -0.27709942466880599 0 0.26845248078028039 -0.26014404079454911 0 0.2410490216361528 -0.25300372010805161 0 0.26845248078028039 -0.26014404079454911 0 0.2410490216361528 -0.25300372010805161 0 0.24785603391849151 -0.27709942466880599 0 0.25787859859726192 -0.24372773219337371 0 0.26845248078028039 -0.26014404079454911 0 0.2410490216361528 -0.25300372010805161 0 0.2410490216361528 -0.25300372010805161 0 0.24785603391849151 -0.27709942466880599 0 0.23139485578507429 -0.27647983237136509 0 0.23139485578507429 -0.27647983237136509 0 0.2171028506536257 -0.26700629366950379 0 0.21674952071488601 -0.28686299221921707 0 0.2410490216361528 -0.25300372010805161 0 0.23139485578507429 -0.27647983237136509 0 0.2171028506536257 -0.26700629366950379 0 0.2410490216361528 -0.25300372010805161 0 0.2171028506536257 -0.26700629366950379 0 0.2136455624920251 -0.24586339942155419 0 0.2171028506536257 -0.26700629366950379 0 0.1960217485778272 -0.26205501631648559 0 0.2136455624920251 -0.24586339942155419 0 0.2171028506536257 -0.26700629366950379 0 0.2037572178097509 -0.27803645254629672 0 0.1960217485778272 -0.26205501631648559 0 0.2171028506536257 -0.26700629366950379 0 0.2037572178097509 -0.27803645254629672 0 0.21674952071488601 -0.28686299221921707 0 0.2037572178097509 -0.27803645254629672 0 0.1960217485778272 -0.26205501631648559 0 0.18672217274589489 -0.28463667424064248 0 0.1960217485778272 -0.26205501631648559 0 0.2136455624920251 -0.24586339942155419 0 0.1970165427207646 -0.2431475676051908 0 0.1960217485778272 -0.26205501631648559 0 0.1970165427207646 -0.2431475676051908 0 0.18013525364959199 -0.24590787480667409 0 0.19163287831415901 -0.30538761534618902 0 0.20219697373587131 -0.29192032270869461 0 0.2153952098199983 -0.30425933719731207 0 0.2037572178097509 -0.27803645254629672 0 0.20219697373587131 -0.29192032270869461 0 0.18672217274589489 -0.28463667424064248 0 0.19163287831415901 -0.30538761534618902 0 0.20219697373587131 -0.29192032270869461 0 0.18672217274589489 -0.28463667424064248 0 0.20219697373587131 -0.29192032270869461 0 0.21674952071488601 -0.28686299221921707 0 0.2153952098199983 -0.30425933719731207 0 0.2037572178097509 -0.27803645254629672 0 0.20219697373587131 -0.29192032270869461 0 0.21674952071488601 -0.28686299221921707 0 0.19163287831415901 -0.30538761534618902 0 0.2153952098199983 -0.30425933719731207 0 0.20381788977078771 -0.32236963909420019 0 0.2153952098199983 -0.30425933719731207 0 0.2333373149176502 -0.29099433783704243 0 0.2370223082464416 -0.30892926800322767 0 0.2153952098199983 -0.30425933719731207 0 0.2370223082464416 -0.30892926800322767 0 0.22300958304019269 -0.32335118517261402 0 0.21674952071488601 -0.28686299221921707 0 0.2153952098199983 -0.30425933719731207 0 0.2333373149176502 -0.29099433783704243 0 0.23139485578507429 -0.27647983237136509 0 0.21674952071488601 -0.28686299221921707 0 0.2333373149176502 -0.29099433783704243 0 0.24785603391849151 -0.27709942466880599 0 0.2333373149176502 -0.29099433783704243 0 0.24821325608307901 -0.29522124281265988 0 0.24785603391849151 -0.27709942466880599 0 0.23139485578507429 -0.27647983237136509 0 0.2333373149176502 -0.29099433783704243 0 0.2333373149176502 -0.29099433783704243 0 0.24821325608307901 -0.29522124281265988 0 0.2370223082464416 -0.30892926800322767 0 0.2590829219617814 -0.31267410877129931 0 0.24821325608307901 -0.29522124281265988 0 0.2370223082464416 -0.30892926800322767 0 0.2590829219617814 -0.31267410877129931 0 0.2370223082464416 -0.30892926800322767 0 0.24087195768162309 -0.32614810142562012 0 0.2543981425525324 -0.33893914275967452 0 0.24087195768162309 -0.32614810142562012 0 0.2308468326071676 -0.34684680242128502 0 0.24087195768162309 -0.32614810142562012 0 0.22300958304019269 -0.32335118517261402 0 0.2308468326071676 -0.34684680242128502 0 0.22300958304019269 -0.32335118517261402 0 0.2308468326071676 -0.34684680242128502 0 0.21275128108028149 -0.33749920242868869 0 0.2370223082464416 -0.30892926800322767 0 0.24087195768162309 -0.32614810142562012 0 0.22300958304019269 -0.32335118517261402 0 0.24971336314328341 -0.36520417674804972 0 0.2308468326071676 -0.34684680242128502 0 0.229200177642885 -0.36995291413531828 0 0.2543981425525324 -0.33893914275967452 0 0.24971336314328341 -0.36520417674804972 0 0.2308468326071676 -0.34684680242128502 0 0.229200177642885 -0.36995291413531828 0 0.20725651587090471 -0.36571099534901208 0 0.22031030243082139 -0.38906492162812378 0 0.2308468326071676 -0.34684680242128502 0 0.229200177642885 -0.36995291413531828 0 0.20725651587090471 -0.36571099534901208 0 0.2308468326071676 -0.34684680242128502 0 0.20725651587090471 -0.36571099534901208 0 0.21275128108028149 -0.33749920242868869 0 0.20725651587090471 -0.36571099534901208 0 0.21275128108028149 -0.33749920242868869 0 0.194202729310988 -0.34235706906990038 0 0.20725651587090471 -0.36571099534901208 0 0.194202729310988 -0.34235706906990038 0 0.180238718969634 -0.3612454971324468 0 0.20725651587090471 -0.36571099534901208 0 0.194202729310988 -0.34235706906990038 0 0.20725651587090471 -0.36571099534901208 0 0.19261827162763251 -0.374541644607297 0 0.180238718969634 -0.3612454971324468 0 0.22300958304019269 -0.32335118517261402 0 0.20381788977078771 -0.32236963909420019 0 0.21275128108028149 -0.33749920242868869 0 0.2153952098199983 -0.30425933719731207 0 0.22300958304019269 -0.32335118517261402 0 0.20381788977078771 -0.32236963909420019 0 0.20381788977078771 -0.32236963909420019 0 0.21275128108028149 -0.33749920242868869 0 0.194202729310988 -0.34235706906990038 0 0.20381788977078771 -0.32236963909420019 0 0.194202729310988 -0.34235706906990038 0 0.18384400034678741 -0.32250280289756078 0 0.19163287831415901 -0.30538761534618902 0 0.20381788977078771 -0.32236963909420019 0 0.18384400034678741 -0.32250280289756078 0 0.18384400034678741 -0.32250280289756078 0 0.17702055828029431 -0.33666004199980942 0 0.15719449589681389 -0.32866913917705798 0 0.194202729310988 -0.34235706906990038 0 0.18384400034678741 -0.32250280289756078 0 0.17702055828029431 -0.33666004199980942 0 0.15719449589681389 -0.32866913917705798 0 0.16581699513551909 -0.35306125248096398 0 0.17702055828029431 -0.33666004199980942 0 0.15719449589681389 -0.32866913917705798 0 0.16581699513551909 -0.35306125248096398 0 0.18384400034678741 -0.32250280289756078 0 0.15719449589681389 -0.32866913917705798 0 0.17186855286937899 -0.30453082832045192 0 0.180238718969634 -0.3612454971324468 0 0.1834568796589737 -0.38583095226508418 0 0.17443949437422429 -0.37745336578486988 0 0.180238718969634 -0.3612454971324468 0 0.16581699513551909 -0.35306125248096398 0 0.17443949437422429 -0.37745336578486988 0 0.180238718969634 -0.3612454971324468 0 0.1834568796589737 -0.38583095226508418 0 0.19261827162763251 -0.374541644607297 0 0.180238718969634 -0.3612454971324468 0 0.1834568796589737 -0.38583095226508418 0 0.17702055828029431 -0.33666004199980942 0 0.180238718969634 -0.3612454971324468 0 0.16581699513551909 -0.35306125248096398 0 0.17702055828029431 -0.33666004199980942 0 0.180238718969634 -0.3612454971324468 0 0.194202729310988 -0.34235706906990038 0 0.17702055828029431 -0.33666004199980942 0 0.180238718969634 -0.3612454971324468 0 0.16581699513551909 -0.35306125248096398 0 0.1602354860011011 -0.36875954027416918 0 0.14952990885070691 -0.36034775620209553 0 0.16581699513551909 -0.35306125248096398 0 0.17443949437422429 -0.37745336578486988 0 0.16581699513551909 -0.35306125248096398 0 0.1602354860011011 -0.36875954027416918 0 0.17443949437422429 -0.37745336578486988 0 0.1602354860011011 -0.36875954027416918 0 0.14673951295096799 -0.37363029079717242 0 0.14952990885070691 -0.36034775620209553 0 0.16581699513551909 -0.35306125248096398 0 0.14952990885070691 -0.36034775620209553 0 0.144826286403443 -0.34676284914488159 0 0.14952990885070691 -0.36034775620209553 0 0.144826286403443 -0.34676284914488159 0 0.12334710111447229 -0.36406834251145731 0 0.144826286403443 -0.34676284914488159 0 0.12334710111447229 -0.36406834251145731 0 0.144826286403443 -0.34676284914488159 0 0.12334710111447229 -0.36406834251145731 0 0.11573058637367541 -0.34380091622275832 0 0.13273239812562251 -0.3803535413873157 0 0.1208593498238435 -0.38006314209191833 0 0.12334710111447229 -0.36406834251145731 0 0.14673951295096799 -0.37363029079717242 0 0.14952990885070691 -0.36034775620209553 0 0.12334710111447229 -0.36406834251145731 0 0.14673951295096799 -0.37363029079717242 0 0.13273239812562251 -0.3803535413873157 0 0.12334710111447229 -0.36406834251145731 0 0.15719449589681389 -0.32866913917705798 0 0.13978194378111039 -0.33004063130878142 0 0.14857199665810869 -0.30427702587315197 0 0.15719449589681389 -0.32866913917705798 0 0.14857199665810869 -0.30427702587315197 0 0.15719449589681389 -0.32866913917705798 0 0.144826286403443 -0.34676284914488159 0 0.13978194378111039 -0.33004063130878142 0 0.15719449589681389 -0.32866913917705798 0 0.16581699513551909 -0.35306125248096398 0 0.144826286403443 -0.34676284914488159 0 0.13978194378111039 -0.33004063130878142 0 0.1249111379911398 -0.32186001205002218 0 0.11573058637367541 -0.34380091622275832 0 0.144826286403443 -0.34676284914488159 0 0.13978194378111039 -0.33004063130878142 0 0.11573058637367541 -0.34380091622275832 0 0.13978194378111039 -0.33004063130878142 0 0.14857199665810869 -0.30427702587315197 0 0.1249111379911398 -0.32186001205002218 0 0.14857199665810869 -0.30427702587315197 0 0.13584279120622419 -0.29064916595208462 0 0.1212075847983899 -0.30357596212866123 0 0.14857199665810869 -0.30427702587315197 0 0.1212075847983899 -0.30357596212866123 0 0.1249111379911398 -0.32186001205002218 0 0.14857199665810869 -0.30427702587315197 0 0.14941647374314521 -0.28066083506566319 0 0.1659314811884508 -0.28303851802095531 0 0.14857199665810869 -0.30427702587315197 0 0.13584279120622419 -0.29064916595208462 0 0.14941647374314521 -0.28066083506566319 0 0.13554841089854469 -0.28148943716570812 0 0.13584279120622419 -0.29064916595208462 0 0.14941647374314521 -0.28066083506566319 0 0.13554841089854469 -0.28148943716570812 0 0.13584279120622419 -0.29064916595208462 0 0.1176113560141319 -0.2851589593963586 0 0.1376178273856396 -0.2676878026278281 0 0.13932302263067731 -0.26948878824872591 0 0.1176113560141319 -0.2851589593963586 0 0.13554841089854469 -0.28148943716570812 0 0.13932302263067731 -0.26948878824872591 0 0.1176113560141319 -0.2851589593963586 0 0.13932302263067731 -0.26948878824872591 0 0.1176113560141319 -0.2851589593963586 0 0.1376178273856396 -0.2676878026278281 0 0.1200034520355143 -0.24749468667538321 0 0.1376178273856396 -0.2676878026278281 0 0.1200034520355143 -0.24749468667538321 0 0.1412434604122122 -0.24631040783256791 0 0.1376178273856396 -0.2676878026278281 0 0.16103468924722281 -0.25381861710109321 0 0.1412434604122122 -0.24631040783256791 0 0.1376178273856396 -0.2676878026278281 0 0.13932302263067731 -0.26948878824872591 0 0.16103468924722281 -0.25381861710109321 0 0.13932302263067731 -0.26948878824872591 0 0.16103468924722281 -0.25381861710109321 0 0.13932302263067731 -0.26948878824872591 0 0.14941647374314521 -0.28066083506566319 0 0.16103468924722281 -0.25381861710109321 0 0.13554841089854469 -0.28148943716570812 0 0.13932302263067731 -0.26948878824872591 0 0.14941647374314521 -0.28066083506566319 0 0.14941647374314521 -0.28066083506566319 0 0.16103468924722281 -0.25381861710109321 0 0.1659314811884508 -0.28303851802095531 0 0.16103468924722281 -0.25381861710109321 0 0.1779690690817976 -0.26589134009717008 0 0.1659314811884508 -0.28303851802095531 0 0.16103468924722281 -0.25381861710109321 0 0.1779690690817976 -0.26589134009717008 0 0.18013525364959199 -0.24590787480667409 0 0.1960217485778272 -0.26205501631648559 0 0.1779690690817976 -0.26589134009717008 0 0.18013525364959199 -0.24590787480667409 0 0.1960217485778272 -0.26205501631648559 0 0.1779690690817976 -0.26589134009717008 0 0.18672217274589489 -0.28463667424064248 0 0.1779690690817976 -0.26589134009717008 0 0.18672217274589489 -0.28463667424064248 0 0.1659314811884508 -0.28303851802095531 0 0.18672217274589489 -0.28463667424064248 0 0.17186855286937899 -0.30453082832045192 0 0.1659314811884508 -0.28303851802095531 0 0.19163287831415901 -0.30538761534618902 0 0.18384400034678741 -0.32250280289756078 0 0.17186855286937899 -0.30453082832045192 0 0.19163287831415901 -0.30538761534618902 0 0.18672217274589489 -0.28463667424064248 0 0.17186855286937899 -0.30453082832045192 0 0.14857199665810869 -0.30427702587315197 0 0.17186855286937899 -0.30453082832045192 0 0.1659314811884508 -0.28303851802095531 0 0.15719449589681389 -0.32866913917705798 0 0.14857199665810869 -0.30427702587315197 0 0.17186855286937899 -0.30453082832045192 0 0.27004646425256568 -0.5 0 0.19840125792562099 -0.499999999999995 0 0.2258071254777905 -0.47806137695806639 0 0.19840125792562099 -0.499999999999995 0 0.1955652389629654 -0.47833395417678298 0 0.19840125792562099 -0.499999999999995 0 0.1955652389629654 -0.47833395417678298 0 0.1857239970351309 -0.48926605560099218 0 0.1955652389629654 -0.47833395417678298 0 0.2258071254777905 -0.47806137695806639 0 0.20496909670773639 -0.46039718082621561 0 0.19840125792562099 -0.499999999999995 0 0.1955652389629654 -0.47833395417678298 0 0.2258071254777905 -0.47806137695806639 0 0.2532296876789632 -0.47497352743918242 0 0.27004646425256568 -0.5 0 0.2258071254777905 -0.47806137695806639 0 0.2532296876789632 -0.47497352743918242 0 0.2258071254777905 -0.47806137695806639 0 0.23317765179809191 -0.45416130837427687 0 0.2258071254777905 -0.47806137695806639 0 0.23317765179809191 -0.45416130837427687 0 0.20496909670773639 -0.46039718082621561 0 0.23317765179809191 -0.45416130837427687 0 0.20496909670773639 -0.46039718082621561 0 0.26339579246569877 -0.46312143350125029 0 0.2532296876789632 -0.47497352743918242 0 0.23317765179809191 -0.45416130837427687 0 0.26138620688844749 -0.44792543592233808 0 0.2518592606704963 -0.43815060111373921 0 0.23317765179809191 -0.45416130837427687 0 0.26138620688844749 -0.44792543592233808 0 0.23317765179809191 -0.45416130837427687 0 0.2518592606704963 -0.43815060111373921 0 0.23317765179809191 -0.45416130837427687 0 0.24161391479158839 -0.43048581688246368 0 0.23317765179809191 -0.45416130837427687 0 0.21274467024756119 -0.44537306322652892 0 0.22596778666418391 -0.43195218695593612 0 0.23317765179809191 -0.45416130837427687 0 0.22596778666418391 -0.43195218695593612 0 0.24161391479158839 -0.43048581688246368 0 0.20738663592967541 -0.43977689630152639 0 0.21274467024756119 -0.44537306322652892 0 0.21231789143938981 -0.43260924517595267 0 0.20738663592967541 -0.43977689630152639 0 0.20306963394956029 -0.44528763306514119 0 0.2014143480821905 -0.43583764373848299 0 0.20738663592967541 -0.43977689630152639 0 0.21274467024756119 -0.44537306322652892 0 0.20306963394956029 -0.44528763306514119 0 0.21274467024756119 -0.44537306322652892 0 0.20306963394956029 -0.44528763306514119 0 0.20202636709778779 -0.45196992376671852 0 0.21274467024756119 -0.44537306322652892 0 0.20496909670773639 -0.46039718082621561 0 0.20202636709778779 -0.45196992376671852 0 0.23317765179809191 -0.45416130837427687 0 0.21274467024756119 -0.44537306322652892 0 0.20496909670773639 -0.46039718082621561 0 0.1955652389629654 -0.47833395417678298 0 0.20496909670773639 -0.46039718082621561 0 0.1927292200003092 -0.45666790835357102 0 0.1955652389629654 -0.47833395417678298 0 0.1927292200003092 -0.45666790835357102 0 0.1955652389629654 -0.47833395417678298 0 0.19047701204926121 -0.46094242075341862 0 0.1927292200003092 -0.45666790835357102 0 0.20496909670773639 -0.46039718082621561 0 0.1927292200003092 -0.45666790835357102 0 0.20202636709778779 -0.45196992376671852 0 0.19047701204926121 -0.46094242075341862 0 0.1927292200003092 -0.45666790835357102 0 0.1876592352144193 -0.45673372923780892 0 0.1927292200003092 -0.45666790835357102 0 0.1876592352144193 -0.45673372923780892 0 0.18777566972406101 -0.44981142861604279 0 0.1927292200003092 -0.45666790835357102 0 0.19595067699787469 -0.4453334870477933 0 0.18989320103765239 -0.43500186253035911 0 0.1927292200003092 -0.45666790835357102 0 0.18989320103765239 -0.43500186253035911 0 0.1927292200003092 -0.45666790835357102 0 0.18777566972406101 -0.44981142861604279 0 0.18989320103765239 -0.43500186253035911 0 0.19521760998379711 -0.43854214036159178 0 0.19595067699787469 -0.4453334870477933 0 0.1916906899727929 -0.43609695451772118 0 0.19595067699787469 -0.4453334870477933 0 0.1916906899727929 -0.43609695451772118 0 0.18989320103765239 -0.43500186253035911 0 0.19521760998379711 -0.43854214036159178 0 0.19821003569121751 -0.44088076654097252 0 0.19595067699787469 -0.4453334870477933 0 0.19821003569121751 -0.44088076654097252 0 0.20306963394956029 -0.44528763306514119 0 0.19595067699787469 -0.4453334870477933 0 0.19821003569121751 -0.44088076654097252 0 0.20306963394956029 -0.44528763306514119 0 0.2014143480821905 -0.43583764373848299 0 0.19521760998379711 -0.43854214036159178 0 0.19821003569121751 -0.44088076654097252 0 0.19632921389935129 -0.43529695882979857 0 0.20306963394956029 -0.44528763306514119 0 0.20202636709778779 -0.45196992376671852 0 0.19595067699787469 -0.4453334870477933 0 0.1927292200003092 -0.45666790835357102 0 0.20202636709778779 -0.45196992376671852 0 0.19595067699787469 -0.4453334870477933 0 0.18989320103765239 -0.43500186253035911 0 0.193210065479164 -0.42351508711829272 0 0.18667504034831339 -0.41041640739772162 0 0.18989320103765239 -0.43500186253035911 0 0.18667504034831339 -0.41041640739772162 0 0.1973860855611401 -0.42692030526330021 0 0.193210065479164 -0.42351508711829272 0 0.19846083006015189 -0.42045811652912207 0 0.1973860855611401 -0.42692030526330021 0 0.19846083006015189 -0.42045811652912207 0 0.20326441538295181 -0.42746054266679712 0 0.1973860855611401 -0.42692030526330021 0 0.19826447490927249 -0.43151164360587502 0 0.20326441538295181 -0.42746054266679712 0 0.2014143480821905 -0.43583764373848299 0 0.19826447490927249 -0.43151164360587502 0 0.20326441538295181 -0.42746054266679712 0 0.19821003569121751 -0.44088076654097252 0 0.2014143480821905 -0.43583764373848299 0 0.19632921389935129 -0.43529695882979857 0 0.2014143480821905 -0.43583764373848299 0 0.19632921389935129 -0.43529695882979857 0 0.19826447490927249 -0.43151164360587502 0 0.19632921389935129 -0.43529695882979857 0 0.19826447490927249 -0.43151164360587502 0 0.1929283116207289 -0.43204276753099607 0 0.1973860855611401 -0.42692030526330021 0 0.19826447490927249 -0.43151164360587502 0 0.1929283116207289 -0.43204276753099607 0 0.1929283116207289 -0.43204276753099607 0 0.18989320103765239 -0.43500186253035911 0 0.193210065479164 -0.42351508711829272 0 0.19521760998379711 -0.43854214036159178 0 0.19632921389935129 -0.43529695882979857 0 0.19377820557052011 -0.43520734882518619 0 0.19521760998379711 -0.43854214036159178 0 0.19377820557052011 -0.43520734882518619 0 0.1916906899727929 -0.43609695451772118 0 0.19632921389935129 -0.43529695882979857 0 0.1929283116207289 -0.43204276753099607 0 0.19377820557052011 -0.43520734882518619 0 0.1929283116207289 -0.43204276753099607 0 0.19210490899723079 -0.4345610298626873 0 0.18989320103765239 -0.43500186253035911 0 0.19377820557052011 -0.43520734882518619 0 0.19210490899723079 -0.4345610298626873 0 0.1916906899727929 -0.43609695451772118 0 0.1929283116207289 -0.43204276753099607 0 0.19377820557052011 -0.43520734882518619 0 0.19210490899723079 -0.4345610298626873 0 0.1916906899727929 -0.43609695451772118 0 0.18989320103765239 -0.43500186253035911 0 0.19210490899723079 -0.4345610298626873 0 0.1916906899727929 -0.43609695451772118 0 0.18989320103765239 -0.43500186253035911 0 0.1973860855611401 -0.42692030526330021 0 0.1929283116207289 -0.43204276753099607 0 0.193210065479164 -0.42351508711829272 0 0.193210065479164 -0.42351508711829272 0 0.1939169242469973 -0.41625106345825691 0 0.18667504034831339 -0.41041640739772162 0 0.193210065479164 -0.42351508711829272 0 0.1939169242469973 -0.41625106345825691 0 0.19846083006015189 -0.42045811652912207 0 0.1968341740193896 -0.41150644481021997 0 0.19418069224578771 -0.40518464808912641 0 0.18667504034831339 -0.41041640739772162 0 0.1939169242469973 -0.41625106345825691 0 0.1968341740193896 -0.41150644481021997 0 0.18667504034831339 -0.41041640739772162 0 0.1968341740193896 -0.41150644481021997 0 0.20469814770209749 -0.41520386531910081 0 0.20485234226760879 -0.40188257102108682 0 0.19846083006015189 -0.42045811652912207 0 0.20469814770209749 -0.41520386531910081 0 0.20326441538295181 -0.42746054266679712 0 0.1939169242469973 -0.41625106345825691 0 0.1968341740193896 -0.41150644481021997 0 0.19846083006015189 -0.42045811652912207 0 0.1968341740193896 -0.41150644481021997 0 0.19846083006015189 -0.42045811652912207 0 0.20469814770209749 -0.41520386531910081 0 0.20469814770209749 -0.41520386531910081 0 0.21626227209603979 -0.41615869782113413 0 0.20326441538295181 -0.42746054266679712 0 0.20469814770209749 -0.41520386531910081 0 0.21626227209603979 -0.41615869782113413 0 0.20485234226760879 -0.40188257102108682 0 0.21626227209603979 -0.41615869782113413 0 0.20326441538295181 -0.42746054266679712 0 0.21231789143938981 -0.43260924517595267 0 0.21626227209603979 -0.41615869782113413 0 0.21231789143938981 -0.43260924517595267 0 0.22596778666418391 -0.43195218695593612 0 0.20738663592967541 -0.43977689630152639 0 0.2014143480821905 -0.43583764373848299 0 0.21231789143938981 -0.43260924517595267 0 0.2014143480821905 -0.43583764373848299 0 0.20326441538295181 -0.42746054266679712 0 0.21231789143938981 -0.43260924517595267 0 0.21274467024756119 -0.44537306322652892 0 0.21231789143938981 -0.43260924517595267 0 0.22596778666418391 -0.43195218695593612 0 0.22596778666418391 -0.43195218695593612 0 0.24161391479158839 -0.43048581688246368 0 0.2333640889907381 -0.41241884790723538 0 0.25610826383841628 -0.42120346698794331 0 0.2518592606704963 -0.43815060111373921 0 0.24161391479158839 -0.43048581688246368 0 0.25610826383841628 -0.42120346698794331 0 0.24161391479158839 -0.43048581688246368 0 0.2333640889907381 -0.41241884790723538 0 0.21626227209603979 -0.41615869782113413 0 0.22596778666418391 -0.43195218695593612 0 0.2333640889907381 -0.41241884790723538 0 0.2333640889907381 -0.41241884790723538 0 0.24502858373403441 -0.39146921073642488 0 0.22031030243082139 -0.38906492162812378 0 0.21626227209603979 -0.41615869782113413 0 0.2333640889907381 -0.41241884790723538 0 0.22031030243082139 -0.38906492162812378 0 0.2333640889907381 -0.41241884790723538 0 0.22031030243082139 -0.38906492162812378 0 0.26125098829365018 -0.39969694482297641 0 0.2333640889907381 -0.41241884790723538 0 0.24502858373403441 -0.39146921073642488 0 0.24971336314328341 -0.36520417674804972 0 0.24502858373403441 -0.39146921073642488 0 0.24971336314328341 -0.36520417674804972 0 0.229200177642885 -0.36995291413531828 0 0.24502858373403441 -0.39146921073642488 0 0.229200177642885 -0.36995291413531828 0 0.24502858373403441 -0.39146921073642488 0 0.22031030243082139 -0.38906492162812378 0 0.20725651587090471 -0.36571099534901208 0 0.22031030243082139 -0.38906492162812378 0 0.19952097201101759 -0.38537913368264481 0 0.20725651587090471 -0.36571099534901208 0 0.22031030243082139 -0.38906492162812378 0 0.21626227209603979 -0.41615869782113413 0 0.22031030243082139 -0.38906492162812378 0 0.20485234226760879 -0.40188257102108682 0 0.22031030243082139 -0.38906492162812378 0 0.20485234226760879 -0.40188257102108682 0 0.19952097201101759 -0.38537913368264481 0 0.20485234226760879 -0.40188257102108682 0 0.19159455078491761 -0.39726910731705511 0 0.19952097201101759 -0.38537913368264481 0 0.1968341740193896 -0.41150644481021997 0 0.20485234226760879 -0.40188257102108682 0 0.19418069224578771 -0.40518464808912641 0 0.20485234226760879 -0.40188257102108682 0 0.19418069224578771 -0.40518464808912641 0 0.19159455078491761 -0.39726910731705511 0 0.19418069224578771 -0.40518464808912641 0 0.19159455078491761 -0.39726910731705511 0 0.18667504034831339 -0.41041640739772162 0 0.20725651587090471 -0.36571099534901208 0 0.19261827162763251 -0.374541644607297 0 0.19952097201101759 -0.38537913368264481 0 0.19261827162763251 -0.374541644607297 0 0.19952097201101759 -0.38537913368264481 0 0.1834568796589737 -0.38583095226508418 0 0.19159455078491761 -0.39726910731705511 0 0.19952097201101759 -0.38537913368264481 0 0.1834568796589737 -0.38583095226508418 0 0.17443949437422429 -0.37745336578486988 0 0.18306199361292941 -0.40184547908877583 0 0.1834568796589737 -0.38583095226508418 0 0.17443949437422429 -0.37745336578486988 0 0.18306199361292941 -0.40184547908877583 0 0.17443949437422429 -0.37745336578486988 0 0.18306199361292941 -0.40184547908877583 0 0.1699565165384864 -0.39219147373696051 0 0.19159455078491761 -0.39726910731705511 0 0.1834568796589737 -0.38583095226508418 0 0.18667504034831339 -0.41041640739772162 0 0.1834568796589737 -0.38583095226508418 0 0.18667504034831339 -0.41041640739772162 0 0.1834568796589737 -0.38583095226508418 0 0.18306199361292941 -0.40184547908877583 0 0.18667504034831339 -0.41041640739772162 0 0.18306199361292941 -0.40184547908877583 0 0.1699565165384864 -0.39219147373696051 0 0.17103987791038719 -0.40450309618882169 0 0.18306199361292941 -0.40184547908877583 0 0.17103987791038719 -0.40450309618882169 0 0.1814131781600461 -0.40758752999736902 0 0.1699565165384864 -0.39219147373696051 0 0.17103987791038719 -0.40450309618882169 0 0.15993177942481909 -0.39557864441750712 0 0.17103987791038719 -0.40450309618882169 0 0.15993177942481909 -0.39557864441750712 0 0.14638679418839309 -0.40849626541203388 0 0.1699565165384864 -0.39219147373696051 0 0.15993177942481909 -0.39557864441750712 0 0.1595700277473481 -0.38298567724053401 0 0.17443949437422429 -0.37745336578486988 0 0.1699565165384864 -0.39219147373696051 0 0.1595700277473481 -0.38298567724053401 0 0.1602354860011011 -0.36875954027416918 0 0.17443949437422429 -0.37745336578486988 0 0.1595700277473481 -0.38298567724053401 0 0.1602354860011011 -0.36875954027416918 0 0.14673951295096799 -0.37363029079717242 0 0.1595700277473481 -0.38298567724053401 0 0.14673951295096799 -0.37363029079717242 0 0.1595700277473481 -0.38298567724053401 0 0.14586341328622179 -0.39002728499933198 0 0.14673951295096799 -0.37363029079717242 0 0.14586341328622179 -0.39002728499933198 0 0.13273239812562251 -0.3803535413873157 0 0.15993177942481909 -0.39557864441750712 0 0.1595700277473481 -0.38298567724053401 0 0.14586341328622179 -0.39002728499933198 0 0.14586341328622179 -0.39002728499933198 0 0.13273239812562251 -0.3803535413873157 0 0.12412735500694751 -0.39493505064503392 0 0.13273239812562251 -0.3803535413873157 0 0.12412735500694751 -0.39493505064503392 0 0.1208593498238435 -0.38006314209191833 0 0.14586341328622179 -0.39002728499933198 0 0.14638679418839309 -0.40849626541203388 0 0.12412735500694751 -0.39493505064503392 0 0.14638679418839309 -0.40849626541203388 0 0.1185943653130178 -0.41089393958744808 0 0.12412735500694751 -0.39493505064503392 0 0.14638679418839309 -0.40849626541203388 0 0.12412735500694751 -0.39493505064503392 0 0.15993177942481909 -0.39557864441750712 0 0.14586341328622179 -0.39002728499933198 0 0.14638679418839309 -0.40849626541203388 0 0.14638679418839309 -0.40849626541203388 0 0.12945713117598301 -0.42527718494859718 0 0.1185943653130178 -0.41089393958744808 0 0.12945713117598301 -0.42527718494859718 0 0.1521605439778134 -0.43517333823265708 0 0.13567485458578729 -0.448289196286278 0 0.14638679418839309 -0.40849626541203388 0 0.12945713117598301 -0.42527718494859718 0 0.1521605439778134 -0.43517333823265708 0 0.14638679418839309 -0.40849626541203388 0 0.1521605439778134 -0.43517333823265708 0 0.16864623336983819 -0.42205748017903449 0 0.1521605439778134 -0.43517333823265708 0 0.16864623336983819 -0.42205748017903449 0 0.1521605439778134 -0.43517333823265708 0 0.16864623336983819 -0.42205748017903449 0 0.16573483381671769 -0.43911683261624462 0 0.16864623336983819 -0.42205748017903449 0 0.17670256027174869 -0.43608133600128551 0 0.16573483381671769 -0.43911683261624462 0 0.17103987791038719 -0.40450309618882169 0 0.14638679418839309 -0.40849626541203388 0 0.16962733287145829 -0.41306172809692981 0 0.14638679418839309 -0.40849626541203388 0 0.16864623336983819 -0.42205748017903449 0 0.14638679418839309 -0.40849626541203388 0 0.16864623336983819 -0.42205748017903449 0 0.16962733287145829 -0.41306172809692981 0 0.16864623336983819 -0.42205748017903449 0 0.17965678171287719 -0.41329759239238029 0 0.18989320103765239 -0.43500186253035911 0 0.17965678171287719 -0.41329759239238029 0 0.18667504034831339 -0.41041640739772162 0 0.16864623336983819 -0.42205748017903449 0 0.16962733287145829 -0.41306172809692981 0 0.17965678171287719 -0.41329759239238029 0 0.17103987791038719 -0.40450309618882169 0 0.16962733287145829 -0.41306172809692981 0 0.17965678171287719 -0.41329759239238029 0 0.17103987791038719 -0.40450309618882169 0 0.17965678171287719 -0.41329759239238029 0 0.1814131781600461 -0.40758752999736902 0 0.18306199361292941 -0.40184547908877583 0 0.1814131781600461 -0.40758752999736902 0 0.18667504034831339 -0.41041640739772162 0 0.17965678171287719 -0.41329759239238029 0 0.1814131781600461 -0.40758752999736902 0 0.18667504034831339 -0.41041640739772162 0 0.18989320103765239 -0.43500186253035911 0 0.16864623336983819 -0.42205748017903449 0 0.18989320103765239 -0.43500186253035911 0 0.16864623336983819 -0.42205748017903449 0 0.17965678171287719 -0.41329759239238029 0 0.18989320103765239 -0.43500186253035911 0 0.16864623336983819 -0.42205748017903449 0 0.17670256027174869 -0.43608133600128551 0 0.18989320103765239 -0.43500186253035911 0 0.17670256027174869 -0.43608133600128551 0 0.18208037526260021 -0.440172852945236 0 0.17851738694434799 -0.45081987712854771 0 0.17618275988476059 -0.44374183802639611 0 0.18401323307134959 -0.44581129240036288 0 0.17851738694434799 -0.45081987712854771 0 0.1776998484129505 -0.456552179461992 0 0.17120073938054131 -0.45123220200337888 0 0.17851738694434799 -0.45081987712854771 0 0.17618275988476059 -0.44374183802639611 0 0.17120073938054131 -0.45123220200337888 0 0.17670256027174869 -0.43608133600128551 0 0.17618275988476059 -0.44374183802639611 0 0.16573483381671769 -0.43911683261624462 0 0.17670256027174869 -0.43608133600128551 0 0.17618275988476059 -0.44374183802639611 0 0.18208037526260021 -0.440172852945236 0 0.18989320103765239 -0.43500186253035911 0 0.18208037526260021 -0.440172852945236 0 0.18401323307134959 -0.44581129240036288 0 0.18777566972406101 -0.44981142861604279 0 0.18989320103765239 -0.43500186253035911 0 0.18401323307134959 -0.44581129240036288 0 0.17618275988476059 -0.44374183802639611 0 0.18208037526260021 -0.440172852945236 0 0.18401323307134959 -0.44581129240036288 0 0.18777566972406101 -0.44981142861604279 0 0.18401323307134959 -0.44581129240036288 0 0.18385690407389799 -0.45446609953290928 0 0.17851738694434799 -0.45081987712854771 0 0.18401323307134959 -0.44581129240036288 0 0.18385690407389799 -0.45446609953290928 0 0.19047701204926121 -0.46094242075341862 0 0.1876592352144193 -0.45673372923780892 0 0.1806900259799068 -0.46227126151247672 0 0.1876592352144193 -0.45673372923780892 0 0.18777566972406101 -0.44981142861604279 0 0.18385690407389799 -0.45446609953290928 0 0.19047701204926121 -0.46094242075341862 0 0.1806900259799068 -0.46227126151247672 0 0.17298031468751371 -0.48047121037671059 0 0.1876592352144193 -0.45673372923780892 0 0.18385690407389799 -0.45446609953290928 0 0.1806900259799068 -0.46227126151247672 0 0.18385690407389799 -0.45446609953290928 0 0.1806900259799068 -0.46227126151247672 0 0.1776998484129505 -0.456552179461992 0 0.17851738694434799 -0.45081987712854771 0 0.18385690407389799 -0.45446609953290928 0 0.1776998484129505 -0.456552179461992 0 0.1806900259799068 -0.46227126151247672 0 0.1776998484129505 -0.456552179461992 0 0.17146684144139809 -0.46446192971202138 0 0.1776998484129505 -0.456552179461992 0 0.17146684144139809 -0.46446192971202138 0 0.17120073938054131 -0.45123220200337888 0 0.17146684144139809 -0.46446192971202138 0 0.15759213853868431 -0.45113306297151079 0 0.14900727366634989 -0.46501884712825781 0 0.17146684144139809 -0.46446192971202138 0 0.15759213853868431 -0.45113306297151079 0 0.17120073938054131 -0.45123220200337888 0 0.1521605439778134 -0.43517333823265708 0 0.15759213853868431 -0.45113306297151079 0 0.16573483381671769 -0.43911683261624462 0 0.15759213853868431 -0.45113306297151079 0 0.17120073938054131 -0.45123220200337888 0 0.16573483381671769 -0.43911683261624462 0 0.17618275988476059 -0.44374183802639611 0 0.17120073938054131 -0.45123220200337888 0 0.16573483381671769 -0.43911683261624462 0 0.1521605439778134 -0.43517333823265708 0 0.15759213853868431 -0.45113306297151079 0 0.13567485458578729 -0.448289196286278 0 0.1521605439778134 -0.43517333823265708 0 0.13567485458578729 -0.448289196286278 0 0.13567485458578729 -0.448289196286278 0 0.1191891651937612 -0.46140505433989892 0 0.12203304576274319 -0.43975504748265359 0 0.12945713117598301 -0.42527718494859718 0 0.13567485458578729 -0.448289196286278 0 0.12203304576274319 -0.43975504748265359 0 0.13567485458578729 -0.448289196286278 0 0.1191891651937612 -0.46140505433989892 0 0.13567485458578729 -0.448289196286278 0 0.13480127744719991 -0.46410976413563299 0 0.1191891651937612 -0.46140505433989892 0 0.13567485458578729 -0.448289196286278 0 0.13480127744719991 -0.46410976413563299 0 0.14900727366634989 -0.46501884712825781 0 0.15759213853868431 -0.45113306297151079 0 0.13567485458578729 -0.448289196286278 0 0.14900727366634989 -0.46501884712825781 0 0.14900727366634989 -0.46501884712825781 0 0.15577652408963519 -0.48266000469618581 0 0.13873200589539489 -0.47945912496791759 0 0.13480127744719991 -0.46410976413563299 0 0.14900727366634989 -0.46501884712825781 0 0.13873200589539489 -0.47945912496791759 0 0.13480127744719991 -0.46410976413563299 0 0.13873200589539489 -0.47945912496791759 0 0.11801755443736479 -0.48060781756800708 0 0.13873200589539489 -0.47945912496791759 0 0.13581988522262109 -0.50000000000000244 0 0.11801755443736479 -0.48060781756800708 0 0.13581988522262109 -0.50000000000000244 0 0.11801755443736479 -0.48060781756800708 0 0.15577652408963519 -0.48266000469618581 0 0.13873200589539489 -0.47945912496791759 0 0.13581988522262109 -0.50000000000000244 0 0.15577652408963519 -0.48266000469618581 0 0.13581988522262109 -0.50000000000000244 0 0.15548361732576529 -0.50000000000000178 0 0.15577652408963519 -0.48266000469618581 0 0.15548361732576529 -0.50000000000000178 0 0.17298031468751371 -0.48047121037671059 0 0.15548361732576529 -0.50000000000000178 0 0.17298031468751371 -0.48047121037671059 0 0.1769424376256932 -0.5 0 0.15548361732576529 -0.50000000000000178 0 0.17298031468751371 -0.48047121037671059 0 0.17146684144139809 -0.46446192971202138 0 0.15577652408963519 -0.48266000469618581 0 0.17298031468751371 -0.48047121037671059 0 0.17146684144139809 -0.46446192971202138 0 0.14900727366634989 -0.46501884712825781 0 0.15577652408963519 -0.48266000469618581 0 0.19047701204926121 -0.46094242075341862 0 0.17298031468751371 -0.48047121037671059 0 0.1806900259799068 -0.46227126151247672 0 0.17146684144139809 -0.46446192971202138 0 0.17298031468751371 -0.48047121037671059 0 0.1955652389629654 -0.47833395417678298 0 0.19047701204926121 -0.46094242075341862 0 0.17298031468751371 -0.48047121037671059 0 0.1955652389629654 -0.47833395417678298 0 0.17298031468751371 -0.48047121037671059 0 0.1857239970351309 -0.48926605560099218 0 0.19840125792562099 -0.499999999999995 0 0.1857239970351309 -0.48926605560099218 0 0.1769424376256932 -0.5 0 0.17298031468751371 -0.48047121037671059 0 0.1857239970351309 -0.48926605560099218 0 0.1769424376256932 -0.5 0 0.074737975103940479 -0.48487994098964171 0 0.071046826552429457 -0.50000000000000733 0 0.059434139084113012 -0.47963991399004141 0 0.071046826552429457 -0.50000000000000733 0 0.059434139084113012 -0.47963991399004141 0 0.074737975103940479 -0.48487994098964171 0 0.05802097188470097 -0.46975988197928431 0 0.059434139084113012 -0.47963991399004141 0 0.074737975103940479 -0.48487994098964171 0 0.071955909258469009 -0.46877079283141743 0 0.05802097188470097 -0.46975988197928431 0 0.074737975103940479 -0.48487994098964171 0 0.071955909258469009 -0.46877079283141743 0 0.082737354296077953 -0.47427357099325013 0 0.074737975103940479 -0.48487994098964171 0 0.05802097188470097 -0.46975988197928431 0 0.074737975103940479 -0.48487994098964171 0 0.082737354296077953 -0.47427357099325013 0 0.094811061721812542 -0.48112121468145302 0 0.082737354296077953 -0.47427357099325013 0 0.094811061721812542 -0.48112121468145302 0 0.1002152236521098 -0.46121563513601083 0 0.074737975103940479 -0.48487994098964171 0 0.091454978323179614 -0.49999999999999939 0 0.094811061721812542 -0.48112121468145302 0 0.074737975103940479 -0.48487994098964171 0 0.091454978323179614 -0.49999999999999939 0 0.074737975103940479 -0.48487994098964171 0 0.071046826552429457 -0.50000000000000733 0 0.091454978323179614 -0.49999999999999939 0 0.1136374317729003 -0.5 0 0.11801755443736479 -0.48060781756800708 0 0.094811061721812542 -0.48112121468145302 0 0.091454978323179614 -0.49999999999999939 0 0.1136374317729003 -0.5 0 0.094811061721812542 -0.48112121468145302 0 0.13581988522262109 -0.50000000000000244 0 0.1136374317729003 -0.5 0 0.11801755443736479 -0.48060781756800708 0 0.11801755443736479 -0.48060781756800708 0 0.094811061721812542 -0.48112121468145302 0 0.1002152236521098 -0.46121563513601083 0 0.11801755443736479 -0.48060781756800708 0 0.1002152236521098 -0.46121563513601083 0 0.1002152236521098 -0.46121563513601083 0 0.1191891651937612 -0.46140505433989892 0 0.1082504500781146 -0.44478934181291102 0 0.11801755443736479 -0.48060781756800708 0 0.1002152236521098 -0.46121563513601083 0 0.1191891651937612 -0.46140505433989892 0 0.13480127744719991 -0.46410976413563299 0 0.11801755443736479 -0.48060781756800708 0 0.1191891651937612 -0.46140505433989892 0 0.1191891651937612 -0.46140505433989892 0 0.12203304576274319 -0.43975504748265359 0 0.1082504500781146 -0.44478934181291102 0 0.1002152236521098 -0.46121563513601083 0 0.1082504500781146 -0.44478934181291102 0 0.082412892866854714 -0.44182345270401441 0 0.1002152236521098 -0.46121563513601083 0 0.082412892866854714 -0.44182345270401441 0 0.082737354296077953 -0.47427357099325013 0 0.1002152236521098 -0.46121563513601083 0 0.07989865607697158 -0.46093656822545309 0 0.1002152236521098 -0.46121563513601083 0 0.082412892866854714 -0.44182345270401441 0 0.07989865607697158 -0.46093656822545309 0 0.071955909258469009 -0.46877079283141743 0 0.082737354296077953 -0.47427357099325013 0 0.07989865607697158 -0.46093656822545309 0 0.071955909258469009 -0.46877079283141743 0 0.07989865607697158 -0.46093656822545309 0 0.064942869781788204 -0.45298741250561531 0 0.071955909258469009 -0.46877079283141743 0 0.064942869781788204 -0.45298741250561531 0 0.05802097188470097 -0.46975988197928431 0 0.082412892866854714 -0.44182345270401441 0 0.07989865607697158 -0.46093656822545309 0 0.064942869781788204 -0.45298741250561531 0 0.082412892866854714 -0.44182345270401441 0 0.064942869781788204 -0.45298741250561531 0 0.064610562081599654 -0.42243127027201799 0 0.082412892866854714 -0.44182345270401441 0 0.064610562081599654 -0.42243127027201799 0 0.085410796704641828 -0.41553833344022301 0 0.082412892866854714 -0.44182345270401441 0 0.064610562081599654 -0.42243127027201799 0 0.064610562081599654 -0.42243127027201799 0 0.085410796704641828 -0.41553833344022301 0 0.071260751408415451 -0.40583032332525898 0 0.082412892866854714 -0.44182345270401441 0 0.085410796704641828 -0.41553833344022301 0 0.10565257718969159 -0.42402980380391259 0 0.1082504500781146 -0.44478934181291102 0 0.10565257718969159 -0.42402980380391259 0 0.1082504500781146 -0.44478934181291102 0 0.082412892866854714 -0.44182345270401441 0 0.10565257718969159 -0.42402980380391259 0 0.12203304576274319 -0.43975504748265359 0 0.1082504500781146 -0.44478934181291102 0 0.10565257718969159 -0.42402980380391259 0 0.12945713117598301 -0.42527718494859718 0 0.12203304576274319 -0.43975504748265359 0 0.10565257718969159 -0.42402980380391259 0 0.12945713117598301 -0.42527718494859718 0 0.10565257718969159 -0.42402980380391259 0 0.1185943653130178 -0.41089393958744808 0 0.10565257718969159 -0.42402980380391259 0 0.10305470430126849 -0.40327026579491432 0 0.10565257718969159 -0.42402980380391259 0 0.1185943653130178 -0.41089393958744808 0 0.10305470430126849 -0.40327026579491432 0 0.085410796704641828 -0.41553833344022301 0 0.10565257718969159 -0.42402980380391259 0 0.10305470430126849 -0.40327026579491432 0 0.10305470430126849 -0.40327026579491432 0 0.1092296532162271 -0.39195520602732847 0 0.1018679158255022 -0.38137383587803358 0 0.10305470430126849 -0.40327026579491432 0 0.1018679158255022 -0.38137383587803358 0 0.084827885114816814 -0.39510276155480978 0 0.10305470430126849 -0.40327026579491432 0 0.1018679158255022 -0.38137383587803358 0 0.1185943653130178 -0.41089393958744808 0 0.10305470430126849 -0.40327026579491432 0 0.1092296532162271 -0.39195520602732847 0 0.1185943653130178 -0.41089393958744808 0 0.1092296532162271 -0.39195520602732847 0 0.12412735500694751 -0.39493505064503392 0 0.12412735500694751 -0.39493505064503392 0 0.1208593498238435 -0.38006314209191833 0 0.1018679158255022 -0.38137383587803358 0 0.1092296532162271 -0.39195520602732847 0 0.12412735500694751 -0.39493505064503392 0 0.1018679158255022 -0.38137383587803358 0 0.12412735500694751 -0.39493505064503392 0 0.1018679158255022 -0.38137383587803358 0 0.1208593498238435 -0.38006314209191833 0 0.1018679158255022 -0.38137383587803358 0 0.12334710111447229 -0.36406834251145731 0 0.1018679158255022 -0.38137383587803358 0 0.1001863568717406 -0.38034937241650962 0 0.10879209213087419 -0.36797725762153549 0 0.1018679158255022 -0.38137383587803358 0 0.1001863568717406 -0.38034937241650962 0 0.092680417082859706 -0.38189565836938699 0 0.1018679158255022 -0.38137383587803358 0 0.1001863568717406 -0.38034937241650962 0 0.1001863568717406 -0.38034937241650962 0 0.092680417082859706 -0.38189565836938699 0 0.078941289569781151 -0.36740614783332631 0 0.1018679158255022 -0.38137383587803358 0 0.084827885114816814 -0.39510276155480978 0 0.1018679158255022 -0.38137383587803358 0 0.092680417082859706 -0.38189565836938699 0 0.084827885114816814 -0.39510276155480978 0 0.083667078469080447 -0.3817485906143725 0 0.076461538166658155 -0.38231907318138902 0 0.078941289569781151 -0.36740614783332631 0 0.092680417082859706 -0.38189565836938699 0 0.083667078469080447 -0.3817485906143725 0 0.078941289569781151 -0.36740614783332631 0 0.084827885114816814 -0.39510276155480978 0 0.073546264855348126 -0.39398280964304111 0 0.076461538166658155 -0.38231907318138902 0 0.083667078469080447 -0.3817485906143725 0 0.084827885114816814 -0.39510276155480978 0 0.076461538166658155 -0.38231907318138902 0 0.092680417082859706 -0.38189565836938699 0 0.083667078469080447 -0.3817485906143725 0 0.084827885114816814 -0.39510276155480978 0 0.085410796704641828 -0.41553833344022301 0 0.10305470430126849 -0.40327026579491432 0 0.084827885114816814 -0.39510276155480978 0 0.085410796704641828 -0.41553833344022301 0 0.084827885114816814 -0.39510276155480978 0 0.071260751408415451 -0.40583032332525898 0 0.084827885114816814 -0.39510276155480978 0 0.073546264855348126 -0.39398280964304111 0 0.071260751408415451 -0.40583032332525898 0 0.073546264855348126 -0.39398280964304111 0 0.071260751408415451 -0.40583032332525898 0 0.061634884731502082 -0.39267908051070671 0 0.076461538166658155 -0.38231907318138902 0 0.061634884731502082 -0.39267908051070671 0 0.076461538166658155 -0.38231907318138902 0 0.061634884731502082 -0.39267908051070671 0 0.061904282875925747 -0.37237526148823941 0 0.073546264855348126 -0.39398280964304111 0 0.076461538166658155 -0.38231907318138902 0 0.061634884731502082 -0.39267908051070671 0 0.051370350477500881 -0.3764161884637201 0 0.045801185216693012 -0.38580832539780119 0 0.043663507306638913 -0.36868104746756258 0 0.051370350477500881 -0.3764161884637201 0 0.061634884731502082 -0.39267908051070671 0 0.045801185216693012 -0.38580832539780119 0 0.051370350477500881 -0.3764161884637201 0 0.061634884731502082 -0.39267908051070671 0 0.061904282875925747 -0.37237526148823941 0 0.071260751408415451 -0.40583032332525898 0 0.061634884731502082 -0.39267908051070671 0 0.04680823129634433 -0.40303908784002201 0 0.061634884731502082 -0.39267908051070671 0 0.04680823129634433 -0.40303908784002201 0 0.045801185216693012 -0.38580832539780119 0 0.061634884731502082 -0.39267908051070671 0 0.04680823129634433 -0.40303908784002201 0 0.04680823129634433 -0.40303908784002201 0 0.02837172461734 -0.38295609391969199 0 0.04680823129634433 -0.40303908784002201 0 0.02837172461734 -0.38295609391969199 0 0.028215565298714249 -0.40094151263492078 0 0.045801185216693012 -0.38580832539780119 0 0.02837172461734 -0.38295609391969199 0 0.043663507306638913 -0.36868104746756258 0 0.04680823129634433 -0.40303908784002201 0 0.045801185216693012 -0.38580832539780119 0 0.02837172461734 -0.38295609391969199 0 0.02837172461734 -0.38295609391969199 0 0.0122991559467155 -0.37891225603134221 0 0.011208636448502229 -0.39508796301279092 0 -0.002178803782163227 -0.37161627006544062 0 0.0122991559467155 -0.37891225603134221 0 0.011208636448502229 -0.39508796301279092 0 -0.002178803782163227 -0.37161627006544062 0 0.011208636448502229 -0.39508796301279092 0 -0.002178803782163227 -0.37161627006544062 0 -0.0066930742226519926 -0.39143820132839208 0 0.011208636448502229 -0.39508796301279092 0 -0.001728596279610697 -0.40597762003102339 0 0.011208636448502229 -0.39508796301279092 0 0.0082246319185010179 -0.41465428951275207 0 -0.0066930742226519926 -0.39143820132839208 0 -0.001728596279610697 -0.40597762003102339 0 0.011208636448502229 -0.39508796301279092 0 0.011208636448502229 -0.39508796301279092 0 0.028215565298714249 -0.40094151263492078 0 0.024596076679173799 -0.41855965596013778 0 0.02837172461734 -0.38295609391969199 0 0.011208636448502229 -0.39508796301279092 0 0.028215565298714249 -0.40094151263492078 0 0.011208636448502229 -0.39508796301279092 0 0.024596076679173799 -0.41855965596013778 0 0.011208636448502229 -0.39508796301279092 0 0.024596076679173799 -0.41855965596013778 0 0.0082246319185010179 -0.41465428951275207 0 0.024596076679173799 -0.41855965596013778 0 0.0082246319185010179 -0.41465428951275207 0 0.01039378864355619 -0.42848339288335913 0 -0.009537301248459449 -0.42510302968362512 0 0.0082246319185010179 -0.41465428951275207 0 0.01039378864355619 -0.42848339288335913 0 0.024596076679173799 -0.41855965596013778 0 0.036208764147486278 -0.43891974197010591 0 0.024596076679173799 -0.41855965596013778 0 0.036208764147486278 -0.43891974197010591 0 0.020713539006084219 -0.44010250100644183 0 0.024596076679173799 -0.41855965596013778 0 0.01039378864355619 -0.42848339288335913 0 0.020713539006084219 -0.44010250100644183 0 0.024596076679173799 -0.41855965596013778 0 0.01039378864355619 -0.42848339288335913 0 0.024596076679173799 -0.41855965596013778 0 0.043950702345966319 -0.42295947833088071 0 0.036208764147486278 -0.43891974197010591 0 0.043950702345966319 -0.42295947833088071 0 0.051347790295756007 -0.43901682978775403 0 0.036208764147486278 -0.43891974197010591 0 0.04680823129634433 -0.40303908784002201 0 0.024596076679173799 -0.41855965596013778 0 0.04680823129634433 -0.40303908784002201 0 0.028215565298714249 -0.40094151263492078 0 0.024596076679173799 -0.41855965596013778 0 0.04680823129634433 -0.40303908784002201 0 0.024596076679173799 -0.41855965596013778 0 0.043950702345966319 -0.42295947833088071 0 0.064610562081599654 -0.42243127027201799 0 0.071260751408415451 -0.40583032332525898 0 0.04680823129634433 -0.40303908784002201 0 0.064610562081599654 -0.42243127027201799 0 0.04680823129634433 -0.40303908784002201 0 0.064610562081599654 -0.42243127027201799 0 0.04680823129634433 -0.40303908784002201 0 0.043950702345966319 -0.42295947833088071 0 0.064610562081599654 -0.42243127027201799 0 0.043950702345966319 -0.42295947833088071 0 0.051347790295756007 -0.43901682978775403 0 0.064942869781788204 -0.45298741250561531 0 0.064610562081599654 -0.42243127027201799 0 0.051347790295756007 -0.43901682978775403 0 0.064942869781788204 -0.45298741250561531 0 0.051347790295756007 -0.43901682978775403 0 0.047821451615799627 -0.45927982798007361 0 0.064942869781788204 -0.45298741250561531 0 0.047821451615799627 -0.45927982798007361 0 0.05802097188470097 -0.46975988197928431 0 0.047821451615799627 -0.45927982798007361 0 0.023714967739582489 -0.4565662814222432 0 0.032020960621095843 -0.47777188036233098 0 0.047821451615799627 -0.45927982798007361 0 0.036208764147486278 -0.43891974197010591 0 0.051347790295756007 -0.43901682978775403 0 0.047821451615799627 -0.45927982798007361 0 0.036208764147486278 -0.43891974197010591 0 0.047821451615799627 -0.45927982798007361 0 0.036208764147486278 -0.43891974197010591 0 0.023714967739582489 -0.4565662814222432 0 0.036208764147486278 -0.43891974197010591 0 0.020713539006084219 -0.44010250100644183 0 0.023714967739582489 -0.4565662814222432 0 -0.0013374034004768371 -0.44947558896604423 0 0.01039378864355619 -0.42848339288335913 0 0.020713539006084219 -0.44010250100644183 0 -0.0013374034004768371 -0.44947558896604423 0 0.020713539006084219 -0.44010250100644183 0 0.023714967739582489 -0.4565662814222432 0 -0.0013374034004768371 -0.44947558896604423 0 0.0068624944475057766 -0.47384814824846327 0 -0.0013374034004768371 -0.44947558896604423 0 0.023714967739582489 -0.4565662814222432 0 0.0068624944475057766 -0.47384814824846327 0 0.023714967739582489 -0.4565662814222432 0 0.0068624944475057766 -0.47384814824846327 0 0.032020960621095843 -0.47777188036233098 0 0.0068624944475057766 -0.47384814824846327 0 0.0150623922954884 -0.49822070753088238 0 0.032020960621095843 -0.47777188036233098 0 -0.015217900669161011 -0.5 0 0.0024053695883212941 -0.48891336768777249 0 0.013537008404702511 -0.5 0 0.0068624944475057766 -0.47384814824846327 0 0.0024053695883212941 -0.48891336768777249 0 0.0150623922954884 -0.49822070753088238 0 0.0068624944475057766 -0.47384814824846327 0 0.0150623922954884 -0.49822070753088238 0 0.0024053695883212941 -0.48891336768777249 0 0.0150623922954884 -0.49822070753088238 0 0.013537008404702511 -0.5 0 0.0150623922954884 -0.49822070753088238 0 0.013537008404702511 -0.5 0 0.042291917478565873 -0.5 0 0.0150623922954884 -0.49822070753088238 0 0.042291917478565873 -0.5 0 0.032020960621095843 -0.47777188036233098 0 0.042291917478565873 -0.5 0 0.032020960621095843 -0.47777188036233098 0 0.059434139084113012 -0.47963991399004141 0 0.047821451615799627 -0.45927982798007361 0 0.032020960621095843 -0.47777188036233098 0 0.059434139084113012 -0.47963991399004141 0 0.047821451615799627 -0.45927982798007361 0 0.05802097188470097 -0.46975988197928431 0 0.059434139084113012 -0.47963991399004141 0 0.047821451615799627 -0.45927982798007361 0 0.059434139084113012 -0.47963991399004141 0 0.071046826552429457 -0.50000000000000733 0 0.042291917478565873 -0.5 0 0.059434139084113012 -0.47963991399004141 0 0.078456545354339768 -0.28525100698693651 0 0.075192778843485145 -0.3004755496101415 0 0.095899689397586599 -0.3008291305439913 0 0.078456545354339768 -0.28525100698693651 0 0.095711127176573443 -0.2751242682777974 0 0.095899689397586599 -0.3008291305439913 0 0.075192778843485145 -0.3004755496101415 0 0.095899689397586599 -0.3008291305439913 0 0.074188022781041252 -0.31649930169162399 0 0.095899689397586599 -0.3008291305439913 0 0.074188022781041252 -0.31649930169162399 0 0.075192778843485145 -0.3004755496101415 0 0.074188022781041252 -0.31649930169162399 0 0.058270312985904418 -0.30816514798469019 0 0.075192778843485145 -0.3004755496101415 0 0.068995976747761104 -0.2945131319279734 0 0.058270312985904418 -0.30816514798469019 0 0.068995976747761104 -0.2945131319279734 0 0.064064269807315097 -0.28416082313012542 0 0.058270312985904418 -0.30816514798469019 0 0.078456545354339768 -0.28525100698693651 0 0.075192778843485145 -0.3004755496101415 0 0.068995976747761104 -0.2945131319279734 0 0.078456545354339768 -0.28525100698693651 0 0.068995976747761104 -0.2945131319279734 0 0.064064269807315097 -0.28416082313012542 0 0.064064269807315097 -0.28416082313012542 0 0.069858226628725775 -0.26015649827556059 0 0.078456545354339768 -0.28525100698693651 0 0.064064269807315097 -0.28416082313012542 0 0.069858226628725775 -0.26015649827556059 0 0.069858226628725775 -0.26015649827556059 0 0.095711127176573443 -0.2751242682777974 0 0.096521476943682558 -0.25181800011133371 0 0.078456545354339768 -0.28525100698693651 0 0.069858226628725775 -0.26015649827556059 0 0.095711127176573443 -0.2751242682777974 0 0.095711127176573443 -0.2751242682777974 0 0.114720785939063 -0.26575264298982931 0 0.1176113560141319 -0.2851589593963586 0 0.095711127176573443 -0.2751242682777974 0 0.096521476943682558 -0.25181800011133371 0 0.114720785939063 -0.26575264298982931 0 0.1376178273856396 -0.2676878026278281 0 0.114720785939063 -0.26575264298982931 0 0.1200034520355143 -0.24749468667538321 0 0.096521476943682558 -0.25181800011133371 0 0.114720785939063 -0.26575264298982931 0 0.1200034520355143 -0.24749468667538321 0 0.1376178273856396 -0.2676878026278281 0 0.114720785939063 -0.26575264298982931 0 0.1176113560141319 -0.2851589593963586 0 0.13584279120622419 -0.29064916595208462 0 0.1176113560141319 -0.2851589593963586 0 0.1212075847983899 -0.30357596212866123 0 0.1176113560141319 -0.2851589593963586 0 0.095899689397586599 -0.3008291305439913 0 0.1212075847983899 -0.30357596212866123 0 0.1176113560141319 -0.2851589593963586 0 0.095899689397586599 -0.3008291305439913 0 0.095711127176573443 -0.2751242682777974 0 0.1176113560141319 -0.2851589593963586 0 0.095899689397586599 -0.3008291305439913 0 0.095899689397586599 -0.3008291305439913 0 0.1212075847983899 -0.30357596212866123 0 0.1047724191350739 -0.31963875894108951 0 0.1212075847983899 -0.30357596212866123 0 0.1249111379911398 -0.32186001205002218 0 0.1047724191350739 -0.31963875894108951 0 0.1249111379911398 -0.32186001205002218 0 0.1047724191350739 -0.31963875894108951 0 0.11573058637367541 -0.34380091622275832 0 0.094619564876377599 -0.33586527524184762 0 0.1047724191350739 -0.31963875894108951 0 0.11573058637367541 -0.34380091622275832 0 0.094619564876377599 -0.33586527524184762 0 0.1047724191350739 -0.31963875894108951 0 0.086339338786571823 -0.32698567366184278 0 0.095899689397586599 -0.3008291305439913 0 0.1047724191350739 -0.31963875894108951 0 0.086339338786571823 -0.32698567366184278 0 0.1018679158255022 -0.38137383587803358 0 0.12334710111447229 -0.36406834251145731 0 0.1018679158255022 -0.38137383587803358 0 0.12334710111447229 -0.36406834251145731 0 0.10879209213087419 -0.36797725762153549 0 0.12334710111447229 -0.36406834251145731 0 0.11573058637367541 -0.34380091622275832 0 0.10879209213087419 -0.36797725762153549 0 0.11573058637367541 -0.34380091622275832 0 0.097402960874061584 -0.35810732382917831 0 0.10879209213087419 -0.36797725762153549 0 0.094619564876377599 -0.33586527524184762 0 0.11573058637367541 -0.34380091622275832 0 0.097402960874061584 -0.35810732382917831 0 0.094619564876377599 -0.33586527524184762 0 0.097402960874061584 -0.35810732382917831 0 0.1001863568717406 -0.38034937241650962 0 0.097402960874061584 -0.35810732382917831 0 0.1001863568717406 -0.38034937241650962 0 0.097402960874061584 -0.35810732382917831 0 0.10879209213087419 -0.36797725762153549 0 0.1001863568717406 -0.38034937241650962 0 0.097402960874061584 -0.35810732382917831 0 0.078941289569781151 -0.36740614783332631 0 0.1001863568717406 -0.38034937241650962 0 0.078941289569781151 -0.36740614783332631 0 0.094619564876377599 -0.33586527524184762 0 0.097402960874061584 -0.35810732382917831 0 0.084740357312199394 -0.34701535865000288 0 0.078941289569781151 -0.36740614783332631 0 0.084740357312199394 -0.34701535865000288 0 0.072564810466095128 -0.35396504242622201 0 0.097402960874061584 -0.35810732382917831 0 0.078941289569781151 -0.36740614783332631 0 0.084740357312199394 -0.34701535865000288 0 0.078941289569781151 -0.36740614783332631 0 0.072564810466095128 -0.35396504242622201 0 0.057696222267823373 -0.35446292325014028 0 0.084740357312199394 -0.34701535865000288 0 0.072564810466095128 -0.35396504242622201 0 0.073102422775426085 -0.33909783780230318 0 0.064643683218506637 -0.34920539315333932 0 0.072564810466095128 -0.35396504242622201 0 0.073102422775426085 -0.33909783780230318 0 0.064643683218506637 -0.34920539315333932 0 0.072564810466095128 -0.35396504242622201 0 0.057696222267823373 -0.35446292325014028 0 0.078941289569781151 -0.36740614783332631 0 0.057696222267823373 -0.35446292325014028 0 0.076461538166658155 -0.38231907318138902 0 0.078941289569781151 -0.36740614783332631 0 0.061904282875925747 -0.37237526148823941 0 0.078941289569781151 -0.36740614783332631 0 0.061904282875925747 -0.37237526148823941 0 0.057696222267823373 -0.35446292325014028 0 0.095899689397586599 -0.3008291305439913 0 0.086339338786571823 -0.32698567366184278 0 0.074188022781041252 -0.31649930169162399 0 0.094619564876377599 -0.33586527524184762 0 0.084740357312199394 -0.34701535865000288 0 0.086339338786571823 -0.32698567366184278 0 0.084740357312199394 -0.34701535865000288 0 0.086339338786571823 -0.32698567366184278 0 0.073102422775426085 -0.33909783780230318 0 0.073102422775426085 -0.33909783780230318 0 0.074188022781041252 -0.31649930169162399 0 0.052476356164494947 -0.33216947283925541 0 0.064643683218506637 -0.34920539315333932 0 0.073102422775426085 -0.33909783780230318 0 0.060945063747813971 -0.34285112352430303 0 0.074188022781041252 -0.31649930169162399 0 0.052476356164494947 -0.33216947283925541 0 0.086339338786571823 -0.32698567366184278 0 0.073102422775426085 -0.33909783780230318 0 0.074188022781041252 -0.31649930169162399 0 0.052476356164494947 -0.33216947283925541 0 0.058270312985904418 -0.30816514798469019 0 0.052476356164494947 -0.33216947283925541 0 0.044648526871603783 -0.31770081170742831 0 0.058270312985904418 -0.30816514798469019 0 0.074188022781041252 -0.31649930169162399 0 0.052476356164494947 -0.33216947283925541 0 0.058270312985904418 -0.30816514798469019 0 0.052476356164494947 -0.33216947283925541 0 0.047583047975914103 -0.35244241635483559 0 0.073102422775426085 -0.33909783780230318 0 0.060945063747813971 -0.34285112352430303 0 0.052476356164494947 -0.33216947283925541 0 0.060945063747813971 -0.34285112352430303 0 0.052476356164494947 -0.33216947283925541 0 0.054181307711507642 -0.34983992205818981 0 0.052476356164494947 -0.33216947283925541 0 0.04071506683574927 -0.34065806194451792 0 0.047583047975914103 -0.35244241635483559 0 0.052476356164494947 -0.33216947283925541 0 0.04071506683574927 -0.34065806194451792 0 0.044648526871603783 -0.31770081170742831 0 0.04071506683574927 -0.34065806194451792 0 0.03015636661650286 -0.3225410253719756 0 0.04071506683574927 -0.34065806194451792 0 0.03015636661650286 -0.3225410253719756 0 0.02636863849756152 -0.33688388254537838 0 0.052476356164494947 -0.33216947283925541 0 0.04071506683574927 -0.34065806194451792 0 0.04071506683574927 -0.34065806194451792 0 0.044648526871603783 -0.31770081170742831 0 0.03015636661650286 -0.3225410253719756 0 0.044648526871603783 -0.31770081170742831 0 0.03015636661650286 -0.3225410253719756 0 0.034491627806478041 -0.30853974567073322 0 0.061904282875925747 -0.37237526148823941 0 0.053259535722039633 -0.3641180164926533 0 0.057696222267823373 -0.35446292325014028 0 0.051370350477500881 -0.3764161884637201 0 0.053259535722039633 -0.3641180164926533 0 0.043663507306638913 -0.36868104746756258 0 0.051370350477500881 -0.3764161884637201 0 0.061904282875925747 -0.37237526148823941 0 0.053259535722039633 -0.3641180164926533 0 0.053259535722039633 -0.3641180164926533 0 0.048773826387857627 -0.3544856011778737 0 0.043663507306638913 -0.36868104746756258 0 0.052476356164494947 -0.33216947283925541 0 0.047583047975914103 -0.35244241635483559 0 0.054181307711507642 -0.34983992205818981 0 0.053259535722039633 -0.3641180164926533 0 0.053244657324237762 -0.3582642649149802 0 0.048773826387857627 -0.3544856011778737 0 0.053244657324237762 -0.3582642649149802 0 0.048773826387857627 -0.3544856011778737 0 0.054181307711507642 -0.34983992205818981 0 0.048773826387857627 -0.3544856011778737 0 0.047583047975914103 -0.35244241635483559 0 0.054181307711507642 -0.34983992205818981 0 0.048773826387857627 -0.3544856011778737 0 0.047583047975914103 -0.35244241635483559 0 0.053259535722039633 -0.3641180164926533 0 0.053244657324237762 -0.3582642649149802 0 0.057696222267823373 -0.35446292325014028 0 0.053244657324237762 -0.3582642649149802 0 0.057696222267823373 -0.35446292325014028 0 0.054181307711507642 -0.34983992205818981 0 0.064643683218506637 -0.34920539315333932 0 0.057696222267823373 -0.35446292325014028 0 0.054181307711507642 -0.34983992205818981 0 0.064643683218506637 -0.34920539315333932 0 0.060945063747813971 -0.34285112352430303 0 0.054181307711507642 -0.34983992205818981 0 0.048773826387857627 -0.3544856011778737 0 0.047583047975914103 -0.35244241635483559 0 0.043663507306638913 -0.36868104746756258 0 0.04071506683574927 -0.34065806194451792 0 0.047583047975914103 -0.35244241635483559 0 0.04071506683574927 -0.34065806194451792 0 0.047583047975914103 -0.35244241635483559 0 0.03985573710467899 -0.35136837444597901 0 0.04071506683574927 -0.34065806194451792 0 0.03985573710467899 -0.35136837444597901 0 0.03205896378917665 -0.35434441690964041 0 0.04071506683574927 -0.34065806194451792 0 0.03205896378917665 -0.35434441690964041 0 0.025431496553892478 -0.35168882095041942 0 0.04071506683574927 -0.34065806194451792 0 0.025431496553892478 -0.35168882095041942 0 0.03985573710467899 -0.35136837444597901 0 0.03205896378917665 -0.35434441690964041 0 0.039065869817875902 -0.35802860257492208 0 0.047583047975914103 -0.35244241635483559 0 0.03985573710467899 -0.35136837444597901 0 0.039065869817875902 -0.35802860257492208 0 0.02837172461734 -0.38295609391969199 0 0.033371525452051833 -0.36592480980272157 0 0.043663507306638913 -0.36868104746756258 0 0.047583047975914103 -0.35244241635483559 0 0.039065869817875902 -0.35802860257492208 0 0.043663507306638913 -0.36868104746756258 0 0.047583047975914103 -0.35244241635483559 0 0.043663507306638913 -0.36868104746756258 0 0.039065869817875902 -0.35802860257492208 0 0.033371525452051833 -0.36592480980272157 0 0.043663507306638913 -0.36868104746756258 0 0.03205896378917665 -0.35434441690964041 0 0.039065869817875902 -0.35802860257492208 0 0.033371525452051833 -0.36592480980272157 0 0.02837172461734 -0.38295609391969199 0 0.0099352179383349771 -0.36287309999936251 0 0.02837172461734 -0.38295609391969199 0 0.023697561729227701 -0.3656138881417908 0 0.0099352179383349771 -0.36287309999936251 0 0.02837172461734 -0.38295609391969199 0 0.033371525452051833 -0.36592480980272157 0 0.023697561729227701 -0.3656138881417908 0 0.02837172461734 -0.38295609391969199 0 0.0122991559467155 -0.37891225603134221 0 0.0099352179383349771 -0.36287309999936251 0 0.03205896378917665 -0.35434441690964041 0 0.033371525452051833 -0.36592480980272157 0 0.023697561729227701 -0.3656138881417908 0 0.023697561729227701 -0.3656138881417908 0 0.025431496553892478 -0.35168882095041942 0 0.0099352179383349771 -0.36287309999936251 0 0.025431496553892478 -0.35168882095041942 0 0.0075807645751098419 -0.34453611388615663 0 0.025431496553892478 -0.35168882095041942 0 0.0075807645751098419 -0.34453611388615663 0 0.02636863849756152 -0.33688388254537838 0 0.025431496553892478 -0.35168882095041942 0 0.0099352179383349771 -0.36287309999936251 0 0.03205896378917665 -0.35434441690964041 0 0.023697561729227701 -0.3656138881417908 0 0.025431496553892478 -0.35168882095041942 0 0.03205896378917665 -0.35434441690964041 0 0.025431496553892478 -0.35168882095041942 0 -0.0096343958099064687 -0.34155580596031437 0 0.0099352179383349771 -0.36287309999936251 0 -0.0096343958099064687 -0.34155580596031437 0 0.0075807645751098419 -0.34453611388615663 0 0.0099352179383349771 -0.36287309999936251 0 0.025431496553892478 -0.35168882095041942 0 0.0075807645751098419 -0.34453611388615663 0 0.0099352179383349771 -0.36287309999936251 0 -0.002178803782163227 -0.37161627006544062 0 0.0122991559467155 -0.37891225603134221 0 0.0099352179383349771 -0.36287309999936251 0 -0.0070150904897389628 -0.35875101633193152 0 -0.002178803782163227 -0.37161627006544062 0 0.0099352179383349771 -0.36287309999936251 0 -0.002178803782163227 -0.37161627006544062 0 0.0099352179383349771 -0.36287309999936251 0 0.03015636661650286 -0.3225410253719756 0 0.019597666397256509 -0.30442398879943339 0 0.03015636661650286 -0.3225410253719756 0 0.014793392922354411 -0.31628120652474823 0 0.019597666397256509 -0.30442398879943339 0 0.03015636661650286 -0.3225410253719756 0 0.01453256369494863 -0.32953892791496292 0 0.014793392922354411 -0.31628120652474823 0 0.03015636661650286 -0.3225410253719756 0 0.02636863849756152 -0.33688388254537838 0 0.01453256369494863 -0.32953892791496292 0 0.0075807645751098419 -0.34453611388615663 0 0.02636863849756152 -0.33688388254537838 0 0.01453256369494863 -0.32953892791496292 0 0.04071506683574927 -0.34065806194451792 0 0.025431496553892478 -0.35168882095041942 0 0.02636863849756152 -0.33688388254537838 0 0.0075807645751098419 -0.34453611388615663 0 0.01453256369494863 -0.32953892791496292 0 0.0034794820758208261 -0.33361449123698089 0 -0.010269967403673339 -0.33738340682189533 0 0.0075807645751098419 -0.34453611388615663 0 0.0034794820758208261 -0.33361449123698089 0 0.01453256369494863 -0.32953892791496292 0 0.0034794820758208261 -0.33361449123698089 0 0.001904989571353899 -0.32214434476741449 0 0.001904989571353899 -0.32214434476741449 0 0.014793392922354411 -0.31628120652474823 0 0.0019518825097332619 -0.30029273945570772 0 0.01453256369494863 -0.32953892791496292 0 0.001904989571353899 -0.32214434476741449 0 0.014793392922354411 -0.31628120652474823 0 0.0019518825097332619 -0.30029273945570772 0 0.0090389661780101715 -0.28630695222689118 0 0.019597666397256509 -0.30442398879943339 0 0.014793392922354411 -0.31628120652474823 0 0.0019518825097332619 -0.30029273945570772 0 0.019597666397256509 -0.30442398879943339 0 -0.0020851015340006161 -0.28052611142458661 0 0.0019518825097332619 -0.30029273945570772 0 0.0090389661780101715 -0.28630695222689118 0 0.0090389661780101715 -0.28630695222689118 0 0.019597666397256509 -0.30442398879943339 0 0.0090389661780101715 -0.28630695222689118 0 0.019597666397256509 -0.30442398879943339 0 0.033821918158706138 -0.27707393290215671 0 0.03015636661650286 -0.3225410253719756 0 0.019597666397256509 -0.30442398879943339 0 0.034491627806478041 -0.30853974567073322 0 0.019597666397256509 -0.30442398879943339 0 0.034491627806478041 -0.30853974567073322 0 0.043330632548044458 -0.29475484461045087 0 0.044648526871603783 -0.31770081170742831 0 0.034491627806478041 -0.30853974567073322 0 0.043330632548044458 -0.29475484461045087 0 0.019597666397256509 -0.30442398879943339 0 0.043330632548044458 -0.29475484461045087 0 0.033821918158706138 -0.27707393290215671 0 0.043330632548044458 -0.29475484461045087 0 0.062049371387241412 -0.28749956346879602 0 0.033821918158706138 -0.27707393290215671 0 0.064064269807315097 -0.28416082313012542 0 0.058270312985904418 -0.30816514798469019 0 0.062049371387241412 -0.28749956346879602 0 0.033821918158706138 -0.27707393290215671 0 0.064064269807315097 -0.28416082313012542 0 0.062049371387241412 -0.28749956346879602 0 0.058270312985904418 -0.30816514798469019 0 0.043330632548044458 -0.29475484461045087 0 0.062049371387241412 -0.28749956346879602 0 0.058270312985904418 -0.30816514798469019 0 0.044648526871603783 -0.31770081170742831 0 0.043330632548044458 -0.29475484461045087 0 0.058270312985904418 -0.30816514798469019 0 0.069858226628725775 -0.26015649827556059 0 0.051624075113339378 -0.26919050519125598 0 0.046498349670861652 -0.24826912251879649 0 0.064064269807315097 -0.28416082313012542 0 0.069858226628725775 -0.26015649827556059 0 0.051624075113339378 -0.26919050519125598 0 0.062049371387241412 -0.28749956346879602 0 0.051624075113339378 -0.26919050519125598 0 0.033821918158706138 -0.27707393290215671 0 0.064064269807315097 -0.28416082313012542 0 0.062049371387241412 -0.28749956346879602 0 0.051624075113339378 -0.26919050519125598 0 0.051624075113339378 -0.26919050519125598 0 0.033821918158706138 -0.27707393290215671 0 0.034240698289148337 -0.25967273023798509 0 0.051624075113339378 -0.26919050519125598 0 0.034240698289148337 -0.25967273023798509 0 0.046498349670861652 -0.24826912251879649 0 0.034240698289148337 -0.25967273023798509 0 0.02296875629887114 -0.2464092256209898 0 0.046498349670861652 -0.24826912251879649 0 0.034240698289148337 -0.25967273023798509 0 0.0055944649301708496 -0.26664830233551728 0 0.02296875629887114 -0.2464092256209898 0 0.0090389661780101715 -0.28630695222689118 0 0.033821918158706138 -0.27707393290215671 0 0.0055944649301708496 -0.26664830233551728 0 0.033821918158706138 -0.27707393290215671 0 0.034240698289148337 -0.25967273023798509 0 0.0055944649301708496 -0.26664830233551728 0 0.033821918158706138 -0.27707393290215671 0 0.0055944649301708496 -0.26664830233551728 0 -0.0020851015340006161 -0.28052611142458661 0 0.0090389661780101715 -0.28630695222689118 0 0.0055944649301708496 -0.26664830233551728 0 0.0055944649301708496 -0.26664830233551728 0 0.0055632338660241776 -0.24332209518663511 0 0.02296875629887114 -0.2464092256209898 0 -0.0080727856436109482 -0.2481099565327444 0 0.0055944649301708496 -0.26664830233551728 0 0.0055632338660241776 -0.24332209518663511 0 0.0055632338660241776 -0.24332209518663511 0 0.0032521440618358652 -0.23009641691855939 0 0.019268989126464159 -0.2308348024940351 0 -0.0084819670471955304 -0.2367225590632196 0 0.0055632338660241776 -0.24332209518663511 0 0.0032521440618358652 -0.23009641691855939 0 -0.0075276580997289226 -0.21896018305478171 0 0.0032521440618358652 -0.23009641691855939 0 0.012041166441398349 -0.21677938876306921 0 0.0032521440618358652 -0.23009641691855939 0 0.019268989126464159 -0.2308348024940351 0 0.012041166441398349 -0.21677938876306921 0 0.019268989126464159 -0.2308348024940351 0 0.028464877365028059 -0.21915571909051779 0 0.012041166441398349 -0.21677938876306921 0 0.019268989126464159 -0.2308348024940351 0 0.028464877365028059 -0.21915571909051779 0 0.041174919052571327 -0.22964645066930789 0 0.0055632338660241776 -0.24332209518663511 0 0.019268989126464159 -0.2308348024940351 0 0.02296875629887114 -0.2464092256209898 0 0.019268989126464159 -0.2308348024940351 0 0.02296875629887114 -0.2464092256209898 0 0.041174919052571327 -0.22964645066930789 0 -0.0075276580997289226 -0.21896018305478171 0 0.003555539334036632 -0.19934620758084881 0 0.012041166441398349 -0.21677938876306921 0 0.003555539334036632 -0.19934620758084881 0 0.012041166441398349 -0.21677938876306921 0 0.02523310686075431 -0.20228300343967229 0 0.028464877365028059 -0.21915571909051779 0 0.012041166441398349 -0.21677938876306921 0 0.02523310686075431 -0.20228300343967229 0 0.02523310686075431 -0.20228300343967229 0 0.033125333554059701 -0.1865598477748947 0 0.018588522793563201 -0.18166153924030251 0 0.003555539334036632 -0.19934620758084881 0 0.02523310686075431 -0.20228300343967229 0 0.018588522793563201 -0.18166153924030251 0 0.048648578511840943 -0.20623258170594561 0 0.049880579816306267 -0.17970719815632741 0 0.033125333554059701 -0.1865598477748947 0 0.02523310686075431 -0.20228300343967229 0 0.048648578511840943 -0.20623258170594561 0 0.033125333554059701 -0.1865598477748947 0 0.028464877365028059 -0.21915571909051779 0 0.02523310686075431 -0.20228300343967229 0 0.048648578511840943 -0.20623258170594561 0 0.028464877365028059 -0.21915571909051779 0 0.048648578511840943 -0.20623258170594561 0 0.041174919052571327 -0.22964645066930789 0 0.048648578511840943 -0.20623258170594561 0 0.059757914812518881 -0.22869522271940709 0 0.066598585428591164 -0.21133354617687591 0 0.048648578511840943 -0.20623258170594561 0 0.067160325985138131 -0.18691533881804831 0 0.049880579816306267 -0.17970719815632741 0 0.048648578511840943 -0.20623258170594561 0 0.066598585428591164 -0.21133354617687591 0 0.067160325985138131 -0.18691533881804831 0 0.069858226628725775 -0.26015649827556059 0 0.046498349670861652 -0.24826912251879649 0 0.059757914812518881 -0.22869522271940709 0 0.02296875629887114 -0.2464092256209898 0 0.046498349670861652 -0.24826912251879649 0 0.041174919052571327 -0.22964645066930789 0 0.048648578511840943 -0.20623258170594561 0 0.041174919052571327 -0.22964645066930789 0 0.059757914812518881 -0.22869522271940709 0 0.046498349670861652 -0.24826912251879649 0 0.041174919052571327 -0.22964645066930789 0 0.059757914812518881 -0.22869522271940709 0 0.069858226628725775 -0.26015649827556059 0 0.059757914812518881 -0.22869522271940709 0 0.080941623453078815 -0.2334444244951252 0 0.069858226628725775 -0.26015649827556059 0 0.096521476943682558 -0.25181800011133371 0 0.080941623453078815 -0.2334444244951252 0 0.096521476943682558 -0.25181800011133371 0 0.080941623453078815 -0.2334444244951252 0 0.102389076685389 -0.22730157072293841 0 0.080941623453078815 -0.2334444244951252 0 0.084774701335263575 -0.20710845477049339 0 0.102389076685389 -0.22730157072293841 0 0.059757914812518881 -0.22869522271940709 0 0.080941623453078815 -0.2334444244951252 0 0.066598585428591164 -0.21133354617687591 0 0.080941623453078815 -0.2334444244951252 0 0.066598585428591164 -0.21133354617687591 0 0.084774701335263575 -0.20710845477049339 0 0.084774701335263575 -0.20710845477049339 0 0.067160325985138131 -0.18691533881804831 0 0.066598585428591164 -0.21133354617687591 0 0.084774701335263575 -0.20710845477049339 0 0.067160325985138131 -0.18691533881804831 0 0.092537347032927528 -0.18889969997864839 0 0.084774701335263575 -0.20710845477049339 0 0.067160325985138131 -0.18691533881804831 0 0.084774701335263575 -0.20710845477049339 0 0.102389076685389 -0.22730157072293841 0 0.084774701335263575 -0.20710845477049339 0 0.10575093398731179 -0.20517541990618701 0 0.102389076685389 -0.22730157072293841 0 0.092537347032927528 -0.18889969997864839 0 0.10575093398731179 -0.20517541990618701 0 0.11404320040195411 -0.17785048998131209 0 0.092537347032927528 -0.18889969997864839 0 0.084774701335263575 -0.20710845477049339 0 0.10575093398731179 -0.20517541990618701 0 0.10575093398731179 -0.20517541990618701 0 0.11404320040195411 -0.17785048998131209 0 0.12592289232087811 -0.19910656028939411 0 0.10575093398731179 -0.20517541990618701 0 0.1284413173888232 -0.22347585252773641 0 0.12592289232087811 -0.19910656028939411 0 0.10575093398731179 -0.20517541990618701 0 0.102389076685389 -0.22730157072293841 0 0.1284413173888232 -0.22347585252773641 0 0.1200034520355143 -0.24749468667538321 0 0.102389076685389 -0.22730157072293841 0 0.1284413173888232 -0.22347585252773641 0 0.1200034520355143 -0.24749468667538321 0 0.102389076685389 -0.22730157072293841 0 0.096521476943682558 -0.25181800011133371 0 0.1200034520355143 -0.24749468667538321 0 0.102389076685389 -0.22730157072293841 0 0.099885875260422058 -0.15149088269105351 0 0.1161887790728692 -0.1476769396888597 0 0.1105045846919957 -0.16013033574144619 0 0.099885875260422058 -0.15149088269105351 0 0.099597293261818404 -0.1347502866929414 0 0.1161887790728692 -0.1476769396888597 0 0.099597293261818404 -0.1347502866929414 0 0.1161887790728692 -0.1476769396888597 0 0.099597293261818404 -0.1347502866929414 0 0.1047785765018954 -0.13712350701568179 0 0.1161887790728692 -0.1476769396888597 0 0.099597293261818404 -0.1347502866929414 0 0.093527805260815264 -0.13002146576964491 0 0.104312872852085 -0.12243825994362539 0 0.099597293261818404 -0.1347502866929414 0 0.093527805260815264 -0.13002146576964491 0 0.099597293261818404 -0.1347502866929414 0 0.093527805260815264 -0.13002146576964491 0 0.092996203934319052 -0.1329056080468716 0 0.099597293261818404 -0.1347502866929414 0 0.1088944047617572 -0.13480079442927331 0 0.104312872852085 -0.12243825994362539 0 0.099597293261818404 -0.1347502866929414 0 0.1047785765018954 -0.13712350701568179 0 0.1088944047617572 -0.13480079442927331 0 0.099597293261818404 -0.1347502866929414 0 0.1088944047617572 -0.13480079442927331 0 0.1047785765018954 -0.13712350701568179 0 0.1088944047617572 -0.13480079442927331 0 0.1088944047617572 -0.13480079442927331 0 0.1161887790728692 -0.1476769396888597 0 0.13638976604354719 -0.13495016646355951 0 0.1088944047617572 -0.13480079442927331 0 0.12800820934211829 -0.12401417466047961 0 0.13638976604354719 -0.13495016646355951 0 0.1047785765018954 -0.13712350701568179 0 0.1088944047617572 -0.13480079442927331 0 0.1161887790728692 -0.1476769396888597 0 0.1088944047617572 -0.13480079442927331 0 0.104312872852085 -0.12243825994362539 0 0.12800820934211829 -0.12401417466047961 0 0.1088944047617572 -0.13480079442927331 0 0.12800820934211829 -0.12401417466047961 0 0.1088944047617572 -0.13480079442927331 0 0.13638976604354719 -0.13495016646355951 0 0.1161887790728692 -0.1476769396888597 0 0.1105045846919957 -0.16013033574144619 0 0.1305387904294309 -0.15561497697083931 0 0.1105045846919957 -0.16013033574144619 0 0.11404320040195411 -0.17785048998131209 0 0.1305387904294309 -0.15561497697083931 0 0.092537347032927528 -0.18889969997864839 0 0.11404320040195411 -0.17785048998131209 0 0.090957573454969964 -0.1674487964172009 0 0.1105045846919957 -0.16013033574144619 0 0.11404320040195411 -0.17785048998131209 0 0.090957573454969964 -0.1674487964172009 0 0.099885875260422058 -0.15149088269105351 0 0.1105045846919957 -0.16013033574144619 0 0.090957573454969964 -0.1674487964172009 0 0.099885875260422058 -0.15149088269105351 0 0.090957573454969964 -0.1674487964172009 0 0.080257725164813276 -0.1505404030764457 0 0.090957573454969964 -0.1674487964172009 0 0.065342325237630991 -0.1650228072456788 0 0.080257725164813276 -0.1505404030764457 0 0.092537347032927528 -0.18889969997864839 0 0.090957573454969964 -0.1674487964172009 0 0.067160325985138131 -0.18691533881804831 0 0.090957573454969964 -0.1674487964172009 0 0.067160325985138131 -0.18691533881804831 0 0.065342325237630991 -0.1650228072456788 0 0.065342325237630991 -0.1650228072456788 0 0.080257725164813276 -0.1505404030764457 0 0.056224073158944461 -0.14994265306170279 0 0.080257725164813276 -0.1505404030764457 0 0.069539210615093855 -0.1345869923500955 0 0.056224073158944461 -0.14994265306170279 0 0.099885875260422058 -0.15149088269105351 0 0.099597293261818404 -0.1347502866929414 0 0.080257725164813276 -0.1505404030764457 0 0.099597293261818404 -0.1347502866929414 0 0.080257725164813276 -0.1505404030764457 0 0.069539210615093855 -0.1345869923500955 0 0.099597293261818404 -0.1347502866929414 0 0.092996203934319052 -0.1329056080468716 0 0.069539210615093855 -0.1345869923500955 0 0.099597293261818404 -0.1347502866929414 0 0.069539210615093855 -0.1345869923500955 0 0.092996203934319052 -0.1329056080468716 0 0.069539210615093855 -0.1345869923500955 0 0.079322302472514483 -0.11895376470488229 0 0.093527805260815264 -0.13002146576964491 0 0.092996203934319052 -0.1329056080468716 0 0.079322302472514483 -0.11895376470488229 0 0.093527805260815264 -0.13002146576964491 0 0.092996203934319052 -0.1329056080468716 0 0.069539210615093855 -0.1345869923500955 0 0.052298963826290519 -0.1211548808236817 0 0.066569319149528045 -0.1206454253796948 0 0.069539210615093855 -0.1345869923500955 0 0.039481127968369292 -0.1344236980072451 0 0.052298963826290519 -0.1211548808236817 0 0.069539210615093855 -0.1345869923500955 0 0.056224073158944461 -0.14994265306170279 0 0.039481127968369292 -0.1344236980072451 0 0.069539210615093855 -0.1345869923500955 0 0.039481127968369292 -0.1344236980072451 0 0.056224073158944461 -0.14994265306170279 0 0.038811693183881758 -0.15444647348478721 0 0.047368807546727579 -0.16279517251764489 0 0.056224073158944461 -0.14994265306170279 0 0.038811693183881758 -0.15444647348478721 0 0.039481127968369292 -0.1344236980072451 0 0.038811693183881758 -0.15444647348478721 0 0.039481127968369292 -0.1344236980072451 0 0.019056913867763529 -0.155566515408149 0 0.034777770017858589 -0.1343981464191871 0 0.039481127968369292 -0.1344236980072451 0 0.022320289212787989 -0.1422177528203018 0 0.034777770017858589 -0.1343981464191871 0 0.039481127968369292 -0.1344236980072451 0 0.034777770017858589 -0.1343981464191871 0 0.029299678594365521 -0.12697140115214181 0 0.037800108132664212 -0.12348471533883321 0 0.034777770017858589 -0.1343981464191871 0 0.039481127968369292 -0.1344236980072451 0 0.037800108132664212 -0.12348471533883321 0 0.039481127968369292 -0.1344236980072451 0 0.052298963826290519 -0.1211548808236817 0 0.039481127968369292 -0.1344236980072451 0 0.052298963826290519 -0.1211548808236817 0 0.037800108132664212 -0.12348471533883321 0 0.067160325985138131 -0.18691533881804831 0 0.065342325237630991 -0.1650228072456788 0 0.049880579816306267 -0.17970719815632741 0 0.065342325237630991 -0.1650228072456788 0 0.049880579816306267 -0.17970719815632741 0 0.047368807546727579 -0.16279517251764489 0 0.065342325237630991 -0.1650228072456788 0 0.056224073158944461 -0.14994265306170279 0 0.047368807546727579 -0.16279517251764489 0 0.049880579816306267 -0.17970719815632741 0 0.047368807546727579 -0.16279517251764489 0 0.031927543377605602 -0.16950432842919569 0 0.038811693183881758 -0.15444647348478721 0 0.047368807546727579 -0.16279517251764489 0 0.031927543377605602 -0.16950432842919569 0 0.049880579816306267 -0.17970719815632741 0 0.031927543377605602 -0.16950432842919569 0 0.033125333554059701 -0.1865598477748947 0 0.031927543377605602 -0.16950432842919569 0 0.033125333554059701 -0.1865598477748947 0 0.018588522793563201 -0.18166153924030251 0 0.031927543377605602 -0.16950432842919569 0 0.018588522793563201 -0.18166153924030251 0 0.019056913867763529 -0.155566515408149 0 0.038811693183881758 -0.15444647348478721 0 0.031927543377605602 -0.16950432842919569 0 0.019056913867763529 -0.155566515408149 0 -0.0013673002328405961 -0.1767093328090546 0 0.018588522793563201 -0.18166153924030251 0 0.019056913867763529 -0.155566515408149 0 -0.0013673002328405961 -0.1767093328090546 0 0.019056913867763529 -0.155566515408149 0 -0.0013673002328405961 -0.1767093328090546 0 0.019056913867763529 -0.155566515408149 0 0.0027310736070901482 -0.15493719994590471 0 -0.0013673002328405961 -0.1767093328090546 0 0.003555539334036632 -0.19934620758084881 0 0.018588522793563201 -0.18166153924030251 0 0.020222670022858619 -0.12863691797839069 0 0.022320289212787989 -0.1422177528203018 0 0.0088678229424013627 -0.13941235935176011 0 0.020222670022858619 -0.12863691797839069 0 0.02665510196196769 -0.1330560545925053 0 0.022320289212787989 -0.1422177528203018 0 0.034777770017858589 -0.1343981464191871 0 0.029299678594365521 -0.12697140115214181 0 0.02665510196196769 -0.1330560545925053 0 0.020222670022858619 -0.12863691797839069 0 0.029299678594365521 -0.12697140115214181 0 0.02665510196196769 -0.1330560545925053 0 0.034777770017858589 -0.1343981464191871 0 0.02665510196196769 -0.1330560545925053 0 0.022320289212787989 -0.1422177528203018 0 0.039481127968369292 -0.1344236980072451 0 0.019056913867763529 -0.155566515408149 0 0.019056913867763529 -0.155566515408149 0 0.022320289212787989 -0.1422177528203018 0 0.0088678229424013627 -0.13941235935176011 0 0.039481127968369292 -0.1344236980072451 0 0.019056913867763529 -0.155566515408149 0 0.022320289212787989 -0.1422177528203018 0 0.019056913867763529 -0.155566515408149 0 0.0027310736070901482 -0.15493719994590471 0 0.0088678229424013627 -0.13941235935176011 0 0.020222670022858619 -0.12863691797839069 0 0.0088678229424013627 -0.13941235935176011 0 0.0015243557028834459 -0.11711868301268021 0 0.020222670022858619 -0.12863691797839069 0 0.0015243557028834459 -0.11711868301268021 0 0.0144479962461943 -0.1082343501681014 0 0.020222670022858619 -0.12863691797839069 0 0.02728947708542654 -0.1146689930447462 0 0.0144479962461943 -0.1082343501681014 0 0.020222670022858619 -0.12863691797839069 0 0.029299678594365521 -0.12697140115214181 0 0.02728947708542654 -0.1146689930447462 0 0.0144479962461943 -0.1082343501681014 0 0.01674231050701382 -0.093658367309864349 0 0.03170108987002046 -0.10050694789866579 0 0.02728947708542654 -0.1146689930447462 0 0.0144479962461943 -0.1082343501681014 0 0.03170108987002046 -0.10050694789866579 0 0.01674231050701382 -0.093658367309864349 0 0.02745527456064175 -0.089089442263575569 0 0.03170108987002046 -0.10050694789866579 0 0.0144479962461943 -0.1082343501681014 0 0.001856719827670471 -0.098182337095309047 0 0.01674231050701382 -0.093658367309864349 0 0.0015243557028834459 -0.11711868301268021 0 0.0144479962461943 -0.1082343501681014 0 0.001856719827670471 -0.098182337095309047 0 0.001856719827670471 -0.098182337095309047 0 0.0065051428120863272 -0.082127796022149757 0 0.01674231050701382 -0.093658367309864349 0 0.0065051428120863272 -0.082127796022149757 0 0.018539693253586439 -0.071597204448153262 0 0.01731060528333208 -0.084118202510935727 0 0.0065051428120863272 -0.082127796022149757 0 0.01674231050701382 -0.093658367309864349 0 0.01731060528333208 -0.084118202510935727 0 0.0065051428120863272 -0.082127796022149757 0 0.018539693253586439 -0.071597204448153262 0 0.00035237720396625368 -0.061086817302918282 0 0.018539693253586439 -0.071597204448153262 0 0.00035237720396625368 -0.061086817302918282 0 0.029337839486141829 -0.062098975348790997 0 0.018539693253586439 -0.071597204448153262 0 0.036998616429076953 -0.080413518666692163 0 0.029337839486141829 -0.062098975348790997 0 0.018539693253586439 -0.071597204448153262 0 0.039278739387756327 -0.087755278287702396 0 0.018539693253586439 -0.071597204448153262 0 0.02745527456064175 -0.089089442263575569 0 0.039278739387756327 -0.087755278287702396 0 0.018539693253586439 -0.071597204448153262 0 0.01731060528333208 -0.084118202510935727 0 0.02745527456064175 -0.089089442263575569 0 0.01674231050701382 -0.093658367309864349 0 0.01731060528333208 -0.084118202510935727 0 0.02745527456064175 -0.089089442263575569 0 0.018539693253586439 -0.071597204448153262 0 0.036998616429076953 -0.080413518666692163 0 0.039278739387756327 -0.087755278287702396 0 0.02745527456064175 -0.089089442263575569 0 0.039278739387756327 -0.087755278287702396 0 0.036114206476440321 -0.094502097047588079 0 0.036998616429076953 -0.080413518666692163 0 0.039278739387756327 -0.087755278287702396 0 0.050747139898636717 -0.081209848062237813 0 0.058323301768317432 -0.063111133394663815 0 0.029337839486141829 -0.062098975348790997 0 0.036998616429076953 -0.080413518666692163 0 0.058323301768317432 -0.063111133394663815 0 0.029337839486141829 -0.062098975348790997 0 0.036998616429076953 -0.080413518666692163 0 0.058323301768317432 -0.063111133394663815 0 0.058323301768317432 -0.063111133394663815 0 0.050747139898636717 -0.081209848062237813 0 0.060228637404373828 -0.081759239016750626 0 0.036998616429076953 -0.080413518666692163 0 0.058323301768317432 -0.063111133394663815 0 0.050747139898636717 -0.081209848062237813 0 0.039278739387756327 -0.087755278287702396 0 0.050747139898636717 -0.081209848062237813 0 0.060818353003097771 -0.090653503469919336 0 0.050747139898636717 -0.081209848062237813 0 0.060228637404373828 -0.081759239016750626 0 0.060818353003097771 -0.090653503469919336 0 0.060017785521926562 -0.10391335212725129 0 0.042153090511964017 -0.099193769589441219 0 0.043653631303676513 -0.1092911725859987 0 0.060017785521926562 -0.10391335212725129 0 0.043653631303676513 -0.1092911725859987 0 0.039278739387756327 -0.087755278287702396 0 0.060818353003097771 -0.090653503469919336 0 0.060017785521926562 -0.10391335212725129 0 0.060017785521926562 -0.10391335212725129 0 0.053375718786791107 -0.1112883554404277 0 0.043653631303676513 -0.1092911725859987 0 0.039278739387756327 -0.087755278287702396 0 0.060017785521926562 -0.10391335212725129 0 0.039278739387756327 -0.087755278287702396 0 0.060017785521926562 -0.10391335212725129 0 0.042153090511964017 -0.099193769589441219 0 0.060017785521926562 -0.10391335212725129 0 0.053375718786791107 -0.1112883554404277 0 0.065116799684213397 -0.10788606364011991 0 0.052298963826290519 -0.1211548808236817 0 0.066569319149528045 -0.1206454253796948 0 0.065116799684213397 -0.10788606364011991 0 0.052298963826290519 -0.1211548808236817 0 0.065116799684213397 -0.10788606364011991 0 0.052298963826290519 -0.1211548808236817 0 0.053375718786791107 -0.1112883554404277 0 0.065116799684213397 -0.10788606364011991 0 0.052298963826290519 -0.1211548808236817 0 0.053375718786791107 -0.1112883554404277 0 0.043653631303676513 -0.1092911725859987 0 0.02728947708542654 -0.1146689930447462 0 0.037800108132664212 -0.12348471533883321 0 0.043653631303676513 -0.1092911725859987 0 0.02728947708542654 -0.1146689930447462 0 0.043653631303676513 -0.1092911725859987 0 0.052298963826290519 -0.1211548808236817 0 0.037800108132664212 -0.12348471533883321 0 0.043653631303676513 -0.1092911725859987 0 0.029299678594365521 -0.12697140115214181 0 0.02728947708542654 -0.1146689930447462 0 0.037800108132664212 -0.12348471533883321 0 0.02728947708542654 -0.1146689930447462 0 0.03170108987002046 -0.10050694789866579 0 0.043653631303676513 -0.1092911725859987 0 0.036114206476440321 -0.094502097047588079 0 0.03170108987002046 -0.10050694789866579 0 0.042153090511964017 -0.099193769589441219 0 0.02745527456064175 -0.089089442263575569 0 0.036114206476440321 -0.094502097047588079 0 0.03170108987002046 -0.10050694789866579 0 0.039278739387756327 -0.087755278287702396 0 0.036114206476440321 -0.094502097047588079 0 0.042153090511964017 -0.099193769589441219 0 0.03170108987002046 -0.10050694789866579 0 0.042153090511964017 -0.099193769589441219 0 0.043653631303676513 -0.1092911725859987 0 0.025695344612614111 0.0095801541182225364 0 0.02812452509478746 -0.0099579005571815878 0 0.006935528729737548 -0.0054826371559186567 0 0.02812452509478746 -0.0099579005571815878 0 0.006935528729737548 -0.0054826371559186567 0 0.01889941714368459 -0.025130787452367569 0 0.006935528729737548 -0.0054826371559186567 0 0.0027408304473846411 -0.028176541972939319 0 0.01889941714368459 -0.025130787452367569 0 0.02812452509478746 -0.0099579005571815878 0 0.01889941714368459 -0.025130787452367569 0 0.035567370731091272 -0.02454493013615917 0 0.01889941714368459 -0.025130787452367569 0 0.02846567832778216 -0.042756626880165419 0 0.035567370731091272 -0.02454493013615917 0 0.01889941714368459 -0.025130787452367569 0 0.02846567832778216 -0.042756626880165419 0 0.0096258971738255473 -0.043108802377643002 0 0.02846567832778216 -0.042756626880165419 0 0.0096258971738255473 -0.043108802377643002 0 0.016945448047928951 -0.052262805477379423 0 0.01889941714368459 -0.025130787452367569 0 0.0096258971738255473 -0.043108802377643002 0 -0.01026660782967455 -0.041229232136501717 0 0.0027408304473846411 -0.028176541972939319 0 0.0096258971738255473 -0.043108802377643002 0 0.0027408304473846411 -0.028176541972939319 0 0.01889941714368459 -0.025130787452367569 0 0.0096258971738255473 -0.043108802377643002 0 0.0096258971738255473 -0.043108802377643002 0 0.00035237720396625368 -0.061086817302918282 0 0.016945448047928951 -0.052262805477379423 0 0.00035237720396625368 -0.061086817302918282 0 0.016945448047928951 -0.052262805477379423 0 0.029337839486141829 -0.062098975348790997 0 0.0096258971738255473 -0.043108802377643002 0 0.00035237720396625368 -0.061086817302918282 0 0.00035237720396625368 -0.061086817302918282 0 0.029337839486141829 -0.062098975348790997 0 0.02846567832778216 -0.042756626880165419 0 0.016945448047928951 -0.052262805477379423 0 0.029337839486141829 -0.062098975348790997 0 0.02846567832778216 -0.042756626880165419 0 0.029337839486141829 -0.062098975348790997 0 0.044041605111135473 -0.049431168693685697 0 0.058323301768317432 -0.063111133394663815 0 0.029337839486141829 -0.062098975348790997 0 0.044041605111135473 -0.049431168693685697 0 0.058323301768317432 -0.063111133394663815 0 0.044041605111135473 -0.049431168693685697 0 0.059903341899081253 -0.040049795258846832 0 0.059903341899081253 -0.040049795258846832 0 0.045154502468205723 -0.035444412579530127 0 0.052999286202529479 -0.022291816621987929 0 0.044041605111135473 -0.049431168693685697 0 0.059903341899081253 -0.040049795258846832 0 0.045154502468205723 -0.035444412579530127 0 0.02846567832778216 -0.042756626880165419 0 0.044041605111135473 -0.049431168693685697 0 0.045154502468205723 -0.035444412579530127 0 0.02846567832778216 -0.042756626880165419 0 0.045154502468205723 -0.035444412579530127 0 0.035567370731091272 -0.02454493013615917 0 0.045154502468205723 -0.035444412579530127 0 0.035567370731091272 -0.02454493013615917 0 0.052999286202529479 -0.022291816621987929 0 0.035567370731091272 -0.02454493013615917 0 0.052999286202529479 -0.022291816621987929 0 0.04138045704507981 -0.013293391242584921 0 0.02812452509478746 -0.0099579005571815878 0 0.035567370731091272 -0.02454493013615917 0 0.04138045704507981 -0.013293391242584921 0 0.059903341899081253 -0.040049795258846832 0 0.052999286202529479 -0.022291816621987929 0 0.073093181043766914 -0.026775388104941698 0 0.052999286202529479 -0.022291816621987929 0 0.049896637954744763 -0.0073960790217490677 0 0.04138045704507981 -0.013293391242584921 0 0.052999286202529479 -0.022291816621987929 0 0.049896637954744763 -0.0073960790217490677 0 0.066530330394949447 -0.012320269852860621 0 0.049896637954744763 -0.0073960790217490677 0 0.040314465242246092 -0.002276229875846851 0 0.04138045704507981 -0.013293391242584921 0 0.025695344612614111 0.0095801541182225364 0 0.02812452509478746 -0.0099579005571815878 0 0.040314465242246092 -0.002276229875846851 0 0.046640351189982193 0.001482106492276504 0 0.049896637954744763 -0.0073960790217490677 0 0.040314465242246092 -0.002276229875846851 0 0.02812452509478746 -0.0099579005571815878 0 0.040314465242246092 -0.002276229875846851 0 0.04138045704507981 -0.013293391242584921 0 0.075461568133428525 0.0044331687040122013 0 0.081703970602104437 -0.011974759962048749 0 0.098011391193308373 -0.0056982583262641584 0 0.075461568133428525 0.0044331687040122013 0 0.049896637954744763 -0.0073960790217490677 0 0.075461568133428525 0.0044331687040122013 0 0.049896637954744763 -0.0073960790217490677 0 0.066530330394949447 -0.012320269852860621 0 0.075461568133428525 0.0044331687040122013 0 0.081703970602104437 -0.011974759962048749 0 0.066530330394949447 -0.012320269852860621 0 0.081703970602104437 -0.011974759962048749 0 0.066530330394949447 -0.012320269852860621 0 0.073093181043766914 -0.026775388104941698 0 0.052999286202529479 -0.022291816621987929 0 0.066530330394949447 -0.012320269852860621 0 0.073093181043766914 -0.026775388104941698 0 0.081703970602104437 -0.011974759962048749 0 0.097837743661838034 -0.031049975793767819 0 0.098011391193308373 -0.0056982583262641584 0 0.081703970602104437 -0.011974759962048749 0 0.073093181043766914 -0.026775388104941698 0 0.097837743661838034 -0.031049975793767819 0 0.078080522715077566 -0.047080554594215653 0 0.097861902682226248 -0.045151270938537998 0 0.097837743661838034 -0.031049975793767819 0 0.073093181043766914 -0.026775388104941698 0 0.078080522715077566 -0.047080554594215653 0 0.097837743661838034 -0.031049975793767819 0 0.078080522715077566 -0.047080554594215653 0 0.097837743661838034 -0.031049975793767819 0 0.059903341899081253 -0.040049795258846832 0 0.073093181043766914 -0.026775388104941698 0 0.078080522715077566 -0.047080554594215653 0 0.058323301768317432 -0.063111133394663815 0 0.078080522715077566 -0.047080554594215653 0 0.058323301768317432 -0.063111133394663815 0 0.059903341899081253 -0.040049795258846832 0 0.078080522715077566 -0.047080554594215653 0 0.058323301768317432 -0.063111133394663815 0 0.078080522715077566 -0.047080554594215653 0 0.081939961595450139 -0.063935815506958552 0 0.078080522715077566 -0.047080554594215653 0 0.094142039140793971 -0.055881476276546937 0 0.081939961595450139 -0.063935815506958552 0 0.078080522715077566 -0.047080554594215653 0 0.094142039140793971 -0.055881476276546937 0 0.097861902682226248 -0.045151270938537998 0 0.094142039140793971 -0.055881476276546937 0 0.081939961595450139 -0.063935815506958552 0 0.1067368008806147 -0.064801708903802782 0 0.094142039140793971 -0.055881476276546937 0 0.1075629424949773 -0.053875431803618333 0 0.097861902682226248 -0.045151270938537998 0 0.094142039140793971 -0.055881476276546937 0 0.1075629424949773 -0.053875431803618333 0 0.1067368008806147 -0.064801708903802782 0 0.1075629424949773 -0.053875431803618333 0 0.1067368008806147 -0.064801708903802782 0 0.1075629424949773 -0.053875431803618333 0 0.1232921759667842 -0.047663851323270827 0 0.1067368008806147 -0.064801708903802782 0 0.1232921759667842 -0.047663851323270827 0 0.1067368008806147 -0.064801708903802782 0 0.1075629424949773 -0.053875431803618333 0 0.1232921759667842 -0.047663851323270827 0 0.1109518143893137 -0.039435966374661548 0 0.1232921759667842 -0.047663851323270827 0 0.1067368008806147 -0.064801708903802782 0 0.13548767730717889 -0.06580567532731052 0 0.1232921759667842 -0.047663851323270827 0 0.1109518143893137 -0.039435966374661548 0 0.124582941869709 -0.030507807285028901 0 0.1109518143893137 -0.039435966374661548 0 0.097861902682226248 -0.045151270938537998 0 0.097837743661838034 -0.031049975793767819 0 0.1075629424949773 -0.053875431803618333 0 0.1109518143893137 -0.039435966374661548 0 0.097861902682226248 -0.045151270938537998 0 0.097837743661838034 -0.031049975793767819 0 0.1175949646085984 -0.015019396993320021 0 0.097837743661838034 -0.031049975793767819 0 0.1175949646085984 -0.015019396993320021 0 0.098011391193308373 -0.0056982583262641584 0 0.1109518143893137 -0.039435966374661548 0 0.097837743661838034 -0.031049975793767819 0 0.1175949646085984 -0.015019396993320021 0 0.1109518143893137 -0.039435966374661548 0 0.124582941869709 -0.030507807285028901 0 0.1175949646085984 -0.015019396993320021 0 0.124582941869709 -0.030507807285028901 0 0.1175949646085984 -0.015019396993320021 0 0.13165260102391191 -0.019660205177744808 0 0.11882011836095251 0.0065886106746579649 0 0.1175949646085984 -0.015019396993320021 0 0.098011391193308373 -0.0056982583262641584 0 0.11882011836095251 0.0065886106746579649 0 0.13735218555535891 0.001011181807127467 0 0.1175949646085984 -0.015019396993320021 0 0.073111172643960082 -0.099610417542301155 0 0.10058413041743761 -0.090581864498492995 0 0.088608598291174498 -0.101420796185217 0 0.073111172643960082 -0.099610417542301155 0 0.10058413041743761 -0.090581864498492995 0 0.083297568291202648 -0.10670285905343881 0 0.088608598291174498 -0.101420796185217 0 0.073111172643960082 -0.099610417542301155 0 0.083297568291202648 -0.10670285905343881 0 0.088608598291174498 -0.101420796185217 0 0.097441521812097198 -0.10878804364663471 0 0.093527805260815264 -0.13002146576964491 0 0.079322302472514483 -0.11895376470488229 0 0.097441521812097198 -0.10878804364663471 0 0.083297568291202648 -0.10670285905343881 0 0.079322302472514483 -0.11895376470488229 0 0.097441521812097198 -0.10878804364663471 0 0.093527805260815264 -0.13002146576964491 0 0.079322302472514483 -0.11895376470488229 0 0.079322302472514483 -0.11895376470488229 0 0.065116799684213397 -0.10788606364011991 0 0.083297568291202648 -0.10670285905343881 0 0.079322302472514483 -0.11895376470488229 0 0.065116799684213397 -0.10788606364011991 0 0.079322302472514483 -0.11895376470488229 0 0.066569319149528045 -0.1206454253796948 0 0.065116799684213397 -0.10788606364011991 0 0.069539210615093855 -0.1345869923500955 0 0.079322302472514483 -0.11895376470488229 0 0.066569319149528045 -0.1206454253796948 0 0.060017785521926562 -0.10391335212725129 0 0.065116799684213397 -0.10788606364011991 0 0.060017785521926562 -0.10391335212725129 0 0.073111172643960082 -0.099610417542301155 0 0.065116799684213397 -0.10788606364011991 0 0.073111172643960082 -0.099610417542301155 0 0.083297568291202648 -0.10670285905343881 0 0.065116799684213397 -0.10788606364011991 0 0.073111172643960082 -0.099610417542301155 0 0.060017785521926562 -0.10391335212725129 0 0.065116799684213397 -0.10788606364011991 0 0.073111172643960082 -0.099610417542301155 0 0.060818353003097771 -0.090653503469919336 0 0.060017785521926562 -0.10391335212725129 0 0.073111172643960082 -0.099610417542301155 0 0.060818353003097771 -0.090653503469919336 0 0.073111172643960082 -0.099610417542301155 0 0.074211161232423301 -0.082716200610011378 0 0.060228637404373828 -0.081759239016750626 0 0.060818353003097771 -0.090653503469919336 0 0.074211161232423301 -0.082716200610011378 0 0.058323301768317432 -0.063111133394663815 0 0.081939961595450139 -0.063935815506958552 0 0.058323301768317432 -0.063111133394663815 0 0.074211161232423301 -0.082716200610011378 0 0.081939961595450139 -0.063935815506958552 0 0.058323301768317432 -0.063111133394663815 0 0.060228637404373828 -0.081759239016750626 0 0.074211161232423301 -0.082716200610011378 0 0.074211161232423301 -0.082716200610011378 0 0.081939961595450139 -0.063935815506958552 0 0.089190063779311518 -0.082965808471458069 0 0.081939961595450139 -0.063935815506958552 0 0.089190063779311518 -0.082965808471458069 0 0.1052689549146623 -0.0663211994006144 0 0.073111172643960082 -0.099610417542301155 0 0.074211161232423301 -0.082716200610011378 0 0.089190063779311518 -0.082965808471458069 0 0.073111172643960082 -0.099610417542301155 0 0.089190063779311518 -0.082965808471458069 0 0.073111172643960082 -0.099610417542301155 0 0.089190063779311518 -0.082965808471458069 0 0.10058413041743761 -0.090581864498492995 0 0.089190063779311518 -0.082965808471458069 0 0.1017080788123951 -0.087804556385465471 0 0.1052689549146623 -0.0663211994006144 0 0.089190063779311518 -0.082965808471458069 0 0.10058413041743761 -0.090581864498492995 0 0.1017080788123951 -0.087804556385465471 0 0.1017080788123951 -0.087804556385465471 0 0.1084674426683357 -0.077888137089068013 0 0.1052689549146623 -0.0663211994006144 0 0.089190063779311518 -0.082965808471458069 0 0.1052689549146623 -0.0663211994006144 0 0.081939961595450139 -0.063935815506958552 0 0.1067368008806147 -0.064801708903802782 0 0.1052689549146623 -0.0663211994006144 0 0.081939961595450139 -0.063935815506958552 0 0.1067368008806147 -0.064801708903802782 0 0.1017080788123951 -0.087804556385465471 0 0.1052689549146623 -0.0663211994006144 0 0.1084674426683357 -0.077888137089068013 0 0.1067368008806147 -0.064801708903802782 0 0.1052689549146623 -0.0663211994006144 0 0.1067368008806147 -0.064801708903802782 0 0.1052689549146623 -0.0663211994006144 0 0.1067368008806147 -0.064801708903802782 0 0.13548767730717889 -0.06580567532731052 0 0.1084674426683357 -0.077888137089068013 0 0.1067368008806147 -0.064801708903802782 0 0.1232061248222129 -0.075206297362028066 0 0.1067368008806147 -0.064801708903802782 0 0.1232061248222129 -0.075206297362028066 0 0.13548767730717889 -0.06580567532731052 0 0.1017080788123951 -0.087804556385465471 0 0.1084674426683357 -0.077888137089068013 0 0.1272797878356694 -0.088593758706814907 0 0.1017080788123951 -0.087804556385465471 0 0.1272797878356694 -0.088593758706814907 0 0.1084674426683357 -0.077888137089068013 0 0.1232061248222129 -0.075206297362028066 0 0.1272797878356694 -0.088593758706814907 0 0.1017080788123951 -0.087804556385465471 0 0.11567178204704499 -0.10568275569041199 0 0.1272797878356694 -0.088593758706814907 0 0.1017080788123951 -0.087804556385465471 0 0.11567178204704499 -0.10568275569041199 0 0.097441521812097198 -0.10878804364663471 0 0.1017080788123951 -0.087804556385465471 0 0.097441521812097198 -0.10878804364663471 0 0.088608598291174498 -0.101420796185217 0 0.10058413041743761 -0.090581864498492995 0 0.097441521812097198 -0.10878804364663471 0 0.10058413041743761 -0.090581864498492995 0 0.1017080788123951 -0.087804556385465471 0 0.097441521812097198 -0.10878804364663471 0 0.093527805260815264 -0.13002146576964491 0 0.097441521812097198 -0.10878804364663471 0 0.104312872852085 -0.12243825994362539 0 0.093527805260815264 -0.13002146576964491 0 0.097441521812097198 -0.10878804364663471 0 0.11567178204704499 -0.10568275569041199 0 0.097441521812097198 -0.10878804364663471 0 0.104312872852085 -0.12243825994362539 0 0.11567178204704499 -0.10568275569041199 0 0.104312872852085 -0.12243825994362539 0 0.12800820934211829 -0.12401417466047961 0 0.12800820934211829 -0.12401417466047961 0 0.14712201392247631 -0.1132275548916801 0 0.13655559816636781 -0.1031347463460832 0 0.12800820934211829 -0.12401417466047961 0 0.14712201392247631 -0.1132275548916801 0 0.11567178204704499 -0.10568275569041199 0 0.12800820934211829 -0.12401417466047961 0 0.13655559816636781 -0.1031347463460832 0 0.12800820934211829 -0.12401417466047961 0 0.14712201392247631 -0.1132275548916801 0 0.1486045981545247 -0.12747252536747111 0 0.14712201392247631 -0.1132275548916801 0 0.16095359288685571 -0.1184472051676727 0 0.1486045981545247 -0.12747252536747111 0 0.15146120268426411 -0.099532086410862586 0 0.13655559816636781 -0.1031347463460832 0 0.1528514968589437 -0.089382961028164357 0 0.14712201392247631 -0.1132275548916801 0 0.15146120268426411 -0.099532086410862586 0 0.16623581850283431 -0.10244093512288061 0 0.14712201392247631 -0.1132275548916801 0 0.15146120268426411 -0.099532086410862586 0 0.13655559816636781 -0.1031347463460832 0 0.11567178204704499 -0.10568275569041199 0 0.13655559816636781 -0.1031347463460832 0 0.1272797878356694 -0.088593758706814907 0 0.1272797878356694 -0.088593758706814907 0 0.13805891541926751 -0.078942206783145619 0 0.1528514968589437 -0.089382961028164357 0 0.1272797878356694 -0.088593758706814907 0 0.1528514968589437 -0.089382961028164357 0 0.13655559816636781 -0.1031347463460832 0 0.1272797878356694 -0.088593758706814907 0 0.1528514968589437 -0.089382961028164357 0 0.1232061248222129 -0.075206297362028066 0 0.1272797878356694 -0.088593758706814907 0 0.13805891541926751 -0.078942206783145619 0 0.1232061248222129 -0.075206297362028066 0 0.13805891541926751 -0.078942206783145619 0 0.13548767730717889 -0.06580567532731052 0 0.13548767730717889 -0.06580567532731052 0 0.16423855373374319 -0.066809641750814969 0 0.13548767730717889 -0.06580567532731052 0 0.1516507619880918 -0.076739651506421189 0 0.16423855373374319 -0.066809641750814969 0 0.13548767730717889 -0.06580567532731052 0 0.16423855373374319 -0.066809641750814969 0 0.16004124225532049 -0.061841453839887157 0 0.13805891541926751 -0.078942206783145619 0 0.13548767730717889 -0.06580567532731052 0 0.1516507619880918 -0.076739651506421189 0 0.13805891541926751 -0.078942206783145619 0 0.1516507619880918 -0.076739651506421189 0 0.1528514968589437 -0.089382961028164357 0 0.15146120268426411 -0.099532086410862586 0 0.1528514968589437 -0.089382961028164357 0 0.15581646250916109 -0.090151240212135456 0 0.1528514968589437 -0.089382961028164357 0 0.15581646250916109 -0.090151240212135456 0 0.17842320588221819 -0.090172163349513806 0 0.1528514968589437 -0.089382961028164357 0 0.17842320588221819 -0.090172163349513806 0 0.15581646250916109 -0.090151240212135456 0 0.16859491992305889 -0.093070393687126218 0 0.17842320588221819 -0.090172163349513806 0 0.1528514968589437 -0.089382961028164357 0 0.1653897445003264 -0.079862578323319361 0 0.17842320588221819 -0.090172163349513806 0 0.1516507619880918 -0.076739651506421189 0 0.1528514968589437 -0.089382961028164357 0 0.1653897445003264 -0.079862578323319361 0 0.1516507619880918 -0.076739651506421189 0 0.1653897445003264 -0.079862578323319361 0 0.16423855373374319 -0.066809641750814969 0 0.1653897445003264 -0.079862578323319361 0 0.16423855373374319 -0.066809641750814969 0 0.17833356117891219 -0.077628002067558224 0 0.16423855373374319 -0.066809641750814969 0 0.1727598808088672 -0.056322389892066158 0 0.1929894301603077 -0.067813608174319001 0 0.16423855373374319 -0.066809641750814969 0 0.1929894301603077 -0.067813608174319001 0 0.16423855373374319 -0.066809641750814969 0 0.17833356117891219 -0.077628002067558224 0 0.1929894301603077 -0.067813608174319001 0 0.17833356117891219 -0.077628002067558224 0 0.19040307974074269 -0.080139672987034255 0 0.1929894301603077 -0.067813608174319001 0 0.16859491992305889 -0.093070393687126218 0 0.17842320588221819 -0.090172163349513806 0 0.17335524666804841 -0.094081054567607611 0 0.17842320588221819 -0.090172163349513806 0 0.17824607109877541 -0.095663109832525739 0 0.17335524666804841 -0.094081054567607611 0 0.1653897445003264 -0.079862578323319361 0 0.17833356117891219 -0.077628002067558224 0 0.17842320588221819 -0.090172163349513806 0 0.17833356117891219 -0.077628002067558224 0 0.1854866420256687 -0.084161575248007242 0 0.19040307974074269 -0.080139672987034255 0 0.17833356117891219 -0.077628002067558224 0 0.17842320588221819 -0.090172163349513806 0 0.1854866420256687 -0.084161575248007242 0 0.18404025852736719 -0.096743595743047278 0 0.18504385230606449 -0.10434071571553651 0 0.19243594079672521 -0.096163448387799222 0 0.17824607109877541 -0.095663109832525739 0 0.18504385230606449 -0.10434071571553651 0 0.16623581850283431 -0.10244093512288061 0 0.18504385230606449 -0.10434071571553651 0 0.18014950107347269 -0.1188522098678762 0 0.16623581850283431 -0.10244093512288061 0 0.18404025852736719 -0.096743595743047278 0 0.17824607109877541 -0.095663109832525739 0 0.18504385230606449 -0.10434071571553651 0 0.17842320588221819 -0.090172163349513806 0 0.18404025852736719 -0.096743595743047278 0 0.19243594079672521 -0.096163448387799222 0 0.17842320588221819 -0.090172163349513806 0 0.18404025852736719 -0.096743595743047278 0 0.17824607109877541 -0.095663109832525739 0 0.17824607109877541 -0.095663109832525739 0 0.17335524666804841 -0.094081054567607611 0 0.16623581850283431 -0.10244093512288061 0 0.17824607109877541 -0.095663109832525739 0 0.16623581850283431 -0.10244093512288061 0 0.18504385230606449 -0.10434071571553651 0 0.18014950107347269 -0.1188522098678762 0 0.1922879604253335 -0.1099500278873989 0 0.18014950107347269 -0.1188522098678762 0 0.16623581850283431 -0.10244093512288061 0 0.18014950107347269 -0.1188522098678762 0 0.16095359288685571 -0.1184472051676727 0 0.16623581850283431 -0.10244093512288061 0 0.14712201392247631 -0.1132275548916801 0 0.16095359288685571 -0.1184472051676727 0 0.16623581850283431 -0.10244093512288061 0 0.18014950107347269 -0.1188522098678762 0 0.16095359288685571 -0.1184472051676727 0 0.16265603278097029 -0.1302428005884553 0 0.14712201392247631 -0.1132275548916801 0 0.16623581850283431 -0.10244093512288061 0 0.15581646250916109 -0.090151240212135456 0 0.16859491992305889 -0.093070393687126218 0 0.16623581850283431 -0.10244093512288061 0 0.15146120268426411 -0.099532086410862586 0 0.15581646250916109 -0.090151240212135456 0 0.16623581850283431 -0.10244093512288061 0 0.15581646250916109 -0.090151240212135456 0 0.16623581850283431 -0.10244093512288061 0 0.16859491992305889 -0.093070393687126218 0 0.17335524666804841 -0.094081054567607611 0 0.16623581850283431 -0.10244093512288061 0 0.13735218555535891 0.001011181807127467 0 0.1449152044553462 -0.019939696741877431 0 0.14216046477152491 0.0049125148476896544 0 0.15727218843160701 -0.01758578836774349 0 0.15849764294065671 -0.0060544572746906826 0 0.14216046477152491 0.0049125148476896544 0 0.15727218843160701 -0.01758578836774349 0 0.14216046477152491 0.0049125148476896544 0 0.1449152044553462 -0.019939696741877431 0 0.15727218843160701 -0.01758578836774349 0 0.14216046477152491 0.0049125148476896544 0 0.13735218555535891 0.001011181807127467 0 0.1449152044553462 -0.019939696741877431 0 0.13735218555535891 0.001011181807127467 0 0.1175949646085984 -0.015019396993320021 0 0.13735218555535891 0.001011181807127467 0 0.1175949646085984 -0.015019396993320021 0 0.13165260102391191 -0.019660205177744808 0 0.13735218555535891 0.001011181807127467 0 0.13165260102391191 -0.019660205177744808 0 0.1449152044553462 -0.019939696741877431 0 0.13165260102391191 -0.019660205177744808 0 0.13984755105295521 -0.030525993742740402 0 0.1449152044553462 -0.019939696741877431 0 0.124582941869709 -0.030507807285028901 0 0.13165260102391191 -0.019660205177744808 0 0.13984755105295521 -0.030525993742740402 0 0.1449152044553462 -0.019939696741877431 0 0.15247822335533329 -0.040890575290882317 0 0.15727218843160701 -0.01758578836774349 0 0.13984755105295521 -0.030525993742740402 0 0.1449152044553462 -0.019939696741877431 0 0.15247822335533329 -0.040890575290882317 0 0.1449152044553462 -0.019939696741877431 0 0.15247822335533329 -0.040890575290882317 0 0.15247822335533329 -0.040890575290882317 0 0.1379109625223634 -0.045605004272587249 0 0.14629243763992239 -0.054068479542427092 0 0.13984755105295521 -0.030525993742740402 0 0.15247822335533329 -0.040890575290882317 0 0.1379109625223634 -0.045605004272587249 0 0.1232921759667842 -0.047663851323270827 0 0.13984755105295521 -0.030525993742740402 0 0.1379109625223634 -0.045605004272587249 0 0.1232921759667842 -0.047663851323270827 0 0.124582941869709 -0.030507807285028901 0 0.13984755105295521 -0.030525993742740402 0 0.1232921759667842 -0.047663851323270827 0 0.13984755105295521 -0.030525993742740402 0 0.1232921759667842 -0.047663851323270827 0 0.13548767730717889 -0.06580567532731052 0 0.1379109625223634 -0.045605004272587249 0 0.13548767730717889 -0.06580567532731052 0 0.1379109625223634 -0.045605004272587249 0 0.14629243763992239 -0.054068479542427092 0 0.13548767730717889 -0.06580567532731052 0 0.14629243763992239 -0.054068479542427092 0 0.16004124225532049 -0.061841453839887157 0 0.15247822335533329 -0.040890575290882317 0 0.14629243763992239 -0.054068479542427092 0 0.16004124225532049 -0.061841453839887157 0 0.15247822335533329 -0.040890575290882317 0 0.16004124225532049 -0.061841453839887157 0 0.1644158146278025 -0.049784627651503079 0 0.1644158146278025 -0.049784627651503079 0 0.1727598808088672 -0.056322389892066158 0 0.1723839120916891 -0.040084091583176683 0 0.15247822335533329 -0.040890575290882317 0 0.16004124225532049 -0.061841453839887157 0 0.16423855373374319 -0.066809641750814969 0 0.16004124225532049 -0.061841453839887157 0 0.1727598808088672 -0.056322389892066158 0 0.16004124225532049 -0.061841453839887157 0 0.1644158146278025 -0.049784627651503079 0 0.1727598808088672 -0.056322389892066158 0 0.1727598808088672 -0.056322389892066158 0 0.18434240851125541 -0.050289724698312777 0 0.1723839120916891 -0.040084091583176683 0 0.1727598808088672 -0.056322389892066158 0 0.18434240851125541 -0.050289724698312777 0 0.1929894301603077 -0.067813608174319001 0 0.1723839120916891 -0.040084091583176683 0 0.18077822909658589 -0.032018797610549231 0 0.17598651952492231 -0.0227560541305885 0 0.18434240851125541 -0.050289724698312777 0 0.1723839120916891 -0.040084091583176683 0 0.18674227588606429 -0.037749552466939278 0 0.1723839120916891 -0.040084091583176683 0 0.18674227588606429 -0.037749552466939278 0 0.18077822909658589 -0.032018797610549231 0 0.18674227588606429 -0.037749552466939278 0 0.18077822909658589 -0.032018797610549231 0 0.18610830639217099 -0.030062433202775862 0 0.15247822335533329 -0.040890575290882317 0 0.1723839120916891 -0.040084091583176683 0 0.15727218843160701 -0.01758578836774349 0 0.15247822335533329 -0.040890575290882317 0 0.1644158146278025 -0.049784627651503079 0 0.1723839120916891 -0.040084091583176683 0 0.1723839120916891 -0.040084091583176683 0 0.15727218843160701 -0.01758578836774349 0 0.1723839120916891 -0.040084091583176683 0 0.1668946229318731 -0.019675061199070819 0 0.17598651952492231 -0.0227560541305885 0 0.1723839120916891 -0.040084091583176683 0 0.15727218843160701 -0.01758578836774349 0 0.1668946229318731 -0.019675061199070819 0 0.1668946229318731 -0.019675061199070819 0 0.17598651952492231 -0.0227560541305885 0 0.16985348277487761 -0.0099868764823510571 0 0.18077822909658589 -0.032018797610549231 0 0.18438258456793261 -0.021379302004443181 0 0.17598651952492231 -0.0227560541305885 0 0.18077822909658589 -0.032018797610549231 0 0.18610830639217099 -0.030062433202775862 0 0.18438258456793261 -0.021379302004443181 0 0.18438258456793261 -0.021379302004443181 0 0.17598651952492231 -0.0227560541305885 0 0.17878486519392331 -0.011645355321630489 0 0.17598651952492231 -0.0227560541305885 0 0.17878486519392331 -0.011645355321630489 0 0.16985348277487761 -0.0099868764823510571 0 0.17878486519392331 -0.011645355321630489 0 0.17506184651935949 -0.0021247232161890161 0 0.16985348277487761 -0.0099868764823510571 0 0.18438258456793261 -0.021379302004443181 0 0.17878486519392331 -0.011645355321630489 0 0.18863989258252481 -0.001979820774580698 0 0.17878486519392331 -0.011645355321630489 0 0.17506184651935949 -0.0021247232161890161 0 0.18863989258252481 -0.001979820774580698 0 0.1628037813635097 0.0015330777282007481 0 0.17506184651935949 -0.0021247232161890161 0 0.16985348277487761 -0.0099868764823510571 0 0.1668946229318731 -0.019675061199070819 0 0.16985348277487761 -0.0099868764823510571 0 0.15849764294065671 -0.0060544572746906826 0 0.15727218843160701 -0.01758578836774349 0 0.1668946229318731 -0.019675061199070819 0 0.15849764294065671 -0.0060544572746906826 0 0.1628037813635097 0.0015330777282007481 0 0.16985348277487761 -0.0099868764823510571 0 0.15849764294065671 -0.0060544572746906826 0 0.1628037813635097 0.0015330777282007481 0 0.15453230216132671 0.0032055715019124438 0 0.15849764294065671 -0.0060544572746906826 0 0.21174544862736719 0.0096628206364345465 0 0.20589386385567829 -0.0063134785331596111 0 0.2185782736923042 -0.0038367730406402641 0 0.20589386385567829 -0.0063134785331596111 0 0.2185782736923042 -0.0038367730406402641 0 0.2199828155312514 -0.0225516893132638 0 0.20589386385567829 -0.0063134785331596111 0 0.18863989258252481 -0.001979820774580698 0 0.1936475112771239 -0.030998707124919651 0 0.20589386385567829 -0.0063134785331596111 0 0.1936475112771239 -0.030998707124919651 0 0.20001428446098229 -0.034334459813343092 0 0.18863989258252481 -0.001979820774580698 0 0.1936475112771239 -0.030998707124919651 0 0.20589386385567829 -0.0063134785331596111 0 0.20001428446098229 -0.034334459813343092 0 0.18438258456793261 -0.021379302004443181 0 0.18863989258252481 -0.001979820774580698 0 0.1936475112771239 -0.030998707124919651 0 0.18610830639217099 -0.030062433202775862 0 0.18438258456793261 -0.021379302004443181 0 0.1936475112771239 -0.030998707124919651 0 0.20589386385567829 -0.0063134785331596111 0 0.20001428446098229 -0.034334459813343092 0 0.2199828155312514 -0.0225516893132638 0 0.20001428446098229 -0.034334459813343092 0 0.22061008072662569 -0.045125245157715169 0 0.20001428446098229 -0.034334459813343092 0 0.22061008072662569 -0.045125245157715169 0 0.2199828155312514 -0.0225516893132638 0 0.20001428446098229 -0.034334459813343092 0 0.19683654360934791 -0.049478981375062181 0 0.22061008072662569 -0.045125245157715169 0 0.1936475112771239 -0.030998707124919651 0 0.19683654360934791 -0.049478981375062181 0 0.18674227588606429 -0.037749552466939278 0 0.1936475112771239 -0.030998707124919651 0 0.19683654360934791 -0.049478981375062181 0 0.1936475112771239 -0.030998707124919651 0 0.20001428446098229 -0.034334459813343092 0 0.19683654360934791 -0.049478981375062181 0 0.1936475112771239 -0.030998707124919651 0 0.20001428446098229 -0.034334459813343092 0 0.18674227588606429 -0.037749552466939278 0 0.18610830639217099 -0.030062433202775862 0 0.1936475112771239 -0.030998707124919651 0 0.18434240851125541 -0.050289724698312777 0 0.18674227588606429 -0.037749552466939278 0 0.19683654360934791 -0.049478981375062181 0 0.20001428446098229 -0.034334459813343092 0 0.19683654360934791 -0.049478981375062181 0 0.19683654360934791 -0.049478981375062181 0 0.1929894301603077 -0.067813608174319001 0 0.2000429458732931 -0.068059913463883598 0 0.19683654360934791 -0.049478981375062181 0 0.21158346953455981 -0.057932445704329483 0 0.2000429458732931 -0.068059913463883598 0 0.19683654360934791 -0.049478981375062181 0 0.2000429458732931 -0.068059913463883598 0 0.19683654360934791 -0.049478981375062181 0 0.1929894301603077 -0.067813608174319001 0 0.18434240851125541 -0.050289724698312777 0 0.19683654360934791 -0.049478981375062181 0 0.1929894301603077 -0.067813608174319001 0 0.19683654360934791 -0.049478981375062181 0 0.21158346953455981 -0.057932445704329483 0 0.22061008072662569 -0.045125245157715169 0 0.24120587699226881 -0.055916030502087773 0 0.22061008072662569 -0.045125245157715169 0 0.2288443079289719 -0.069065642820655804 0 0.21158346953455981 -0.057932445704329483 0 0.22061008072662569 -0.045125245157715169 0 0.2288443079289719 -0.069065642820655804 0 0.24120587699226881 -0.055916030502087773 0 0.22061008072662569 -0.045125245157715169 0 0.25030159180115191 -0.034143426788088307 0 0.24120587699226881 -0.055916030502087773 0 0.23430517811137791 -0.037629801295311363 0 0.25030159180115191 -0.034143426788088307 0 0.23430517811137791 -0.037629801295311363 0 0.23651070060392609 -0.023431292744830981 0 0.22061008072662569 -0.045125245157715169 0 0.23430517811137791 -0.037629801295311363 0 0.2199828155312514 -0.0225516893132638 0 0.24120587699226881 -0.055916030502087773 0 0.22061008072662569 -0.045125245157715169 0 0.23430517811137791 -0.037629801295311363 0 0.2199828155312514 -0.0225516893132638 0 0.23651070060392609 -0.023431292744830981 0 0.2300866381754704 -0.0072438550720441714 0 0.23430517811137791 -0.037629801295311363 0 0.2199828155312514 -0.0225516893132638 0 0.23651070060392609 -0.023431292744830981 0 0.25030159180115191 -0.034143426788088307 0 0.23651070060392609 -0.023431292744830981 0 0.2464198669495459 -0.012097030270161889 0 0.23790413247208811 0.0091049515404343275 0 0.2464198669495459 -0.012097030270161889 0 0.2300866381754704 -0.0072438550720441714 0 0.23651070060392609 -0.023431292744830981 0 0.2464198669495459 -0.012097030270161889 0 0.2300866381754704 -0.0072438550720441714 0 0.2185782736923042 -0.0038367730406402641 0 0.2199828155312514 -0.0225516893132638 0 0.2300866381754704 -0.0072438550720441714 0 0.22518260227175371 0.0072623370788317187 0 0.2185782736923042 -0.0038367730406402641 0 0.2300866381754704 -0.0072438550720441714 0 0.20666963866093291 -0.1113398018781358 0 0.20399491490549271 -0.090961365670864353 0 0.20666963866093291 -0.1113398018781358 0 0.23081911420975029 -0.091789222750733895 0 0.20666963866093291 -0.1113398018781358 0 0.20399491490549271 -0.090961365670864353 0 0.23081911420975029 -0.091789222750733895 0 0.2184940671700534 -0.12394732724419751 0 0.20666963866093291 -0.1113398018781358 0 0.22056261316880149 -0.1108234873110058 0 0.2184940671700534 -0.12394732724419751 0 0.20975191972323501 -0.12432290509972491 0 0.20666963866093291 -0.1113398018781358 0 0.2184940671700534 -0.12394732724419751 0 0.20666963866093291 -0.1113398018781358 0 0.20975191972323501 -0.12432290509972491 0 0.20666963866093291 -0.1113398018781358 0 0.1971408692894723 -0.1190539635876471 0 0.20975191972323501 -0.12432290509972491 0 0.20666963866093291 -0.1113398018781358 0 0.18014950107347269 -0.1188522098678762 0 0.1971408692894723 -0.1190539635876471 0 0.19406318364410949 -0.13526348461287321 0 0.20666963866093291 -0.1113398018781358 0 0.1971408692894723 -0.1190539635876471 0 0.18014950107347269 -0.1188522098678762 0 0.1971408692894723 -0.1190539635876471 0 0.1922879604253335 -0.1099500278873989 0 0.20666963866093291 -0.1113398018781358 0 0.1971408692894723 -0.1190539635876471 0 0.1922879604253335 -0.1099500278873989 0 0.20666963866093291 -0.1113398018781358 0 0.19243594079672521 -0.096163448387799222 0 0.20399491490549271 -0.090961365670864353 0 0.18504385230606449 -0.10434071571553651 0 0.1922879604253335 -0.1099500278873989 0 0.19243594079672521 -0.096163448387799222 0 0.20666963866093291 -0.1113398018781358 0 0.1922879604253335 -0.1099500278873989 0 0.19243594079672521 -0.096163448387799222 0 0.20666963866093291 -0.1113398018781358 0 0.19243594079672521 -0.096163448387799222 0 0.1854866420256687 -0.084161575248007242 0 0.19040307974074269 -0.080139672987034255 0 0.20399491490549271 -0.090961365670864353 0 0.17842320588221819 -0.090172163349513806 0 0.19243594079672521 -0.096163448387799222 0 0.20399491490549271 -0.090961365670864353 0 0.17842320588221819 -0.090172163349513806 0 0.20399491490549271 -0.090961365670864353 0 0.17842320588221819 -0.090172163349513806 0 0.1854866420256687 -0.084161575248007242 0 0.20399491490549271 -0.090961365670864353 0 0.2000429458732931 -0.068059913463883598 0 0.20399491490549271 -0.090961365670864353 0 0.19040307974074269 -0.080139672987034255 0 0.2000429458732931 -0.068059913463883598 0 0.20399491490549271 -0.090961365670864353 0 0.19040307974074269 -0.080139672987034255 0 0.1929894301603077 -0.067813608174319001 0 0.2000429458732931 -0.068059913463883598 0 0.19040307974074269 -0.080139672987034255 0 0.1929894301603077 -0.067813608174319001 0 0.1929894301603077 -0.067813608174319001 0 0.2000429458732931 -0.068059913463883598 0 0.2000429458732931 -0.068059913463883598 0 0.2288443079289719 -0.069065642820655804 0 0.2000429458732931 -0.068059913463883598 0 0.21771238563745279 -0.081480669998114597 0 0.2288443079289719 -0.069065642820655804 0 0.21158346953455981 -0.057932445704329483 0 0.2000429458732931 -0.068059913463883598 0 0.2288443079289719 -0.069065642820655804 0 0.2000429458732931 -0.068059913463883598 0 0.20399491490549271 -0.090961365670864353 0 0.21771238563745279 -0.081480669998114597 0 0.20399491490549271 -0.090961365670864353 0 0.21771238563745279 -0.081480669998114597 0 0.23081911420975029 -0.091789222750733895 0 0.20399491490549271 -0.090961365670864353 0 0.23081911420975029 -0.091789222750733895 0 0.21771238563745279 -0.081480669998114597 0 0.23081911420975029 -0.091789222750733895 0 0.2288443079289719 -0.069065642820655804 0 0.25764566998465072 -0.070071372177431313 0 0.24120587699226881 -0.055916030502087773 0 0.2288443079289719 -0.069065642820655804 0 0.25764566998465072 -0.070071372177431313 0 0.2288443079289719 -0.069065642820655804 0 0.25764566998465072 -0.070071372177431313 0 0.2288443079289719 -0.069065642820655804 0 0.24423239209720191 -0.080930297464084477 0 0.25666672159796139 -0.092586939936295867 0 0.23081911420975029 -0.091789222750733895 0 0.23081911420975029 -0.091789222750733895 0 0.2288443079289719 -0.069065642820655804 0 0.24423239209720191 -0.080930297464084477 0 0.25666672159796139 -0.092586939936295867 0 0.23081911420975029 -0.091789222750733895 0 0.24423239209720191 -0.080930297464084477 0 0.23081911420975029 -0.091789222750733895 0 0.24423239209720191 -0.080930297464084477 0 0.25666672159796139 -0.092586939936295867 0 0.23081911420975029 -0.091789222750733895 0 0.23839025179526999 -0.1151992729885977 0 0.20666963866093291 -0.1113398018781358 0 0.23081911420975029 -0.091789222750733895 0 0.22056261316880149 -0.1108234873110058 0 0.23081911420975029 -0.091789222750733895 0 0.22056261316880149 -0.1108234873110058 0 0.23839025179526999 -0.1151992729885977 0 0.2184940671700534 -0.12394732724419751 0 0.22056261316880149 -0.1108234873110058 0 0.23839025179526999 -0.1151992729885977 0 0.2184940671700534 -0.12394732724419751 0 0.23839025179526999 -0.1151992729885977 0 0.22928680998153819 -0.13545484142638689 0 0.25915390151091949 -0.11811210275817149 0 0.25133622254172122 -0.13557462765415079 0 0.23839025179526999 -0.1151992729885977 0 0.25133622254172122 -0.13557462765415079 0 0.25208407187516418 -0.1419613505697605 0 0.23274332603383319 -0.13914027229300069 0 0.25133622254172122 -0.13557462765415079 0 0.23839025179526999 -0.1151992729885977 0 0.22928680998153819 -0.13545484142638689 0 0.25133622254172122 -0.13557462765415079 0 0.22928680998153819 -0.13545484142638689 0 0.25133622254172122 -0.13557462765415079 0 0.23274332603383319 -0.13914027229300069 0 0.22928680998153819 -0.13545484142638689 0 0.25208407187516418 -0.1419613505697605 0 0.23274332603383319 -0.13914027229300069 0 0.2530488896403309 -0.16079061319898569 0 0.23274332603383319 -0.13914027229300069 0 0.2530488896403309 -0.16079061319898569 0 0.23274332603383319 -0.13914027229300069 0 0.2334622085995452 -0.15779257262933219 0 0.2530488896403309 -0.16079061319898569 0 0.25208407187516418 -0.1419613505697605 0 0.23274332603383319 -0.13914027229300069 0 0.22694604844669111 -0.15137512496012309 0 0.2202725953444182 -0.1456731206256075 0 0.22100128495381829 -0.16152072110389429 0 0.22694604844669111 -0.15137512496012309 0 0.23274332603383319 -0.13914027229300069 0 0.2334622085995452 -0.15779257262933219 0 0.22694604844669111 -0.15137512496012309 0 0.2202725953444182 -0.1456731206256075 0 0.23274332603383319 -0.13914027229300069 0 0.23274332603383319 -0.13914027229300069 0 0.20959101376118139 -0.13576323162740581 0 0.22928680998153819 -0.13545484142638689 0 0.2116749968128239 -0.1353591630196288 0 0.23274332603383319 -0.13914027229300069 0 0.22928680998153819 -0.13545484142638689 0 0.2116749968128239 -0.1353591630196288 0 0.2184940671700534 -0.12394732724419751 0 0.22928680998153819 -0.13545484142638689 0 0.2116749968128239 -0.1353591630196288 0 0.2202725953444182 -0.1456731206256075 0 0.23274332603383319 -0.13914027229300069 0 0.20959101376118139 -0.13576323162740581 0 0.23274332603383319 -0.13914027229300069 0 0.22928680998153819 -0.13545484142638689 0 0.2184940671700534 -0.12394732724419751 0 0.22928680998153819 -0.13545484142638689 0 0.23274332603383319 -0.13914027229300069 0 0.20959101376118139 -0.13576323162740581 0 0.2116749968128239 -0.1353591630196288 0 0.20975191972323501 -0.12432290509972491 0 0.2116749968128239 -0.1353591630196288 0 0.19406318364410949 -0.13526348461287321 0 0.2184940671700534 -0.12394732724419751 0 0.20975191972323501 -0.12432290509972491 0 0.2116749968128239 -0.1353591630196288 0 0.20959101376118139 -0.13576323162740581 0 0.2116749968128239 -0.1353591630196288 0 0.19406318364410949 -0.13526348461287321 0 0.2202725953444182 -0.1456731206256075 0 0.21077041390333781 -0.15496976615408631 0 0.22100128495381829 -0.16152072110389429 0 0.2202725953444182 -0.1456731206256075 0 0.20959101376118139 -0.13576323162740581 0 0.21077041390333781 -0.15496976615408631 0 0.20959101376118139 -0.13576323162740581 0 0.21077041390333781 -0.15496976615408631 0 0.19406318364410949 -0.13526348461287321 0 0.21077041390333781 -0.15496976615408631 0 0.19019323353294471 -0.15547991582157239 0 0.19406318364410949 -0.13526348461287321 0 0.21077041390333781 -0.15496976615408631 0 0.19406318364410949 -0.13526348461287321 0 0.20975191972323501 -0.12432290509972491 0 0.1971408692894723 -0.1190539635876471 0 0.19406318364410949 -0.13526348461287321 0 0.2116749968128239 -0.1353591630196288 0 0.19406318364410949 -0.13526348461287321 0 0.2064216300685435 -0.1763378775815001 0 0.19333004299069351 -0.19482382871724169 0 0.185888281266576 -0.1738959907954824 0 0.21077041390333781 -0.15496976615408631 0 0.19019323353294471 -0.15547991582157239 0 0.2064216300685435 -0.1763378775815001 0 0.19019323353294471 -0.15547991582157239 0 0.2064216300685435 -0.1763378775815001 0 0.185888281266576 -0.1738959907954824 0 0.21077041390333781 -0.15496976615408631 0 0.2064216300685435 -0.1763378775815001 0 0.22100128495381829 -0.16152072110389429 0 0.2064216300685435 -0.1763378775815001 0 0.22637928715471201 -0.1750627007060517 0 0.22100128495381829 -0.16152072110389429 0 0.2064216300685435 -0.1763378775815001 0 0.22637928715471201 -0.1750627007060517 0 0.2213864998634191 -0.19074186604973761 0 0.22637928715471201 -0.1750627007060517 0 0.2363010186387848 -0.18586727398715949 0 0.2213864998634191 -0.19074186604973761 0 0.22637928715471201 -0.1750627007060517 0 0.22100128495381829 -0.16152072110389429 0 0.2334622085995452 -0.15779257262933219 0 0.22637928715471201 -0.1750627007060517 0 0.2334622085995452 -0.15779257262933219 0 0.24133419147104179 -0.17110858194103351 0 0.22694604844669111 -0.15137512496012309 0 0.22100128495381829 -0.16152072110389429 0 0.2334622085995452 -0.15779257262933219 0 0.2530488896403309 -0.16079061319898569 0 0.2334622085995452 -0.15779257262933219 0 0.24133419147104179 -0.17110858194103351 0 0.2550208565069661 -0.17514012483034949 0 0.2530488896403309 -0.16079061319898569 0 0.24133419147104179 -0.17110858194103351 0 0.22637928715471201 -0.1750627007060517 0 0.24133419147104179 -0.17110858194103351 0 0.2363010186387848 -0.18586727398715949 0 0.25030889548151403 -0.1837077448593728 0 0.2550208565069661 -0.17514012483034949 0 0.24133419147104179 -0.17110858194103351 0 0.25030889548151403 -0.1837077448593728 0 0.24133419147104179 -0.17110858194103351 0 0.2363010186387848 -0.18586727398715949 0 0.25030889548151403 -0.1837077448593728 0 0.2363010186387848 -0.18586727398715949 0 0.24624710011957149 -0.19756578472926509 0 0.2363010186387848 -0.18586727398715949 0 0.24624710011957149 -0.19756578472926509 0 0.23232272155890341 -0.19906227567560569 0 0.24624710011957149 -0.19756578472926509 0 0.2390873575194972 -0.2119906927462733 0 0.23232272155890341 -0.19906227567560569 0 0.25806059678156651 -0.21160485628964759 0 0.24624710011957149 -0.19756578472926509 0 0.2390873575194972 -0.2119906927462733 0 0.25806059678156651 -0.21160485628964759 0 0.2390873575194972 -0.2119906927462733 0 0.2485278721491469 -0.22983386195931649 0 0.22156570902884701 -0.2081716276760221 0 0.2275965143199381 -0.22680811778712909 0 0.21130945108473639 -0.22000441216527869 0 0.2390873575194972 -0.2119906927462733 0 0.22156570902884701 -0.2081716276760221 0 0.23232272155890341 -0.19906227567560569 0 0.2390873575194972 -0.2119906927462733 0 0.22156570902884701 -0.2081716276760221 0 0.2275965143199381 -0.22680811778712909 0 0.22156570902884701 -0.2081716276760221 0 0.2213864998634191 -0.19074186604973761 0 0.23232272155890341 -0.19906227567560569 0 0.2363010186387848 -0.18586727398715949 0 0.2213864998634191 -0.19074186604973761 0 0.23232272155890341 -0.19906227567560569 0 0.2410490216361528 -0.25300372010805161 0 0.2485278721491469 -0.22983386195931649 0 0.2275965143199381 -0.22680811778712909 0 0.25787859859726192 -0.24372773219337371 0 0.2410490216361528 -0.25300372010805161 0 0.2485278721491469 -0.22983386195931649 0 0.2390873575194972 -0.2119906927462733 0 0.2485278721491469 -0.22983386195931649 0 0.2275965143199381 -0.22680811778712909 0 0.2410490216361528 -0.25300372010805161 0 0.2275965143199381 -0.22680811778712909 0 0.2136455624920251 -0.24586339942155419 0 0.2410490216361528 -0.25300372010805161 0 0.2136455624920251 -0.24586339942155419 0 0.2136455624920251 -0.24586339942155419 0 0.1995187067769538 -0.22648505830905971 0 0.1970165427207646 -0.2431475676051908 0 0.2275965143199381 -0.22680811778712909 0 0.2136455624920251 -0.24586339942155419 0 0.21130945108473639 -0.22000441216527869 0 0.2136455624920251 -0.24586339942155419 0 0.21130945108473639 -0.22000441216527869 0 0.1995187067769538 -0.22648505830905971 0 0.1995187067769538 -0.22648505830905971 0 0.1970165427207646 -0.2431475676051908 0 0.1843931124890181 -0.23269732176232691 0 0.21130945108473639 -0.22000441216527869 0 0.1995187067769538 -0.22648505830905971 0 0.19847161958806309 -0.21206345826637629 0 0.2064216300685435 -0.1763378775815001 0 0.2213864998634191 -0.19074186604973761 0 0.20705859430259141 -0.20063481153153051 0 0.22156570902884701 -0.2081716276760221 0 0.2213864998634191 -0.19074186604973761 0 0.20705859430259141 -0.20063481153153051 0 0.22156570902884701 -0.2081716276760221 0 0.21130945108473639 -0.22000441216527869 0 0.20705859430259141 -0.20063481153153051 0 0.21130945108473639 -0.22000441216527869 0 0.20705859430259141 -0.20063481153153051 0 0.19847161958806309 -0.21206345826637629 0 0.19847161958806309 -0.21206345826637629 0 0.19333004299069351 -0.19482382871724169 0 0.184507054165965 -0.21658659277756609 0 0.1995187067769538 -0.22648505830905971 0 0.19847161958806309 -0.21206345826637629 0 0.184507054165965 -0.21658659277756609 0 0.20705859430259141 -0.20063481153153051 0 0.19847161958806309 -0.21206345826637629 0 0.19333004299069351 -0.19482382871724169 0 0.2064216300685435 -0.1763378775815001 0 0.20705859430259141 -0.20063481153153051 0 0.19333004299069351 -0.19482382871724169 0 0.1776330785524223 -0.18942424135099509 0 0.184507054165965 -0.21658659277756609 0 0.16837846483810831 -0.20319749351435479 0 0.19333004299069351 -0.19482382871724169 0 0.1776330785524223 -0.18942424135099509 0 0.184507054165965 -0.21658659277756609 0 0.1776330785524223 -0.18942424135099509 0 0.184507054165965 -0.21658659277756609 0 0.184507054165965 -0.21658659277756609 0 0.1749867686249286 -0.21735889230250449 0 0.16837846483810831 -0.20319749351435479 0 0.1749867686249286 -0.21735889230250449 0 0.16837846483810831 -0.20319749351435479 0 0.15045483047290331 -0.2082327262959493 0 0.1749867686249286 -0.21735889230250449 0 0.15045483047290331 -0.2082327262959493 0 0.1749867686249286 -0.21735889230250449 0 0.16226861639455931 -0.22172210758959859 0 0.15045483047290331 -0.2082327262959493 0 0.16837846483810831 -0.20319749351435479 0 0.15045483047290331 -0.2082327262959493 0 0.15431059237432221 -0.18438501484475869 0 0.1776330785524223 -0.18942424135099509 0 0.16837846483810831 -0.20319749351435479 0 0.15431059237432221 -0.18438501484475869 0 0.1970165427207646 -0.2431475676051908 0 0.18013525364959199 -0.24590787480667409 0 0.1843931124890181 -0.23269732176232691 0 0.18013525364959199 -0.24590787480667409 0 0.1843931124890181 -0.23269732176232691 0 0.17030829067285161 -0.2305872157882054 0 0.1995187067769538 -0.22648505830905971 0 0.1749867686249286 -0.21735889230250449 0 0.1995187067769538 -0.22648505830905971 0 0.1749867686249286 -0.21735889230250449 0 0.1843931124890181 -0.23269732176232691 0 0.1995187067769538 -0.22648505830905971 0 0.184507054165965 -0.21658659277756609 0 0.1749867686249286 -0.21735889230250449 0 0.1749867686249286 -0.21735889230250449 0 0.1843931124890181 -0.23269732176232691 0 0.17030829067285161 -0.2305872157882054 0 0.16226861639455931 -0.22172210758959859 0 0.17030829067285161 -0.2305872157882054 0 0.15332457580755371 -0.23070959597173549 0 0.1749867686249286 -0.21735889230250449 0 0.16226861639455931 -0.22172210758959859 0 0.17030829067285161 -0.2305872157882054 0 0.16103468924722281 -0.25381861710109321 0 0.18013525364959199 -0.24590787480667409 0 0.17030829067285161 -0.2305872157882054 0 0.16103468924722281 -0.25381861710109321 0 0.17030829067285161 -0.2305872157882054 0 0.15332457580755371 -0.23070959597173549 0 0.16103468924722281 -0.25381861710109321 0 0.1412434604122122 -0.24631040783256791 0 0.15332457580755371 -0.23070959597173549 0 0.1412434604122122 -0.24631040783256791 0 0.15332457580755371 -0.23070959597173549 0 0.1284413173888232 -0.22347585252773641 0 0.15332457580755371 -0.23070959597173549 0 0.1284413173888232 -0.22347585252773641 0 0.15045483047290331 -0.2082327262959493 0 0.16226861639455931 -0.22172210758959859 0 0.15332457580755371 -0.23070959597173549 0 0.15045483047290331 -0.2082327262959493 0 0.1200034520355143 -0.24749468667538321 0 0.1412434604122122 -0.24631040783256791 0 0.1284413173888232 -0.22347585252773641 0 0.15045483047290331 -0.2082327262959493 0 0.12592289232087811 -0.19910656028939411 0 0.15431059237432221 -0.18438501484475869 0 0.15045483047290331 -0.2082327262959493 0 0.12592289232087811 -0.19910656028939411 0 0.1284413173888232 -0.22347585252773641 0 0.15045483047290331 -0.2082327262959493 0 0.12592289232087811 -0.19910656028939411 0 0.11404320040195411 -0.17785048998131209 0 0.12592289232087811 -0.19910656028939411 0 0.1362427207560932 -0.1734399905344442 0 0.12592289232087811 -0.19910656028939411 0 0.1362427207560932 -0.1734399905344442 0 0.15431059237432221 -0.18438501484475869 0 0.1362427207560932 -0.1734399905344442 0 0.15431059237432221 -0.18438501484475869 0 0.1498051255961938 -0.157092757972084 0 0.11404320040195411 -0.17785048998131209 0 0.1362427207560932 -0.1734399905344442 0 0.1305387904294309 -0.15561497697083931 0 0.1362427207560932 -0.1734399905344442 0 0.1498051255961938 -0.157092757972084 0 0.1305387904294309 -0.15561497697083931 0 0.1498051255961938 -0.157092757972084 0 0.1305387904294309 -0.15561497697083931 0 0.13638976604354719 -0.13495016646355951 0 0.1161887790728692 -0.1476769396888597 0 0.1305387904294309 -0.15561497697083931 0 0.13638976604354719 -0.13495016646355951 0 0.12800820934211829 -0.12401417466047961 0 0.13638976604354719 -0.13495016646355951 0 0.1486045981545247 -0.12747252536747111 0 0.13638976604354719 -0.13495016646355951 0 0.16388512732533739 -0.13509953849785281 0 0.13638976604354719 -0.13495016646355951 0 0.1486045981545247 -0.12747252536747111 0 0.16388512732533739 -0.13509953849785281 0 0.1498051255961938 -0.157092757972084 0 0.13638976604354719 -0.13495016646355951 0 0.16388512732533739 -0.13509953849785281 0 0.16388512732533739 -0.13509953849785281 0 0.17075910293887969 -0.16226188992442411 0 0.1498051255961938 -0.157092757972084 0 0.16388512732533739 -0.13509953849785281 0 0.17075910293887969 -0.16226188992442411 0 0.18014950107347269 -0.1188522098678762 0 0.16265603278097029 -0.1302428005884553 0 0.16388512732533739 -0.13509953849785281 0 0.16095359288685571 -0.1184472051676727 0 0.1486045981545247 -0.12747252536747111 0 0.16265603278097029 -0.1302428005884553 0 0.1486045981545247 -0.12747252536747111 0 0.16265603278097029 -0.1302428005884553 0 0.16388512732533739 -0.13509953849785281 0 0.16265603278097029 -0.1302428005884553 0 0.16388512732533739 -0.13509953849785281 0 0.19406318364410949 -0.13526348461287321 0 0.16388512732533739 -0.13509953849785281 0 0.18014950107347269 -0.1188522098678762 0 0.19406318364410949 -0.13526348461287321 0 0.18014950107347269 -0.1188522098678762 0 0.19406318364410949 -0.13526348461287321 0 0.16388512732533739 -0.13509953849785281 0 0.19019323353294471 -0.15547991582157239 0 0.16388512732533739 -0.13509953849785281 0 0.17075910293887969 -0.16226188992442411 0 0.19019323353294471 -0.15547991582157239 0 0.19406318364410949 -0.13526348461287321 0 0.16388512732533739 -0.13509953849785281 0 0.19019323353294471 -0.15547991582157239 0 0.185888281266576 -0.1738959907954824 0 0.17075910293887969 -0.16226188992442411 0 0.1776330785524223 -0.18942424135099509 0 0.185888281266576 -0.1738959907954824 0 0.17075910293887969 -0.16226188992442411 0 0.1776330785524223 -0.18942424135099509 0 0.17075910293887969 -0.16226188992442411 0 0.19333004299069351 -0.19482382871724169 0 0.1776330785524223 -0.18942424135099509 0 0.185888281266576 -0.1738959907954824 0 0.1776330785524223 -0.18942424135099509 0 0.15431059237432221 -0.18438501484475869 0 0.17075910293887969 -0.16226188992442411 0 0.15431059237432221 -0.18438501484475869 0 0.1498051255961938 -0.157092757972084 0 0.17075910293887969 -0.16226188992442411 0 
</DataArray>
</Points>
<Cells>
<DataArray type="UInt32" Name="connectivity" format="ascii">
0 1 2 3 4 5 6 7 8 9 10 11 12 13 14 15 16 17 18 19 20 21 22 23 24 25 26 27 28 29 30 31 32 33 34 35 36 37 38 39 40 41 42 43 44 45 46 47 48 49 50 51 52 53 54 55 56 57 58 59 60 61 62 63 64 65 66 67 68 69 70 71 72 73 74 75 76 77 78 79 80 81 82 83 84 85 86 87 88 89 90 91 92 93 94 95 96 97 98 99 100 101 102 103 104 105 106 107 108 109 110 111 112 113 114 115 116 117 118 119 120 121 122 123 124 125 126 127 128 129 130 131 132 133 134 135 136 137 138 139 140 141 142 143 144 145 146 147 148 149 150 151 152 153 154 155 156 157 158 159 160 161 162 163 164 165 166 167 168 169 170 171 172 173 174 175 176 177 178 179 180 181 182 183 184 185 186 187 188 189 190 191 192 193 194 195 196 197 198 199 200 201 202 203 204 205 206 207 208 209 210 211 212 213 214 215 216 217 218 219 220 221 222 223 224 225 226 227 228 229 230 231 232 233 234 235 236 237 238 239 240 241 242 243 244 245 246 247 248 249 250 251 252 253 254 255 256 257 258 259 260 261 262 263 264 265 266 267 268 269 270 271 272 273 274 275 276 277 278 279 280 281 282 283 284 285 286 287 288 289 290 291 292 293 294 295 296 297 298 299 300 301 302 303 304 305 306 307 308 309 310 311 312 313 314 315 316 317 318 319 320 321 322 323 324 325 326 327 328 329 330 331 332 333 334 335 336 337 338 339 340 341 342 343 344 345 346 347 348 349 350 351 352 353 354 355 356 357 358 359 360 361 362 363 364 365 366 367 368 369 370 371 372 373 374 375 376 377 378 379 380 381 382 383 384 385 386 387 388 389 390 391 392 393 394 395 396 397 398 399 400 401 402 403 404 405 406 407 408 409 410 411 412 413 414 415 416 417 418 419 420 421 422 423 424 425 426 427 428 429 430 431 432 433 434 435 436 437 438 439 440 441 442 443 444 445 446 447 448 449 450 451 452 453 454 455 456 457 458 459 460 461 462 463 464 465 466 467 468 469 470 471 472 473 474 475 476 477 478 479 480 481 482 483 484 485 486 487 488 489 490 491 492 493 494 495 496 497 498 499 500 501 502 503 504 505 506 507 508 509 510 511 512 513 514 515 516 517 518 519 520 521 522 523 524 525 526 527 528 529 530 531 532 533 534 535 536 537 538 539 540 541 542 543 544 545 546 547 548 549 550 551 552 553 554 555 556 557 558 559 560 561 562 563 564 565 566 567 568 569 570 571 572 573 574 575 576 577 578 579 580 581 582 583 584 585 586 587 588 589 590 591 592 593 594 595 596 597 598 599 600 601 602 603 604 605 606 607 608 609 610 611 612 613 614 615 616 617 618 619 620 621 622 623 624 625 626 627 628 629 630 631 632 633 634 635 636 637 638 639 640 641 642 643 644 645 646 647 648 649 650 651 652 653 654 655 656 657 658 659 660 661 662 663 664 665 666 667 668 669 670 671 672 673 674 675 676 677 678 679 680 681 682 683 684 685 686 687 688 689 690 691 692 693 694 695 696 697 698 699 700 701 702 703 704 705 706 707 708 709 710 711 712 713 714 715 716 717 718 719 720 721 722 723 724 725 726 727 728 729 730 731 732 733 734 735 736 737 738 739 740 741 742 743 744 745 746 747 748 749 750 751 752 753 754 755 756 757 758 759 760 761 762 763 764 765 766 767 768 769 770 771 772 773 774 775 776 777 778 779 780 781 782 783 784 785 786 787 788 789 790 791 792 793 794 795 796 797 798 799 800 801 802 803 804 805 806 807 808 809 810 811 812 813 814 815 816 817 818 819 820 821 822 823 824 825 826 827 828 829 830 831 832 833 834 835 836 837 838 839 840 841 842 843 844 845 846 847 848 849 850 851 852 853 854 855 856 857 858 859 860 861 862 863 864 865 866 867 868 869 870 871 872 873 874 875 876 877 878 879 880 881 882 883 884 885 886 887 888 889 890 891 892 893 894 895 896 897 898 899 900 901 902 903 904 905 906 907 908 909 910 911 912 913 914 915 916 917 918 919 920 921 922 923 924 925 926 927 928 929 930 931 932 933 934 935 936 937 938 939 940 941 942 943 944 945 946 947 948 949 950 951 952 953 954 955 956 957 958 959 960 961 962 963 964 965 966 967 968 969 970 971 972 973 974 975 976 977 978 979 980 981 982 983 984 985 986 987 988 989 990 991 992 993 994 995 996 997 998 999 1000 1001 1002 1003 1004 1005 1006 1007 1008 1009 1010 1011 1012 1013 1014 1015 1016 1017 1018 1019 1020 1021 1022 1023 1024 1025 1026 1027 1028 1029 1030 1031 1032 1033 1034 1035 1036 1037 1038 1039 1040 1041 1042 1043 1044 1045 1046 1047 1048 1049 1050 1051 1052 1053 1054 1055 1056 1057 1058 1059 1060 1061 1062 1063 1064 1065 1066 1067 1068 1069 1070 1071 1072 1073 1074 1075 1076 1077 1078 1079 1080 1081 1082 1083 1084 1085 1086 1087 1088 1089 1090 1091 1092 1093 1094 1095 1096 1097 1098 1099 1100 1101 1102 1103 1104 1105 1106 1107 1108 1109 1110 1111 1112 1113 1114 1115 1116 1117 1118 1119 1120 1121 1122 1123 1124 1125 1126 1127 1128 1129 1130 1131 1132 1133 1134 1135 1136 1137 1138 1139 1140 1141 1142 1143 1144 1145 1146 1147 1148 1149 1150 1151 1152 1153 1154 1155 1156 1157 1158 1159 1160 1161 1162 1163 1164 1165 1166 1167 1168 1169 1170 1171 1172 1173 1174 1175 1176 1177 1178 1179 1180 1181 1182 1183 1184 1185 1186 1187 1188 1189 1190 1191 1192 1193 1194 1195 1196 1197 1198 1199 1200 1201 1202 1203 1204 1205 1206 1207 1208 1209 1210 1211 1212 1213 1214 1215 1216 1217 1218 1219 1220 1221 1222 1223 1224 1225 1226 1227 1228 1229 1230 1231 1232 1233 1234 1235 1236 1237 1238 1239 1240 1241 1242 1243 1244 1245 1246 1247 1248 1249 1250 1251 1252 1253 1254 1255 1256 1257 1258 1259 1260 1261 1262 1263 1264 1265 1266 1267 1268 1269 1270 1271 1272 1273 1274 1275 1276 1277 1278 1279 1280 1281 1282 1283 1284 1285 1286 1287 1288 1289 1290 1291 1292 1293 1294 1295 1296 1297 1298 1299 1300 1301 1302 1303 1304 1305 1306 1307 1308 1309 1310 1311 1312 1313 1314 1315 1316 1317 1318 1319 1320 1321 1322 1323 1324 1325 1326 1327 1328 1329 1330 1331 1332 1333 1334 1335 1336 1337 1338 1339 1340 1341 1342 1343 1344 1345 1346 1347 1348 1349 1350 1351 1352 1353 1354 1355 1356 1357 1358 1359 1360 1361 1362 1363 1364 1365 1366 1367 1368 1369 1370 1371 1372 1373 1374 1375 1376 1377 1378 1379 1380 1381 1382 1383 1384 1385 1386 1387 1388 1389 1390 1391 1392 1393 1394 1395 1396 1397 1398 1399 1400 1401 1402 1403 1404 1405 1406 1407 1408 1409 1410 1411 1412 1413 1414 1415 1416 1417 1418 1419 1420 1421 1422 1423 1424 1425 1426 1427 1428 1429 1430 1431 1432 1433 1434 1435 1436 1437 1438 1439 1440 1441 1442 1443 1444 1445 1446 1447 1448 1449 1450 1451 1452 1453 1454 1455 1456 1457 1458 1459 1460 1461 1462 1463 1464 1465 1466 1467 1468 1469 1470 1471 1472 1473 1474 1475 1476 1477 1478 1479 1480 1481 1482 1483 1484 1485 1486 1487 1488 1489 1490 1491 1492 1493 1494 1495 1496 1497 1498 1499 1500 1501 1502 1503 1504 1505 1506 1507 1508 1509 1510 1511 1512 1513 1514 1515 1516 1517 1518 1519 1520 1521 1522 1523 1524 1525 1526 1527 1528 1529 1530 1531 1532 1533 1534 1535 1536 1537 1538 1539 1540 1541 1542 1543 1544 1545 1546 1547 1548 1549 1550 1551 1552 1553 1554 1555 1556 1557 1558 1559 1560 1561 1562 1563 1564 1565 1566 1567 1568 1569 1570 1571 1572 1573 1574 1575 1576 1577 1578 1579 1580 1581 1582 1583 1584 1585 1586 1587 1588 1589 1590 1591 1592 1593 1594 1595 1596 1597 1598 1599 1600 1601 1602 1603 1604 1605 1606 1607 1608 1609 1610 1611 1612 1613 1614 1615 1616 1617 1618 1619 1620 1621 1622 1623 1624 1625 1626 1627 1628 1629 1630 1631 1632 1633 1634 1635 1636 1637 1638 1639 1640 1641 1642 1643 1644 1645 1646 1647 1648 1649 1650 1651 1652 1653 1654 1655 1656 1657 1658 1659 1660 1661 1662 1663 1664 1665 1666 1667 1668 1669 1670 1671 1672 1673 1674 1675 1676 1677 1678 1679 1680 1681 1682 1683 1684 1685 1686 1687 1688 1689 1690 1691 1692 1693 1694 1695 1696 1697 1698 1699 1700 1701 1702 1703 1704 1705 1706 1707 1708 1709 1710 1711 1712 1713 1714 1715 1716 1717 1718 1719 1720 1721 1722 1723 1724 1725 1726 1727 1728 1729 1730 1731 1732 1733 1734 1735 1736 1737 1738 1739 1740 1741 1742 1743 1744 1745 1746 1747 1748 1749 1750 1751 1752 1753 1754 1755 1756 1757 1758 1759 1760 1761 1762 1763 1764 1765 1766 1767 1768 1769 1770 1771 1772 1773 1774 1775 1776 1777 1778 1779 1780 1781 1782 1783 1784 1785 1786 1787 1788 1789 1790 1791 1792 1793 1794 1795 1796 1797 1798 1799 1800 1801 1802 1803 1804 1805 1806 1807 1808 1809 1810 1811 1812 1813 1814 1815 1816 1817 1818 1819 1820 1821 1822 1823 1824 1825 1826 1827 1828 1829 1830 1831 1832 1833 1834 1835 1836 1837 1838 1839 1840 1841 1842 1843 1844 1845 1846 1847 1848 1849 1850 1851 1852 1853 1854 1855 1856 1857 1858 1859 1860 1861 1862 1863 1864 1865 1866 1867 1868 1869 1870 1871 1872 1873 1874 1875 1876 1877 1878 1879 1880 1881 1882 1883 1884 1885 1886 1887 1888 1889 1890 1891 1892 1893 1894 1895 1896 1897 1898 1899 1900 1901 1902 1903 1904 1905 1906 1907 1908 1909 1910 1911 1912 1913 1914 1915 1916 1917 1918 1919 1920 1921 1922 1923 1924 1925 1926 1927 1928 1929 1930 1931 1932 1933 1934 1935 1936 1937 1938 1939 1940 1941 1942 1943 1944 1945 1946 1947 1948 1949 1950 1951 1952 1953 1954 1955 1956 1957 1958 1959 1960 1961 1962 1963 1964 1965 1966 1967 1968 1969 1970 1971 1972 1973 1974 1975 1976 1977 1978 1979 1980 1981 1982 1983 1984 1985 1986 1987 1988 1989 1990 1991 1992 1993 1994 1995 1996 1997 1998 1999 2000 2001 2002 2003 2004 2005 2006 2007 2008 2009 2010 2011 2012 2013 2014 2015 2016 2017 2018 2019 2020 2021 2022 2023 2024 2025 2026 2027 2028 2029 2030 2031 2032 2033 2034 2035 2036 2037 2038 2039 2040 2041 2042 2043 2044 2045 2046 2047 2048 2049 2050 2051 2052 2053 2054 2055 2056 2057 2058 2059 2060 2061 2062 2063 2064 2065 2066 2067 2068 2069 2070 2071 2072 2073 2074 2075 2076 2077 2078 2079 2080 2081 2082 2083 2084 2085 2086 2087 2088 2089 2090 2091 2092 2093 2094 2095 2096 2097 2098 2099 2100 2101 2102 2103 2104 2105 2106 2107 2108 2109 2110 2111 2112 2113 2114 2115 2116 2117 2118 2119 2120 2121 2122 2123 2124 2125 2126 2127 2128 2129 2130 2131 2132 2133 2134 2135 2136 2137 2138 2139 2140 2141 2142 2143 2144 2145 2146 2147 2148 2149 2150 2151 2152 2153 2154 2155 2156 2157 2158 2159 2160 2161 2162 2163 2164 2165 2166 2167 2168 2169 2170 2171 2172 2173 2174 2175 2176 2177 2178 2179 2180 2181 2182 2183 2184 2185 2186 2187 2188 2189 2190 2191 2192 2193 2194 2195 2196 2197 2198 2199 2200 2201 2202 2203 2204 2205 2206 2207 2208 2209 2210 2211 2212 2213 2214 2215 2216 2217 2218 2219 2220 2221 2222 2223 2224 2225 2226 2227 2228 2229 2230 2231 2232 2233 2234 2235 2236 2237 2238 2239 2240 2241 2242 2243 2244 2245 2246 2247 2248 2249 2250 2251 2252 2253 2254 2255 2256 2257 2258 2259 2260 2261 2262 2263 2264 2265 2266 2267 2268 2269 2270 2271 2272 2273 2274 2275 2276 2277 2278 2279 2280 2281 2282 2283 2284 2285 2286 2287 2288 2289 2290 2291 2292 2293 2294 2295 2296 2297 2298 2299 2300 2301 2302 2303 2304 2305 2306 2307 2308 2309 2310 2311 2312 2313 2314 2315 2316 2317 2318 2319 2320 2321 2322 2323 2324 2325 2326 2327 2328 2329 2330 2331 2332 2333 2334 2335 2336 2337 2338 2339 2340 2341 2342 2343 2344 2345 2346 2347 2348 2349 2350 2351 2352 2353 2354 2355 2356 2357 2358 2359 2360 2361 2362 2363 2364 2365 2366 2367 2368 2369 2370 2371 2372 2373 2374 2375 2376 2377 2378 2379 2380 2381 2382 2383 2384 2385 2386 2387 2388 2389 2390 2391 2392 2393 2394 2395 2396 2397 2398 2399 2400 2401 2402 2403 2404 2405 2406 2407 2408 2409 2410 2411 2412 2413 2414 2415 2416 2417 2418 2419 2420 2421 2422 2423 2424 2425 2426 2427 2428 2429 2430 2431 2432 2433 2434 2435 2436 2437 2438 2439 2440 2441 2442 2443 2444 2445 2446 2447 2448 2449 2450 2451 2452 2453 2454 2455 2456 2457 2458 2459 2460 2461 2462 2463 2464 2465 2466 2467 2468 2469 2470 2471 2472 2473 2474 2475 2476 2477 2478 2479 2480 2481 2482 2483 2484 2485 2486 2487 2488 2489 2490 2491 2492 2493 2494 2495 2496 2497 2498 2499 2500 2501 2502 2503 2504 2505 2506 2507 2508 2509 2510 2511 2512 2513 2514 2515 2516 2517 2518 2519 2520 2521 2522 2523 2524 2525 2526 2527 2528 2529 2530 2531 2532 2533 2534 2535 2536 2537 2538 2539 2540 2541 2542 2543 2544 2545 2546 2547 2548 2549 2550 2551 2552 2553 2554 2555 2556 2557 2558 2559 2560 2561 2562 2563 2564 2565 2566 2567 2568 2569 2570 2571 2572 2573 2574 2575 2576 2577 2578 2579 2580 2581 2582 2583 2584 2585 2586 2587 2588 2589 2590 2591 2592 2593 2594 2595 2596 2597 2598 2599 2600 2601 2602 2603 2604 2605 2606 2607 2608 2609 2610 2611 2612 2613 2614 2615 2616 2617 2618 2619 2620 2621 2622 2623 2624 2625 2626 2627 2628 2629 2630 2631 2632 2633 2634 2635 2636 2637 2638 2639 2640 2641 2642 2643 2644 2645 2646 2647 2648 2649 2650 2651 2652 2653 2654 2655 2656 2657 2658 2659 2660 2661 2662 2663 2664 2665 2666 2667 2668 2669 2670 2671 2672 2673 2674 2675 2676 2677 2678 2679 2680 2681 2682 2683 2684 2685 2686 2687 2688 2689 2690 2691 2692 2693 2694 2695 2696 2697 2698 2699 2700 2701 2702 2703 2704 2705 2706 2707 2708 2709 2710 2711 2712 2713 2714 2715 2716 2717 2718 2719 2720 2721 2722 2723 2724 2725 2726 2727 2728 2729 2730 2731 2732 2733 2734 2735 2736 2737 2738 2739 2740 2741 2742 2743 2744 2745 2746 2747 2748 2749 2750 2751 2752 2753 2754 2755 2756 2757 2758 2759 2760 2761 2762 2763 2764 2765 2766 2767 2768 2769 2770 2771 2772 2773 2774 2775 2776 2777 2778 2779 2780 2781 2782 2783 2784 2785 2786 2787 2788 2789 2790 2791 2792 2793 2794 2795 2796 2797 2798 2799 2800 2801 2802 2803 2804 2805 2806 2807 2808 2809 2810 2811 2812 2813 2814 2815 2816 2817 2818 2819 2820 2821 2822 2823 2824 2825 2826 2827 2828 2829 2830 2831 2832 2833 2834 2835 2836 2837 2838 2839 2840 2841 2842 2843 2844 2845 2846 2847 2848 2849 2850 2851 2852 2853 2854 2855 2856 2857 2858 2859 2860 2861 2862 2863 2864 2865 2866 2867 2868 2869 2870 2871 2872 2873 2874 2875 2876 2877 2878 2879 2880 2881 2882 2883 2884 2885 2886 2887 2888 2889 2890 2891 2892 2893 2894 2895 2896 2897 2898 2899 2900 2901 2902 2903 2904 2905 2906 2907 2908 2909 2910 2911 2912 2913 2914 2915 2916 2917 2918 2919 2920 2921 2922 2923 2924 2925 2926 2927 2928 2929 2930 2931 2932 2933 2934 2935 2936 2937 2938 2939 2940 2941 2942 2943 2944 2945 2946 2947 2948 2949 2950 2951 2952 2953 2954 2955 2956 2957 2958 2959 2960 2961 2962 2963 2964 2965 2966 2967 2968 2969 2970 2971 2972 2973 2974 2975 2976 2977 2978 2979 2980 2981 2982 2983 2984 2985 2986 2987 2988 2989 2990 2991 2992 2993 2994 2995 2996 2997 2998 2999 3000 3001 3002 3003 3004 3005 3006 3007 3008 3009 3010 3011 3012 3013 3014 3015 3016 3017 3018 3019 3020 3021 3022 3023 3024 3025 3026 3027 3028 3029 3030 3031 3032 3033 3034 3035 3036 3037 3038 3039 3040 3041 3042 3043 3044 3045 3046 3047 3048 3049 3050 3051 3052 3053 3054 3055 3056 3057 3058 3059 3060 3061 3062 3063 3064 3065 3066 3067 3068 3069 3070 3071 3072 3073 3074 3075 3076 3077 3078 3079 3080 3081 3082 3083 3084 3085 3086 3087 3088 3089 3090 3091 3092 3093 3094 3095 3096 3097 3098 3099 3100 3101 3102 3103 3104 3105 3106 3107 3108 3109 3110 3111 3112 3113 3114 3115 3116 3117 3118 3119 3120 3121 3122 3123 3124 3125 3126 3127 3128 3129 3130 3131 3132 3133 3134 3135 3136 3137 3138 3139 3140 3141 3142 3143 3144 3145 3146 3147 3148 3149 3150 3151 3152 3153 3154 3155 3156 3157 3158 3159 3160 3161 3162 3163 3164 3165 3166 3167 3168 3169 3170 3171 3172 3173 3174 3175 3176 3177 3178 3179 3180 3181 3182 3183 3184 3185 3186 3187 3188 3189 3190 3191 3192 3193 3194 3195 3196 3197 3198 3199 3200 3201 3202 3203 3204 3205 3206 3207 3208 3209 3210 3211 3212 3213 3214 3215 3216 3217 3218 3219 3220 3221 3222 3223 3224 3225 3226 3227 3228 3229 3230 3231 3232 3233 3234 3235 3236 3237 3238 3239 3240 3241 3242 3243 3244 3245 3246 3247 3248 3249 3250 3251 3252 3253 3254 3255 3256 3257 3258 3259 3260 3261 3262 3263 3264 3265 3266 3267 3268 3269 3270 3271 3272 3273 3274 3275 3276 3277 3278 3279 3280 3281 3282 3283 3284 3285 3286 3287 3288 3289 3290 3291 3292 3293 3294 3295 3296 3297 3298 3299 3300 3301 3302 3303 3304 3305 3306 3307 3308 3309 3310 3311 3312 3313 3314 3315 3316 3317 3318 3319 3320 3321 3322 3323 3324 3325 3326 3327 3328 3329 3330 3331 3332 3333 3334 3335 3336 3337 3338 3339 3340 3341 3342 3343 3344 3345 3346 3347 3348 3349 3350 3351 3352 3353 3354 3355 3356 3357 3358 3359 3360 3361 3362 3363 3364 3365 3366 3367 3368 3369 3370 3371 3372 3373 3374 3375 3376 3377 3378 3379 3380 3381 3382 3383 3384 3385 3386 3387 3388 3389 3390 3391 3392 3393 3394 3395 3396 3397 3398 3399 3400 3401 3402 3403 3404 3405 3406 3407 3408 3409 3410 3411 3412 3413 3414 3415 3416 3417 3418 3419 3420 3421 3422 3423 3424 3425 3426 3427 3428 3429 3430 3431 3432 3433 3434 3435 3436 3437 3438 3439 3440 3441 3442 3443 3444 3445 3446 3447 3448 3449 3450 3451 3452 3453 3454 3455 3456 3457 3458 3459 3460 3461 3462 3463 3464 3465 3466 3467 3468 3469 3470 3471 3472 3473 3474 3475 3476 3477 3478 3479 3480 3481 3482 3483 3484 3485 3486 3487 3488 3489 3490 3491 3492 3493 3494 3495 3496 3497 3498 3499 3500 3501 3502 3503 3504 3505 3506 3507 3508 3509 3510 3511 3512 3513 3514 3515 3516 3517 3518 3519 3520 3521 3522 3523 3524 3525 3526 3527 3528 3529 3530 3531 3532 3533 3534 3535 3536 3537 3538 3539 3540 3541 3542 3543 3544 3545 3546 3547 3548 3549 3550 3551 3552 3553 3554 3555 3556 3557 3558 3559 3560 3561 3562 3563 3564 3565 3566 3567 3568 3569 3570 3571 3572 3573 3574 3575 3576 3577 3578 3579 3580 3581 3582 3583 3584 3585 3586 3587 3588 3589 3590 3591 3592 3593 3594 3595 3596 3597 3598 3599 3600 3601 3602 3603 3604 3605 3606 3607 3608 3609 3610 3611 3612 3613 3614 3615 3616 3617 3618 3619 3620 3621 3622 3623 3624 3625 3626 3627 3628 3629 3630 3631 3632 3633 3634 3635 3636 3637 3638 3639 3640 3641 3642 3643 3644 3645 3646 3647 3648 3649 3650 3651 3652 3653 3654 3655 3656 3657 3658 3659 3660 3661 3662 3663 3664 3665 3666 3667 3668 3669 3670 3671 3672 3673 3674 3675 3676 3677 3678 3679 3680 3681 3682 3683 3684 3685 3686 3687 3688 3689 3690 3691 3692 3693 3694 3695 3696 3697 3698 3699 3700 3701 3702 3703 3704 3705 3706 3707 3708 3709 3710 3711 3712 3713 3714 3715 3716 3717 3718 3719 3720 3721 3722 3723 3724 3725 3726 3727 3728 3729 3730 3731 3732 3733 3734 3735 3736 3737 3738 3739 3740 3741 3742 3743 3744 3745 3746 3747 3748 3749 3750 3751 3752 3753 3754 3755 3756 3757 3758 3759 3760 3761 3762 3763 3764 3765 3766 3767 3768 3769 3770 3771 3772 3773 3774 3775 3776 3777 3778 3779 3780 3781 3782 3783 3784 3785 3786 3787 3788 3789 3790 3791 3792 3793 3794 3795 3796 3797 3798 3799 3800 3801 3802 3803 3804 3805 3806 3807 3808 3809 3810 3811 3812 3813 3814 3815 3816 3817 3818 3819 3820 3821 3822 3823 3824 3825 3826 3827 3828 3829 3830 3831 3832 3833 3834 3835 3836 3837 3838 3839 3840 3841 3842 3843 3844 3845 3846 3847 3848 3849 3850 3851 3852 3853 3854 3855 3856 3857 3858 3859 3860 3861 3862 3863 3864 3865 3866 3867 3868 3869 3870 3871 3872 3873 3874 3875 3876 3877 3878 3879 3880 3881 3882 3883 3884 3885 3886 3887 3888 3889 3890 3891 3892 3893 3894 3895 3896 3897 3898 3899 3900 3901 3902 3903 3904 3905 3906 3907 3908 3909 3910 3911 3912 3913 3914 3915 3916 3917 3918 3919 3920 3921 3922 3923 3924 3925 3926 3927 3928 3929 3930 3931 3932 3933 3934 3935 3936 3937 3938 3939 3940 3941 3942 3943 3944 3945 3946 3947 3948 3949 3950 3951 3952 3953 3954 3955 3956 3957 3958 3959 3960 3961 3962 3963 3964 3965 3966 3967 3968 3969 3970 3971 3972 3973 3974 3975 3976 3977 3978 3979 3980 3981 3982 3983 3984 3985 3986 3987 3988 3989 3990 3991 3992 3993 3994 3995 3996 3997 3998 3999 4000 4001 4002 4003 4004 4005 4006 4007 4008 4009 4010 4011 4012 4013 4014 4015 4016 4017 4018 4019 4020 4021 4022 4023 4024 4025 4026 4027 4028 4029 4030 4031 4032 4033 4034 4035 4036 4037 4038 4039 4040 4041 4042 4043 4044 4045 4046 4047 4048 4049 4050 4051 4052 4053 4054 4055 4056 4057 4058 4059 4060 4061 4062 4063 4064 4065 4066 4067 4068 4069 4070 4071 4072 4073 4074 4075 4076 4077 4078 4079 4080 4081 4082 4083 4084 4085 4086 4087 4088 4089 4090 4091 4092 4093 4094 4095 4096 4097 4098 4099 4100 4101 4102 4103 4104 4105 4106 4107 4108 4109 4110 4111 4112 4113 4114 4115 4116 4117 4118 4119 4120 4121 4122 4123 4124 4125 4126 4127 4128 4129 4130 4131 4132 4133 4134 4135 4136 4137 4138 4139 4140 4141 4142 4143 4144 4145 4146 4147 4148 4149 4150 4151 4152 4153 4154 4155 4156 4157 4158 4159 4160 4161 4162 4163 4164 4165 4166 4167 4168 4169 4170 4171 4172 4173 4174 4175 4176 4177 4178 4179 4180 4181 4182 4183 4184 4185 4186 4187 4188 4189 4190 4191 4192 4193 4194 4195 4196 4197 4198 4199 4200 4201 4202 4203 4204 4205 4206 4207 4208 4209 4210 4211 4212 4213 4214 4215 4216 4217 4218 4219 4220 4221 4222 4223 4224 4225 4226 4227 4228 4229 4230 4231 4232 4233 4234 4235 4236 4237 4238 4239 4240 4241 4242 4243 4244 4245 4246 4247 4248 4249 4250 4251 4252 4253 4254 4255 4256 4257 4258 4259 4260 4261 4262 4263 4264 4265 4266 4267 4268 4269 4270 4271 4272 4273 4274 4275 4276 4277 4278 4279 4280 4281 4282 4283 4284 4285 4286 4287 4288 4289 4290 4291 4292 4293 4294 4295 4296 4297 4298 4299 4300 4301 4302 4303 4304 4305 4306 4307 4308 4309 4310 4311 4312 4313 4314 4315 4316 4317 4318 4319 4320 4321 4322 4323 4324 4325 4326 4327 4328 4329 4330 4331 4332 4333 4334 4335 4336 4337 4338 4339 4340 4341 4342 4343 4344 4345 4346 4347 4348 4349 4350 4351 4352 4353 4354 4355 4356 4357 4358 4359 4360 4361 4362 4363 4364 4365 4366 4367 4368 4369 4370 4371 4372 4373 4374 4375 4376 4377 4378 4379 4380 4381 4382 4383 4384 4385 4386 4387 4388 4389 4390 4391 4392 4393 4394 4395 4396 4397 4398 4399 4400 4401 4402 4403 4404 4405 4406 4407 4408 4409 4410 4411 4412 4413 4414 4415 4416 4417 4418 4419 4420 4421 4422 4423 4424 4425 4426 4427 4428 4429 4430 4431 4432 4433 4434 4435 4436 4437 4438 4439 4440 4441 4442 4443 4444 4445 4446 4447 4448 4449 4450 4451 4452 4453 4454 4455 4456 4457 4458 4459 4460 4461 4462 4463 4464 4465 4466 4467 4468 4469 4470 4471 4472 4473 4474 4475 4476 4477 4478 4479 4480 4481 4482 4483 4484 4485 4486 4487 4488 4489 4490 4491 4492 4493 4494 4495 4496 4497 4498 4499 4500 4501 4502 4503 4504 4505 4506 4507 4508 4509 4510 4511 4512 4513 4514 4515 4516 4517 4518 4519 4520 4521 4522 4523 4524 4525 4526 4527 4528 4529 4530 4531 4532 4533 4534 4535 4536 4537 4538 4539 4540 4541 4542 4543 4544 4545 4546 4547 4548 4549 4550 4551 4552 4553 4554 4555 4556 4557 4558 4559 4560 4561 4562 4563 4564 4565 4566 4567 4568 4569 4570 4571 4572 4573 4574 4575 4576 4577 4578 4579 4580 4581 4582 4583 4584 4585 4586 4587 4588 4589 4590 4591 4592 4593 4594 4595 4596 4597 4598 4599 4600 4601 4602 4603 4604 4605 4606 4607 4608 4609 4610 4611 4612 4613 4614 4615 4616 4617 4618 4619 4620 4621 4622 4623 4624 4625 4626 4627 4628 4629 4630 4631 4632 4633 4634 4635 4636 4637 4638 4639 4640 4641 4642 4643 4644 4645 4646 4647 4648 4649 4650 4651 4652 4653 4654 4655 4656 4657 4658 4659 4660 4661 4662 4663 4664 4665 4666 4667 4668 4669 4670 4671 4672 4673 4674 4675 4676 4677 4678 4679 4680 4681 4682 4683 4684 4685 4686 4687 4688 4689 4690 4691 4692 4693 4694 4695 4696 4697 4698 4699 4700 4701 4702 4703 4704 4705 4706 4707 4708 4709 4710 4711 4712 4713 4714 4715 4716 4717 4718 4719 4720 4721 4722 4723 4724 4725 4726 4727 4728 4729 4730 4731 4732 4733 4734 4735 4736 4737 4738 4739 4740 4741 4742 4743 4744 4745 4746 4747 4748 4749 4750 4751 4752 4753 4754 4755 4756 4757 4758 4759 4760 4761 4762 4763 4764 4765 4766 4767 4768 4769 4770 4771 4772 4773 4774 4775 4776 4777 4778 4779 4780 4781 4782 4783 4784 4785 4786 4787 4788 4789 4790 4791 4792 4793 4794 4795 4796 4797 4798 4799 4800 4801 4802 4803 4804 4805 4806 4807 4808 4809 4810 4811 4812 4813 4814 4815 4816 4817 4818 4819 4820 4821 4822 4823 4824 4825 4826 4827 4828 4829 4830 4831 4832 4833 4834 4835 4836 4837 4838 4839 4840 4841 4842 4843 4844 4845 4846 4847 4848 4849 4850 4851 4852 4853 4854 4855 4856 4857 4858 4859 4860 4861 4862 4863 4864 4865 4866 4867 4868 4869 4870 4871 4872 4873 4874 4875 4876 4877 4878 4879 4880 4881 4882 4883 4884 4885 4886 4887 4888 4889 4890 4891 4892 4893 4894 4895 4896 4897 4898 4899 4900 4901 4902 4903 4904 4905 4906 4907 4908 4909 4910 4911 4912 4913 4914 4915 4916 4917 4918 4919 4920 4921 4922 4923 4924 4925 4926 4927 4928 4929 4930 4931 4932 4933 4934 4935 4936 4937 4938 4939 4940 4941 4942 4943 4944 4945 4946 4947 4948 4949 4950 4951 4952 4953 4954 4955 4956 4957 4958 4959 4960 4961 4962 4963 4964 4965 4966 4967 4968 4969 4970 4971 4972 4973 4974 4975 4976 4977 4978 4979 4980 4981 4982 4983 4984 4985 4986 4987 4988 4989 4990 4991 4992 4993 4994 4995 4996 4997 4998 4999 5000 5001 5002 5003 5004 5005 5006 5007 5008 5009 5010 5011 5012 5013 5014 5015 5016 5017 5018 5019 5020 5021 5022 5023 5024 5025 5026 5027 5028 5029 5030 5031 5032 5033 5034 5035 5036 5037 5038 5039 5040 5041 5042 5043 5044 5045 5046 5047 5048 5049 5050 5051 5052 5053 5054 5055 5056 5057 5058 5059 5060 5061 5062 5063 5064 5065 5066 5067 5068 5069 5070 5071 5072 5073 5074 5075 5076 5077 5078 5079 5080 5081 5082 5083 5084 5085 5086 5087 5088 5089 5090 5091 5092 5093 5094 5095 5096 5097 5098 5099 5100 5101 5102 5103 5104 5105 5106 5107 5108 5109 5110 5111 5112 5113 5114 5115 5116 5117 5118 5119 5120 5121 5122 5123 5124 5125 5126 5127 5128 5129 5130 5131 5132 5133 5134 5135 5136 5137 5138 5139 5140 5141 5142 5143 5144 5145 5146 5147 5148 5149 5150 5151 5152 5153 5154 5155 5156 5157 5158 5159 5160 5161 5162 5163 5164 5165 5166 5167 5168 5169 5170 5171 5172 5173 5174 5175 5176 5177 5178 5179 5180 5181 5182 5183 5184 5185 5186 5187 5188 5189 5190 5191 5192 5193 5194 5195 5196 5197 5198 5199 5200 5201 5202 5203 5204 5205 5206 5207 5208 5209 5210 5211 5212 5213 5214 5215 5216 5217 5218 5219 5220 5221 5222 5223 5224 5225 5226 5227 5228 5229 5230 5231 5232 5233 5234 5235 5236 5237 5238 5239 5240 5241 5242 5243 5244 5245 5246 5247 5248 5249 5250 5251 5252 5253 5254 5255 5256 5257 5258 5259 5260 5261 5262 5263 5264 5265 5266 5267 5268 5269 5270 5271 5272 5273 5274 5275 5276 5277 5278 5279 5280 5281 5282 5283 5284 5285 5286 5287 5288 5289 5290 5291 5292 5293 5294 5295 5296 5297 5298 5299 5300 5301 5302 5303 5304 5305 5306 5307 5308 5309 5310 5311 5312 5313 5314 5315 5316 5317 5318 5319 5320 5321 5322 5323 5324 5325 5326 5327 5328 5329 5330 5331 5332 5333 5334 5335 5336 5337 5338 5339 5340 5341 5342 5343 5344 5345 5346 5347 5348 5349 5350 5351 5352 5353 5354 5355 5356 5357 5358 5359 5360 5361 5362 5363 5364 5365 5366 5367 5368 5369 5370 5371 5372 5373 5374 5375 5376 5377 5378 5379 5380 5381 5382 5383 5384 5385 5386 5387 5388 5389 5390 5391 5392 5393 5394 5395 5396 5397 5398 5399 5400 5401 5402 5403 5404 5405 5406 5407 5408 5409 5410 5411 5412 5413 5414 5415 5416 5417 5418 5419 5420 5421 5422 5423 5424 5425 5426 5427 5428 5429 5430 5431 5432 5433 5434 5435 5436 5437 5438 5439 5440 5441 5442 5443 5444 5445 5446 5447 5448 5449 5450 5451 5452 5453 5454 5455 5456 5457 5458 5459 5460 5461 5462 5463 5464 5465 5466 5467 5468 5469 5470 5471 5472 5473 5474 5475 5476 5477 5478 5479 5480 5481 5482 5483 5484 5485 5486 5487 5488 5489 5490 5491 5492 5493 5494 5495 5496 5497 5498 5499 5500 5501 5502 5503 5504 5505 5506 5507 5508 5509 5510 5511 5512 5513 5514 5515 5516 5517 5518 5519 5520 5521 5522 5523 5524 5525 5526 5527 5528 5529 5530 5531 5532 5533 5534 5535 5536 5537 5538 5539 5540 5541 5542 5543 5544 5545 5546 5547 5548 5549 5550 5551 5552 5553 5554 5555 5556 5557 5558 5559 5560 5561 5562 5563 5564 5565 5566 5567 5568 5569 5570 5571 5572 5573 5574 5575 5576 5577 5578 5579 5580 5581 5582 5583 5584 5585 5586 5587 5588 5589 5590 5591 5592 5593 5594 5595 5596 5597 5598 5599 5600 5601 5602 5603 5604 5605 5606 5607 5608 5609 5610 5611 5612 5613 5614 5615 5616 5617 5618 5619 5620 5621 5622 5623 5624 5625 5626 5627 5628 5629 5630 5631 5632 5633 5634 5635 5636 5637 5638 5639 5640 5641 5642 5643 5644 5645 5646 5647 5648 5649 5650 5651 5652 5653 5654 5655 5656 5657 5658 5659 5660 5661 5662 5663 5664 5665 5666 5667 5668 5669 5670 5671 5672 5673 5674 5675 5676 5677 5678 5679 5680 5681 5682 5683 5684 5685 5686 5687 5688 5689 5690 5691 5692 5693 5694 5695 5696 5697 5698 5699 5700 5701 5702 5703 5704 5705 5706 5707 5708 5709 5710 5711 5712 5713 5714 5715 5716 5717 5718 5719 5720 5721 5722 5723 5724 5725 5726 5727 5728 5729 5730 5731 5732 5733 5734 5735 5736 5737 5738 5739 5740 5741 5742 5743 5744 5745 5746 5747 5748 5749 5750 5751 5752 5753 5754 5755 5756 5757 5758 5759 5760 5761 5762 5763 5764 5765 5766 5767 5768 5769 5770 5771 5772 5773 5774 5775 5776 5777 5778 5779 5780 5781 5782 5783 5784 5785 5786 5787 5788 5789 5790 5791 5792 5793 5794 5795 5796 5797 5798 5799 5800 5801 5802 5803 5804 5805 5806 5807 5808 5809 5810 5811 5812 5813 5814 5815 5816 5817 5818 5819 5820 5821 5822 5823 5824 5825 5826 5827 5828 5829 5830 5831 5832 5833 5834 5835 5836 5837 5838 5839 5840 5841 5842 5843 5844 5845 5846 5847 5848 5849 5850 5851 5852 5853 5854 5855 5856 5857 5858 5859 5860 5861 5862 5863 5864 5865 5866 5867 5868 5869 5870 5871 5872 5873 5874 5875 5876 5877 5878 5879 5880 5881 5882 5883 5884 5885 5886 5887 5888 5889 5890 5891 5892 5893 5894 5895 5896 5897 5898 5899 5900 5901 5902 5903 5904 5905 5906 5907 5908 5909 5910 5911 5912 5913 5914 5915 5916 5917 5918 5919 5920 5921 5922 5923 5924 5925 5926 5927 5928 5929 5930 5931 5932 5933 5934 5935 5936 5937 5938 5939 5940 5941 5942 5943 5944 5945 5946 5947 5948 5949 5950 5951 5952 5953 5954 5955 5956 5957 5958 5959 5960 5961 5962 5963 5964 5965 5966 5967 5968 5969 5970 5971 5972 5973 5974 5975 5976 5977 5978 5979 5980 5981 5982 5983 5984 5985 5986 5987 5988 5989 5990 5991 5992 5993 5994 5995 5996 5997 5998 5999 6000 6001 6002 6003 6004 6005 6006 6007 6008 6009 6010 6011 6012 6013 6014 6015 6016 6017 6018 6019 6020 6021 6022 6023 6024 6025 6026 6027 6028 6029 6030 6031 6032 6033 6034 6035 6036 6037 6038 6039 6040 6041 6042 6043 6044 6045 6046 6047 6048 6049 6050 6051 6052 6053 6054 6055 6056 6057 6058 6059 6060 6061 6062 6063 6064 6065 6066 6067 6068 6069 6070 6071 6072 6073 6074 6075 6076 6077 6078 6079 6080 6081 6082 6083 6084 6085 6086 6087 6088 6089 6090 6091 6092 6093 6094 6095 6096 6097 6098 6099 6100 6101 6102 6103 6104 6105 6106 6107 6108 6109 6110 6111 6112 6113 6114 6115 6116 6117 6118 6119 6120 6121 6122 6123 6124 6125 6126 6127 6128 6129 6130 6131 6132 6133 6134 6135 6136 6137 6138 6139 6140 6141 6142 6143 6144 6145 6146 6147 6148 6149 6150 6151 6152 6153 6154 6155 6156 6157 6158 6159 6160 6161 6162 6163 6164 6165 6166 6167 6168 6169 6170 6171 6172 6173 6174 6175 6176 6177 6178 6179 6180 6181 6182 6183 6184 6185 6186 6187 6188 6189 6190 6191 6192 6193 6194 6195 6196 6197 6198 6199 6200 6201 6202 6203 6204 6205 6206 6207 6208 6209 6210 6211 6212 6213 6214 6215 6216 6217 6218 6219 6220 6221 6222 6223 6224 6225 6226 6227 6228 6229 6230 6231 6232 6233 6234 6235 6236 6237 6238 6239 6240 6241 6242 6243 6244 6245 6246 6247 6248 6249 6250 6251 6252 6253 6254 6255 6256 6257 6258 6259 6260 6261 6262 6263 6264 6265 6266 6267 6268 6269 6270 6271 6272 6273 6274 6275 6276 6277 6278 6279 6280 6281 6282 6283 6284 6285 6286 6287 6288 6289 6290 6291 6292 6293 6294 6295 6296 6297 6298 6299 6300 6301 6302 6303 6304 6305 6306 6307 6308 6309 6310 6311 6312 6313 6314 6315 6316 6317 6318 6319 6320 6321 6322 6323 6324 6325 6326 6327 6328 6329 6330 6331 6332 6333 6334 6335 6336 6337 6338 6339 6340 6341 6342 6343 6344 6345 6346 6347 6348 6349 6350 6351 6352 6353 6354 6355 6356 6357 6358 6359 6360 6361 6362 6363 6364 6365 6366 6367 6368 6369 6370 6371 6372 6373 6374 6375 6376 6377 6378 6379 6380 6381 6382 6383 6384 6385 6386 6387 6388 6389 6390 6391 6392 6393 6394 6395 6396 6397 6398 6399 6400 6401 6402 6403 6404 6405 6406 6407 6408 6409 6410 6411 6412 6413 6414 6415 6416 6417 6418 6419 6420 6421 6422 6423 6424 6425 6426 6427 6428 6429 6430 6431 6432 6433 6434 6435 6436 6437 6438 6439 6440 6441 6442 6443 6444 6445 6446 6447 6448 6449 6450 6451 6452 6453 6454 6455 6456 6457 6458 6459 6460 6461 6462 6463 6464 6465 6466 6467 6468 6469 6470 6471 6472 6473 6474 6475 6476 6477 6478 6479 6480 6481 6482 6483 6484 6485 6486 6487 6488 6489 6490 6491 6492 6493 6494 6495 6496 6497 6498 6499 6500 6501 6502 6503 6504 6505 6506 6507 6508 6509 6510 6511 6512 6513 6514 6515 6516 6517 6518 6519 6520 6521 6522 6523 6524 6525 6526 6527 6528 6529 6530 6531 6532 6533 6534 6535 6536 6537 6538 6539 6540 6541 6542 6543 6544 6545 6546 6547 6548 6549 6550 6551 6552 6553 6554 6555 6556 6557 6558 6559 6560 6561 6562 6563 6564 6565 6566 6567 6568 6569 6570 6571 6572 6573 6574 6575 6576 6577 6578 6579 6580 6581 6582 6583 6584 6585 6586 6587 6588 6589 6590 6591 6592 6593 6594 6595 6596 6597 6598 6599 6600 6601 6602 6603 6604 6605 6606 6607 6608 6609 6610 6611 6612 6613 6614 6615 6616 6617 6618 6619 6620 6621 6622 6623 6624 6625 6626 6627 6628 6629 6630 6631 6632 6633 6634 6635 6636 6637 6638 6639 6640 6641 6642 6643 6644 6645 6646 6647 6648 6649 6650 6651 6652 6653 6654 6655 6656 6657 6658 6659 6660 6661 6662 6663 6664 6665 6666 6667 6668 6669 6670 6671 6672 6673 6674 6675 6676 6677 6678 6679 6680 6681 6682 6683 6684 6685 6686 6687 6688 6689 6690 6691 6692 6693 6694 6695 6696 6697 6698 6699 6700 6701 6702 6703 6704 6705 6706 6707 6708 6709 6710 6711 6712 6713 6714 6715 6716 6717 6718 6719 6720 6721 6722 6723 6724 6725 6726 6727 6728 6729 6730 6731 6732 6733 6734 6735 6736 6737 6738 6739 6740 6741 6742 6743 6744 6745 6746 6747 6748 6749 6750 6751 6752 6753 6754 6755 6756 6757 6758 6759 6760 6761 6762 6763 6764 6765 6766 6767 6768 6769 6770 6771 6772 6773 6774 6775 6776 6777 6778 6779 6780 6781 6782 6783 6784 6785 6786 6787 6788 6789 6790 6791 6792 6793 6794 6795 6796 6797 6798 6799 6800 6801 6802 6803 6804 6805 6806 6807 6808 6809 6810 6811 6812 6813 6814 6815 6816 6817 6818 6819 6820 6821 6822 6823 6824 6825 6826 6827 6828 6829 6830 6831 6832 6833 6834 6835 6836 6837 6838 6839 6840 6841 6842 6843 6844 6845 6846 6847 6848 6849 6850 6851 6852 6853 6854 6855 6856 6857 6858 6859 6860 6861 6862 6863 6864 6865 6866 6867 6868 6869 6870 6871 6872 6873 6874 6875 6876 6877 6878 6879 6880 6881 6882 6883 6884 6885 6886 6887 6888 6889 6890 6891 6892 6893 6894 6895 6896 6897 6898 6899 6900 6901 6902 6903 6904 6905 6906 6907 6908 6909 6910 6911 6912 6913 6914 6915 6916 6917 6918 6919 6920 6921 6922 6923 6924 6925 6926 6927 6928 6929 6930 6931 6932 6933 6934 6935 6936 6937 6938 6939 6940 6941 6942 6943 6944 6945 6946 6947 6948 6949 6950 6951 6952 6953 6954 6955 6956 6957 6958 6959 6960 6961 6962 6963 6964 6965 6966 6967 6968 6969 6970 6971 6972 6973 6974 6975 6976 6977 6978 6979 6980 6981 6982 6983 6984 6985 6986 6987 6988 6989 6990 6991 6992 6993 6994 6995 6996 6997 6998 6999 7000 7001 7002 7003 7004 7005 7006 7007 7008 7009 7010 7011 7012 7013 7014 7015 7016 7017 7018 7019 7020 7021 7022 7023 7024 7025 7026 7027 7028 7029 7030 7031 7032 7033 7034 7035 7036 7037 7038 7039 7040 7041 7042 7043 7044 7045 7046 7047 7048 7049 7050 7051 7052 7053 7054 7055 7056 7057 7058 7059 7060 7061 7062 7063 7064 7065 7066 7067 7068 7069 7070 7071 7072 7073 7074 7075 7076 7077 7078 7079 7080 7081 7082 7083 7084 7085 7086 7087 7088 7089 7090 7091 7092 7093 7094 7095 7096 7097 7098 7099 7100 7101 7102 7103 7104 7105 7106 7107 7108 7109 7110 7111 7112 7113 7114 7115 7116 7117 7118 7119 7120 7121 7122 7123 7124 7125 7126 7127 7128 7129 7130 7131 7132 7133 7134 7135 7136 7137 7138 7139 7140 7141 7142 7143 7144 7145 7146 7147 7148 7149 7150 7151 7152 7153 7154 7155 7156 7157 7158 7159 7160 7161 7162 7163 7164 7165 7166 7167 7168 7169 7170 7171 7172 7173 7174 7175 7176 7177 7178 7179 7180 7181 7182 7183 7184 7185 7186 7187 7188 7189 7190 7191 7192 7193 7194 7195 7196 7197 7198 7199 7200 7201 7202 7203 7204 7205 7206 7207 7208 7209 7210 7211 7212 7213 7214 7215 7216 7217 7218 7219 7220 7221 7222 7223 7224 7225 7226 7227 7228 7229 7230 7231 7232 7233 7234 7235 7236 7237 7238 7239 7240 7241 7242 7243 7244 7245 7246 7247 7248 7249 7250 7251 7252 7253 7254 7255 7256 7257 7258 7259 7260 7261 7262 7263 7264 7265 7266 7267 7268 7269 7270 7271 7272 7273 7274 7275 7276 7277 7278 7279 7280 7281 7282 7283 7284 7285 7286 7287 7288 7289 7290 7291 7292 7293 7294 7295 7296 7297 7298 7299 7300 7301 7302 7303 7304 7305 7306 7307 7308 7309 7310 7311 7312 7313 7314 7315 7316 7317 7318 7319 7320 7321 7322 7323 7324 7325 7326 7327 7328 7329 7330 7331 7332 7333 7334 7335 7336 7337 7338 7339 7340 7341 7342 7343 7344 7345 7346 7347 7348 7349 7350 7351 7352 7353 7354 7355 7356 7357 7358 7359 7360 7361 7362 7363 7364 7365 7366 7367 7368 7369 7370 7371 7372 7373 7374 7375 7376 7377 7378 7379 7380 7381 7382 7383 7384 7385 7386 7387 7388 7389 7390 7391 7392 7393 7394 7395 7396 7397 7398 7399 7400 7401 7402 7403 7404 7405 7406 7407 7408 7409 7410 7411 7412 7413 7414 7415 7416 7417 7418 7419 7420 7421 7422 7423 7424 7425 7426 7427 7428 7429 7430 7431 7432 7433 7434 7435 7436 7437 7438 7439 7440 7441 7442 7443 7444 7445 7446 7447 7448 7449 7450 7451 7452 7453 7454 7455 7456 7457 7458 7459 7460 7461 7462 7463 7464 7465 7466 7467 7468 7469 7470 7471 7472 7473 7474 7475 7476 7477 7478 7479 7480 7481 7482 7483 7484 7485 7486 7487 7488 7489 7490 7491 7492 7493 7494 7495 7496 7497 7498 7499 7500 7501 7502 7503 7504 7505 7506 7507 7508 7509 7510 7511 7512 7513 7514 7515 7516 7517 7518 7519 7520 7521 7522 7523 7524 7525 7526 7527 7528 7529 7530 7531 7532 7533 7534 7535 7536 7537 7538 7539 7540 7541 7542 7543 7544 7545 7546 7547 7548 7549 7550 7551 7552 7553 7554 7555 7556 7557 7558 7559 7560 7561 7562 7563 7564 7565 7566 7567 7568 7569 7570 7571 7572 7573 7574 7575 7576 7577 7578 7579 7580 7581 7582 7583 7584 7585 7586 7587 7588 7589 7590 7591 7592 7593 7594 7595 7596 7597 7598 7599 7600 7601 7602 7603 7604 7605 7606 7607 7608 7609 7610 7611 7612 7613 7614 7615 7616 7617 7618 7619 7620 7621 7622 7623 7624 7625 7626 7627 7628 7629 7630 7631 7632 7633 7634 7635 7636 7637 7638 7639 7640 7641 7642 7643 7644 7645 7646 7647 7648 7649 7650 7651 7652 7653 7654 7655 7656 7657 7658 7659 7660 7661 7662 7663 7664 7665 7666 7667 7668 7669 7670 7671 7672 7673 7674 7675 7676 7677 7678 7679 7680 7681 7682 7683 7684 7685 7686 7687 7688 7689 7690 7691 7692 7693 7694 7695 7696 7697 7698 7699 7700 7701 7702 7703 7704 7705 7706 7707 7708 7709 7710 7711 7712 7713 7714 7715 7716 7717 7718 7719 7720 7721 7722 7723 7724 7725 7726 7727 7728 7729 7730 7731 7732 7733 7734 7735 7736 7737 7738 7739 7740 7741 7742 7743 7744 7745 7746 7747 7748 7749 7750 7751 7752 7753 7754 7755 7756 7757 7758 7759 7760 7761 7762 7763 7764 7765 7766 7767 7768 7769 7770 7771 7772 7773 7774 7775 7776 7777 7778 7779 7780 7781 7782 7783 7784 7785 7786 7787 7788 7789 7790 7791 7792 7793 7794 7795 7796 7797 7798 7799 7800 7801 7802 7803 7804 7805 7806 7807 7808 7809 7810 7811 7812 7813 7814 7815 7816 7817 7818 7819 7820 7821 7822 7823 7824 7825 7826 7827 7828 7829 7830 7831 7832 7833 7834 7835 7836 7837 7838 7839 7840 7841 7842 7843 7844 7845 7846 7847 7848 7849 7850 7851 7852 7853 7854 7855 7856 7857 7858 7859 7860 7861 7862 7863 7864 7865 7866 7867 7868 7869 7870 7871 7872 7873 7874 7875 7876 7877 7878 7879 7880 7881 7882 7883 7884 7885 7886 7887 7888 7889 7890 7891 7892 7893 7894 7895 7896 7897 7898 7899 7900 7901 7902 7903 7904 7905 7906 7907 7908 7909 7910 7911 7912 7913 7914 7915 7916 7917 7918 7919 7920 7921 7922 7923 7924 7925 7926 7927 7928 7929 7930 7931 7932 7933 7934 7935 7936 7937 7938 7939 7940 7941 7942 7943 7944 7945 7946 7947 7948 7949 7950 7951 7952 7953 7954 7955 7956 7957 7958 7959 7960 7961 7962 7963 7964 7965 7966 7967 7968 7969 7970 7971 7972 7973 7974 7975 7976 7977 7978 7979 7980 7981 7982 7983 7984 7985 7986 7987 7988 7989 7990 7991 7992 7993 7994 7995 7996 7997 7998 7999 8000 8001 8002 8003 8004 8005 8006 8007 8008 8009 8010 8011 8012 8013 8014 8015 8016 8017 8018 8019 8020 8021 8022 8023 8024 8025 8026 8027 8028 8029 8030 8031 8032 8033 8034 8035 8036 8037 8038 8039 8040 8041 8042 8043 8044 8045 8046 8047 8048 8049 8050 8051 8052 8053 8054 8055 8056 8057 8058 8059 8060 8061 8062 8063 8064 8065 8066 8067 8068 8069 8070 8071 8072 8073 8074 8075 8076 8077 8078 8079 8080 8081 8082 8083 8084 8085 8086 8087 8088 8089 8090 8091 8092 8093 8094 8095 8096 8097 8098 8099 8100 8101 8102 8103 8104 8105 8106 8107 8108 8109 8110 8111 8112 8113 8114 8115 8116 8117 8118 8119 8120 8121 8122 8123 8124 8125 8126 8127 8128 8129 8130 8131 8132 8133 8134 8135 8136 8137 8138 8139 8140 8141 8142 8143 8144 8145 8146 8147 8148 8149 8150 8151 8152 8153 8154 8155 8156 8157 8158 8159 8160 8161 8162 8163 8164 8165 8166 8167 8168 8169 8170 8171 8172 8173 8174 8175 8176 8177 8178 8179 8180 8181 8182 8183 8184 8185 8186 8187 8188 8189 8190 8191 8192 8193 8194 8195 8196 8197 8198 8199 8200 8201 8202 8203 8204 8205 8206 8207 8208 8209 8210 8211 8212 8213 8214 8215 8216 8217 8218 8219 8220 8221 8222 8223 8224 8225 8226 8227 8228 8229 8230 8231 8232 8233 8234 8235 8236 8237 8238 8239 8240 8241 8242 8243 8244 8245 8246 8247 8248 8249 8250 8251 8252 8253 8254 8255 8256 8257 8258 8259 8260 8261 8262 8263 8264 8265 8266 8267 8268 8269 8270 8271 8272 8273 8274 8275 8276 8277 8278 8279 8280 8281 8282 8283 8284 8285 8286 8287 8288 8289 8290 8291 8292 8293 8294 8295 8296 8297 8298 8299 8300 8301 8302 8303 8304 8305 8306 8307 8308 8309 8310 8311 8312 8313 8314 8315 8316 8317 8318 8319 8320 8321 8322 8323 8324 8325 8326 8327 8328 8329 8330 8331 8332 8333 8334 8335 8336 8337 8338 8339 8340 8341 8342 8343 8344 8345 8346 8347 8348 8349 8350 8351 8352 8353 8354 8355 8356 8357 8358 8359 8360 8361 8362 8363 8364 8365 8366 8367 8368 8369 8370 8371 8372 8373 8374 8375 8376 8377 8378 8379 8380 8381 8382 8383 8384 8385 8386 8387 8388 8389 8390 8391 8392 8393 8394 8395 8396 8397 8398 8399 8400 8401 8402 8403 8404 8405 8406 8407 8408 8409 8410 8411 8412 8413 8414 8415 8416 8417 8418 8419 8420 8421 8422 8423 8424 8425 8426 8427 8428 8429 8430 8431 8432 8433 8434 8435 8436 8437 8438 8439 8440 8441 8442 8443 8444 8445 8446 8447 8448 8449 8450 8451 8452 8453 8454 8455 8456 8457 8458 8459 8460 8461 8462 8463 8464 8465 8466 8467 8468 8469 8470 8471 8472 8473 8474 8475 8476 8477 8478 8479 8480 8481 8482 8483 8484 8485 8486 8487 8488 8489 8490 8491 8492 8493 8494 8495 8496 8497 8498 8499 8500 8501 8502 8503 8504 8505 8506 8507 8508 8509 8510 8511 8512 8513 8514 8515 8516 8517 8518 8519 8520 8521 8522 8523 8524 8525 8526 8527 8528 8529 8530 8531 8532 8533 8534 8535 8536 8537 8538 8539 8540 8541 8542 8543 8544 8545 8546 8547 8548 8549 8550 8551 8552 8553 8554 8555 8556 8557 8558 8559 8560 8561 8562 8563 8564 8565 8566 8567 8568 8569 8570 8571 8572 8573 8574 8575 8576 8577 8578 8579 8580 8581 8582 8583 8584 8585 8586 8587 8588 8589 8590 8591 8592 8593 8594 8595 8596 8597 8598 8599 8600 8601 8602 8603 8604 8605 8606 8607 8608 8609 8610 8611 8612 8613 8614 8615 8616 8617 8618 8619 8620 8621 8622 8623 8624 8625 8626 8627 8628 8629 8630 8631 8632 8633 8634 8635 8636 8637 8638 8639 8640 8641 8642 8643 8644 8645 8646 8647 8648 8649 8650 8651 8652 8653 8654 8655 8656 8657 8658 8659 8660 8661 8662 8663 8664 8665 8666 8667 8668 8669 8670 8671 8672 8673 8674 8675 8676 8677 8678 8679 8680 8681 8682 8683 8684 8685 8686 8687 8688 8689 8690 8691 8692 8693 8694 8695 8696 8697 8698 8699 8700 8701 8702 8703 8704 8705 8706 8707 8708 8709 8710 8711 8712 8713 8714 8715 8716 8717 8718 8719 8720 8721 8722 8723 8724 8725 8726 8727 8728 8729 8730 8731 8732 8733 8734 8735 8736 8737 8738 8739 8740 8741 8742 8743 8744 8745 8746 8747 8748 8749 8750 8751 8752 8753 8754 8755 8756 8757 8758 8759 8760 8761 8762 8763 8764 8765 8766 8767 8768 8769 8770 8771 8772 8773 8774 8775 8776 8777 8778 8779 8780 8781 8782 8783 8784 8785 8786 8787 8788 8789 8790 8791 8792 8793 8794 8795 8796 8797 8798 8799 8800 8801 8802 8803 8804 8805 8806 8807 8808 8809 8810 8811 8812 8813 8814 8815 8816 8817 8818 8819 8820 8821 8822 8823 8824 8825 8826 8827 8828 8829 8830 8831 8832 8833 8834 8835 8836 8837 8838 8839 8840 8841 8842 8843 8844 8845 8846 8847 8848 8849 8850 8851 8852 8853 8854 8855 8856 8857 8858 8859 8860 8861 8862 8863 8864 8865 8866 8867 8868 8869 8870 8871 8872 8873 8874 8875 8876 8877 8878 8879 8880 8881 8882 8883 8884 8885 8886 8887 8888 8889 8890 8891 8892 8893 8894 8895 8896 8897 8898 8899 8900 8901 8902 8903 8904 8905 8906 8907 8908 8909 8910 8911 8912 8913 8914 8915 8916 8917 8918 8919 8920 8921 8922 8923 8924 8925 8926 8927 8928 8929 8930 8931 8932 8933 8934 8935 8936 8937 8938 8939 8940 8941 8942 8943 8944 8945 8946 8947 8948 8949 8950 8951 8952 8953 8954 8955 8956 8957 8958 8959 8960 8961 8962 8963 8964 8965 8966 8967 8968 8969 8970 8971 8972 8973 8974 8975 8976 8977 8978 8979 8980 8981 8982 8983 8984 8985 8986 8987 8988 8989 8990 8991 8992 8993 8994 8995 8996 8997 8998 8999 9000 9001 9002 9003 9004 9005 9006 9007 9008 9009 9010 9011 9012 9013 9014 9015 9016 9017 9018 9019 9020 9021 9022 9023 9024 9025 9026 9027 9028 9029 9030 9031 9032 9033 9034 9035 9036 9037 9038 9039 9040 9041 9042 9043 9044 9045 9046 9047 9048 9049 9050 9051 9052 9053 9054 9055 9056 9057 9058 9059 9060 9061 9062 9063 9064 9065 9066 9067 9068 9069 9070 9071 9072 9073 9074 9075 9076 9077 9078 9079 9080 9081 9082 9083 9084 9085 9086 9087 9088 9089 9090 9091 9092 9093 9094 9095 9096 9097 9098 9099 9100 9101 9102 9103 9104 9105 9106 9107 9108 9109 9110 9111 9112 9113 9114 9115 9116 9117 9118 9119 9120 9121 9122 9123 9124 9125 9126 9127 9128 9129 9130 9131 9132 9133 9134 9135 9136 9137 9138 9139 9140 9141 9142 9143 9144 9145 9146 9147 9148 9149 9150 9151 9152 9153 9154 9155 9156 9157 9158 9159 9160 9161 9162 9163 9164 9165 9166 9167 9168 9169 9170 9171 9172 9173 9174 9175 9176 9177 9178 9179 9180 9181 9182 9183 9184 9185 9186 9187 9188 9189 9190 9191 9192 9193 9194 9195 9196 9197 9198 9199 9200 9201 9202 9203 9204 9205 9206 9207 9208 9209 9210 9211 9212 9213 9214 9215 9216 9217 9218 9219 9220 9221 9222 9223 9224 9225 9226 9227 9228 9229 9230 9231 9232 9233 9234 9235 9236 9237 9238 9239 9240 9241 9242 9243 9244 9245 9246 9247 9248 9249 9250 9251 9252 9253 9254 9255 9256 9257 9258 9259 9260 9261 9262 9263 9264 9265 9266 9267 9268 9269 9270 9271 9272 9273 9274 9275 9276 9277 9278 9279 9280 9281 9282 9283 9284 9285 9286 9287 9288 9289 9290 9291 9292 9293 9294 9295 9296 9297 9298 9299 9300 9301 9302 9303 9304 9305 9306 9307 9308 9309 9310 9311 9312 9313 9314 9315 9316 9317 9318 9319 9320 9321 9322 9323 9324 9325 9326 9327 9328 9329 9330 9331 9332 9333 9334 9335 9336 9337 9338 9339 9340 9341 9342 9343 9344 9345 9346 9347 9348 9349 9350 9351 9352 9353 9354 9355 9356 9357 9358 9359 9360 9361 9362 9363 9364 9365 9366 9367 9368 9369 9370 9371 9372 9373 9374 9375 9376 9377 9378 9379 9380 9381 9382 9383 9384 9385 9386 9387 9388 9389 9390 9391 9392 9393 9394 9395 9396 9397 9398 9399 9400 9401 9402 9403 9404 9405 9406 9407 9408 9409 9410 9411 9412 9413 9414 9415 9416 9417 9418 9419 9420 9421 9422 9423 9424 9425 9426 9427 9428 9429 9430 9431 9432 9433 9434 9435 9436 9437 9438 9439 9440 9441 9442 9443 9444 9445 9446 9447 9448 9449 9450 9451 9452 9453 9454 9455 9456 9457 9458 9459 9460 9461 9462 9463 9464 9465 9466 9467 9468 9469 9470 9471 9472 9473 9474 9475 9476 9477 9478 9479 9480 9481 9482 9483 9484 9485 9486 9487 9488 9489 9490 9491 9492 9493 9494 9495 9496 9497 9498 9499 9500 9501 9502 9503 9504 9505 9506 9507 9508 9509 9510 9511 9512 9513 9514 9515 9516 9517 9518 9519 9520 9521 9522 9523 9524 9525 9526 9527 9528 9529 9530 9531 9532 9533 9534 9535 9536 9537 9538 9539 9540 9541 9542 9543 9544 9545 9546 9547 9548 9549 9550 9551 9552 9553 9554 9555 9556 9557 9558 9559 9560 9561 9562 9563 9564 9565 9566 9567 9568 9569 9570 9571 9572 9573 9574 9575 9576 9577 9578 9579 9580 9581 9582 9583 9584 9585 9586 9587 9588 9589 9590 9591 9592 9593 9594 9595 9596 9597 9598 9599 9600 9601 9602 9603 9604 9605 9606 9607 9608 9609 9610 9611 9612 9613 9614 9615 9616 9617 9618 9619 9620 9621 9622 9623 9624 9625 9626 9627 9628 9629 9630 9631 9632 9633 9634 9635 9636 9637 9638 9639 9640 9641 9642 9643 9644 9645 9646 9647 9648 9649 9650 9651 9652 9653 9654 9655 9656 9657 9658 9659 9660 9661 9662 9663 9664 9665 9666 9667 9668 9669 9670 9671 9672 9673 9674 9675 9676 9677 9678 9679 9680 9681 9682 9683 9684 9685 9686 9687 9688 9689 9690 9691 9692 9693 9694 9695 9696 9697 9698 9699 9700 9701 9702 9703 9704 9705 9706 9707 9708 9709 9710 9711 9712 9713 9714 9715 9716 9717 9718 9719 9720 9721 9722 9723 9724 9725 9726 9727 9728 9729 9730 9731 9732 9733 9734 9735 9736 9737 9738 9739 9740 9741 9742 9743 9744 9745 9746 9747 9748 9749 9750 9751 9752 9753 9754 9755 9756 9757 9758 9759 9760 9761 9762 9763 9764 9765 9766 9767 9768 9769 9770 9771 9772 9773 9774 9775 9776 9777 9778 9779 9780 9781 9782 9783 9784 9785 9786 9787 9788 9789 9790 9791 9792 9793 9794 9795 9796 9797 9798 9799 9800 9801 9802 9803 9804 9805 9806 9807 9808 9809 9810 9811 9812 9813 9814 9815 9816 9817 9818 9819 9820 9821 9822 9823 9824 9825 9826 9827 9828 9829 9830 9831 9832 9833 9834 9835 9836 9837 9838 9839 9840 9841 9842 9843 9844 9845 9846 9847 9848 9849 9850 9851 9852 9853 9854 9855 9856 9857 9858 9859 9860 9861 9862 9863 9864 9865 9866 9867 9868 9869 9870 9871 9872 9873 9874 9875 9876 9877 9878 9879 9880 9881 9882 9883 9884 9885 9886 9887 9888 9889 9890 9891 9892 9893 9894 9895 9896 9897 9898 9899 9900 9901 9902 9903 9904 9905 9906 9907 9908 9909 9910 9911 9912 9913 9914 9915 9916 9917 9918 9919 9920 9921 9922 9923 9924 9925 9926 9927 9928 9929 9930 9931 9932 9933 9934 9935 9936 9937 9938 9939 9940 9941 9942 9943 9944 9945 9946 9947 9948 9949 9950 9951 9952 9953 9954 9955 9956 9957 9958 9959 9960 9961 9962 9963 9964 9965 9966 9967 9968 9969 9970 9971 9972 9973 9974 9975 9976 9977 9978 9979 9980 9981 9982 9983 9984 9985 9986 9987 9988 9989 9990 9991 9992 9993 9994 9995 9996 9997 9998 9999 10000 10001 10002 10003 10004 10005 10006 10007 10008 10009 10010 10011 10012 10013 10014 10015 10016 10017 10018 10019 10020 10021 10022 10023 10024 10025 10026 10027 10028 10029 10030 10031 10032 10033 10034 10035 10036 10037 10038 10039 10040 10041 10042 10043 10044 10045 10046 10047 10048 10049 10050 10051 10052 10053 10054 10055 10056 10057 10058 10059 10060 10061 10062 10063 10064 10065 10066 10067 10068 10069 10070 10071 10072 10073 10074 10075 10076 10077 10078 10079 10080 10081 10082 10083 10084 10085 10086 10087 10088 10089 10090 10091 10092 10093 10094 10095 10096 10097 10098 10099 10100 10101 10102 10103 10104 10105 10106 10107 10108 10109 10110 10111 10112 10113 10114 10115 10116 10117 10118 10119 10120 10121 10122 10123 10124 10125 10126 10127 10128 10129 10130 10131 10132 10133 10134 10135 10136 10137 10138 10139 10140 10141 10142 10143 10144 10145 10146 10147 10148 10149 10150 10151 10152 10153 10154 10155 10156 10157 10158 10159 10160 10161 10162 10163 10164 10165 10166 10167 10168 10169 10170 10171 10172 10173 10174 10175 10176 10177 10178 10179 10180 10181 10182 10183 10184 10185 10186 10187 10188 10189 10190 10191 10192 10193 10194 10195 10196 10197 10198 10199 10200 10201 10202 10203 10204 10205 10206 10207 10208 10209 10210 10211 10212 10213 10214 10215 10216 10217 10218 10219 10220 10221 10222 10223 10224 10225 10226 10227 10228 10229 10230 10231 10232 10233 10234 10235 10236 10237 10238 10239 10240 10241 10242 10243 10244 10245 10246 10247 10248 10249 10250 10251 10252 10253 10254 10255 10256 10257 10258 10259 10260 10261 10262 10263 10264 10265 10266 10267 10268 10269 10270 10271 10272 10273 10274 10275 10276 10277 10278 10279 10280 10281 10282 10283 10284 10285 10286 10287 10288 10289 10290 10291 10292 10293 10294 10295 10296 10297 10298 10299 10300 10301 10302 10303 10304 10305 10306 10307 10308 10309 10310 10311 10312 10313 10314 10315 10316 10317 10318 10319 10320 10321 10322 10323 10324 10325 10326 10327 10328 10329 10330 10331 10332 10333 10334 10335 10336 10337 10338 10339 10340 10341 10342 10343 10344 10345 10346 10347 10348 10349 10350 10351 10352 10353 10354 10355 10356 10357 10358 10359 10360 10361 10362 10363 10364 10365 10366 10367 10368 10369 10370 10371 10372 10373 10374 10375 10376 10377 10378 10379 10380 10381 10382 10383 10384 10385 10386 10387 10388 10389 10390 10391 10392 10393 10394 10395 10396 10397 10398 10399 10400 10401 10402 10403 10404 10405 10406 10407 10408 10409 10410 10411 10412 10413 10414 10415 10416 10417 10418 10419 10420 10421 10422 10423 10424 10425 10426 10427 10428 10429 10430 10431 10432 10433 10434 10435 10436 10437 10438 10439 10440 10441 10442 10443 10444 10445 10446 10447 10448 10449 10450 10451 10452 10453 10454 10455 10456 10457 10458 10459 10460 10461 10462 10463 10464 10465 10466 10467 10468 10469 10470 10471 10472 10473 10474 10475 10476 10477 10478 10479 10480 10481 10482 10483 10484 10485 10486 10487 10488 10489 10490 10491 10492 10493 10494 10495 10496 10497 10498 10499 10500 10501 10502 10503 10504 10505 10506 10507 10508 10509 10510 10511 10512 10513 10514 10515 10516 10517 10518 10519 10520 10521 10522 10523 10524 10525 10526 10527 10528 10529 10530 10531 10532 10533 10534 10535 10536 10537 10538 10539 10540 10541 10542 10543 10544 10545 10546 10547 10548 10549 10550 10551 10552 10553 10554 10555 10556 10557 10558 10559 10560 10561 10562 10563 10564 10565 10566 10567 10568 10569 10570 10571 10572 10573 10574 10575 10576 10577 10578 10579 10580 10581 10582 10583 10584 10585 10586 10587 10588 10589 10590 10591 10592 10593 10594 10595 10596 10597 10598 10599 10600 10601 10602 10603 10604 10605 10606 10607 10608 10609 10610 10611 10612 10613 10614 10615 10616 10617 10618 10619 10620 10621 10622 10623 10624 10625 10626 10627 10628 10629 10630 10631 10632 10633 10634 10635 10636 10637 10638 10639 10640 10641 10642 10643 10644 10645 10646 10647 10648 10649 10650 10651 10652 10653 10654 10655 10656 10657 10658 10659 10660 10661 10662 10663 10664 10665 10666 10667 10668 10669 10670 10671 10672 10673 10674 10675 10676 10677 10678 10679 10680 10681 10682 10683 10684 10685 10686 10687 10688 10689 10690 10691 10692 10693 10694 10695 10696 10697 10698 10699 10700 10701 10702 10703 10704 10705 10706 10707 10708 10709 10710 10711 10712 10713 10714 10715 10716 10717 10718 10719 10720 10721 10722 10723 10724 10725 10726 10727 10728 10729 10730 10731 10732 10733 10734 10735 10736 10737 10738 10739 10740 10741 10742 10743 10744 10745 10746 10747 10748 10749 10750 10751 10752 10753 10754 10755 10756 10757 10758 10759 10760 10761 10762 10763 10764 10765 10766 10767 10768 10769 10770 10771 10772 10773 10774 10775 10776 10777 10778 10779 10780 10781 10782 10783 10784 10785 10786 10787 10788 10789 10790 10791 10792 10793 10794 10795 10796 10797 10798 10799 10800 10801 10802 10803 10804 10805 10806 10807 10808 10809 10810 10811 10812 10813 10814 10815 10816 10817 10818 10819 10820 10821 10822 10823 10824 10825 10826 10827 10828 10829 10830 10831 10832 10833 10834 10835 10836 10837 10838 10839 10840 10841 10842 10843 10844 10845 10846 10847 10848 10849 10850 10851 10852 10853 10854 10855 10856 10857 10858 10859 10860 10861 10862 10863 10864 10865 10866 10867 10868 10869 10870 10871 10872 10873 10874 10875 10876 10877 10878 10879 10880 10881 10882 10883 10884 10885 10886 10887 10888 10889 10890 10891 10892 10893 10894 10895 10896 10897 10898 10899 10900 10901 10902 10903 10904 10905 10906 10907 10908 10909 10910 10911 10912 10913 10914 10915 10916 10917 10918 10919 10920 10921 10922 10923 10924 10925 10926 10927 10928 10929 10930 10931 10932 10933 10934 10935 10936 10937 10938 10939 10940 10941 10942 10943 10944 10945 10946 10947 10948 10949 10950 10951 10952 10953 10954 10955 10956 10957 10958 10959 10960 10961 10962 10963 10964 10965 10966 10967 10968 10969 10970 10971 10972 10973 10974 10975 10976 10977 10978 10979 10980 10981 10982 10983 10984 10985 10986 10987 10988 10989 10990 10991 10992 10993 10994 10995 10996 10997 10998 10999 11000 11001 11002 11003 11004 11005 11006 11007 11008 11009 11010 11011 11012 11013 11014 11015 11016 11017 11018 11019 11020 11021 11022 11023 11024 11025 11026 11027 11028 11029 11030 11031 11032 11033 11034 11035 11036 11037 11038 11039 11040 11041 11042 11043 11044 11045 11046 11047 11048 11049 11050 11051 11052 11053 11054 11055 11056 11057 11058 11059 11060 11061 11062 11063 11064 11065 11066 11067 11068 11069 11070 11071 11072 11073 11074 11075 11076 11077 11078 11079 11080 11081 11082 11083 11084 11085 11086 11087 11088 11089 11090 11091 11092 11093 11094 11095 11096 11097 11098 11099 11100 11101 11102 11103 11104 11105 11106 11107 11108 11109 11110 11111 11112 11113 11114 11115 11116 11117 11118 11119 11120 11121 11122 11123 11124 11125 11126 11127 11128 11129 11130 11131 11132 11133 11134 11135 11136 11137 11138 11139 11140 11141 11142 11143 11144 11145 11146 11147 11148 11149 11150 11151 11152 11153 11154 11155 11156 11157 11158 11159 11160 11161 11162 11163 11164 11165 11166 11167 11168 11169 11170 11171 11172 11173 11174 11175 11176 11177 11178 11179 11180 11181 11182 11183 11184 11185 11186 11187 11188 11189 11190 11191 11192 11193 11194 11195 11196 11197 11198 11199 11200 11201 11202 11203 11204 11205 11206 11207 11208 11209 11210 11211 11212 11213 11214 11215 11216 11217 11218 11219 11220 11221 11222 11223 11224 11225 11226 11227 11228 11229 11230 11231 11232 11233 11234 11235 11236 11237 11238 11239 11240 11241 11242 11243 11244 11245 11246 11247 11248 11249 11250 11251 11252 11253 11254 11255 11256 11257 11258 11259 11260 11261 11262 11263 11264 11265 11266 11267 11268 11269 11270 11271 11272 11273 11274 11275 11276 11277 11278 11279 11280 11281 11282 11283 11284 11285 11286 11287 11288 11289 11290 11291 11292 11293 11294 11295 11296 11297 11298 11299 11300 11301 11302 11303 11304 11305 11306 11307 11308 11309 11310 11311 11312 11313 11314 11315 11316 11317 11318 11319 11320 11321 11322 11323 11324 11325 11326 11327 11328 11329 11330 11331 11332 11333 11334 11335 11336 11337 11338 11339 11340 11341 11342 11343 11344 11345 11346 11347 11348 11349 11350 11351 11352 11353 11354 11355 11356 11357 11358 11359 11360 11361 11362 11363 11364 11365 11366 11367 11368 11369 11370 11371 11372 11373 11374 11375 11376 11377 11378 11379 11380 11381 11382 11383 11384 11385 11386 11387 11388 11389 11390 11391 11392 11393 11394 11395 11396 11397 11398 11399 11400 11401 11402 11403 11404 11405 11406 11407 11408 11409 11410 11411 11412 11413 11414 11415 11416 11417 11418 11419 11420 11421 11422 11423 11424 11425 11426 11427 11428 11429 11430 11431 11432 11433 11434 11435 11436 11437 11438 11439 11440 11441 11442 11443 11444 11445 11446 11447 11448 11449 11450 11451 11452 11453 11454 11455 11456 11457 11458 11459 11460 11461 11462 11463 11464 11465 11466 11467 11468 11469 11470 11471 11472 11473 11474 11475 11476 11477 11478 11479 11480 11481 11482 11483 11484 11485 11486 11487 11488 11489 11490 11491 11492 11493 11494 11495 11496 11497 11498 11499 11500 11501 11502 11503 11504 11505 11506 11507 11508 11509 11510 11511 11512 11513 11514 11515 11516 11517 11518 11519 11520 11521 11522 11523 11524 11525 11526 11527 11528 11529 11530 11531 11532 11533 11534 11535 11536 11537 11538 11539 11540 11541 11542 11543 11544 11545 11546 11547 11548 11549 11550 11551 11552 11553 11554 11555 11556 11557 11558 11559 11560 11561 11562 11563 11564 11565 11566 11567 11568 11569 11570 11571 11572 11573 11574 11575 11576 11577 11578 11579 11580 11581 11582 11583 11584 11585 11586 11587 11588 11589 11590 11591 11592 11593 11594 11595 11596 11597 11598 11599 11600 11601 11602 11603 11604 11605 11606 11607 11608 11609 11610 11611 11612 11613 11614 11615 11616 11617 11618 11619 11620 11621 11622 11623 11624 11625 11626 11627 11628 11629 11630 11631 11632 11633 11634 11635 11636 11637 11638 11639 11640 11641 11642 11643 11644 11645 11646 11647 11648 11649 11650 11651 11652 11653 11654 11655 11656 11657 11658 11659 11660 11661 11662 11663 11664 11665 11666 11667 11668 11669 11670 11671 11672 11673 11674 11675 11676 11677 11678 11679 11680 11681 11682 11683 11684 11685 11686 11687 11688 11689 11690 11691 11692 11693 11694 11695 11696 11697 11698 11699 11700 11701 11702 11703 11704 11705 11706 11707 11708 11709 11710 11711 11712 11713 11714 11715 11716 11717 11718 11719 11720 11721 11722 11723 11724 11725 11726 11727 11728 11729 11730 11731 11732 11733 11734 11735 11736 11737 11738 11739 11740 11741 11742 11743 11744 11745 11746 11747 11748 11749 11750 11751 11752 11753 11754 11755 11756 11757 11758 11759 11760 11761 11762 11763 11764 11765 11766 11767 11768 11769 11770 11771 11772 11773 11774 11775 11776 11777 11778 11779 11780 11781 11782 11783 11784 11785 11786 11787 11788 11789 11790 11791 11792 11793 11794 11795 11796 11797 11798 11799 11800 11801 11802 11803 11804 11805 11806 11807 11808 11809 11810 11811 11812 11813 11814 11815 11816 11817 11818 11819 11820 11821 11822 11823 11824 11825 11826 11827 11828 11829 11830 11831 11832 11833 11834 11835 11836 11837 11838 11839 11840 11841 11842 11843 11844 11845 11846 11847 11848 11849 11850 11851 11852 11853 11854 11855 11856 11857 11858 11859 11860 11861 11862 11863 11864 11865 11866 11867 11868 11869 11870 11871 11872 11873 11874 11875 11876 11877 11878 11879 11880 11881 11882 11883 11884 11885 11886 11887 11888 11889 11890 11891 11892 11893 11894 11895 11896 11897 11898 11899 11900 11901 11902 11903 11904 11905 11906 11907 11908 11909 11910 11911 11912 11913 11914 11915 11916 11917 11918 11919 11920 11921 11922 11923 11924 11925 11926 11927 11928 11929 11930 11931 11932 11933 11934 11935 11936 11937 11938 11939 11940 11941 11942 11943 11944 11945 11946 11947 11948 11949 11950 11951 11952 11953 11954 11955 11956 11957 11958 11959 11960 11961 11962 11963 11964 11965 11966 11967 11968 11969 11970 11971 11972 11973 11974 11975 11976 11977 11978 11979 11980 11981 11982 11983 11984 11985 11986 11987 11988 11989 11990 11991 11992 11993 11994 11995 11996 11997 11998 11999 12000 12001 12002 12003 12004 12005 12006 12007 12008 12009 12010 12011 12012 12013 12014 12015 12016 12017 12018 12019 12020 12021 12022 12023 12024 12025 12026 12027 12028 12029 12030 12031 12032 12033 12034 12035 12036 12037 12038 12039 12040 12041 12042 12043 12044 12045 12046 12047 12048 12049 12050 12051 12052 12053 12054 12055 12056 12057 12058 12059 12060 12061 12062 12063 12064 12065 12066 12067 12068 12069 12070 12071 12072 12073 12074 12075 12076 12077 12078 12079 12080 12081 12082 12083 12084 12085 12086 12087 12088 12089 12090 12091 12092 12093 12094 12095 12096 12097 12098 12099 12100 12101 12102 12103 12104 12105 12106 12107 12108 12109 12110 12111 12112 12113 12114 12115 12116 12117 12118 12119 12120 12121 12122 12123 12124 12125 12126 12127 12128 12129 12130 12131 12132 12133 12134 12135 12136 12137 12138 12139 12140 12141 12142 12143 12144 12145 12146 12147 12148 12149 12150 12151 12152 12153 12154 12155 12156 12157 12158 12159 12160 12161 12162 12163 12164 12165 12166 12167 12168 12169 12170 12171 12172 12173 12174 12175 12176 12177 12178 12179 12180 12181 12182 12183 12184 12185 12186 12187 12188 12189 12190 12191 12192 12193 12194 12195 12196 12197 12198 12199 12200 12201 12202 12203 12204 12205 12206 12207 12208 12209 12210 12211 12212 12213 12214 12215 12216 12217 12218 12219 12220 12221 12222 12223 12224 12225 12226 12227 12228 12229 12230 12231 12232 12233 12234 12235 12236 12237 12238 12239 12240 12241 12242 12243 12244 12245 12246 12247 12248 12249 12250 12251 12252 12253 12254 12255 12256 12257 12258 12259 12260 12261 12262 12263 12264 12265 12266 12267 12268 12269 12270 12271 12272 12273 12274 12275 12276 12277 12278 12279 12280 12281 12282 12283 12284 12285 12286 12287 12288 12289 12290 12291 12292 12293 12294 12295 12296 12297 12298 12299 12300 12301 12302 12303 12304 12305 12306 12307 12308 12309 12310 12311 12312 12313 12314 12315 12316 12317 12318 12319 12320 12321 12322 12323 12324 12325 12326 12327 12328 12329 12330 12331 12332 12333 12334 12335 12336 12337 12338 12339 12340 12341 12342 12343 12344 12345 12346 12347 12348 12349 12350 12351 12352 12353 12354 12355 12356 12357 12358 12359 12360 12361 12362 12363 12364 12365 12366 12367 12368 12369 12370 12371 12372 12373 12374 12375 12376 12377 12378 12379 12380 12381 12382 12383 12384 12385 12386 12387 12388 12389 12390 12391 12392 12393 12394 12395 12396 12397 12398 12399 12400 12401 12402 12403 12404 12405 12406 12407 12408 12409 12410 12411 12412 12413 12414 12415 12416 12417 12418 12419 12420 12421 12422 12423 12424 12425 12426 12427 12428 12429 12430 12431 12432 12433 12434 12435 12436 12437 12438 12439 12440 12441 12442 12443 12444 12445 12446 12447 12448 12449 12450 12451 12452 12453 12454 12455 12456 12457 12458 12459 12460 12461 12462 12463 12464 12465 12466 12467 12468 12469 12470 12471 12472 12473 12474 12475 12476 12477 12478 12479 12480 12481 12482 12483 12484 12485 12486 12487 12488 12489 12490 12491 12492 12493 12494 12495 12496 12497 12498 12499 12500 12501 12502 12503 12504 12505 12506 12507 12508 12509 12510 12511 12512 12513 12514 12515 12516 12517 12518 12519 12520 12521 12522 12523 12524 12525 12526 12527 12528 12529 12530 12531 12532 12533 12534 12535 12536 12537 12538 12539 12540 12541 12542 12543 12544 12545 12546 12547 12548 12549 12550 12551 12552 12553 12554 12555 12556 12557 12558 12559 12560 12561 12562 12563 12564 12565 12566 12567 12568 12569 12570 12571 12572 12573 12574 12575 12576 12577 12578 12579 12580 12581 12582 12583 12584 12585 12586 12587 12588 12589 12590 12591 12592 12593 12594 12595 12596 12597 12598 12599 12600 12601 12602 12603 12604 12605 12606 12607 12608 12609 12610 12611 12612 12613 12614 12615 12616 12617 12618 12619 12620 12621 12622 12623 12624 12625 12626 12627 12628 12629 12630 12631 12632 12633 12634 12635 12636 12637 12638 12639 12640 12641 12642 12643 12644 12645 12646 12647 12648 12649 12650 12651 12652 12653 12654 12655 12656 12657 12658 12659 12660 12661 12662 12663 12664 12665 12666 12667 12668 12669 12670 12671 12672 12673 12674 12675 12676 12677 12678 12679 12680 12681 12682 12683 12684 12685 12686 12687 12688 12689 12690 12691 12692 12693 12694 12695 12696 12697 12698 12699 12700 12701 12702 12703 12704 12705 12706 12707 12708 12709 12710 12711 12712 12713 12714 12715 12716 12717 12718 12719 12720 12721 12722 12723 12724 12725 12726 12727 12728 12729 12730 12731 12732 12733 12734 12735 12736 12737 12738 12739 12740 12741 12742 12743 12744 12745 12746 12747 12748 12749 12750 12751 12752 12753 12754 12755 12756 12757 12758 12759 12760 12761 12762 12763 12764 12765 12766 12767 12768 12769 12770 12771 12772 12773 12774 12775 12776 12777 12778 12779 12780 12781 12782 12783 12784 12785 12786 12787 12788 12789 12790 12791 12792 12793 12794 12795 12796 12797 12798 12799 12800 12801 12802 12803 12804 12805 12806 12807 12808 12809 12810 12811 12812 12813 12814 12815 12816 12817 12818 12819 12820 12821 12822 12823 12824 12825 12826 12827 12828 12829 12830 12831 12832 12833 12834 12835 12836 12837 12838 12839 12840 12841 12842 12843 12844 12845 12846 12847 12848 12849 12850 12851 12852 12853 12854 12855 12856 12857 12858 12859 12860 12861 12862 12863 12864 12865 12866 12867 12868 12869 12870 12871 12872 12873 12874 12875 12876 12877 12878 12879 12880 12881 12882 12883 12884 12885 12886 12887 12888 12889 12890 12891 12892 12893 12894 12895 12896 12897 12898 12899 12900 12901 12902 12903 12904 12905 12906 12907 12908 12909 12910 12911 12912 12913 12914 12915 12916 12917 12918 12919 12920 12921 12922 12923 12924 12925 12926 12927 12928 12929 12930 12931 12932 12933 12934 12935 12936 12937 12938 12939 12940 12941 12942 12943 12944 12945 12946 12947 12948 12949 12950 12951 12952 12953 12954 12955 12956 12957 12958 12959 12960 12961 12962 12963 12964 12965 12966 12967 12968 12969 12970 12971 12972 12973 12974 12975 12976 12977 12978 12979 12980 12981 12982 12983 12984 12985 12986 12987 12988 12989 12990 12991 12992 12993 12994 12995 12996 12997 12998 12999 13000 13001 13002 13003 13004 13005 13006 13007 13008 13009 13010 13011 13012 13013 13014 13015 13016 13017 13018 13019 13020 13021 13022 13023 13024 13025 13026 13027 13028 13029 13030 13031 13032 13033 13034 13035 13036 13037 13038 13039 13040 13041 13042 13043 13044 13045 13046 13047 13048 13049 13050 13051 13052 13053 13054 13055 13056 13057 13058 13059 13060 13061 13062 13063 13064 13065 13066 13067 13068 13069 13070 13071 13072 13073 13074 13075 13076 13077 13078 13079 13080 13081 13082 13083 13084 13085 13086 13087 13088 13089 13090 13091 13092 13093 13094 13095 13096 13097 13098 13099 13100 13101 13102 13103 13104 13105 13106 13107 13108 13109 13110 13111 13112 13113 13114 13115 13116 13117 13118 13119 13120 13121 13122 13123 13124 13125 13126 13127 13128 13129 13130 13131 13132 13133 13134 13135 13136 13137 13138 13139 13140 13141 13142 13143 13144 13145 13146 13147 13148 13149 13150 13151 13152 13153 13154 13155 13156 13157 13158 13159 13160 13161 13162 13163 13164 13165 13166 13167 13168 13169 13170 13171 13172 13173 13174 13175 13176 13177 13178 13179 13180 13181 13182 13183 13184 13185 13186 13187 13188 13189 13190 13191 13192 13193 13194 13195 13196 13197 13198 13199 13200 13201 13202 13203 13204 13205 13206 13207 13208 13209 13210 13211 13212 13213 13214 13215 13216 13217 13218 13219 13220 13221 13222 13223 13224 13225 13226 13227 13228 13229 13230 13231 13232 13233 13234 13235 13236 13237 13238 13239 13240 13241 13242 13243 13244 13245 13246 13247 13248 13249 13250 13251 13252 13253 13254 13255 13256 13257 13258 13259 13260 13261 13262 13263 13264 13265 13266 13267 13268 13269 13270 13271 13272 13273 13274 13275 13276 13277 13278 13279 13280 13281 13282 13283 13284 13285 13286 13287 13288 13289 13290 13291 13292 13293 13294 13295 13296 13297 13298 13299 13300 13301 13302 13303 13304 13305 13306 13307 13308 13309 13310 13311 13312 13313 13314 13315 13316 13317 13318 13319 13320 13321 13322 13323 13324 13325 13326 13327 13328 13329 13330 13331 13332 13333 13334 13335 13336 13337 13338 13339 13340 13341 13342 13343 13344 13345 13346 13347 13348 13349 13350 13351 13352 13353 13354 13355 13356 13357 13358 13359 13360 13361 13362 13363 13364 13365 13366 13367 13368 13369 13370 13371 13372 13373 13374 13375 13376 13377 13378 13379 13380 13381 13382 13383 13384 13385 13386 13387 13388 13389 13390 13391 13392 13393 13394 13395 13396 13397 13398 13399 13400 13401 13402 13403 13404 13405 13406 13407 13408 13409 13410 13411 13412 13413 13414 13415 13416 13417 13418 13419 13420 13421 13422 13423 13424 13425 13426 13427 13428 13429 13430 13431 13432 13433 13434 13435 13436 13437 13438 13439 13440 13441 13442 13443 13444 13445 13446 13447 13448 13449 13450 13451 13452 13453 13454 13455 13456 13457 13458 13459 13460 13461 13462 13463 13464 13465 13466 13467 13468 13469 13470 13471 13472 13473 13474 13475 13476 13477 13478 13479 13480 13481 13482 13483 13484 13485 13486 13487 13488 13489 13490 13491 13492 13493 13494 13495 13496 13497 13498 13499 13500 13501 13502 13503 13504 13505 13506 13507 13508 13509 13510 13511 13512 13513 13514 13515 13516 13517 13518 13519 13520 13521 13522 13523 13524 13525 13526 13527 13528 13529 13530 13531 13532 13533 13534 13535 13536 13537 13538 13539 13540 13541 13542 13543 13544 13545 13546 13547 13548 13549 13550 13551 13552 13553 13554 13555 13556 13557 13558 13559 13560 13561 13562 13563 13564 13565 13566 13567 13568 13569 13570 13571 13572 13573 13574 13575 13576 13577 13578 13579 13580 13581 13582 13583 13584 13585 13586 13587 13588 13589 13590 13591 13592 13593 13594 13595 13596 13597 13598 13599 13600 13601 13602 13603 13604 13605 13606 13607 13608 13609 13610 13611 13612 13613 13614 13615 13616 13617 13618 13619 13620 13621 13622 13623 13624 13625 13626 13627 13628 13629 13630 13631 13632 13633 13634 13635 13636 13637 13638 13639 13640 13641 13642 13643 13644 13645 13646 13647 13648 13649 13650 13651 13652 13653 13654 13655 13656 13657 13658 13659 13660 13661 13662 13663 13664 13665 13666 13667 13668 13669 13670 13671 13672 13673 13674 13675 13676 13677 13678 13679 13680 13681 13682 13683 13684 13685 13686 13687 13688 13689 13690 13691 13692 13693 13694 13695 13696 13697 13698 13699 13700 13701 13702 13703 13704 13705 13706 13707 13708 13709 13710 13711 13712 13713 13714 13715 13716 13717 13718 13719 13720 13721 13722 13723 13724 13725 13726 13727 13728 13729 13730 13731 13732 13733 13734 13735 13736 13737 13738 13739 13740 13741 13742 13743 13744 13745 13746 13747 13748 13749 13750 13751 13752 13753 13754 13755 13756 13757 13758 13759 13760 13761 13762 13763 13764 13765 13766 13767 13768 13769 13770 13771 13772 13773 13774 13775 13776 13777 13778 13779 13780 13781 13782 13783 13784 13785 13786 13787 13788 13789 13790 13791 13792 13793 13794 13795 13796 13797 13798 13799 13800 13801 13802 13803 13804 13805 13806 13807 13808 13809 13810 13811 13812 13813 13814 13815 13816 13817 13818 13819 13820 13821 13822 13823 13824 13825 13826 13827 13828 13829 13830 13831 13832 13833 13834 13835 13836 13837 13838 13839 13840 13841 13842 13843 13844 13845 13846 13847 13848 13849 13850 13851 13852 13853 13854 13855 13856 13857 13858 13859 13860 13861 13862 13863 13864 13865 13866 13867 13868 13869 13870 13871 13872 13873 13874 13875 13876 13877 13878 13879 13880 13881 13882 13883 13884 13885 13886 13887 13888 13889 13890 13891 13892 13893 13894 13895 13896 13897 13898 13899 13900 13901 13902 13903 13904 13905 13906 13907 13908 13909 13910 13911 13912 13913 13914 13915 13916 13917 13918 13919 13920 13921 13922 13923 13924 13925 13926 13927 13928 13929 13930 13931 13932 13933 13934 13935 13936 13937 13938 13939 13940 13941 13942 13943 13944 13945 13946 13947 13948 13949 13950 13951 13952 13953 13954 13955 13956 13957 13958 13959 13960 13961 13962 13963 13964 13965 13966 13967 13968 13969 13970 13971 13972 13973 13974 13975 13976 13977 13978 13979 13980 13981 13982 13983 13984 13985 13986 13987 13988 13989 13990 13991 13992 13993 13994 13995 13996 13997 13998 13999 14000 14001 14002 14003 14004 14005 14006 14007 14008 14009 14010 14011 14012 14013 14014 14015 14016 14017 14018 14019 14020 14021 14022 14023 14024 14025 14026 14027 14028 14029 14030 14031 14032 14033 14034 14035 14036 14037 14038 14039 14040 14041 14042 14043 14044 14045 14046 14047 14048 14049 14050 14051 14052 14053 14054 14055 14056 14057 14058 14059 14060 14061 14062 14063 14064 14065 14066 14067 14068 14069 14070 14071 14072 14073 14074 14075 14076 14077 14078 14079 14080 14081 14082 14083 14084 14085 14086 14087 14088 14089 14090 14091 14092 14093 14094 14095 14096 14097 14098 14099 14100 14101 14102 14103 14104 14105 14106 14107 14108 14109 14110 14111 14112 14113 14114 14115 14116 14117 14118 14119 14120 14121 14122 14123 14124 14125 14126 14127 14128 14129 14130 14131 14132 14133 14134 14135 14136 14137 14138 14139 14140 14141 14142 14143 14144 14145 14146 14147 14148 14149 14150 14151 14152 14153 14154 14155 14156 14157 14158 14159 14160 14161 14162 14163 14164 14165 14166 14167 14168 14169 14170 14171 14172 14173 14174 14175 14176 14177 14178 14179 14180 14181 14182 14183 14184 14185 14186 14187 14188 14189 14190 14191 14192 14193 14194 14195 14196 14197 14198 14199 14200 14201 14202 14203 14204 14205 14206 14207 14208 14209 14210 14211 14212 14213 14214 14215 14216 14217 14218 14219 14220 14221 14222 14223 14224 14225 14226 14227 14228 14229 14230 14231 14232 14233 14234 14235 14236 14237 14238 14239 14240 14241 14242 14243 14244 14245 14246 14247 14248 14249 14250 14251 14252 14253 14254 14255 14256 14257 14258 14259 14260 14261 14262 14263 14264 14265 14266 14267 14268 14269 14270 14271 14272 14273 14274 14275 14276 14277 14278 14279 14280 14281 14282 14283 14284 14285 14286 14287 14288 14289 14290 14291 14292 14293 14294 14295 14296 14297 14298 14299 14300 14301 14302 14303 14304 14305 14306 14307 14308 14309 14310 14311 14312 14313 14314 14315 14316 14317 14318 14319 14320 14321 14322 14323 14324 14325 14326 14327 14328 14329 14330 14331 14332 14333 14334 14335 14336 14337 14338 14339 14340 14341 14342 14343 14344 14345 14346 14347 14348 14349 14350 14351 14352 14353 14354 14355 14356 14357 14358 14359 14360 14361 14362 14363 14364 14365 14366 14367 14368 14369 14370 14371 14372 14373 14374 14375 14376 14377 14378 14379 14380 14381 14382 14383 14384 14385 14386 14387 14388 14389 14390 14391 14392 14393 14394 14395 14396 14397 14398 14399 14400 14401 14402 14403 14404 14405 14406 14407 14408 14409 14410 14411 14412 14413 14414 14415 14416 14417 14418 14419 14420 14421 14422 14423 14424 14425 14426 14427 14428 14429 14430 14431 14432 14433 14434 14435 14436 14437 14438 14439 14440 14441 14442 14443 14444 14445 14446 14447 14448 14449 14450 14451 14452 14453 14454 14455 14456 14457 14458 14459 14460 14461 14462 14463 14464 14465 14466 14467 14468 14469 14470 14471 14472 14473 14474 14475 14476 14477 14478 14479 14480 14481 14482 14483 14484 14485 14486 14487 14488 14489 14490 14491 14492 14493 14494 14495 14496 14497 14498 14499 14500 14501 14502 14503 14504 14505 14506 14507 14508 14509 14510 14511 14512 14513 14514 14515 14516 14517 14518 14519 14520 14521 14522 14523 14524 14525 14526 14527 14528 14529 14530 14531 14532 14533 14534 14535 14536 14537 14538 14539 14540 14541 14542 14543 14544 14545 14546 14547 14548 14549 14550 14551 14552 14553 14554 14555 14556 14557 14558 14559 14560 14561 14562 14563 14564 14565 14566 14567 14568 14569 14570 14571 14572 14573 14574 14575 14576 14577 14578 14579 14580 14581 14582 14583 14584 14585 14586 14587 14588 14589 14590 14591 14592 14593 14594 14595 14596 14597 14598 14599 14600 14601 14602 14603 14604 14605 14606 14607 14608 14609 14610 14611 14612 14613 14614 14615 14616 14617 14618 14619 14620 14621 14622 14623 14624 14625 14626 14627 14628 14629 14630 14631 14632 14633 14634 14635 14636 14637 14638 14639 14640 14641 14642 14643 14644 14645 14646 14647 14648 14649 14650 14651 14652 14653 14654 14655 14656 14657 14658 14659 14660 14661 14662 14663 14664 14665 14666 14667 14668 14669 14670 14671 14672 14673 14674 14675 14676 14677 14678 14679 14680 14681 14682 14683 14684 14685 14686 14687 14688 14689 14690 14691 14692 14693 14694 14695 14696 14697 14698 14699 14700 14701 14702 14703 14704 14705 14706 14707 14708 14709 14710 14711 14712 14713 14714 14715 14716 14717 14718 14719 14720 14721 14722 14723 14724 14725 14726 14727 14728 14729 14730 14731 14732 14733 14734 14735 14736 14737 14738 14739 14740 14741 14742 14743 14744 14745 14746 14747 14748 14749 14750 14751 14752 14753 14754 14755 14756 14757 14758 14759 14760 14761 14762 14763 14764 14765 14766 14767 14768 14769 14770 14771 14772 14773 14774 14775 14776 14777 14778 14779 14780 14781 14782 14783 14784 14785 14786 14787 14788 14789 14790 14791 14792 14793 14794 14795 14796 14797 14798 14799 14800 14801 14802 14803 14804 14805 14806 14807 14808 14809 14810 14811 14812 14813 14814 14815 14816 14817 14818 14819 14820 14821 14822 14823 14824 14825 14826 14827 14828 14829 14830 14831 14832 14833 14834 14835 14836 14837 14838 14839 14840 14841 14842 14843 14844 14845 14846 14847 14848 14849 14850 14851 14852 14853 14854 14855 14856 14857 14858 14859 14860 14861 14862 14863 14864 14865 14866 14867 14868 14869 14870 14871 14872 14873 14874 14875 14876 14877 14878 14879 14880 14881 14882 14883 14884 14885 14886 14887 14888 14889 14890 14891 14892 14893 14894 14895 14896 14897 14898 14899 14900 14901 14902 14903 14904 14905 14906 14907 14908 14909 14910 14911 14912 14913 14914 14915 14916 14917 14918 14919 14920 14921 14922 14923 14924 14925 14926 14927 14928 14929 14930 14931 14932 14933 14934 14935 14936 14937 14938 14939 14940 14941 14942 14943 14944 14945 14946 14947 14948 14949 14950 14951 14952 14953 14954 14955 14956 14957 14958 14959 14960 14961 14962 14963 14964 14965 14966 14967 14968 14969 14970 14971 14972 14973 14974 14975 14976 14977 14978 14979 14980 14981 14982 14983 14984 14985 14986 14987 14988 14989 14990 14991 14992 14993 14994 14995 14996 14997 14998 14999 15000 15001 15002 15003 15004 15005 15006 15007 15008 15009 15010 15011 15012 15013 15014 15015 15016 15017 15018 15019 15020 15021 15022 15023 15024 15025 15026 15027 15028 15029 15030 15031 15032 15033 15034 15035 15036 15037 15038 15039 15040 15041 15042 15043 15044 15045 15046 15047 15048 15049 15050 15051 15052 15053 15054 15055 15056 15057 15058 15059 15060 15061 15062 15063 15064 15065 15066 15067 15068 15069 15070 15071 15072 15073 15074 15075 15076 15077 15078 15079 15080 15081 15082 15083 15084 15085 15086 15087 15088 15089 15090 15091 15092 15093 15094 15095 15096 15097 15098 15099 15100 15101 15102 15103 15104 15105 15106 15107 15108 15109 15110 15111 15112 15113 15114 15115 15116 15117 15118 15119 15120 15121 15122 15123 15124 15125 15126 15127 15128 15129 15130 15131 15132 15133 15134 15135 15136 15137 15138 15139 15140 15141 15142 15143 15144 15145 15146 15147 15148 15149 15150 15151 15152 15153 15154 15155 15156 15157 15158 15159 15160 15161 15162 15163 15164 15165 15166 15167 15168 15169 15170 15171 15172 15173 15174 15175 15176 15177 15178 15179 15180 15181 15182 15183 15184 15185 15186 15187 15188 15189 15190 15191 15192 15193 15194 15195 15196 15197 15198 15199 15200 15201 15202 15203 15204 15205 15206 15207 15208 15209 15210 15211 15212 15213 15214 15215 15216 15217 15218 15219 15220 15221 15222 15223 15224 15225 15226 15227 15228 15229 15230 15231 15232 15233 15234 15235 15236 15237 15238 15239 15240 15241 15242 15243 15244 15245 15246 15247 15248 15249 15250 15251 15252 15253 15254 15255 15256 15257 15258 15259 15260 15261 15262 15263 15264 15265 15266 15267 15268 15269 15270 15271 15272 15273 15274 15275 15276 15277 15278 15279 15280 15281 15282 15283 15284 15285 15286 15287 15288 15289 15290 15291 15292 15293 15294 15295 15296 15297 15298 15299 15300 15301 15302 15303 15304 15305 15306 15307 15308 15309 15310 15311 15312 15313 15314 15315 15316 15317 15318 15319 15320 15321 15322 15323 15324 15325 15326 15327 15328 15329 15330 15331 15332 15333 15334 15335 15336 15337 15338 15339 15340 15341 15342 15343 15344 15345 15346 15347 15348 15349 15350 15351 15352 15353 15354 15355 15356 15357 15358 15359 15360 15361 15362 15363 15364 15365 15366 15367 15368 15369 15370 15371 15372 15373 15374 15375 15376 15377 15378 15379 15380 15381 15382 15383 15384 15385 15386 15387 15388 15389 15390 15391 15392 15393 15394 15395 15396 15397 15398 15399 15400 15401 15402 15403 15404 15405 15406 15407 15408 15409 15410 15411 15412 15413 15414 15415 15416 15417 15418 15419 15420 15421 15422 15423 15424 15425 15426 15427 15428 15429 15430 15431 15432 15433 15434 15435 15436 15437 15438 15439 15440 15441 15442 15443 15444 15445 15446 15447 15448 15449 15450 15451 15452 15453 15454 15455 15456 15457 15458 15459 15460 15461 15462 15463 15464 15465 15466 15467 15468 15469 15470 15471 15472 15473 15474 15475 15476 15477 15478 15479 15480 15481 15482 15483 15484 15485 15486 15487 15488 15489 15490 15491 15492 15493 15494 15495 15496 15497 15498 15499 15500 15501 15502 15503 15504 15505 15506 15507 15508 15509 15510 15511 15512 15513 15514 15515 15516 15517 15518 15519 15520 15521 15522 15523 15524 15525 15526 15527 15528 15529 15530 15531 15532 15533 15534 15535 15536 15537 15538 15539 15540 15541 15542 15543 15544 15545 15546 15547 15548 15549 15550 15551 15552 15553 15554 15555 15556 15557 15558 15559 15560 15561 15562 15563 15564 15565 15566 15567 15568 15569 15570 15571 15572 15573 15574 15575 15576 15577 15578 15579 15580 15581 15582 15583 15584 15585 15586 15587 15588 15589 15590 15591 15592 15593 15594 15595 15596 15597 15598 15599 15600 15601 15602 15603 15604 15605 15606 15607 15608 15609 15610 15611 15612 15613 15614 15615 15616 15617 15618 15619 15620 15621 15622 15623 15624 15625 15626 15627 15628 15629 15630 15631 15632 15633 15634 15635 15636 15637 15638 15639 15640 15641 15642 15643 15644 15645 15646 15647 15648 15649 15650 15651 15652 15653 15654 15655 15656 15657 15658 15659 15660 15661 15662 15663 15664 15665 15666 15667 15668 15669 15670 15671 15672 15673 15674 15675 15676 15677 15678 15679 15680 15681 15682 15683 15684 15685 15686 15687 15688 15689 15690 15691 15692 15693 15694 15695 15696 15697 15698 15699 15700 15701 15702 15703 15704 15705 15706 15707 15708 15709 15710 15711 15712 15713 15714 15715 15716 15717 15718 15719 15720 15721 15722 15723 15724 15725 15726 15727 15728 15729 15730 15731 15732 15733 15734 15735 15736 15737 15738 15739 15740 15741 15742 15743 15744 15745 15746 15747 15748 15749 15750 15751 15752 15753 15754 15755 15756 15757 15758 15759 15760 15761 15762 15763 15764 15765 15766 15767 15768 15769 15770 15771 15772 15773 15774 15775 15776 15777 15778 15779 15780 15781 15782 15783 15784 15785 15786 15787 15788 15789 15790 15791 15792 15793 15794 15795 15796 15797 15798 15799 15800 15801 15802 15803 15804 15805 15806 15807 15808 15809 15810 15811 15812 15813 15814 15815 15816 15817 15818 15819 15820 15821 15822 15823 15824 15825 15826 15827 15828 15829 15830 15831 15832 15833 15834 15835 15836 15837 15838 15839 15840 15841 15842 15843 15844 15845 15846 15847 15848 15849 15850 15851 15852 15853 15854 15855 15856 15857 15858 15859 15860 15861 15862 15863 15864 15865 15866 15867 15868 15869 15870 15871 15872 15873 15874 15875 15876 15877 15878 15879 15880 15881 15882 15883 15884 15885 15886 15887 15888 15889 15890 15891 15892 15893 15894 15895 15896 15897 15898 15899 15900 15901 15902 15903 15904 15905 15906 15907 15908 15909 15910 15911 15912 15913 15914 15915 15916 15917 15918 15919 15920 15921 15922 15923 15924 15925 15926 15927 15928 15929 15930 15931 15932 15933 15934 15935 15936 15937 15938 15939 15940 15941 15942 15943 15944 15945 15946 15947 15948 15949 15950 15951 15952 15953 15954 15955 15956 15957 15958 15959 15960 15961 15962 15963 15964 15965 15966 15967 15968 15969 15970 15971 15972 15973 15974 15975 15976 15977 15978 15979 15980 15981 15982 15983 15984 15985 15986 15987 15988 15989 15990 15991 15992 15993 15994 15995 15996 15997 15998 15999 16000 16001 16002 16003 16004 16005 16006 16007 16008 16009 16010 16011 16012 16013 16014 16015 16016 16017 16018 16019 16020 16021 16022 16023 16024 16025 16026 16027 16028 16029 16030 16031 16032 16033 16034 16035 16036 16037 16038 16039 16040 16041 16042 16043 16044 16045 16046 16047 16048 16049 16050 16051 16052 16053 16054 16055 16056 16057 16058 16059 16060 16061 16062 16063 16064 16065 16066 16067 16068 16069 16070 16071 16072 16073 16074 16075 16076 16077 16078 16079 16080 16081 16082 16083 16084 16085 16086 16087 16088 16089 16090 16091 16092 16093 16094 16095 16096 16097 16098 16099 16100 16101 16102 16103 16104 16105 16106 16107 16108 16109 16110 16111 16112 16113 16114 16115 16116 16117 16118 16119 16120 16121 16122 16123 16124 16125 16126 16127 16128 16129 16130 16131 16132 16133 16134 16135 16136 16137 16138 16139 16140 16141 16142 16143 16144 16145 16146 16147 16148 16149 16150 16151 16152 16153 16154 16155 16156 16157 16158 16159 16160 16161 16162 16163 16164 16165 16166 16167 16168 16169 16170 16171 16172 16173 16174 16175 16176 16177 16178 16179 16180 16181 16182 16183 16184 16185 16186 16187 16188 16189 16190 16191 16192 16193 16194 16195 16196 16197 16198 16199 16200 16201 16202 16203 16204 16205 16206 16207 16208 16209 16210 16211 16212 16213 16214 16215 16216 16217 16218 16219 16220 16221 16222 16223 16224 16225 16226 16227 16228 16229 16230 16231 16232 16233 16234 16235 16236 16237 16238 16239 16240 16241 16242 16243 16244 16245 16246 16247 16248 16249 16250 16251 16252 16253 16254 16255 16256 16257 16258 16259 16260 16261 16262 16263 16264 16265 16266 16267 16268 16269 16270 16271 16272 16273 16274 16275 16276 16277 16278 16279 16280 16281 16282 16283 16284 16285 16286 16287 16288 16289 16290 16291 16292 16293 16294 16295 16296 16297 16298 16299 16300 16301 16302 16303 16304 16305 16306 16307 16308 16309 16310 16311 16312 16313 16314 16315 16316 16317 16318 16319 16320 16321 16322 16323 16324 16325 16326 16327 16328 16329 16330 16331 16332 16333 16334 16335 16336 16337 16338 16339 16340 16341 16342 16343 16344 16345 16346 16347 16348 16349 16350 16351 16352 16353 16354 16355 16356 16357 16358 16359 16360 16361 16362 16363 16364 16365 16366 16367 16368 16369 16370 16371 16372 16373 16374 16375 16376 16377 16378 16379 16380 16381 16382 16383 16384 16385 16386 16387 16388 16389 16390 16391 16392 16393 16394 16395 16396 16397 16398 16399 16400 16401 16402 16403 16404 16405 16406 16407 16408 16409 16410 16411 16412 16413 16414 16415 16416 16417 16418 16419 16420 16421 16422 16423 16424 16425 16426 16427 16428 16429 16430 16431 16432 16433 16434 16435 16436 16437 16438 16439 16440 16441 16442 16443 16444 16445 16446 16447 16448 16449 16450 16451 16452 16453 16454 16455 16456 16457 16458 16459 16460 16461 16462 16463 16464 16465 16466 16467 16468 16469 16470 16471 16472 16473 16474 16475 16476 16477 16478 16479 16480 16481 16482 16483 16484 16485 16486 16487 16488 16489 16490 16491 16492 16493 16494 16495 16496 16497 16498 16499 16500 16501 16502 16503 16504 16505 16506 16507 16508 16509 16510 16511 16512 16513 16514 16515 16516 16517 16518 16519 16520 16521 16522 16523 16524 16525 16526 16527 16528 16529 16530 16531 16532 16533 16534 16535 16536 16537 16538 16539 16540 16541 16542 16543 16544 16545 16546 16547 16548 16549 16550 16551 16552 16553 16554 16555 16556 16557 16558 16559 16560 16561 16562 16563 16564 16565 16566 16567 16568 16569 16570 16571 16572 16573 16574 16575 16576 16577 16578 16579 16580 16581 16582 16583 16584 16585 16586 16587 16588 16589 16590 16591 16592 16593 16594 16595 16596 16597 16598 16599 16600 16601 16602 16603 16604 16605 16606 16607 16608 16609 16610 16611 16612 16613 16614 16615 16616 16617 16618 16619 16620 16621 16622 16623 16624 16625 16626 16627 16628 16629 16630 16631 16632 16633 16634 16635 16636 16637 16638 16639 16640 16641 16642 16643 16644 16645 16646 16647 16648 16649 16650 16651 16652 16653 16654 16655 16656 16657 16658 16659 16660 16661 16662 16663 16664 16665 16666 16667 16668 16669 16670 16671 16672 16673 16674 16675 16676 16677 16678 16679 16680 16681 16682 16683 16684 16685 16686 16687 16688 16689 16690 16691 16692 16693 16694 16695 16696 16697 16698 16699 16700 16701 16702 16703 16704 16705 16706 16707 16708 16709 16710 16711 16712 16713 16714 16715 16716 16717 16718 16719 16720 16721 16722 16723 16724 16725 16726 16727 16728 16729 16730 16731 16732 16733 16734 16735 16736 16737 16738 16739 16740 16741 16742 16743 16744 16745 16746 16747 16748 16749 16750 16751 16752 16753 16754 16755 16756 16757 16758 16759 16760 16761 16762 16763 16764 16765 16766 16767 16768 16769 16770 16771 16772 16773 16774 16775 16776 16777 16778 16779 16780 16781 16782 16783 16784 16785 16786 16787 16788 16789 16790 16791 16792 16793 16794 16795 16796 16797 16798 16799 16800 16801 16802 16803 16804 16805 16806 16807 16808 16809 16810 16811 16812 16813 16814 16815 16816 16817 16818 16819 16820 16821 16822 16823 16824 16825 16826 16827 16828 16829 16830 16831 16832 16833 16834 16835 16836 16837 16838 16839 16840 16841 16842 16843 16844 16845 16846 16847 16848 16849 16850 16851 16852 16853 16854 16855 16856 16857 16858 16859 16860 16861 16862 16863 16864 16865 16866 16867 16868 16869 16870 16871 16872 16873 16874 16875 16876 16877 16878 16879 16880 16881 16882 16883 16884 16885 16886 16887 16888 16889 16890 16891 16892 16893 16894 16895 16896 16897 16898 16899 16900 16901 16902 16903 16904 16905 16906 16907 16908 16909 16910 16911 16912 16913 16914 16915 16916 16917 16918 16919 16920 16921 16922 16923 16924 16925 16926 16927 16928 16929 16930 16931 16932 16933 16934 16935 16936 16937 16938 16939 16940 16941 16942 16943 16944 16945 16946 16947 16948 16949 16950 16951 16952 16953 16954 16955 16956 16957 16958 16959 16960 16961 16962 16963 16964 16965 16966 16967 16968 16969 16970 16971 16972 16973 16974 16975 16976 16977 16978 16979 16980 16981 16982 16983 16984 16985 16986 16987 16988 16989 16990 16991 16992 16993 16994 16995 16996 16997 16998 16999 17000 17001 17002 17003 17004 17005 17006 17007 17008 17009 17010 17011 17012 17013 17014 17015 17016 17017 17018 17019 17020 17021 17022 17023 17024 17025 17026 17027 17028 17029 17030 17031 17032 17033 17034 17035 17036 17037 17038 17039 17040 17041 17042 17043 17044 17045 17046 17047 17048 17049 17050 17051 17052 17053 17054 17055 17056 17057 17058 17059 17060 17061 17062 17063 17064 17065 17066 17067 17068 17069 17070 17071 17072 17073 17074 17075 17076 17077 17078 17079 17080 17081 17082 17083 17084 17085 17086 17087 17088 17089 17090 17091 17092 17093 17094 17095 17096 17097 17098 17099 17100 17101 17102 17103 17104 17105 17106 17107 17108 17109 17110 17111 17112 17113 17114 17115 17116 17117 17118 17119 17120 17121 17122 17123 17124 17125 17126 17127 17128 17129 17130 17131 17132 17133 17134 17135 17136 17137 17138 17139 17140 17141 17142 17143 17144 17145 17146 17147 17148 17149 17150 17151 17152 17153 17154 17155 17156 17157 17158 17159 17160 17161 17162 17163 17164 17165 17166 17167 17168 17169 17170 17171 17172 17173 17174 17175 17176 17177 17178 17179 17180 17181 17182 17183 17184 17185 17186 17187 17188 17189 17190 17191 17192 17193 17194 17195 17196 17197 17198 17199 17200 17201 17202 17203 17204 17205 17206 17207 17208 17209 17210 17211 17212 17213 17214 17215 17216 17217 17218 17219 17220 17221 17222 17223 17224 17225 17226 17227 17228 17229 17230 17231 17232 17233 17234 17235 17236 17237 17238 17239 17240 17241 17242 17243 17244 17245 17246 17247 17248 17249 17250 17251 17252 17253 17254 17255 17256 17257 17258 17259 17260 17261 17262 17263 17264 17265 17266 17267 17268 17269 17270 17271 17272 17273 17274 17275 17276 17277 17278 17279 17280 17281 17282 17283 17284 17285 17286 17287 17288 17289 17290 17291 17292 17293 17294 17295 17296 17297 17298 17299 17300 17301 17302 17303 17304 17305 17306 17307 17308 17309 17310 17311 17312 17313 17314 17315 17316 17317 17318 17319 17320 17321 17322 17323 17324 17325 17326 17327 17328 17329 17330 17331 17332 17333 17334 17335 17336 17337 17338 17339 17340 17341 17342 17343 17344 17345 17346 17347 17348 17349 17350 17351 17352 17353 17354 17355 17356 17357 17358 17359 17360 17361 17362 17363 17364 17365 17366 17367 17368 17369 17370 17371 17372 17373 17374 17375 17376 17377 17378 17379 17380 17381 17382 17383 17384 17385 17386 17387 17388 17389 17390 17391 17392 17393 17394 17395 17396 17397 17398 17399 17400 17401 17402 17403 17404 17405 17406 17407 17408 17409 17410 17411 17412 17413 17414 17415 17416 17417 17418 17419 17420 17421 17422 17423 17424 17425 17426 17427 17428 17429 17430 17431 17432 17433 17434 17435 17436 17437 17438 17439 17440 17441 17442 17443 17444 17445 17446 17447 17448 17449 17450 17451 17452 17453 17454 17455 17456 17457 17458 17459 17460 17461 17462 17463 17464 17465 17466 17467 17468 17469 17470 17471 17472 17473 17474 17475 17476 17477 17478 17479 17480 17481 17482 17483 17484 17485 17486 17487 17488 17489 17490 17491 17492 17493 17494 17495 17496 17497 17498 17499 17500 17501 17502 17503 17504 17505 17506 17507 17508 17509 17510 17511 17512 17513 17514 17515 17516 17517 17518 17519 17520 17521 17522 17523 17524 17525 17526 17527 17528 17529 17530 17531 17532 17533 17534 17535 17536 17537 17538 17539 17540 17541 17542 17543 17544 17545 17546 17547 17548 17549 17550 17551 17552 17553 17554 17555 17556 17557 17558 17559 17560 17561 17562 17563 17564 17565 17566 17567 17568 17569 17570 17571 17572 17573 17574 17575 17576 17577 17578 17579 17580 17581 17582 17583 17584 17585 17586 17587 17588 17589 17590 17591 17592 17593 17594 17595 17596 17597 17598 17599 17600 17601 17602 17603 17604 17605 17606 17607 17608 17609 17610 17611 17612 17613 17614 17615 17616 17617 17618 17619 17620 17621 17622 17623 17624 17625 17626 17627 17628 17629 17630 17631 17632 17633 17634 17635 17636 17637 17638 17639 17640 17641 17642 17643 17644 17645 17646 17647 17648 17649 17650 17651 17652 17653 17654 17655 17656 17657 17658 17659 17660 17661 17662 17663 17664 17665 17666 17667 17668 17669 17670 17671 17672 17673 17674 17675 17676 17677 17678 17679 17680 17681 17682 17683 17684 17685 17686 17687 17688 17689 17690 17691 17692 17693 17694 17695 17696 17697 17698 17699 17700 17701 17702 17703 17704 17705 17706 17707 17708 17709 17710 17711 17712 17713 17714 17715 17716 17717 17718 17719 17720 17721 17722 17723 17724 17725 17726 17727 17728 17729 17730 17731 17732 17733 17734 17735 17736 17737 17738 17739 17740 17741 17742 17743 17744 17745 17746 17747 17748 17749 17750 17751 17752 17753 17754 17755 17756 17757 17758 17759 17760 17761 17762 17763 17764 17765 17766 17767 17768 17769 17770 17771 17772 17773 17774 17775 17776 17777 17778 17779 17780 17781 17782 17783 17784 17785 17786 17787 17788 17789 17790 17791 17792 17793 17794 17795 17796 17797 17798 17799 17800 17801 17802 17803 17804 17805 17806 17807 17808 17809 17810 17811 17812 17813 17814 17815 17816 17817 17818 17819 17820 17821 17822 17823 17824 17825 17826 17827 17828 17829 17830 17831 17832 17833 17834 17835 17836 17837 17838 17839 17840 17841 17842 17843 17844 17845 17846 17847 17848 17849 17850 17851 17852 17853 17854 17855 17856 17857 17858 17859 17860 17861 17862 17863 17864 17865 17866 17867 17868 17869 17870 17871 17872 17873 17874 17875 17876 17877 17878 17879 17880 17881 17882 17883 17884 17885 17886 17887 17888 17889 17890 17891 17892 17893 17894 17895 17896 17897 17898 17899 17900 17901 17902 17903 17904 17905 17906 17907 17908 17909 17910 17911 17912 17913 17914 17915 17916 17917 17918 17919 17920 17921 17922 17923 17924 17925 17926 17927 17928 17929 17930 17931 17932 17933 17934 17935 17936 17937 17938 17939 17940 17941 17942 17943 17944 17945 17946 17947 17948 17949 17950 17951 17952 17953 17954 17955 17956 17957 17958 17959 17960 17961 17962 17963 17964 17965 17966 17967 17968 17969 17970 17971 17972 17973 17974 17975 17976 17977 17978 17979 17980 17981 17982 17983 17984 17985 17986 17987 17988 17989 17990 17991 17992 17993 17994 17995 17996 17997 17998 17999 18000 18001 18002 18003 18004 18005 18006 18007 18008 18009 18010 18011 18012 18013 18014 18015 18016 18017 18018 18019 18020 18021 18022 18023 18024 18025 18026 18027 18028 18029 18030 18031 18032 18033 18034 18035 18036 18037 18038 18039 18040 18041 18042 18043 18044 18045 18046 18047 18048 18049 18050 18051 18052 18053 18054 18055 18056 18057 18058 18059 18060 18061 18062 18063 18064 18065 18066 18067 18068 18069 18070 18071 18072 18073 18074 18075 18076 18077 18078 18079 18080 18081 18082 18083 18084 18085 18086 18087 18088 18089 18090 18091 18092 18093 18094 18095 18096 18097 18098 18099 18100 18101 18102 18103 18104 18105 18106 18107 18108 18109 18110 18111 18112 18113 18114 18115 18116 18117 18118 18119 18120 18121 18122 18123 18124 18125 18126 18127 18128 18129 18130 18131 18132 18133 18134 18135 18136 18137 18138 18139 18140 18141 18142 18143 18144 18145 18146 18147 18148 18149 18150 18151 18152 18153 18154 18155 18156 18157 18158 18159 18160 18161 18162 18163 18164 18165 18166 18167 18168 18169 18170 18171 18172 18173 18174 18175 18176 18177 18178 18179 18180 18181 18182 18183 18184 18185 18186 18187 18188 18189 18190 18191 18192 18193 18194 18195 18196 18197 18198 18199 18200 18201 18202 18203 18204 18205 18206 18207 18208 18209 18210 18211 18212 18213 18214 18215 18216 18217 18218 18219 18220 18221 18222 18223 18224 18225 18226 18227 18228 18229 18230 18231 18232 18233 18234 18235 18236 18237 18238 18239 18240 18241 18242 18243 18244 18245 18246 18247 18248 18249 18250 18251 18252 18253 18254 18255 18256 18257 18258 18259 18260 18261 18262 18263 18264 18265 18266 18267 18268 18269 18270 18271 18272 18273 18274 18275 18276 18277 18278 18279 18280 18281 18282 18283 18284 18285 18286 18287 18288 18289 18290 18291 18292 18293 18294 18295 18296 18297 18298 18299 18300 18301 18302 18303 18304 18305 18306 18307 18308 18309 18310 18311 18312 18313 18314 18315 18316 18317 18318 18319 18320 18321 18322 18323 18324 18325 18326 18327 18328 18329 18330 18331 18332 18333 18334 18335 18336 18337 18338 18339 18340 18341 18342 18343 18344 18345 18346 18347 18348 18349 18350 18351 18352 18353 18354 18355 18356 18357 18358 18359 18360 18361 18362 18363 18364 18365 18366 18367 18368 18369 18370 18371 18372 18373 18374 18375 18376 18377 18378 18379 18380 18381 18382 18383 18384 18385 18386 18387 18388 18389 18390 18391 18392 18393 18394 18395 18396 18397 18398 18399 18400 18401 18402 18403 18404 18405 18406 18407 18408 18409 18410 18411 18412 18413 18414 18415 18416 18417 18418 18419 18420 18421 18422 18423 18424 18425 18426 18427 18428 18429 18430 18431 18432 18433 18434 18435 18436 18437 18438 18439 18440 18441 18442 18443 18444 18445 18446 18447 18448 18449 18450 18451 18452 18453 18454 18455 18456 18457 18458 18459 18460 18461 18462 18463 18464 18465 18466 18467 18468 18469 18470 18471 18472 18473 18474 18475 18476 18477 18478 18479 18480 18481 18482 18483 18484 18485 18486 18487 18488 18489 18490 18491 18492 18493 18494 18495 18496 18497 18498 18499 18500 18501 18502 18503 18504 18505 18506 18507 18508 18509 18510 18511 18512 18513 18514 18515 18516 18517 18518 18519 18520 18521 18522 18523 18524 18525 18526 18527 18528 18529 18530 18531 18532 18533 18534 18535 18536 18537 18538 18539 18540 18541 18542 18543 18544 18545 18546 18547 18548 18549 18550 18551 18552 18553 18554 18555 18556 18557 18558 18559 18560 18561 18562 18563 18564 18565 18566 18567 18568 18569 18570 18571 18572 18573 18574 18575 18576 18577 18578 18579 18580 18581 18582 18583 18584 18585 18586 18587 18588 18589 18590 18591 18592 18593 18594 18595 18596 18597 18598 18599 18600 18601 18602 18603 18604 18605 18606 18607 18608 18609 18610 18611 18612 18613 18614 18615 18616 18617 18618 18619 18620 18621 18622 18623 18624 18625 18626 18627 18628 18629 18630 18631 18632 18633 18634 18635 18636 18637 18638 18639 18640 18641 18642 18643 18644 18645 18646 18647 18648 18649 18650 18651 18652 18653 18654 18655 18656 18657 18658 18659 18660 18661 18662 18663 18664 18665 18666 18667 18668 18669 18670 18671 18672 18673 18674 18675 18676 18677 18678 18679 18680 18681 18682 18683 18684 18685 18686 18687 18688 18689 18690 18691 18692 18693 18694 18695 18696 18697 18698 18699 18700 18701 18702 18703 18704 18705 18706 18707 18708 18709 18710 18711 18712 18713 18714 18715 18716 18717 18718 18719 18720 18721 18722 18723 18724 18725 18726 18727 18728 18729 18730 18731 18732 18733 18734 18735 18736 18737 18738 18739 18740 18741 18742 18743 18744 18745 18746 18747 18748 18749 18750 18751 18752 18753 18754 18755 18756 18757 18758 18759 18760 18761 18762 18763 18764 18765 18766 18767 18768 18769 18770 18771 18772 18773 18774 18775 18776 18777 18778 18779 18780 18781 18782 18783 18784 18785 18786 18787 18788 18789 18790 18791 18792 18793 18794 18795 18796 18797 18798 18799 18800 18801 18802 18803 18804 18805 18806 18807 18808 18809 18810 18811 18812 18813 18814 18815 18816 18817 18818 18819 18820 18821 18822 18823 18824 18825 18826 18827 18828 18829 18830 18831 18832 18833 18834 18835 18836 18837 18838 18839 18840 18841 18842 18843 18844 18845 18846 18847 18848 18849 18850 18851 18852 18853 18854 18855 18856 18857 18858 18859 18860 18861 18862 18863 18864 18865 18866 18867 18868 18869 18870 18871 18872 18873 18874 18875 18876 18877 18878 18879 18880 18881 18882 18883 18884 18885 18886 18887 18888 18889 18890 18891 18892 18893 18894 18895 18896 18897 18898 18899 18900 18901 18902 18903 18904 18905 18906 18907 18908 18909 18910 18911 18912 18913 18914 18915 18916 18917 18918 18919 18920 18921 18922 18923 18924 18925 18926 18927 18928 18929 18930 18931 18932 18933 18934 18935 18936 18937 18938 18939 18940 18941 18942 18943 18944 18945 18946 18947 18948 18949 18950 18951 18952 18953 18954 18955 18956 18957 18958 18959 18960 18961 18962 18963 18964 18965 18966 18967 18968 18969 18970 18971 18972 18973 18974 18975 18976 18977 18978 18979 18980 18981 18982 18983 18984 18985 18986 18987 18988 18989 18990 18991 18992 18993 18994 18995 18996 18997 18998 18999 19000 19001 19002 19003 19004 19005 19006 19007 19008 19009 19010 19011 19012 19013 19014 19015 19016 19017 19018 19019 19020 19021 19022 19023 19024 19025 19026 19027 19028 19029 19030 19031 19032 19033 19034 19035 19036 19037 19038 19039 19040 19041 19042 19043 19044 19045 19046 19047 19048 19049 19050 19051 19052 19053 19054 19055 19056 19057 19058 19059 19060 19061 19062 19063 19064 19065 19066 19067 19068 19069 19070 19071 19072 19073 19074 19075 19076 19077 19078 19079 19080 19081 19082 19083 19084 19085 19086 19087 19088 19089 19090 19091 19092 19093 19094 19095 19096 19097 19098 19099 19100 19101 19102 19103 19104 19105 19106 19107 19108 19109 19110 19111 19112 19113 19114 19115 19116 19117 19118 19119 19120 19121 19122 19123 19124 19125 19126 19127 19128 19129 19130 19131 19132 19133 19134 19135 19136 19137 19138 19139 19140 19141 19142 19143 19144 19145 19146 19147 19148 19149 19150 19151 19152 19153 19154 19155 19156 19157 19158 19159 19160 19161 19162 19163 19164 19165 19166 19167 19168 19169 19170 19171 19172 19173 19174 19175 19176 19177 19178 19179 19180 19181 19182 19183 19184 19185 19186 19187 19188 19189 19190 19191 19192 19193 19194 19195 19196 19197 19198 19199 19200 19201 19202 19203 19204 19205 19206 19207 19208 19209 19210 19211 19212 19213 19214 19215 19216 19217 19218 19219 19220 19221 19222 19223 19224 19225 19226 19227 19228 19229 19230 19231 19232 19233 19234 19235 19236 19237 19238 19239 19240 19241 19242 19243 19244 19245 19246 19247 19248 19249 19250 19251 19252 19253 19254 19255 19256 19257 19258 19259 19260 19261 19262 19263 19264 19265 19266 19267 19268 19269 19270 19271 19272 19273 19274 19275 19276 19277 19278 19279 19280 19281 19282 19283 19284 19285 19286 19287 19288 19289 19290 19291 19292 19293 19294 19295 19296 19297 19298 19299 19300 19301 19302 19303 19304 19305 19306 19307 19308 19309 19310 19311 19312 19313 19314 19315 19316 19317 19318 19319 19320 19321 19322 19323 19324 19325 19326 19327 19328 19329 19330 19331 19332 19333 19334 19335 19336 19337 19338 19339 19340 19341 19342 19343 19344 19345 19346 19347 19348 19349 19350 19351 19352 19353 19354 19355 19356 19357 19358 19359 19360 19361 19362 19363 19364 19365 19366 19367 19368 19369 19370 19371 19372 19373 19374 19375 19376 19377 19378 19379 19380 19381 19382 19383 19384 19385 19386 19387 19388 19389 19390 19391 19392 19393 19394 19395 19396 19397 19398 19399 19400 19401 19402 19403 19404 19405 19406 19407 19408 19409 19410 19411 19412 19413 19414 19415 19416 19417 19418 19419 19420 19421 19422 19423 19424 19425 19426 19427 19428 19429 19430 19431 19432 19433 19434 19435 19436 19437 19438 19439 19440 19441 19442 19443 19444 19445 19446 19447 19448 19449 19450 19451 19452 19453 19454 19455 19456 19457 19458 19459 19460 19461 19462 19463 19464 19465 19466 19467 19468 19469 19470 19471 19472 19473 19474 19475 19476 19477 19478 19479 19480 19481 19482 19483 19484 19485 19486 19487 19488 19489 19490 19491 19492 19493 19494 19495 19496 19497 19498 19499 19500 19501 19502 19503 19504 19505 19506 19507 19508 19509 19510 19511 19512 19513 19514 19515 19516 19517 19518 19519 19520 19521 19522 19523 19524 19525 19526 19527 19528 19529 19530 19531 19532 19533 19534 19535 19536 19537 19538 19539 19540 19541 19542 19543 19544 19545 19546 19547 19548 19549 19550 19551 19552 19553 19554 19555 19556 19557 19558 19559 19560 19561 19562 19563 19564 19565 19566 19567 19568 19569 19570 19571 19572 19573 19574 19575 19576 19577 19578 19579 19580 19581 19582 19583 19584 19585 19586 19587 19588 19589 19590 19591 19592 19593 19594 19595 19596 19597 19598 19599 19600 19601 19602 19603 19604 19605 19606 19607 19608 19609 19610 19611 19612 19613 19614 19615 19616 19617 19618 19619 19620 19621 19622 19623 19624 19625 19626 19627 19628 19629 19630 19631 19632 19633 19634 19635 19636 19637 19638 19639 19640 19641 19642 19643 19644 19645 19646 19647 19648 19649 19650 19651 19652 19653 19654 19655 19656 19657 19658 19659 19660 19661 19662 19663 19664 19665 19666 19667 19668 19669 19670 19671 19672 19673 19674 19675 19676 19677 19678 19679 19680 19681 19682 19683 19684 19685 19686 19687 19688 19689 19690 19691 19692 19693 19694 19695 19696 19697 19698 19699 19700 19701 19702 19703 19704 19705 19706 19707 19708 19709 19710 19711 19712 19713 19714 19715 19716 19717 19718 19719 19720 19721 19722 19723 19724 19725 19726 19727 19728 19729 19730 19731 19732 19733 19734 19735 19736 19737 19738 19739 19740 19741 19742 19743 19744 19745 19746 19747 19748 19749 19750 19751 19752 19753 19754 19755 19756 19757 19758 19759 19760 19761 19762 19763 19764 19765 19766 19767 19768 19769 19770 19771 19772 19773 19774 19775 19776 19777 19778 19779 19780 19781 19782 19783 19784 19785 19786 19787 19788 19789 19790 19791 19792 19793 19794 19795 19796 19797 19798 19799 19800 19801 19802 19803 19804 19805 19806 19807 19808 19809 19810 19811 19812 19813 19814 19815 19816 19817 19818 19819 19820 19821 19822 19823 19824 19825 19826 19827 19828 19829 19830 19831 19832 19833 19834 19835 19836 19837 19838 19839 19840 19841 19842 19843 19844 19845 19846 19847 19848 19849 19850 19851 19852 19853 19854 19855 19856 19857 19858 19859 19860 19861 19862 19863 19864 19865 19866 19867 19868 19869 19870 19871 19872 19873 19874 19875 19876 19877 19878 19879 19880 19881 19882 19883 19884 19885 19886 19887 19888 19889 19890 19891 19892 19893 19894 19895 19896 19897 19898 19899 19900 19901 19902 19903 19904 19905 19906 19907 19908 19909 19910 19911 19912 19913 19914 19915 19916 19917 19918 19919 19920 19921 19922 19923 19924 19925 19926 19927 19928 19929 19930 19931 19932 19933 19934 19935 19936 19937 19938 19939 19940 19941 19942 19943 19944 19945 19946 19947 19948 19949 19950 19951 19952 19953 19954 19955 19956 19957 19958 19959 19960 19961 19962 19963 19964 19965 19966 19967 19968 19969 19970 19971 19972 19973 19974 19975 19976 19977 19978 19979 19980 19981 19982 19983 19984 19985 19986 19987 19988 19989 19990 19991 19992 19993 19994 19995 19996 19997 19998 19999 20000 20001 20002 20003 20004 20005 20006 20007 20008 20009 20010 20011 20012 20013 20014 20015 20016 20017 20018 20019 20020 20021 20022 20023 20024 20025 20026 20027 20028 20029 20030 20031 20032 20033 20034 20035 20036 20037 20038 20039 20040 20041 20042 20043 20044 20045 20046 20047 20048 20049 20050 20051 20052 20053 20054 20055 20056 20057 20058 20059 20060 20061 20062 20063 20064 20065 20066 20067 20068 20069 20070 20071 20072 20073 20074 20075 20076 20077 20078 20079 20080 20081 20082 20083 20084 20085 20086 20087 20088 20089 20090 20091 20092 20093 20094 20095 20096 20097 20098 20099 20100 20101 20102 20103 20104 20105 20106 20107 20108 20109 20110 20111 20112 20113 20114 20115 20116 20117 20118 20119 20120 20121 20122 20123 20124 20125 20126 20127 20128 20129 20130 20131 20132 20133 20134 20135 20136 20137 20138 20139 20140 20141 20142 20143 20144 20145 20146 20147 20148 20149 20150 20151 20152 20153 20154 20155 20156 20157 20158 20159 20160 20161 20162 20163 20164 20165 20166 20167 20168 20169 20170 20171 20172 20173 20174 20175 20176 20177 20178 20179 20180 20181 20182 20183 20184 20185 20186 20187 20188 20189 20190 20191 20192 20193 20194 20195 20196 20197 20198 20199 20200 20201 20202 20203 20204 20205 20206 20207 20208 20209 20210 20211 20212 20213 20214 20215 20216 20217 20218 20219 20220 20221 20222 20223 20224 20225 20226 20227 20228 20229 20230 20231 20232 20233 20234 20235 20236 20237 20238 20239 20240 20241 20242 20243 20244 20245 20246 20247 20248 20249 20250 20251 20252 20253 20254 20255 20256 20257 20258 20259 20260 20261 20262 20263 20264 20265 20266 20267 20268 20269 20270 20271 20272 20273 20274 20275 20276 20277 20278 20279 20280 20281 20282 20283 20284 20285 20286 20287 20288 20289 20290 20291 20292 20293 20294 20295 20296 20297 20298 20299 20300 20301 20302 20303 20304 20305 20306 20307 20308 20309 20310 20311 20312 20313 20314 20315 20316 20317 20318 20319 20320 20321 20322 20323 20324 20325 20326 20327 20328 20329 20330 20331 20332 20333 20334 20335 20336 20337 20338 20339 20340 20341 20342 20343 20344 20345 20346 20347 20348 20349 20350 20351 20352 20353 20354 20355 20356 20357 20358 20359 20360 20361 20362 20363 20364 20365 20366 20367 20368 20369 20370 20371 20372 20373 20374 20375 20376 20377 20378 20379 20380 20381 20382 20383 20384 20385 20386 20387 20388 20389 20390 20391 20392 20393 20394 20395 20396 20397 20398 20399 20400 20401 20402 20403 20404 20405 20406 20407 20408 20409 20410 20411 20412 20413 20414 20415 20416 20417 20418 20419 20420 20421 20422 20423 20424 20425 20426 20427 20428 20429 20430 20431 20432 20433 20434 20435 20436 20437 20438 20439 20440 20441 20442 20443 20444 20445 20446 20447 20448 20449 20450 20451 20452 20453 20454 20455 20456 20457 20458 20459 20460 20461 20462 20463 20464 20465 20466 20467 20468 20469 20470 20471 20472 20473 20474 20475 20476 20477 20478 20479 20480 20481 20482 20483 20484 20485 20486 20487 20488 20489 20490 20491 20492 20493 20494 20495 20496 20497 20498 20499 20500 20501 20502 20503 20504 20505 20506 20507 20508 20509 20510 20511 20512 20513 20514 20515 20516 20517 20518 20519 20520 20521 20522 20523 20524 20525 20526 20527 20528 20529 20530 20531 20532 20533 20534 20535 20536 20537 20538 20539 20540 20541 20542 20543 20544 20545 20546 20547 20548 20549 20550 20551 20552 20553 20554 20555 20556 20557 20558 20559 20560 20561 20562 20563 20564 20565 20566 20567 20568 20569 20570 20571 20572 20573 20574 20575 20576 20577 20578 20579 20580 20581 20582 20583 20584 20585 20586 20587 20588 20589 20590 20591 20592 20593 20594 20595 20596 20597 20598 20599 20600 20601 20602 20603 20604 20605 20606 20607 20608 20609 20610 20611 20612 20613 20614 20615 20616 20617 20618 20619 20620 20621 20622 20623 20624 20625 20626 20627 20628 20629 20630 20631 20632 20633 20634 20635 20636 20637 20638 20639 20640 20641 20642 20643 20644 20645 20646 20647 20648 20649 20650 20651 20652 20653 20654 20655 20656 20657 20658 20659 20660 20661 20662 20663 20664 20665 20666 20667 20668 20669 20670 20671 20672 20673 20674 20675 20676 20677 20678 20679 20680 20681 20682 20683 20684 20685 20686 20687 20688 20689 20690 20691 20692 20693 20694 20695 20696 20697 20698 20699 20700 20701 20702 20703 20704 20705 20706 20707 20708 20709 20710 20711 20712 20713 20714 20715 20716 20717 20718 20719 20720 20721 20722 20723 20724 20725 20726 20727 20728 20729 20730 20731 20732 20733 20734 20735 20736 20737 20738 20739 20740 20741 20742 20743 20744 20745 20746 20747 20748 20749 20750 20751 20752 20753 20754 20755 20756 20757 20758 20759 20760 20761 20762 20763 20764 20765 20766 20767 20768 20769 20770 20771 20772 20773 20774 20775 20776 20777 20778 20779 20780 20781 20782 20783 20784 20785 20786 20787 20788 20789 20790 20791 20792 20793 20794 20795 20796 20797 20798 20799 20800 20801 20802 20803 20804 20805 20806 20807 20808 20809 20810 20811 20812 20813 20814 20815 20816 20817 20818 20819 20820 20821 20822 20823 20824 20825 20826 20827 20828 20829 20830 20831 20832 20833 20834 20835 20836 20837 20838 20839 20840 20841 20842 20843 20844 20845 20846 20847 20848 20849 20850 20851 20852 20853 20854 20855 20856 20857 20858 20859 20860 20861 20862 20863 20864 20865 20866 20867 20868 20869 20870 20871 20872 20873 20874 20875 20876 20877 20878 20879 20880 20881 20882 20883 20884 20885 20886 20887 20888 20889 20890 20891 20892 20893 20894 20895 20896 20897 20898 20899 20900 20901 20902 20903 20904 20905 20906 20907 20908 20909 20910 20911 20912 20913 20914 20915 20916 20917 20918 20919 20920 20921 20922 20923 20924 20925 20926 20927 20928 20929 20930 20931 20932 20933 20934 20935 20936 20937 20938 20939 20940 20941 20942 20943 20944 20945 20946 20947 20948 20949 20950 20951 20952 20953 20954 20955 20956 20957 20958 20959 20960 20961 20962 20963 20964 20965 20966 20967 20968 20969 20970 20971 20972 20973 20974 20975 20976 20977 20978 20979 20980 20981 20982 20983 20984 20985 20986 20987 20988 20989 20990 20991 20992 20993 20994 20995 20996 20997 20998 20999 21000 21001 21002 21003 21004 21005 21006 21007 21008 21009 21010 21011 21012 21013 21014 21015 21016 21017 21018 21019 21020 21021 21022 21023 21024 21025 21026 21027 21028 21029 21030 21031 21032 21033 21034 21035 21036 21037 21038 21039 21040 21041 21042 21043 21044 21045 21046 21047 21048 21049 21050 21051 21052 21053 21054 21055 21056 21057 21058 21059 21060 21061 21062 21063 21064 21065 21066 21067 21068 21069 21070 21071 21072 21073 21074 21075 21076 21077 21078 21079 21080 21081 21082 21083 21084 21085 21086 21087 21088 21089 21090 21091 21092 21093 21094 21095 21096 21097 21098 21099 21100 21101 21102 21103 21104 21105 21106 21107 21108 21109 21110 21111 21112 21113 21114 21115 21116 21117 21118 21119 21120 21121 21122 21123 21124 21125 21126 21127 21128 21129 21130 21131 21132 21133 21134 21135 21136 21137 21138 21139 21140 21141 21142 21143 21144 21145 21146 21147 21148 21149 21150 21151 21152 21153 21154 21155 21156 21157 21158 21159 21160 21161 21162 21163 21164 21165 21166 21167 21168 21169 21170 21171 21172 21173 21174 21175 21176 21177 21178 21179 21180 21181 21182 21183 21184 21185 21186 21187 21188 21189 21190 21191 21192 21193 21194 21195 21196 21197 21198 21199 21200 21201 21202 21203 21204 21205 21206 21207 21208 21209 21210 21211 21212 21213 21214 21215 21216 21217 21218 21219 21220 21221 21222 21223 21224 21225 21226 21227 21228 21229 21230 21231 21232 21233 21234 21235 21236 21237 21238 21239 21240 21241 21242 21243 21244 21245 21246 21247 21248 21249 21250 21251 21252 21253 21254 21255 21256 21257 21258 21259 21260 21261 21262 21263 21264 21265 21266 21267 21268 21269 21270 21271 21272 21273 21274 21275 21276 21277 21278 21279 21280 21281 21282 21283 21284 21285 21286 21287 21288 21289 21290 21291 21292 21293 21294 21295 21296 21297 21298 21299 21300 21301 21302 21303 21304 21305 21306 21307 21308 21309 21310 21311 21312 21313 21314 21315 21316 21317 21318 21319 21320 21321 21322 21323 21324 21325 21326 21327 21328 21329 21330 21331 21332 21333 21334 21335 21336 21337 21338 21339 21340 21341 21342 21343 21344 21345 21346 21347 21348 21349 21350 21351 21352 21353 21354 21355 21356 21357 21358 21359 21360 21361 21362 21363 21364 21365 21366 21367 21368 21369 21370 21371 21372 21373 21374 21375 21376 21377 21378 21379 21380 21381 21382 21383 21384 21385 21386 21387 21388 21389 21390 21391 21392 21393 21394 21395 21396 21397 21398 21399 21400 21401 21402 21403 21404 21405 21406 21407 21408 21409 21410 21411 21412 21413 21414 21415 21416 21417 21418 21419 21420 21421 21422 21423 21424 21425 21426 21427 21428 21429 21430 21431 21432 21433 21434 21435 21436 21437 21438 21439 21440 21441 21442 21443 21444 21445 21446 21447 21448 21449 21450 21451 21452 21453 21454 21455 21456 21457 21458 21459 21460 21461 21462 21463 21464 21465 21466 21467 21468 21469 21470 21471 21472 21473 21474 21475 21476 21477 21478 21479 21480 21481 21482 21483 21484 21485 21486 21487 21488 21489 21490 21491 21492 21493 21494 21495 21496 21497 21498 21499 21500 21501 21502 21503 21504 21505 21506 21507 21508 21509 21510 21511 21512 21513 21514 21515 21516 21517 21518 21519 21520 21521 21522 21523 21524 21525 21526 21527 21528 21529 21530 21531 21532 21533 21534 21535 21536 21537 21538 21539 21540 21541 21542 21543 21544 21545 21546 21547 21548 21549 21550 21551 21552 21553 21554 21555 21556 21557 21558 21559 21560 21561 21562 21563 21564 21565 21566 21567 21568 21569 21570 21571 21572 21573 21574 21575 21576 21577 21578 21579 21580 21581 21582 21583 21584 21585 21586 21587 21588 21589 21590 21591 21592 21593 21594 21595 21596 21597 21598 21599 21600 21601 21602 21603 21604 21605 21606 21607 21608 21609 21610 21611 21612 21613 21614 21615 21616 21617 21618 21619 21620 21621 21622 21623 21624 21625 21626 21627 21628 21629 21630 21631 21632 21633 21634 21635 21636 21637 21638 21639 21640 21641 21642 21643 21644 21645 21646 21647 21648 21649 21650 21651 21652 21653 21654 21655 21656 21657 21658 21659 21660 21661 21662 21663 21664 21665 21666 21667 21668 21669 21670 21671 21672 21673 21674 21675 21676 21677 21678 21679 21680 21681 21682 21683 21684 21685 21686 21687 21688 21689 21690 21691 21692 21693 21694 21695 21696 21697 21698 21699 21700 21701 21702 21703 21704 21705 21706 21707 21708 21709 21710 21711 21712 21713 21714 21715 21716 21717 21718 21719 21720 21721 21722 21723 21724 21725 21726 21727 21728 21729 21730 21731 21732 21733 21734 21735 21736 21737 21738 21739 21740 21741 21742 21743 21744 21745 21746 21747 21748 21749 21750 21751 21752 21753 21754 21755 21756 21757 21758 21759 21760 21761 21762 21763 21764 21765 21766 21767 21768 21769 21770 21771 21772 21773 21774 21775 21776 21777 21778 21779 21780 21781 21782 21783 21784 21785 21786 21787 21788 21789 21790 21791 21792 21793 21794 21795 21796 21797 21798 21799 21800 21801 21802 21803 21804 21805 21806 21807 21808 21809 21810 21811 21812 21813 21814 21815 21816 21817 21818 21819 21820 21821 21822 21823 21824 21825 21826 21827 21828 21829 21830 21831 21832 21833 21834 21835 21836 21837 21838 21839 21840 21841 21842 21843 21844 21845 21846 21847 21848 21849 21850 21851 21852 21853 21854 21855 21856 21857 21858 21859 21860 21861 21862 21863 21864 21865 21866 21867 21868 21869 21870 21871 21872 21873 21874 21875 21876 21877 21878 21879 21880 21881 21882 21883 21884 21885 21886 21887 21888 21889 21890 21891 21892 21893 21894 21895 21896 21897 21898 21899 21900 21901 21902 21903 21904 21905 21906 21907 21908 21909 21910 21911 21912 21913 21914 21915 21916 21917 21918 21919 21920 21921 21922 21923 21924 21925 21926 21927 21928 21929 21930 21931 21932 21933 21934 21935 21936 21937 21938 21939 21940 21941 21942 21943 21944 21945 21946 21947 21948 21949 21950 21951 21952 21953 21954 21955 21956 21957 21958 21959 21960 21961 21962 21963 21964 21965 21966 21967 21968 21969 21970 21971 21972 21973 21974 21975 21976 21977 21978 21979 21980 21981 21982 21983 21984 21985 21986 21987 21988 21989 21990 21991 21992 21993 21994 21995 21996 21997 21998 21999 22000 22001 22002 22003 22004 22005 22006 22007 22008 22009 22010 22011 22012 22013 22014 22015 22016 22017 22018 22019 22020 22021 22022 22023 22024 22025 22026 22027 22028 22029 22030 22031 22032 22033 22034 22035 22036 22037 22038 22039 22040 22041 22042 22043 22044 22045 22046 22047 22048 22049 22050 22051 22052 22053 22054 22055 22056 22057 22058 22059 22060 22061 22062 22063 22064 22065 22066 22067 22068 22069 22070 22071 22072 22073 22074 22075 22076 22077 22078 22079 22080 22081 22082 22083 22084 22085 22086 22087 22088 22089 22090 22091 22092 22093 22094 22095 22096 22097 22098 22099 22100 22101 22102 22103 22104 22105 22106 22107 22108 22109 22110 22111 22112 22113 22114 22115 22116 22117 22118 22119 22120 22121 22122 22123 22124 22125 22126 22127 22128 22129 22130 22131 22132 22133 22134 22135 22136 22137 22138 22139 22140 22141 22142 22143 22144 22145 22146 22147 22148 22149 22150 22151 22152 22153 22154 22155 22156 22157 22158 22159 22160 22161 22162 22163 22164 22165 22166 22167 22168 22169 22170 22171 22172 22173 22174 22175 22176 22177 22178 22179 22180 22181 22182 22183 22184 22185 22186 22187 22188 22189 22190 22191 22192 22193 22194 22195 22196 22197 22198 22199 22200 22201 22202 22203 22204 22205 22206 22207 22208 22209 22210 22211 22212 22213 22214 22215 22216 22217 22218 22219 22220 22221 22222 22223 22224 22225 22226 22227 22228 22229 22230 22231 22232 22233 22234 22235 22236 22237 22238 22239 22240 22241 22242 22243 22244 22245 22246 22247 22248 22249 22250 22251 22252 22253 22254 22255 22256 22257 22258 22259 22260 22261 22262 22263 22264 22265 22266 22267 22268 22269 22270 22271 22272 22273 22274 22275 22276 22277 22278 22279 22280 22281 22282 22283 22284 22285 22286 22287 22288 22289 22290 22291 22292 22293 22294 22295 22296 22297 22298 22299 22300 22301 22302 22303 22304 22305 22306 22307 22308 22309 22310 22311 22312 22313 22314 22315 22316 22317 22318 22319 22320 22321 22322 22323 22324 22325 22326 22327 22328 22329 22330 22331 22332 22333 22334 22335 22336 22337 22338 22339 22340 22341 22342 22343 22344 22345 22346 22347 22348 22349 22350 22351 22352 22353 22354 22355 22356 22357 22358 22359 22360 22361 22362 22363 22364 22365 22366 22367 22368 22369 22370 22371 22372 22373 22374 22375 22376 22377 22378 22379 22380 22381 22382 22383 22384 22385 22386 22387 22388 22389 22390 22391 22392 22393 22394 22395 22396 22397 22398 22399 22400 22401 22402 22403 22404 22405 22406 22407 22408 22409 22410 22411 22412 22413 22414 22415 22416 22417 22418 22419 22420 22421 22422 22423 22424 22425 22426 22427 22428 22429 22430 22431 22432 22433 22434 22435 22436 22437 22438 22439 22440 22441 22442 22443 22444 22445 22446 22447 22448 22449 22450 22451 22452 22453 22454 22455 22456 22457 22458 22459 22460 22461 22462 22463 22464 22465 22466 22467 22468 22469 22470 22471 22472 22473 22474 22475 22476 22477 22478 22479 22480 22481 22482 22483 22484 22485 22486 22487 22488 22489 22490 22491 22492 22493 22494 22495 22496 22497 22498 22499 22500 22501 22502 22503 22504 22505 22506 22507 22508 22509 22510 22511 22512 22513 22514 22515 22516 22517 22518 22519 22520 22521 22522 22523 22524 22525 22526 22527 22528 22529 22530 22531 22532 22533 22534 22535 22536 22537 22538 22539 22540 22541 22542 22543 22544 22545 22546 22547 22548 22549 22550 22551 22552 22553 22554 22555 22556 22557 22558 22559 22560 22561 22562 22563 22564 22565 22566 22567 22568 22569 22570 22571 22572 22573 22574 22575 22576 22577 22578 22579 22580 22581 22582 22583 22584 22585 22586 22587 22588 22589 22590 22591 22592 22593 22594 22595 22596 22597 22598 22599 22600 22601 22602 22603 22604 22605 22606 22607 22608 22609 22610 22611 22612 22613 22614 22615 22616 22617 22618 22619 22620 22621 22622 22623 22624 22625 22626 22627 22628 22629 22630 22631 22632 22633 22634 22635 22636 22637 22638 22639 22640 22641 22642 22643 22644 22645 22646 22647 22648 22649 22650 22651 22652 22653 22654 22655 22656 22657 22658 22659 22660 22661 22662 22663 22664 22665 22666 22667 22668 22669 22670 22671 22672 22673 22674 22675 22676 22677 22678 22679 22680 22681 22682 22683 22684 22685 22686 22687 22688 22689 22690 22691 22692 22693 22694 22695 22696 22697 22698 22699 22700 22701 22702 22703 22704 22705 22706 22707 22708 22709 22710 22711 22712 22713 22714 22715 22716 22717 22718 22719 22720 22721 22722 22723 22724 22725 22726 22727 22728 22729 22730 22731 22732 22733 22734 22735 22736 22737 22738 22739 22740 22741 22742 22743 22744 22745 22746 22747 22748 22749 22750 22751 22752 22753 22754 22755 22756 22757 22758 22759 22760 22761 22762 22763 22764 22765 22766 22767 22768 22769 22770 22771 22772 22773 22774 22775 22776 22777 22778 22779 22780 22781 22782 22783 22784 22785 22786 22787 22788 22789 22790 22791 22792 22793 22794 22795 22796 22797 22798 22799 22800 22801 22802 22803 22804 22805 22806 22807 22808 22809 22810 22811 22812 22813 22814 22815 22816 22817 22818 22819 22820 22821 22822 22823 22824 22825 22826 22827 22828 22829 22830 22831 22832 22833 22834 22835 22836 22837 22838 22839 22840 22841 22842 22843 22844 22845 22846 22847 22848 22849 22850 22851 22852 22853 22854 22855 22856 22857 22858 22859 22860 22861 22862 22863 22864 22865 22866 22867 22868 22869 22870 22871 22872 22873 22874 22875 22876 22877 22878 22879 22880 22881 22882 22883 22884 22885 22886 22887 22888 22889 22890 22891 22892 22893 22894 22895 22896 22897 22898 22899 22900 22901 22902 22903 22904 22905 22906 22907 22908 22909 22910 22911 22912 22913 22914 22915 22916 22917 22918 22919 22920 22921 22922 22923 22924 22925 22926 22927 22928 22929 22930 22931 22932 22933 22934 22935 22936 22937 22938 22939 22940 22941 22942 22943 22944 22945 22946 22947 22948 22949 22950 22951 22952 22953 22954 22955 22956 22957 22958 22959 22960 22961 22962 22963 22964 22965 22966 22967 22968 22969 22970 22971 22972 22973 22974 22975 22976 22977 22978 22979 22980 22981 22982 22983 22984 22985 22986 22987 22988 22989 22990 22991 22992 22993 22994 22995 22996 22997 22998 22999 23000 23001 23002 23003 23004 23005 23006 23007 23008 23009 23010 23011 23012 23013 23014 23015 23016 23017 23018 23019 23020 23021 23022 23023 23024 23025 23026 23027 23028 23029 23030 23031 23032 23033 23034 23035 23036 23037 23038 23039 23040 23041 23042 23043 23044 23045 23046 23047 23048 23049 23050 23051 23052 23053 23054 23055 23056 23057 23058 23059 23060 23061 23062 23063 23064 23065 23066 23067 23068 23069 23070 23071 23072 23073 23074 23075 23076 23077 23078 23079 23080 23081 23082 23083 23084 23085 23086 23087 23088 23089 23090 23091 23092 23093 23094 23095 23096 23097 23098 23099 23100 23101 23102 23103 23104 23105 23106 23107 23108 23109 23110 23111 23112 23113 23114 23115 23116 23117 23118 23119 23120 23121 23122 23123 23124 23125 23126 23127 23128 23129 23130 23131 23132 23133 23134 23135 23136 23137 23138 23139 23140 23141 23142 23143 23144 23145 23146 23147 23148 23149 23150 23151 23152 23153 23154 23155 23156 23157 23158 23159 23160 23161 23162 23163 23164 23165 23166 23167 23168 23169 23170 23171 23172 23173 23174 23175 23176 23177 23178 23179 23180 23181 23182 23183 23184 23185 23186 23187 23188 23189 23190 23191 23192 23193 23194 23195 23196 23197 23198 23199 23200 23201 23202 23203 23204 23205 23206 23207 23208 23209 23210 23211 23212 23213 23214 23215 23216 23217 23218 23219 23220 23221 23222 23223 23224 23225 23226 23227 23228 23229 23230 23231 23232 23233 23234 23235 23236 23237 23238 23239 23240 23241 23242 23243 23244 23245 23246 23247 23248 23249 23250 23251 23252 23253 23254 23255 23256 23257 23258 23259 23260 23261 23262 23263 23264 23265 23266 23267 23268 23269 23270 23271 23272 23273 23274 23275 23276 23277 23278 23279 23280 23281 23282 23283 23284 23285 23286 23287 23288 23289 23290 23291 23292 23293 23294 23295 23296 23297 23298 23299 23300 23301 23302 23303 23304 23305 23306 23307 23308 23309 23310 23311 23312 23313 23314 23315 23316 23317 23318 23319 23320 23321 23322 23323 23324 23325 23326 23327 23328 23329 23330 23331 23332 23333 23334 23335 23336 23337 23338 23339 23340 23341 23342 23343 23344 23345 23346 23347 23348 23349 23350 23351 23352 23353 23354 23355 23356 23357 23358 23359 23360 23361 23362 23363 23364 23365 23366 23367 23368 23369 23370 23371 23372 23373 23374 23375 23376 23377 23378 23379 23380 23381 23382 23383 23384 23385 23386 23387 23388 23389 23390 23391 23392 23393 23394 23395 23396 23397 23398 23399 23400 23401 23402 23403 23404 23405 23406 23407 23408 23409 23410 23411 23412 23413 23414 23415 23416 23417 23418 23419 23420 23421 23422 23423 23424 23425 23426 23427 23428 23429 23430 23431 23432 23433 23434 23435 23436 23437 23438 23439 23440 23441 23442 23443 23444 23445 23446 23447 23448 23449 23450 23451 23452 23453 23454 23455 23456 23457 23458 23459 23460 23461 23462 23463 23464 23465 23466 23467 23468 23469 23470 23471 23472 23473 23474 23475 23476 23477 23478 23479 23480 23481 23482 23483 23484 23485 23486 23487 23488 23489 23490 23491 23492 23493 23494 23495 23496 23497 23498 23499 23500 23501 23502 23503 23504 23505 23506 23507 23508 23509 23510 23511 23512 23513 23514 23515 23516 23517 23518 23519 23520 23521 23522 23523 23524 23525 23526 23527 23528 23529 23530 23531 23532 23533 23534 23535 23536 23537 23538 23539 23540 23541 23542 23543 23544 23545 23546 23547 23548 23549 23550 23551 23552 23553 23554 23555 23556 23557 23558 23559 23560 23561 23562 23563 23564 23565 23566 23567 23568 23569 23570 23571 23572 23573 23574 23575 23576 23577 23578 23579 23580 23581 23582 23583 23584 23585 23586 23587 23588 23589 23590 23591 23592 23593 23594 23595 23596 23597 23598 23599 23600 23601 23602 23603 23604 23605 23606 23607 23608 23609 23610 23611 23612 23613 23614 23615 23616 23617 23618 23619 23620 23621 23622 23623 23624 23625 23626 23627 23628 23629 23630 23631 23632 23633 23634 23635 23636 23637 23638 23639 23640 23641 23642 23643 23644 23645 23646 23647 23648 23649 23650 23651 23652 23653 23654 23655 23656 23657 23658 23659 23660 23661 23662 23663 23664 23665 23666 23667 23668 23669 23670 23671 23672 23673 23674 23675 23676 23677 23678 23679 23680 23681 23682 23683 23684 23685 23686 23687 23688 23689 23690 23691 23692 23693 23694 23695 23696 23697 23698 23699 23700 23701 23702 23703 23704 23705 23706 23707 23708 23709 23710 23711 23712 23713 23714 23715 23716 23717 23718 23719 23720 23721 23722 23723 23724 23725 23726 23727 23728 23729 23730 23731 23732 23733 23734 23735 23736 23737 23738 23739 23740 23741 23742 23743 23744 23745 23746 23747 23748 23749 23750 23751 23752 23753 23754 23755 23756 23757 23758 23759 23760 23761 23762 23763 23764 23765 23766 23767 23768 23769 23770 23771 23772 23773 23774 23775 23776 23777 23778 23779 23780 23781 23782 23783 23784 23785 23786 23787 23788 23789 23790 23791 23792 23793 23794 23795 23796 23797 23798 23799 23800 23801 23802 23803 23804 23805 23806 23807 23808 23809 23810 23811 23812 23813 23814 23815 23816 23817 23818 23819 23820 23821 23822 23823 23824 23825 23826 23827 23828 23829 23830 23831 23832 23833 23834 23835 23836 23837 23838 23839 23840 23841 23842 23843 23844 23845 23846 23847 23848 23849 23850 23851 23852 23853 23854 23855 23856 23857 23858 23859 23860 23861 23862 23863 23864 23865 23866 23867 23868 23869 23870 23871 23872 23873 23874 23875 23876 23877 23878 23879 23880 23881 23882 23883 23884 23885 23886 23887 23888 23889 23890 23891 23892 23893 23894 23895 23896 23897 23898 23899 23900 23901 23902 23903 23904 23905 23906 23907 23908 23909 23910 23911 23912 23913 23914 23915 23916 23917 23918 23919 23920 23921 23922 23923 23924 23925 23926 23927 23928 23929 23930 23931 23932 23933 23934 23935 23936 23937 23938 23939 23940 23941 23942 23943 23944 23945 23946 23947 23948 23949 23950 23951 23952 23953 23954 23955 23956 23957 23958 23959 23960 23961 23962 23963 23964 23965 23966 23967 23968 23969 23970 23971 23972 23973 23974 23975 23976 23977 23978 23979 23980 23981 23982 23983 23984 23985 23986 23987 23988 23989 23990 23991 23992 23993 23994 23995 23996 23997 23998 23999 24000 24001 24002 24003 24004 24005 24006 24007 24008 24009 24010 24011 24012 24013 24014 24015 24016 24017 24018 24019 24020 24021 24022 24023 24024 24025 24026 24027 24028 24029 24030 24031 24032 24033 24034 24035 24036 24037 24038 24039 24040 24041 24042 24043 24044 24045 24046 24047 24048 24049 24050 24051 24052 24053 24054 24055 24056 24057 24058 24059 24060 24061 24062 24063 24064 24065 24066 24067 24068 24069 24070 24071 24072 24073 24074 24075 24076 24077 24078 24079 24080 24081 24082 24083 24084 24085 24086 24087 24088 24089 24090 24091 24092 24093 24094 24095 24096 24097 24098 24099 24100 24101 24102 24103 24104 24105 24106 24107 24108 24109 24110 24111 24112 24113 24114 24115 24116 24117 24118 24119 24120 24121 24122 24123 24124 24125 24126 24127 24128 24129 24130 24131 24132 24133 24134 24135 24136 24137 24138 24139 24140 24141 24142 24143 24144 24145 24146 24147 24148 24149 24150 24151 24152 24153 24154 24155 24156 24157 24158 24159 24160 24161 24162 24163 24164 24165 24166 24167 24168 24169 24170 24171 24172 24173 24174 24175 24176 24177 24178 24179 24180 24181 24182 24183 24184 24185 24186 24187 24188 24189 24190 24191 24192 24193 24194 24195 24196 24197 24198 24199 24200 24201 24202 24203 24204 24205 24206 24207 24208 24209 24210 24211 24212 24213 24214 24215 24216 24217 24218 24219 24220 24221 24222 24223 24224 24225 24226 24227 24228 24229 24230 24231 24232 24233 24234 24235 24236 24237 24238 24239 24240 24241 24242 24243 24244 24245 24246 24247 24248 24249 24250 24251 24252 24253 24254 24255 24256 24257 24258 24259 24260 24261 24262 24263 24264 24265 24266 24267 24268 24269 24270 24271 24272 24273 24274 24275 24276 24277 24278 24279 24280 24281 24282 24283 24284 24285 24286 24287 24288 24289 24290 24291 24292 24293 24294 24295 24296 24297 24298 24299 24300 24301 24302 24303 24304 24305 24306 24307 24308 24309 24310 24311 24312 24313 24314 24315 24316 24317 24318 24319 24320 24321 24322 24323 24324 24325 24326 24327 24328 24329 24330 24331 24332 24333 24334 24335 24336 24337 24338 24339 24340 24341 24342 24343 24344 24345 24346 24347 24348 24349 24350 24351 24352 24353 24354 24355 24356 24357 24358 24359 24360 24361 24362 24363 24364 24365 24366 24367 24368 24369 24370 24371 24372 24373 24374 24375 24376 24377 24378 24379 24380 24381 24382 24383 24384 24385 24386 24387 24388 24389 24390 24391 24392 24393 24394 24395 24396 24397 24398 24399 24400 24401 24402 24403 24404 24405 24406 24407 24408 24409 24410 24411 24412 24413 24414 24415 24416 24417 24418 24419 24420 24421 24422 24423 24424 24425 24426 24427 24428 24429 24430 24431 24432 24433 24434 24435 24436 24437 24438 24439 24440 24441 24442 24443 24444 24445 24446 24447 24448 24449 24450 24451 24452 24453 24454 24455 24456 24457 24458 24459 24460 24461 24462 24463 24464 24465 24466 24467 24468 24469 24470 24471 24472 24473 24474 24475 24476 24477 24478 24479 24480 24481 24482 24483 24484 24485 24486 24487 24488 24489 24490 24491 24492 24493 24494 24495 24496 24497 24498 24499 24500 24501 24502 24503 24504 24505 24506 24507 24508 24509 24510 24511 24512 24513 24514 24515 24516 24517 24518 24519 24520 24521 24522 24523 24524 24525 24526 24527 24528 24529 24530 24531 24532 24533 24534 24535 24536 24537 24538 24539 24540 24541 24542 24543 24544 24545 24546 24547 24548 24549 24550 24551 24552 24553 24554 24555 24556 24557 24558 24559 24560 24561 24562 24563 24564 24565 24566 24567 24568 24569 24570 24571 24572 24573 24574 24575 24576 24577 24578 24579 24580 24581 24582 24583 24584 24585 24586 24587 24588 24589 24590 24591 24592 24593 24594 24595 24596 24597 24598 24599 24600 24601 24602 24603 24604 24605 24606 24607 24608 24609 24610 24611 24612 24613 24614 24615 24616 24617 24618 24619 24620 24621 24622 24623 24624 24625 24626 24627 24628 24629 24630 24631 24632 24633 24634 24635 24636 24637 24638 24639 24640 24641 24642 24643 24644 24645 24646 24647 24648 24649 24650 24651 24652 24653 24654 24655 24656 24657 24658 24659 24660 24661 24662 24663 24664 24665 24666 24667 24668 24669 24670 24671 24672 24673 24674 24675 24676 24677 24678 24679 24680 24681 24682 24683 24684 24685 24686 24687 24688 24689 24690 24691 24692 24693 24694 24695 24696 24697 24698 24699 24700 24701 24702 24703 24704 24705 24706 24707 24708 24709 24710 24711 24712 24713 24714 24715 24716 24717 24718 24719 24720 24721 24722 24723 24724 24725 24726 24727 24728 24729 24730 24731 24732 24733 24734 24735 24736 24737 24738 24739 24740 24741 24742 24743 24744 24745 24746 24747 24748 24749 24750 24751 24752 24753 24754 24755 24756 24757 24758 24759 24760 24761 24762 24763 24764 24765 24766 24767 24768 24769 24770 24771 24772 24773 24774 24775 24776 24777 24778 24779 24780 24781 24782 24783 24784 24785 24786 24787 24788 24789 24790 24791 24792 24793 24794 24795 24796 24797 24798 24799 24800 24801 24802 24803 24804 24805 24806 24807 24808 24809 24810 24811 24812 24813 24814 24815 24816 24817 24818 24819 24820 24821 24822 24823 24824 24825 24826 24827 24828 24829 24830 24831 24832 24833 24834 24835 24836 24837 24838 24839 24840 24841 24842 24843 24844 24845 24846 24847 24848 24849 24850 24851 24852 24853 24854 24855 24856 24857 24858 24859 24860 24861 24862 24863 24864 24865 24866 24867 24868 24869 24870 24871 24872 24873 24874 24875 24876 24877 24878 24879 24880 24881 24882 24883 24884 24885 24886 24887 24888 24889 24890 24891 24892 24893 24894 24895 24896 24897 24898 24899 24900 24901 24902 24903 24904 24905 24906 24907 24908 24909 24910 24911 24912 24913 24914 24915 24916 24917 24918 24919 24920 24921 24922 24923 24924 24925 24926 24927 24928 24929 24930 24931 24932 24933 24934 24935 24936 24937 24938 24939 24940 24941 24942 24943 24944 24945 24946 24947 24948 24949 24950 24951 24952 24953 24954 24955 24956 24957 24958 24959 24960 24961 24962 24963 24964 24965 24966 24967 24968 24969 24970 24971 24972 24973 24974 24975 24976 24977 24978 24979 24980 24981 24982 24983 24984 24985 24986 24987 24988 24989 24990 24991 24992 24993 24994 24995 24996 24997 24998 24999 25000 25001 25002 25003 25004 25005 25006 25007 25008 25009 25010 25011 25012 25013 25014 25015 25016 25017 25018 25019 25020 25021 25022 25023 25024 25025 25026 25027 25028 25029 25030 25031 25032 25033 25034 25035 25036 25037 25038 25039 25040 25041 25042 25043 25044 25045 25046 25047 25048 25049 25050 25051 25052 25053 25054 25055 25056 25057 25058 25059 25060 25061 25062 25063 25064 25065 25066 25067 25068 25069 25070 25071 25072 25073 25074 25075 25076 25077 25078 25079 25080 25081 25082 25083 25084 25085 25086 25087 25088 25089 25090 25091 25092 25093 25094 25095 25096 25097 25098 25099 25100 25101 25102 25103 25104 25105 25106 25107 25108 25109 25110 25111 25112 25113 25114 25115 25116 25117 25118 25119 25120 25121 25122 25123 25124 25125 25126 25127 25128 25129 25130 25131 25132 25133 25134 25135 25136 25137 25138 25139 25140 25141 25142 25143 25144 25145 25146 25147 25148 25149 25150 25151 25152 25153 25154 25155 25156 25157 25158 25159 25160 25161 25162 25163 25164 25165 25166 25167 25168 25169 25170 25171 25172 25173 25174 25175 25176 25177 25178 25179 25180 25181 25182 25183 25184 25185 25186 25187 25188 25189 25190 25191 25192 25193 25194 25195 25196 25197 25198 25199 25200 25201 25202 25203 25204 25205 25206 25207 25208 25209 25210 25211 25212 25213 25214 25215 25216 25217 25218 25219 25220 25221 25222 25223 25224 25225 25226 25227 25228 25229 25230 25231 25232 25233 25234 25235 25236 25237 25238 25239 25240 25241 25242 25243 25244 25245 25246 25247 25248 25249 25250 25251 25252 25253 25254 25255 25256 25257 25258 25259 25260 25261 25262 25263 25264 25265 25266 25267 25268 25269 25270 25271 25272 25273 25274 25275 25276 25277 25278 25279 25280 25281 25282 25283 25284 25285 25286 25287 25288 25289 25290 25291 25292 25293 25294 25295 25296 25297 25298 25299 25300 25301 25302 25303 25304 25305 25306 25307 25308 25309 25310 25311 25312 25313 25314 25315 25316 25317 25318 25319 25320 25321 25322 25323 25324 25325 25326 25327 25328 25329 25330 25331 25332 25333 25334 25335 25336 25337 25338 25339 25340 25341 25342 25343 25344 25345 25346 25347 25348 25349 25350 25351 25352 25353 25354 25355 25356 25357 25358 25359 25360 25361 25362 25363 25364 25365 25366 25367 25368 25369 25370 25371 25372 25373 25374 25375 25376 25377 25378 25379 25380 25381 25382 25383 25384 25385 25386 25387 25388 25389 25390 25391 25392 25393 25394 25395 25396 25397 25398 25399 25400 25401 25402 25403 25404 25405 25406 25407 25408 25409 25410 25411 25412 25413 25414 25415 25416 25417 25418 25419 25420 25421 25422 25423 25424 25425 25426 25427 25428 25429 25430 25431 25432 25433 25434 25435 25436 25437 25438 25439 25440 25441 25442 25443 25444 25445 25446 25447 25448 25449 25450 25451 25452 25453 25454 25455 25456 25457 25458 25459 25460 25461 25462 25463 25464 25465 25466 25467 25468 25469 25470 25471 25472 25473 25474 25475 25476 25477 25478 25479 25480 25481 25482 25483 25484 25485 25486 25487 25488 25489 25490 25491 25492 25493 25494 25495 25496 25497 25498 25499 25500 25501 25502 25503 25504 25505 25506 25507 25508 25509 25510 25511 25512 25513 25514 25515 25516 25517 25518 25519 25520 25521 25522 25523 25524 25525 25526 25527 25528 25529 25530 25531 25532 25533 25534 25535 25536 25537 25538 25539 25540 25541 25542 25543 25544 25545 25546 25547 25548 25549 25550 25551 25552 25553 25554 25555 25556 25557 25558 25559 25560 25561 25562 25563 25564 25565 25566 25567 25568 25569 25570 25571 25572 25573 25574 25575 25576 25577 25578 25579 25580 25581 25582 25583 25584 25585 25586 25587 25588 25589 25590 25591 25592 25593 25594 25595 25596 25597 25598 25599 25600 25601 25602 25603 25604 25605 25606 25607 25608 25609 25610 25611 25612 25613 25614 25615 25616 25617 25618 25619 25620 25621 25622 25623 25624 25625 25626 25627 25628 25629 25630 25631 25632 25633 25634 25635 25636 25637 25638 25639 25640 25641 25642 25643 25644 25645 25646 25647 25648 25649 25650 25651 25652 25653 25654 25655 25656 25657 25658 25659 25660 25661 25662 25663 25664 25665 25666 25667 25668 25669 25670 25671 25672 25673 25674 25675 25676 25677 25678 25679 25680 25681 25682 25683 25684 25685 25686 25687 25688 25689 25690 25691 25692 25693 25694 25695 25696 25697 25698 25699 25700 25701 25702 25703 25704 25705 25706 25707 25708 25709 25710 25711 25712 25713 25714 25715 25716 25717 25718 25719 25720 25721 25722 25723 25724 25725 25726 25727 25728 25729 25730 25731 25732 25733 25734 25735 25736 25737 25738 25739 25740 25741 25742 25743 25744 25745 25746 25747 25748 25749 25750 25751 25752 25753 25754 25755 25756 25757 25758 25759 25760 25761 25762 25763 25764 25765 25766 25767 25768 25769 25770 25771 25772 25773 25774 25775 25776 25777 25778 25779 25780 25781 25782 25783 25784 25785 25786 25787 25788 25789 25790 25791 25792 25793 25794 25795 25796 25797 25798 25799 25800 25801 25802 25803 25804 25805 25806 25807 25808 25809 25810 25811 25812 25813 25814 25815 25816 25817 25818 25819 25820 25821 25822 25823 25824 25825 25826 25827 25828 25829 25830 25831 25832 25833 25834 25835 25836 25837 25838 25839 25840 25841 25842 25843 25844 25845 25846 25847 25848 25849 25850 25851 25852 25853 25854 25855 25856 25857 25858 25859 25860 25861 25862 25863 25864 25865 25866 25867 25868 25869 25870 25871 25872 25873 25874 25875 25876 25877 25878 25879 25880 25881 25882 25883 25884 25885 25886 25887 25888 25889 25890 25891 25892 25893 25894 25895 25896 25897 25898 25899 25900 25901 25902 25903 25904 25905 25906 25907 25908 25909 25910 25911 25912 25913 25914 25915 25916 25917 25918 25919 25920 25921 25922 25923 25924 25925 25926 25927 25928 25929 25930 25931 25932 25933 25934 25935 25936 25937 25938 25939 25940 25941 25942 25943 25944 25945 25946 25947 25948 25949 25950 25951 25952 25953 25954 25955 25956 25957 25958 25959 25960 25961 25962 25963 25964 25965 25966 25967 25968 25969 25970 25971 25972 25973 25974 25975 25976 25977 25978 25979 25980 25981 25982 25983 25984 25985 25986 25987 25988 25989 25990 25991 25992 25993 25994 25995 25996 25997 25998 25999 26000 26001 26002 26003 26004 26005 26006 26007 26008 26009 26010 26011 26012 26013 26014 26015 26016 26017 26018 26019 26020 26021 26022 26023 26024 26025 26026 26027 26028 26029 26030 26031 26032 26033 26034 26035 26036 26037 26038 26039 26040 26041 26042 26043 26044 26045 26046 26047 26048 26049 26050 26051 26052 26053 26054 26055 26056 26057 26058 26059 26060 26061 26062 26063 26064 26065 26066 26067 26068 26069 26070 26071 26072 26073 26074 26075 26076 26077 26078 26079 26080 26081 26082 26083 26084 26085 26086 26087 26088 26089 26090 26091 26092 26093 26094 26095 26096 26097 26098 26099 26100 26101 26102 26103 26104 26105 26106 26107 26108 26109 26110 26111 26112 26113 26114 26115 26116 26117 26118 26119 26120 26121 26122 26123 26124 26125 26126 26127 26128 26129 26130 26131 26132 26133 26134 26135 26136 26137 26138 26139 26140 26141 26142 26143 26144 26145 26146 26147 26148 26149 26150 26151 26152 26153 26154 26155 26156 26157 26158 26159 26160 26161 26162 26163 26164 26165 26166 26167 26168 26169 26170 26171 26172 26173 26174 26175 26176 26177 26178 26179 26180 26181 26182 26183 26184 26185 26186 26187 26188 26189 26190 26191 26192 26193 26194 26195 26196 26197 26198 26199 26200 26201 26202 26203 26204 26205 26206 26207 26208 26209 26210 26211 26212 26213 26214 26215 26216 26217 26218 26219 26220 26221 26222 26223 26224 26225 26226 26227 26228 26229 26230 26231 26232 26233 26234 26235 26236 26237 26238 26239 26240 26241 26242 26243 26244 26245 26246 26247 26248 26249 26250 26251 26252 26253 26254 26255 26256 26257 26258 26259 26260 26261 26262 26263 26264 26265 26266 26267 26268 26269 26270 26271 26272 26273 26274 26275 26276 26277 26278 26279 26280 26281 26282 26283 26284 26285 26286 26287 26288 26289 26290 26291 26292 26293 26294 26295 26296 26297 26298 26299 26300 26301 26302 26303 26304 26305 26306 26307 26308 26309 26310 26311 26312 26313 26314 26315 26316 26317 26318 26319 26320 26321 26322 26323 26324 26325 26326 26327 26328 26329 26330 26331 26332 26333 26334 26335 26336 26337 26338 26339 26340 26341 26342 26343 26344 26345 26346 26347 26348 26349 26350 26351 26352 26353 26354 26355 26356 26357 26358 26359 26360 26361 26362 26363 26364 26365 26366 26367 26368 26369 26370 26371 26372 26373 26374 26375 26376 26377 26378 26379 26380 26381 26382 26383 26384 26385 26386 26387 26388 26389 26390 26391 26392 26393 26394 26395 26396 26397 26398 26399 26400 26401 26402 26403 26404 26405 26406 26407 26408 26409 26410 26411 26412 26413 26414 26415 26416 26417 26418 26419 26420 26421 26422 26423 26424 26425 26426 26427 26428 26429 26430 26431 26432 26433 26434 26435 26436 26437 26438 26439 26440 26441 26442 26443 26444 26445 26446 26447 26448 26449 26450 26451 26452 26453 26454 26455 26456 26457 26458 26459 26460 26461 26462 26463 26464 26465 26466 26467 26468 26469 26470 26471 26472 26473 26474 26475 26476 26477 26478 26479 26480 26481 26482 26483 26484 26485 26486 26487 26488 26489 26490 26491 26492 26493 26494 26495 26496 26497 26498 26499 26500 26501 26502 26503 26504 26505 26506 26507 26508 26509 26510 26511 26512 26513 26514 26515 26516 26517 26518 26519 26520 26521 26522 26523 26524 26525 26526 26527 26528 26529 26530 26531 26532 26533 26534 26535 26536 26537 26538 26539 26540 26541 26542 26543 26544 26545 26546 26547 26548 26549 26550 26551 26552 26553 26554 26555 26556 26557 26558 26559 26560 26561 26562 26563 26564 26565 26566 26567 26568 26569 26570 26571 26572 26573 26574 26575 26576 26577 26578 26579 26580 26581 26582 26583 26584 26585 26586 26587 26588 26589 26590 26591 26592 26593 26594 26595 26596 26597 26598 26599 26600 26601 26602 26603 26604 26605 26606 26607 26608 26609 26610 26611 26612 26613 26614 26615 26616 26617 26618 26619 26620 26621 26622 26623 26624 26625 26626 26627 26628 26629 26630 26631 26632 26633 26634 26635 26636 26637 26638 26639 26640 26641 26642 26643 26644 26645 26646 26647 26648 26649 26650 26651 26652 26653 26654 26655 26656 26657 26658 26659 26660 26661 26662 26663 26664 26665 26666 26667 26668 26669 26670 26671 26672 26673 26674 26675 26676 26677 26678 26679 26680 26681 26682 26683 26684 26685 26686 26687 26688 26689 26690 26691 26692 26693 26694 26695 26696 26697 26698 26699 26700 26701 26702 26703 26704 26705 26706 26707 26708 26709 26710 26711 26712 26713 26714 26715 26716 26717 26718 26719 26720 26721 26722 26723 26724 26725 26726 26727 26728 26729 26730 26731 26732 26733 26734 26735 26736 26737 26738 26739 26740 26741 26742 26743 26744 26745 26746 26747 26748 26749 26750 26751 26752 26753 26754 26755 26756 26757 26758 26759 26760 26761 26762 26763 26764 26765 26766 26767 26768 26769 26770 26771 26772 26773 26774 26775 26776 26777 26778 26779 26780 26781 26782 26783 26784 26785 26786 26787 26788 26789 26790 26791 26792 26793 26794 26795 26796 26797 26798 26799 26800 26801 26802 26803 26804 26805 26806 26807 26808 26809 26810 26811 26812 26813 26814 26815 26816 26817 26818 26819 26820 26821 26822 26823 26824 26825 26826 26827 26828 26829 26830 26831 26832 26833 26834 26835 26836 26837 26838 26839 26840 26841 26842 26843 26844 26845 26846 26847 26848 26849 26850 26851 26852 26853 26854 26855 26856 26857 26858 26859 26860 26861 26862 26863 26864 26865 26866 26867 26868 26869 26870 26871 26872 26873 26874 26875 26876 26877 26878 26879 26880 26881 26882 26883 26884 26885 26886 26887 26888 26889 26890 26891 26892 26893 26894 26895 26896 26897 26898 26899 26900 26901 26902 26903 26904 26905 26906 26907 26908 26909 26910 26911 26912 26913 26914 26915 26916 26917 26918 26919 26920 26921 26922 26923 26924 26925 26926 26927 26928 26929 26930 26931 26932 26933 26934 26935 26936 26937 26938 26939 26940 26941 26942 26943 26944 26945 26946 26947 26948 26949 26950 26951 26952 26953 26954 26955 26956 26957 26958 26959 26960 26961 26962 26963 26964 26965 26966 26967 26968 26969 26970 26971 26972 26973 26974 26975 26976 26977 26978 26979 26980 26981 26982 26983 26984 26985 26986 26987 26988 26989 26990 26991 26992 26993 26994 26995 26996 26997 26998 26999 27000 27001 27002 27003 27004 27005 27006 27007 27008 27009 27010 27011 27012 27013 27014 27015 27016 27017 27018 27019 27020 27021 27022 27023 27024 27025 27026 27027 27028 27029 27030 27031 27032 27033 27034 27035 27036 27037 27038 27039 27040 27041 27042 27043 27044 27045 27046 27047 27048 27049 27050 27051 27052 27053 27054 27055 27056 27057 27058 27059 27060 27061 27062 27063 27064 27065 27066 27067 27068 27069 27070 27071 27072 27073 27074 27075 27076 27077 27078 27079 27080 27081 27082 27083 27084 27085 27086 27087 27088 27089 27090 27091 27092 27093 27094 27095 27096 27097 27098 27099 27100 27101 27102 27103 27104 27105 27106 27107 27108 27109 27110 27111 27112 27113 27114 27115 27116 27117 27118 27119 27120 27121 27122 27123 27124 27125 27126 27127 27128 27129 27130 27131 27132 27133 27134 27135 27136 27137 27138 27139 27140 27141 27142 27143 27144 27145 27146 27147 27148 27149 27150 27151 27152 27153 27154 27155 27156 27157 27158 27159 27160 27161 27162 27163 27164 27165 27166 27167 27168 27169 27170 27171 27172 27173 27174 27175 27176 27177 27178 27179 27180 27181 27182 27183 27184 27185 27186 27187 27188 27189 27190 27191 27192 27193 27194 27195 27196 27197 27198 27199 27200 27201 27202 27203 27204 27205 27206 27207 27208 27209 27210 27211 27212 27213 27214 27215 27216 27217 27218 27219 27220 27221 27222 27223 27224 27225 27226 27227 27228 27229 27230 27231 27232 27233 27234 27235 27236 27237 27238 27239 27240 27241 27242 27243 27244 27245 27246 27247 27248 27249 27250 27251 27252 27253 27254 27255 27256 27257 27258 27259 27260 27261 27262 27263 27264 27265 27266 27267 27268 27269 27270 27271 27272 27273 27274 27275 27276 27277 27278 27279 27280 27281 27282 27283 27284 27285 27286 27287 27288 27289 27290 27291 27292 27293 27294 27295 27296 27297 27298 27299 27300 27301 27302 27303 27304 27305 27306 27307 27308 27309 27310 27311 27312 27313 27314 27315 27316 27317 27318 27319 27320 27321 27322 27323 27324 27325 27326 27327 27328 27329 27330 27331 27332 27333 27334 27335 27336 27337 27338 27339 27340 27341 27342 27343 27344 27345 27346 27347 27348 27349 27350 27351 27352 27353 27354 27355 27356 27357 27358 27359 27360 27361 27362 27363 27364 27365 27366 27367 27368 27369 27370 27371 27372 27373 27374 27375 27376 27377 27378 27379 27380 27381 27382 27383 27384 27385 27386 27387 27388 27389 27390 27391 27392 27393 27394 27395 27396 27397 27398 27399 27400 27401 27402 27403 27404 27405 27406 27407 27408 27409 27410 27411 27412 27413 27414 27415 27416 27417 27418 27419 27420 27421 27422 27423 27424 27425 27426 27427 27428 27429 27430 27431 27432 27433 27434 27435 27436 27437 27438 27439 27440 27441 27442 27443 27444 27445 27446 27447 27448 27449 27450 27451 27452 27453 27454 27455 27456 27457 27458 27459 27460 27461 27462 27463 27464 27465 27466 27467 27468 27469 27470 27471 27472 27473 27474 27475 27476 27477 27478 27479 27480 27481 27482 27483 27484 27485 27486 27487 27488 27489 27490 27491 27492 27493 27494 27495 27496 27497 27498 27499 27500 27501 27502 27503 27504 27505 27506 27507 27508 27509 27510 27511 27512 27513 27514 27515 27516 27517 27518 27519 27520 27521 27522 27523 27524 27525 27526 27527 27528 27529 27530 27531 27532 27533 27534 27535 27536 27537 27538 27539 27540 27541 27542 27543 27544 27545 27546 27547 27548 27549 27550 27551 27552 27553 27554 27555 27556 27557 27558 27559 27560 27561 27562 27563 27564 27565 27566 27567 27568 27569 27570 27571 27572 27573 27574 27575 27576 27577 27578 27579 27580 27581 27582 27583 27584 27585 27586 27587 27588 27589 27590 27591 27592 27593 27594 27595 27596 27597 27598 27599 27600 27601 27602 27603 27604 27605 27606 27607 27608 27609 27610 27611 27612 27613 27614 27615 27616 27617 27618 27619 27620 27621 27622 27623 27624 27625 27626 27627 27628 27629 27630 27631 27632 27633 27634 27635 27636 27637 27638 27639 27640 27641 27642 27643 27644 27645 27646 27647 27648 27649 27650 27651 27652 27653 27654 27655 27656 27657 27658 27659 27660 27661 27662 27663 27664 27665 27666 27667 27668 27669 27670 27671 27672 27673 27674 27675 27676 27677 27678 27679 27680 27681 27682 27683 27684 27685 27686 27687 27688 27689 27690 27691 27692 27693 27694 27695 27696 27697 27698 27699 27700 27701 27702 27703 27704 27705 27706 27707 27708 27709 27710 27711 27712 27713 27714 27715 27716 27717 27718 27719 27720 27721 27722 27723 27724 27725 27726 27727 27728 27729 27730 27731 27732 27733 27734 27735 27736 27737 27738 27739 27740 27741 27742 27743 27744 27745 27746 27747 27748 27749 27750 27751 27752 27753 27754 27755 27756 27757 27758 27759 27760 27761 27762 27763 27764 27765 27766 27767 27768 27769 27770 27771 27772 27773 27774 27775 27776 27777 27778 27779 27780 27781 27782 27783 27784 27785 27786 27787 27788 27789 27790 27791 27792 27793 27794 27795 27796 27797 27798 27799 27800 27801 27802 27803 27804 27805 27806 27807 27808 27809 27810 27811 27812 27813 27814 27815 27816 27817 27818 27819 27820 27821 27822 27823 27824 27825 27826 27827 27828 27829 27830 27831 27832 27833 27834 27835 27836 27837 27838 27839 27840 27841 27842 27843 27844 27845 27846 27847 27848 27849 27850 27851 27852 27853 27854 27855 27856 27857 27858 27859 27860 27861 27862 27863 27864 27865 27866 27867 27868 27869 27870 27871 27872 27873 27874 27875 27876 27877 27878 27879 27880 27881 27882 27883 27884 27885 27886 27887 27888 27889 27890 27891 27892 27893 27894 27895 27896 27897 27898 27899 27900 27901 27902 27903 27904 27905 27906 27907 27908 27909 27910 27911 27912 27913 27914 27915 27916 27917 27918 27919 27920 27921 27922 27923 27924 27925 27926 27927 27928 27929 27930 27931 27932 27933 27934 27935 27936 27937 27938 27939 27940 27941 27942 27943 27944 27945 27946 27947 27948 27949 27950 27951 27952 27953 27954 27955 27956 27957 27958 27959 27960 27961 27962 27963 27964 27965 27966 27967 27968 27969 27970 27971 27972 27973 27974 27975 27976 27977 27978 27979 27980 27981 27982 27983 27984 27985 27986 27987 27988 27989 27990 27991 27992 27993 27994 27995 27996 27997 27998 27999 28000 28001 28002 28003 28004 28005 28006 28007 28008 28009 28010 28011 28012 28013 28014 28015 28016 28017 28018 28019 28020 28021 28022 28023 28024 28025 28026 28027 28028 28029 28030 28031 28032 28033 28034 28035 28036 28037 28038 28039 28040 28041 28042 28043 28044 28045 28046 28047 28048 28049 28050 28051 28052 28053 28054 28055 28056 28057 28058 28059 28060 28061 28062 28063 28064 28065 28066 28067 28068 28069 28070 28071 28072 28073 28074 28075 28076 28077 28078 28079 28080 28081 28082 28083 28084 28085 28086 28087 28088 28089 28090 28091 28092 28093 28094 28095 28096 28097 28098 28099 28100 28101 28102 28103 28104 28105 28106 28107 28108 28109 28110 28111 28112 28113 28114 28115 28116 28117 28118 28119 28120 28121 28122 28123 28124 28125 28126 28127 28128 28129 28130 28131 28132 28133 28134 28135 28136 28137 28138 28139 28140 28141 28142 28143 28144 28145 28146 28147 28148 28149 28150 28151 28152 28153 28154 28155 28156 28157 28158 28159 28160 28161 28162 28163 28164 28165 28166 28167 28168 28169 28170 28171 28172 28173 28174 28175 28176 28177 28178 28179 28180 28181 28182 28183 28184 28185 28186 28187 28188 28189 28190 28191 28192 28193 28194 28195 28196 28197 28198 28199 28200 28201 28202 28203 28204 28205 28206 28207 28208 28209 28210 28211 28212 28213 28214 28215 28216 28217 28218 28219 28220 28221 28222 28223 28224 28225 28226 28227 28228 28229 28230 28231 28232 28233 28234 28235 28236 28237 28238 28239 28240 28241 28242 28243 28244 28245 28246 28247 28248 28249 28250 28251 28252 28253 28254 28255 28256 28257 28258 28259 28260 28261 28262 28263 28264 28265 28266 28267 28268 28269 28270 28271 28272 28273 28274 28275 28276 28277 28278 28279 28280 28281 28282 28283 28284 28285 28286 28287 28288 28289 28290 28291 28292 28293 28294 28295 28296 28297 28298 28299 28300 28301 28302 28303 28304 28305 28306 28307 28308 28309 28310 28311 28312 28313 28314 28315 28316 28317 28318 28319 28320 28321 28322 28323 28324 28325 28326 28327 28328 28329 28330 28331 28332 28333 28334 28335 28336 28337 28338 28339 28340 28341 28342 28343 28344 28345 28346 28347 28348 28349 28350 28351 28352 28353 28354 28355 28356 28357 28358 28359 28360 28361 28362 28363 28364 28365 28366 28367 28368 28369 28370 28371 28372 28373 28374 28375 28376 28377 28378 28379 28380 28381 28382 28383 28384 28385 28386 28387 28388 28389 28390 28391 28392 28393 28394 28395 28396 28397 28398 28399 28400 28401 28402 28403 28404 28405 28406 28407 28408 28409 28410 28411 28412 28413 28414 28415 28416 28417 28418 28419 28420 28421 28422 28423 28424 28425 28426 28427 28428 28429 28430 28431 28432 28433 28434 28435 28436 28437 28438 28439 28440 28441 28442 28443 28444 28445 28446 28447 28448 28449 28450 28451 28452 28453 28454 28455 28456 28457 28458 28459 28460 28461 28462 28463 28464 28465 28466 28467 28468 28469 28470 28471 28472 28473 28474 28475 28476 28477 28478 28479 28480 28481 28482 28483 28484 28485 28486 28487 28488 28489 28490 28491 28492 28493 28494 28495 28496 28497 28498 28499 28500 28501 28502 28503 28504 28505 28506 28507 28508 28509 28510 28511 28512 28513 28514 28515 28516 28517 28518 28519 28520 28521 28522 28523 28524 28525 28526 28527 28528 28529 28530 28531 28532 28533 28534 28535 28536 28537 28538 28539 28540 28541 28542 28543 28544 28545 28546 28547 28548 28549 28550 28551 28552 28553 28554 28555 28556 28557 28558 28559 28560 28561 28562 28563 28564 28565 28566 28567 28568 28569 28570 28571 28572 28573 28574 28575 28576 28577 28578 28579 28580 28581 28582 28583 28584 28585 28586 28587 28588 28589 28590 28591 28592 28593 28594 28595 28596 28597 28598 28599 28600 28601 28602 28603 28604 28605 28606 28607 28608 28609 28610 28611 28612 28613 28614 28615 28616 28617 28618 28619 28620 28621 28622 28623 28624 28625 28626 28627 28628 28629 28630 28631 28632 28633 28634 28635 28636 28637 28638 28639 28640 28641 28642 28643 28644 28645 28646 28647 28648 28649 28650 28651 28652 28653 28654 28655 28656 28657 28658 28659 28660 28661 28662 28663 28664 28665 28666 28667 28668 28669 28670 28671 28672 28673 28674 28675 28676 28677 28678 28679 28680 28681 28682 28683 28684 28685 28686 28687 28688 28689 28690 28691 28692 28693 28694 28695 28696 28697 28698 28699 28700 28701 28702 28703 28704 28705 28706 28707 28708 28709 28710 28711 28712 28713 28714 28715 28716 28717 28718 28719 28720 28721 28722 28723 28724 28725 28726 28727 28728 28729 28730 28731 28732 28733 28734 28735 28736 28737 28738 28739 28740 28741 28742 28743 28744 28745 28746 28747 28748 28749 28750 28751 28752 28753 28754 28755 28756 28757 28758 28759 28760 28761 28762 28763 28764 28765 28766 28767 28768 28769 28770 28771 28772 28773 28774 28775 28776 28777 28778 28779 28780 28781 28782 28783 28784 28785 28786 28787 28788 28789 28790 28791 28792 28793 28794 28795 28796 28797 28798 28799 28800 28801 28802 28803 28804 28805 28806 28807 28808 28809 28810 28811 28812 28813 28814 28815 28816 28817 28818 28819 28820 28821 28822 28823 28824 28825 28826 28827 28828 28829 28830 28831 28832 28833 28834 28835 28836 28837 28838 28839 28840 28841 28842 28843 28844 28845 28846 28847 28848 28849 28850 28851 28852 28853 28854 28855 28856 28857 28858 28859 28860 28861 28862 28863 28864 28865 28866 28867 28868 28869 28870 28871 28872 28873 28874 28875 28876 28877 28878 28879 28880 28881 28882 28883 28884 28885 28886 28887 28888 28889 28890 28891 28892 28893 28894 28895 28896 28897 28898 28899 28900 28901 28902 28903 28904 28905 28906 28907 28908 28909 28910 28911 28912 28913 28914 28915 28916 28917 28918 28919 28920 28921 28922 28923 28924 28925 28926 28927 28928 28929 28930 28931 28932 28933 28934 28935 28936 28937 28938 28939 28940 28941 28942 28943 28944 28945 28946 28947 28948 28949 28950 28951 28952 28953 28954 28955 28956 28957 28958 28959 28960 28961 28962 28963 28964 28965 28966 28967 28968 28969 28970 28971 28972 28973 28974 28975 28976 28977 28978 28979 28980 28981 28982 28983 28984 28985 28986 28987 28988 28989 28990 28991 28992 28993 28994 28995 28996 28997 28998 28999 29000 29001 29002 29003 29004 29005 29006 29007 29008 29009 29010 29011 29012 29013 29014 29015 29016 29017 29018 29019 29020 29021 29022 29023 29024 29025 29026 29027 29028 29029 29030 29031 29032 29033 29034 29035 29036 29037 29038 29039 29040 29041 29042 29043 29044 29045 29046 29047 29048 29049 29050 29051 29052 29053 29054 29055 29056 29057 29058 29059 29060 29061 29062 29063 29064 29065 29066 29067 29068 29069 29070 29071 29072 29073 29074 29075 29076 29077 29078 29079 29080 29081 29082 29083 29084 29085 29086 29087 29088 29089 29090 29091 29092 29093 29094 29095 29096 29097 29098 29099 29100 29101 29102 29103 29104 29105 29106 29107 29108 29109 29110 29111 29112 29113 29114 29115 29116 29117 29118 29119 29120 29121 29122 29123 29124 29125 29126 29127 29128 29129 29130 29131 29132 29133 29134 29135 29136 29137 29138 29139 29140 29141 29142 29143 29144 29145 29146 29147 29148 29149 29150 29151 29152 29153 29154 29155 29156 29157 29158 29159 29160 29161 29162 29163 29164 29165 29166 29167 29168 29169 29170 29171 29172 29173 29174 29175 29176 29177 29178 29179 29180 29181 29182 29183 29184 29185 29186 29187 29188 29189 29190 29191 29192 29193 29194 29195 29196 29197 29198 29199 29200 29201 29202 29203 29204 29205 29206 29207 29208 29209 29210 29211 29212 29213 29214 29215 29216 29217 29218 29219 29220 29221 29222 29223 29224 29225 29226 29227 29228 29229 29230 29231 29232 29233 29234 29235 29236 29237 29238 29239 29240 29241 29242 29243 29244 29245 29246 29247 29248 29249 29250 29251 29252 29253 29254 29255 29256 29257 29258 29259 29260 29261 29262 29263 29264 29265 29266 29267 29268 29269 29270 29271 29272 29273 29274 29275 29276 29277 29278 29279 29280 29281 29282 29283 29284 29285 29286 29287 29288 29289 29290 29291 29292 29293 29294 29295 29296 29297 29298 29299 29300 29301 29302 29303 29304 29305 29306 29307 29308 29309 29310 29311 29312 29313 29314 29315 29316 29317 29318 29319 29320 29321 29322 29323 29324 29325 29326 29327 29328 29329 29330 29331 29332 29333 29334 29335 29336 29337 29338 29339 29340 29341 29342 29343 29344 29345 29346 29347 29348 29349 29350 29351 29352 29353 29354 29355 29356 29357 29358 29359 29360 29361 29362 29363 29364 29365 29366 29367 29368 29369 29370 29371 29372 29373 29374 29375 29376 29377 29378 29379 29380 29381 29382 29383 29384 29385 29386 29387 29388 29389 29390 29391 29392 29393 29394 29395 29396 29397 29398 29399 29400 29401 29402 29403 29404 29405 29406 29407 29408 29409 29410 29411 29412 29413 29414 29415 29416 29417 29418 29419 29420 29421 29422 29423 29424 29425 29426 29427 29428 29429 29430 29431 29432 29433 29434 29435 29436 29437 29438 29439 29440 29441 29442 29443 29444 29445 29446 29447 29448 29449 29450 29451 29452 29453 29454 29455 29456 29457 29458 29459 29460 29461 29462 29463 29464 29465 29466 29467 29468 29469 29470 29471 29472 29473 29474 29475 29476 29477 29478 29479 29480 29481 29482 29483 29484 29485 29486 29487 29488 29489 29490 29491 29492 29493 29494 29495 29496 29497 29498 29499 29500 29501 29502 29503 29504 29505 29506 29507 29508 29509 29510 29511 29512 29513 29514 29515 29516 29517 29518 29519 29520 29521 29522 29523 29524 29525 29526 29527 29528 29529 29530 29531 29532 29533 29534 29535 29536 29537 29538 29539 29540 29541 29542 29543 29544 29545 29546 29547 29548 29549 29550 29551 29552 29553 29554 29555 29556 29557 29558 29559 29560 29561 29562 29563 29564 29565 29566 29567 29568 29569 29570 29571 29572 29573 29574 29575 29576 29577 29578 29579 29580 29581 29582 29583 29584 29585 29586 29587 29588 29589 29590 29591 29592 29593 29594 29595 29596 29597 29598 29599 29600 29601 29602 29603 29604 29605 29606 29607 29608 29609 29610 29611 29612 29613 29614 29615 29616 29617 29618 29619 29620 29621 29622 29623 29624 29625 29626 29627 29628 29629 29630 29631 29632 29633 29634 29635 29636 29637 29638 29639 29640 29641 29642 29643 29644 29645 29646 29647 29648 29649 29650 29651 29652 29653 29654 29655 29656 29657 29658 29659 29660 29661 29662 29663 29664 29665 29666 29667 29668 29669 29670 29671 29672 29673 29674 29675 29676 29677 29678 29679 29680 29681 29682 29683 29684 29685 29686 29687 29688 29689 29690 29691 29692 29693 29694 29695 29696 29697 29698 29699 29700 29701 29702 29703 29704 29705 29706 29707 29708 29709 29710 29711 29712 29713 29714 29715 29716 29717 29718 29719 29720 29721 29722 29723 29724 29725 29726 29727 29728 29729 29730 29731 29732 29733 29734 29735 29736 29737 29738 29739 29740 29741 29742 29743 29744 29745 29746 29747 29748 29749 29750 29751 29752 29753 29754 29755 29756 29757 29758 29759 29760 29761 29762 29763 29764 29765 29766 29767 29768 29769 29770 29771 29772 29773 29774 29775 29776 29777 29778 29779 29780 29781 29782 29783 29784 29785 29786 29787 29788 29789 29790 29791 29792 29793 29794 29795 29796 29797 29798 29799 29800 29801 29802 29803 29804 29805 29806 29807 29808 29809 29810 29811 29812 29813 29814 29815 29816 29817 29818 29819 29820 29821 29822 29823 29824 29825 29826 29827 29828 29829 29830 29831 29832 29833 29834 29835 29836 29837 29838 29839 29840 29841 29842 29843 29844 29845 29846 29847 29848 29849 29850 29851 29852 29853 29854 29855 29856 29857 29858 29859 29860 29861 29862 29863 29864 29865 29866 29867 29868 29869 29870 29871 29872 29873 29874 29875 29876 29877 29878 29879 29880 29881 29882 29883 29884 29885 29886 29887 29888 29889 29890 29891 29892 29893 29894 29895 29896 29897 29898 29899 29900 29901 29902 29903 29904 29905 29906 29907 29908 29909 29910 29911 29912 29913 29914 29915 29916 29917 29918 29919 29920 29921 29922 29923 29924 29925 29926 29927 29928 29929 29930 29931 29932 29933 29934 29935 29936 29937 29938 29939 29940 29941 29942 29943 29944 29945 29946 29947 29948 29949 29950 29951 29952 29953 29954 29955 29956 29957 29958 29959 29960 29961 29962 29963 29964 29965 29966 29967 29968 29969 29970 29971 29972 29973 29974 29975 29976 29977 29978 29979 29980 29981 29982 29983 29984 29985 29986 29987 29988 29989 29990 29991 29992 29993 29994 29995 29996 29997 29998 29999 30000 30001 30002 30003 30004 30005 30006 30007 30008 30009 30010 30011 30012 30013 30014 30015 30016 30017 30018 30019 30020 30021 30022 30023 30024 30025 30026 30027 30028 30029 30030 30031 30032 30033 30034 30035 30036 30037 30038 30039 30040 30041 30042 30043 30044 30045 30046 30047 30048 30049 30050 30051 30052 30053 30054 30055 30056 30057 30058 30059 30060 30061 30062 30063 30064 30065 30066 30067 30068 30069 30070 30071 30072 30073 30074 30075 30076 30077 30078 30079 30080 30081 30082 30083 30084 30085 30086 30087 30088 30089 30090 30091 30092 30093 30094 30095 30096 30097 30098 30099 30100 30101 30102 30103 30104 30105 30106 30107 30108 30109 30110 30111 30112 30113 30114 30115 30116 30117 30118 30119 30120 30121 30122 30123 30124 30125 30126 30127 30128 30129 30130 30131 30132 30133 30134 30135 30136 30137 30138 30139 30140 30141 30142 30143 30144 30145 30146 30147 30148 30149 30150 30151 30152 30153 30154 30155 30156 30157 30158 30159 30160 30161 30162 30163 30164 30165 30166 30167 30168 30169 30170 30171 30172 30173 30174 30175 30176 30177 30178 30179 30180 30181 30182 30183 30184 30185 30186 30187 30188 30189 30190 30191 30192 30193 30194 30195 30196 30197 30198 30199 30200 30201 30202 30203 30204 30205 30206 30207 30208 30209 30210 30211 30212 30213 30214 30215 30216 30217 30218 30219 30220 30221 30222 30223 30224 30225 30226 30227 30228 30229 30230 30231 30232 30233 30234 30235 30236 30237 30238 30239 30240 30241 30242 30243 30244 30245 30246 30247 30248 30249 30250 30251 30252 30253 30254 30255 30256 30257 30258 30259 30260 30261 30262 30263 30264 30265 30266 30267 30268 30269 30270 30271 30272 30273 30274 30275 30276 30277 30278 30279 30280 30281 30282 30283 30284 30285 30286 30287 30288 30289 30290 30291 30292 30293 30294 30295 30296 30297 30298 30299 30300 30301 30302 30303 30304 30305 30306 30307 30308 30309 30310 30311 30312 30313 30314 30315 30316 30317 30318 30319 30320 30321 30322 30323 30324 30325 30326 30327 30328 30329 30330 30331 30332 30333 30334 30335 30336 30337 30338 30339 30340 30341 30342 30343 30344 30345 30346 30347 30348 30349 30350 30351 30352 30353 30354 30355 30356 30357 30358 30359 30360 30361 30362 30363 30364 30365 30366 30367 30368 30369 30370 30371 30372 30373 30374 30375 30376 30377 30378 30379 30380 30381 30382 30383 30384 30385 30386 30387 30388 30389 30390 30391 30392 30393 30394 30395 30396 30397 30398 30399 30400 30401 30402 30403 30404 30405 30406 30407 30408 30409 30410 30411 30412 30413 30414 30415 30416 30417 30418 30419 30420 30421 30422 30423 30424 30425 30426 30427 30428 30429 30430 30431 30432 30433 30434 30435 30436 30437 30438 30439 30440 30441 30442 30443 30444 30445 30446 30447 30448 30449 30450 30451 30452 30453 30454 30455 30456 30457 30458 30459 30460 30461 30462 30463 30464 30465 30466 30467 30468 30469 30470 30471 30472 30473 30474 30475 30476 30477 30478 30479 30480 30481 30482 30483 30484 30485 30486 30487 30488 30489 30490 30491 30492 30493 30494 30495 30496 30497 30498 30499 30500 30501 30502 30503 30504 30505 30506 30507 30508 30509 30510 30511 30512 30513 30514 30515 30516 30517 30518 30519 30520 30521 30522 30523 30524 30525 30526 30527 30528 30529 30530 30531 30532 30533 30534 30535 30536 30537 30538 30539 30540 30541 30542 30543 30544 30545 30546 30547 30548 30549 30550 30551 30552 30553 30554 30555 30556 30557 30558 30559 30560 30561 30562 30563 30564 30565 30566 30567 30568 30569 30570 30571 30572 30573 30574 30575 30576 30577 30578 30579 30580 30581 30582 30583 30584 30585 30586 30587 30588 30589 30590 30591 30592 30593 30594 30595 30596 30597 30598 30599 30600 30601 30602 30603 30604 30605 30606 30607 30608 30609 30610 30611 30612 30613 30614 30615 30616 30617 30618 30619 30620 30621 30622 30623 30624 30625 30626 30627 30628 30629 30630 30631 30632 30633 30634 30635 30636 30637 30638 30639 30640 30641 30642 30643 30644 30645 30646 30647 30648 30649 30650 30651 30652 30653 30654 30655 30656 30657 30658 30659 30660 30661 30662 30663 30664 30665 30666 30667 30668 30669 30670 30671 30672 30673 30674 30675 30676 30677 30678 30679 30680 30681 30682 30683 30684 30685 30686 30687 30688 30689 30690 30691 30692 30693 30694 30695 30696 30697 30698 30699 30700 30701 30702 30703 30704 30705 30706 30707 30708 30709 30710 30711 30712 30713 30714 30715 30716 30717 30718 30719 30720 30721 30722 30723 30724 30725 30726 30727 30728 30729 30730 30731 30732 30733 30734 30735 30736 30737 30738 30739 30740 30741 30742 30743 30744 30745 30746 30747 30748 30749 30750 30751 30752 30753 30754 30755 30756 30757 30758 30759 30760 30761 30762 30763 30764 30765 30766 30767 30768 30769 30770 30771 30772 30773 30774 30775 30776 30777 30778 30779 30780 30781 30782 30783 30784 30785 30786 30787 30788 30789 30790 30791 30792 30793 30794 30795 30796 30797 30798 30799 30800 30801 30802 30803 30804 30805 30806 30807 30808 30809 30810 30811 30812 30813 30814 30815 30816 30817 30818 30819 30820 30821 30822 30823 30824 30825 30826 30827 30828 30829 30830 30831 30832 30833 30834 30835 30836 30837 30838 30839 30840 30841 30842 30843 30844 30845 30846 30847 30848 30849 30850 30851 30852 30853 30854 30855 30856 30857 30858 30859 30860 30861 30862 30863 30864 30865 30866 30867 30868 30869 30870 30871 30872 30873 30874 30875 30876 30877 30878 30879 30880 
</DataArray>
<DataArray type="UInt32" Name="offsets" format="ascii">
3 6 8 11 14 17 20 22 25 28 31 34 37 40 43 46 49 52 55 58 60 63 66 69 72 74 77 80 83 86 89 92 95 97 100 103 106 109 112 115 118 121 123 126 129 132 135 138 141 144 147 150 153 156 158 160 163 166 169 172 175 178 181 184 186 189 192 195 198 201 204 207 210 213 216 219 222 225 228 231 234 237 240 243 246 249 252 254 257 260 263 266 269 272 275 278 281 284 287 289 292 295 298 300 303 306 309 312 315 318 321 324 327 330 333 336 339 342 345 348 351 354 357 360 363 366 369 372 375 378 381 384 387 390 393 396 399 402 405 408 411 414 417 420 423 426 429 432 435 437 440 442 445 448 451 454 457 460 463 466 469 472 475 478 481 484 487 490 493 496 499 502 505 508 511 514 517 520 522 525 528 530 533 535 538 541 544 547 550 553 556 559 562 565 568 571 574 577 579 582 584 587 590 593 596 599 602 605 607 610 612 615 618 621 624 627 630 632 635 638 640 643 646 649 652 655 658 660 662 665 668 670 673 675 678 680 682 685 688 691 693 696 699 702 705 708 711 714 717 720 723 726 729 732 734 737 740 743 746 749 752 755 757 760 763 766 769 772 775 778 780 783 786 789 792 794 797 800 803 806 809 812 814 817 820 823 825 828 831 834 837 840 843 846 848 851 854 857 860 863 866 868 871 874 877 880 883 886 888 891 894 897 900 903 906 909 911 914 917 920 923 926 929 932 935 938 941 944 947 950 953 956 959 962 965 968 971 974 976 978 981 984 987 990 993 995 998 1001 1004 1007 1010 1013 1016 1018 1021 1023 1026 1029 1032 1034 1037 1040 1043 1045 1048 1050 1053 1056 1059 1062 1065 1068 1071 1073 1076 1079 1082 1085 1088 1091 1094 1096 1099 1102 1105 1107 1110 1113 1116 1119 1122 1125 1128 1131 1134 1137 1140 1143 1146 1149 1152 1155 1158 1161 1164 1167 1170 1173 1176 1179 1182 1185 1188 1191 1194 1197 1200 1203 1205 1208 1211 1214 1217 1220 1223 1226 1229 1232 1235 1238 1241 1244 1247 1250 1253 1256 1259 1262 1265 1268 1271 1274 1277 1280 1283 1286 1289 1292 1295 1298 1301 1303 1306 1309 1312 1315 1318 1321 1324 1327 1330 1333 1336 1339 1342 1345 1348 1351 1354 1357 1360 1363 1365 1368 1371 1374 1377 1380 1383 1386 1388 1391 1394 1397 1400 1403 1405 1408 1411 1413 1416 1418 1421 1424 1427 1430 1432 1435 1438 1440 1443 1446 1449 1452 1455 1458 1460 1463 1466 1469 1472 1475 1478 1481 1484 1487 1490 1493 1496 1499 1502 1505 1508 1511 1514 1517 1519 1522 1525 1528 1531 1534 1537 1540 1543 1546 1549 1552 1554 1556 1559 1562 1565 1568 1571 1574 1577 1580 1583 1586 1589 1592 1595 1598 1601 1604 1607 1610 1613 1616 1619 1621 1624 1626 1628 1631 1634 1636 1639 1642 1645 1648 1651 1654 1657 1660 1663 1666 1669 1672 1675 1677 1680 1683 1686 1689 1692 1695 1698 1700 1702 1705 1708 1711 1714 1717 1720 1723 1726 1728 1730 1733 1736 1739 1741 1744 1747 1750 1753 1756 1759 1762 1765 1768 1771 1774 1777 1780 1783 1786 1789 1792 1795 1798 1801 1804 1807 1810 1813 1816 1819 1822 1825 1828 1831 1834 1837 1840 1843 1846 1848 1851 1854 1856 1859 1862 1865 1868 1870 1873 1876 1879 1881 1884 1887 1890 1892 1895 1898 1900 1903 1906 1909 1912 1915 1918 1921 1924 1927 1930 1933 1936 1939 1942 1945 1948 1951 1954 1957 1960 1963 1965 1968 1971 1974 1976 1979 1982 1985 1988 1991 1993 1996 1999 2002 2005 2008 2011 2013 2016 2019 2022 2025 2028 2031 2034 2037 2040 2043 2046 2049 2052 2055 2058 2061 2064 2067 2069 2072 2075 2078 2081 2084 2087 2090 2093 2096 2099 2102 2105 2108 2111 2114 2117 2120 2123 2126 2129 2132 2134 2137 2140 2143 2146 2149 2152 2155 2158 2161 2164 2167 2170 2173 2176 2179 2181 2184 2187 2190 2193 2196 2199 2202 2205 2208 2211 2214 2217 2220 2223 2226 2229 2232 2235 2237 2240 2243 2246 2249 2252 2255 2258 2260 2263 2266 2269 2272 2275 2278 2281 2284 2287 2290 2293 2296 2299 2302 2305 2308 2311 2314 2317 2320 2323 2325 2328 2331 2334 2337 2340 2343 2346 2349 2352 2354 2357 2360 2363 2366 2369 2372 2375 2378 2380 2383 2386 2389 2392 2395 2398 2401 2404 2407 2410 2413 2416 2419 2422 2425 2428 2431 2434 2437 2439 2442 2445 2448 2451 2454 2456 2459 2462 2465 2467 2470 2473 2476 2479 2482 2485 2487 2490 2493 2496 2499 2502 2505 2508 2511 2514 2517 2519 2522 2525 2528 2531 2534 2537 2540 2543 2546 2549 2552 2555 2557 2560 2562 2565 2568 2571 2574 2577 2580 2583 2585 2588 2590 2593 2596 2599 2602 2605 2608 2611 2614 2617 2620 2623 2626 2629 2632 2635 2638 2641 2644 2647 2650 2653 2656 2659 2662 2665 2668 2671 2674 2677 2680 2683 2686 2689 2692 2695 2698 2701 2704 2707 2710 2713 2716 2719 2722 2725 2727 2729 2732 2735 2737 2740 2743 2746 2749 2752 2755 2758 2761 2764 2767 2770 2773 2776 2779 2782 2785 2787 2790 2793 2796 2799 2801 2804 2807 2809 2812 2815 2818 2821 2824 2827 2829 2832 2834 2837 2840 2842 2845 2848 2851 2854 2857 2860 2863 2866 2869 2872 2874 2877 2880 2883 2886 2889 2891 2893 2896 2899 2902 2905 2907 2910 2913 2915 2918 2920 2923 2926 2929 2932 2935 2937 2940 2943 2945 2948 2951 2954 2957 2960 2963 2966 2969 2972 2975 2978 2981 2983 2986 2989 2992 2995 2998 3001 3004 3007 3010 3013 3016 3019 3022 3025 3028 3030 3033 3035 3038 3040 3042 3045 3047 3050 3053 3055 3058 3061 3064 3067 3070 3073 3075 3078 3080 3083 3086 3088 3091 3094 3097 3099 3102 3105 3107 3110 3113 3116 3119 3122 3124 3127 3130 3132 3135 3138 3141 3144 3147 3149 3152 3154 3157 3160 3162 3165 3168 3170 3173 3176 3179 3182 3185 3188 3191 3194 3196 3199 3202 3205 3208 3211 3214 3217 3220 3223 3226 3228 3231 3234 3237 3240 3242 3245 3248 3250 3253 3256 3259 3262 3265 3267 3270 3273 3276 3279 3282 3284 3287 3289 3292 3295 3298 3301 3304 3307 3309 3312 3315 3318 3321 3324 3327 3330 3333 3335 3337 3339 3342 3345 3348 3351 3353 3356 3358 3361 3364 3367 3369 3371 3374 3377 3380 3382 3385 3388 3391 3393 3396 3398 3401 3403 3405 3408 3410 3413 3416 3419 3422 3424 3427 3430 3433 3435 3438 3440 3443 3445 3448 3451 3454 3457 3460 3463 3466 3468 3471 3474 3477 3480 3482 3485 3488 3491 3494 3497 3500 3503 3506 3508 3511 3513 3515 3518 3521 3524 3526 3529 3532 3535 3538 3540 3542 3545 3548 3550 3552 3555 3558 3561 3564 3567 3569 3572 3575 3578 3581 3584 3587 3590 3593 3595 3598 3600 3603 3606 3609 3612 3615 3618 3621 3624 3627 3630 3633 3636 3639 3642 3645 3648 3651 3653 3656 3659 3662 3665 3668 3671 3674 3677 3680 3683 3686 3689 3692 3695 3698 3701 3704 3707 3710 3713 3716 3719 3722 3725 3728 3730 3733 3735 3738 3741 3744 3747 3750 3752 3754 3757 3760 3763 3766 3768 3770 3773 3775 3778 3781 3783 3786 3789 3791 3794 3797 3800 3803 3805 3807 3810 3813 3816 3819 3822 3825 3828 3831 3833 3836 3839 3841 3844 3847 3850 3852 3855 3858 3860 3863 3866 3869 3872 3875 3878 3880 3883 3886 3889 3892 3895 3898 3900 3903 3906 3909 3912 3915 3917 3920 3923 3925 3927 3930 3933 3935 3938 3941 3943 3946 3949 3952 3955 3958 3961 3964 3967 3970 3973 3976 3979 3981 3984 3986 3989 3992 3994 3997 4000 4003 4006 4009 4012 4014 4017 4020 4023 4025 4027 4029 4032 4035 4038 4040 4042 4045 4047 4049 4052 4055 4057 4060 4063 4065 4068 4070 4073 4075 4078 4081 4084 4086 4088 4091 4094 4096 4098 4100 4102 4105 4108 4111 4113 4115 4118 4121 4123 4125 4127 4130 4132 4134 4137 4140 4142 4145 4147 4149 4152 4154 4157 4160 4162 4165 4167 4169 4172 4175 4178 4181 4183 4185 4188 4191 4193 4196 4199 4202 4204 4207 4210 4213 4216 4219 4222 4225 4228 4231 4234 4237 4240 4243 4246 4249 4252 4255 4258 4261 4264 4267 4270 4273 4276 4279 4282 4285 4288 4291 4294 4297 4300 4303 4306 4309 4312 4315 4318 4321 4324 4327 4330 4333 4336 4339 4342 4345 4348 4351 4354 4357 4360 4363 4366 4369 4372 4375 4378 4380 4383 4385 4388 4391 4394 4397 4400 4403 4406 4409 4412 4415 4418 4421 4424 4427 4429 4432 4435 4438 4441 4444 4447 4450 4453 4456 4459 4461 4464 4467 4470 4473 4476 4479 4482 4485 4488 4491 4494 4497 4500 4503 4506 4509 4512 4515 4518 4521 4524 4527 4530 4533 4536 4539 4542 4545 4548 4551 4554 4557 4560 4563 4566 4569 4572 4575 4578 4581 4584 4587 4590 4593 4596 4599 4601 4604 4607 4610 4612 4615 4617 4620 4623 4626 4629 4632 4634 4637 4639 4642 4645 4648 4651 4654 4657 4660 4663 4666 4669 4672 4675 4678 4681 4684 4687 4690 4693 4696 4699 4702 4705 4708 4711 4714 4716 4719 4722 4725 4728 4731 4734 4736 4739 4741 4744 4747 4750 4752 4755 4758 4760 4763 4766 4769 4772 4775 4778 4781 4784 4787 4790 4793 4796 4799 4802 4805 4808 4811 4814 4817 4820 4823 4826 4829 4832 4835 4838 4841 4844 4847 4850 4853 4856 4859 4862 4865 4868 4871 4873 4876 4878 4881 4884 4887 4890 4893 4896 4899 4902 4905 4908 4910 4913 4916 4919 4922 4925 4928 4931 4934 4937 4940 4943 4946 4949 4952 4955 4958 4961 4963 4966 4969 4972 4974 4976 4979 4981 4984 4987 4990 4993 4996 4999 5002 5005 5007 5010 5013 5016 5019 5021 5024 5027 5030 5033 5036 5039 5042 5044 5047 5050 5052 5055 5057 5060 5063 5065 5068 5071 5073 5075 5078 5081 5084 5087 5090 5093 5096 5099 5102 5105 5108 5111 5114 5117 5120 5122 5125 5127 5130 5133 5136 5138 5141 5143 5146 5149 5152 5155 5158 5161 5164 5167 5170 5173 5176 5179 5181 5184 5186 5189 5192 5195 5198 5201 5204 5207 5210 5212 5215 5218 5220 5223 5226 5229 5231 5233 5236 5239 5242 5245 5248 5251 5254 5257 5260 5263 5266 5269 5272 5275 5278 5281 5284 5287 5290 5293 5296 5298 5301 5304 5307 5310 5313 5315 5318 5320 5323 5326 5329 5332 5334 5337 5340 5342 5345 5348 5351 5354 5357 5359 5362 5365 5368 5371 5373 5376 5379 5382 5385 5388 5391 5394 5396 5399 5402 5405 5407 5410 5413 5416 5419 5422 5425 5428 5431 5434 5437 5440 5442 5445 5448 5451 5454 5457 5460 5463 5466 5468 5471 5474 5477 5480 5483 5486 5488 5491 5494 5497 5500 5503 5506 5508 5511 5514 5517 5520 5523 5526 5529 5532 5535 5538 5541 5543 5546 5549 5552 5554 5557 5560 5563 5565 5568 5570 5573 5576 5579 5582 5585 5588 5590 5593 5596 5599 5602 5605 5608 5611 5614 5617 5620 5623 5626 5629 5632 5635 5637 5640 5643 5646 5649 5652 5654 5657 5660 5663 5666 5669 5672 5675 5678 5680 5683 5686 5689 5692 5695 5698 5701 5704 5707 5710 5713 5716 5719 5722 5725 5728 5730 5733 5736 5739 5742 5744 5747 5750 5753 5756 5759 5762 5765 5768 5771 5774 5777 5780 5783 5786 5789 5792 5795 5798 5801 5804 5807 5810 5813 5816 5819 5822 5824 5827 5830 5833 5835 5838 5840 5843 5846 5849 5852 5854 5857 5859 5862 5865 5868 5871 5874 5876 5879 5882 5885 5888 5891 5894 5897 5900 5903 5905 5908 5911 5914 5917 5920 5923 5926 5929 5932 5935 5938 5941 5944 5947 5950 5953 5956 5959 5962 5965 5968 5971 5974 5977 5979 5981 5984 5987 5990 5993 5996 5998 6001 6004 6007 6009 6012 6015 6018 6020 6023 6026 6028 6031 6033 6036 6039 6042 6045 6047 6050 6053 6056 6059 6061 6063 6066 6069 6072 6075 6078 6081 6084 6087 6090 6093 6096 6099 6101 6104 6107 6110 6113 6115 6118 6121 6124 6127 6130 6132 6135 6138 6140 6143 6146 6149 6152 6155 6158 6161 6164 6167 6170 6173 6176 6179 6182 6185 6188 6190 6193 6196 6198 6201 6204 6207 6209 6212 6215 6218 6221 6224 6227 6230 6233 6236 6239 6242 6244 6247 6250 6253 6256 6259 6262 6265 6268 6271 6274 6277 6280 6283 6286 6289 6292 6294 6297 6300 6302 6305 6307 6310 6313 6315 6318 6320 6323 6325 6328 6331 6334 6337 6340 6343 6346 6349 6352 6355 6358 6361 6364 6366 6369 6371 6373 6376 6379 6381 6383 6386 6389 6391 6393 6396 6399 6402 6404 6407 6409 6412 6415 6417 6420 6423 6426 6429 6431 6433 6436 6438 6441 6444 6446 6448 6451 6454 6456 6459 6462 6465 6467 6470 6473 6476 6478 6480 6482 6485 6488 6490 6493 6495 6497 6500 6503 6506 6509 6512 6515 6518 6521 6524 6527 6530 6532 6534 6537 6539 6542 6544 6547 6549 6552 6555 6558 6560 6563 6566 6569 6572 6575 6577 6580 6583 6586 6589 6592 6595 6598 6601 6604 6607 6610 6613 6616 6619 6622 6625 6628 6631 6634 6637 6640 6643 6646 6649 6651 6654 6657 6660 6663 6666 6669 6672 6675 6678 6681 6684 6687 6690 6693 6696 6699 6702 6705 6707 6710 6713 6716 6719 6722 6725 6728 6731 6734 6737 6740 6742 6745 6748 6751 6754 6757 6759 6762 6765 6768 6771 6774 6777 6780 6783 6786 6789 6792 6795 6798 6801 6803 6806 6809 6812 6815 6818 6821 6824 6827 6830 6833 6836 6839 6842 6845 6847 6850 6852 6855 6858 6861 6864 6866 6869 6872 6875 6878 6881 6884 6887 6890 6893 6896 6899 6902 6904 6907 6909 6912 6915 6918 6921 6923 6926 6929 6932 6935 6938 6941 6944 6946 6949 6952 6955 6958 6961 6964 6967 6969 6972 6975 6978 6980 6983 6985 6988 6991 6994 6997 7000 7003 7006 7009 7012 7014 7017 7020 7023 7026 7029 7032 7035 7038 7041 7044 7047 7050 7053 7056 7059 7062 7065 7068 7071 7074 7077 7080 7083 7086 7089 7092 7095 7098 7101 7104 7107 7110 7113 7116 7119 7122 7125 7128 7131 7134 7137 7140 7143 7145 7148 7151 7153 7156 7159 7162 7165 7168 7171 7174 7177 7180 7183 7185 7188 7191 7194 7197 7200 7202 7205 7208 7210 7213 7216 7219 7222 7225 7228 7230 7233 7236 7239 7242 7244 7247 7250 7252 7255 7257 7260 7263 7266 7269 7272 7275 7278 7281 7284 7287 7290 7292 7295 7297 7300 7303 7306 7309 7311 7314 7317 7320 7323 7326 7329 7332 7335 7338 7341 7344 7347 7350 7353 7356 7359 7362 7365 7368 7371 7374 7376 7379 7382 7385 7388 7390 7393 7396 7399 7402 7405 7408 7411 7413 7416 7419 7422 7425 7428 7430 7433 7436 7439 7441 7444 7447 7450 7452 7455 7458 7460 7463 7466 7469 7471 7474 7477 7479 7482 7485 7488 7491 7494 7497 7500 7503 7506 7509 7512 7515 7518 7521 7524 7527 7530 7533 7536 7539 7542 7545 7548 7551 7554 7557 7560 7563 7566 7569 7572 7574 7577 7580 7583 7586 7589 7592 7595 7598 7601 7604 7607 7609 7612 7615 7618 7621 7624 7627 7630 7633 7636 7639 7642 7645 7648 7651 7654 7656 7658 7661 7664 7667 7669 7672 7675 7678 7681 7683 7686 7689 7691 7694 7697 7700 7703 7706 7709 7712 7715 7718 7721 7724 7727 7730 7732 7734 7737 7740 7743 7746 7749 7752 7755 7758 7761 7764 7767 7769 7772 7775 7777 7780 7783 7786 7789 7792 7795 7798 7801 7804 7807 7810 7813 7816 7819 7822 7825 7828 7831 7834 7836 7839 7842 7845 7847 7850 7853 7856 7859 7862 7864 7867 7870 7873 7876 7879 7882 7885 7888 7891 7894 7897 7900 7903 7906 7909 7912 7915 7918 7921 7924 7926 7929 7932 7934 7937 7940 7943 7946 7949 7952 7955 7958 7961 7964 7967 7970 7973 7976 7979 7982 7985 7988 7991 7993 7996 7999 8002 8005 8008 8011 8014 8017 8020 8023 8026 8029 8032 8035 8038 8041 8044 8047 8050 8053 8056 8059 8062 8065 8068 8071 8074 8077 8080 8083 8086 8089 8091 8094 8097 8100 8103 8106 8109 8111 8114 8117 8120 8123 8126 8128 8131 8134 8137 8140 8142 8145 8148 8151 8154 8157 8160 8163 8166 8169 8172 8175 8178 8181 8184 8187 8190 8193 8196 8199 8202 8205 8208 8210 8213 8216 8219 8222 8225 8228 8231 8233 8236 8239 8241 8244 8247 8249 8252 8255 8258 8261 8264 8267 8269 8272 8275 8278 8281 8284 8287 8290 8293 8296 8299 8301 8304 8306 8309 8312 8315 8318 8321 8324 8327 8330 8332 8335 8338 8340 8343 8346 8349 8351 8354 8357 8360 8362 8365 8368 8371 8373 8375 8378 8381 8383 8386 8389 8391 8394 8397 8399 8402 8405 8408 8411 8414 8417 8420 8423 8426 8428 8431 8434 8437 8439 8442 8445 8448 8450 8453 8456 8459 8461 8464 8466 8469 8472 8474 8477 8480 8483 8486 8489 8492 8495 8498 8500 8503 8506 8508 8511 8514 8517 8520 8523 8526 8529 8532 8535 8538 8541 8544 8547 8549 8552 8554 8557 8560 8563 8565 8567 8570 8572 8575 8578 8581 8584 8586 8589 8591 8594 8597 8600 8603 8606 8609 8612 8615 8618 8620 8623 8626 8629 8632 8635 8638 8641 8644 8647 8650 8653 8656 8659 8662 8665 8668 8671 8674 8677 8680 8683 8686 8689 8692 8695 8698 8701 8704 8706 8709 8712 8715 8718 8721 8724 8726 8729 8732 8735 8738 8741 8744 8746 8749 8752 8755 8758 8761 8764 8766 8769 8772 8775 8777 8780 8783 8786 8788 8791 8794 8796 8799 8802 8805 8808 8811 8814 8816 8819 8822 8825 8827 8829 8832 8835 8838 8841 8844 8847 8850 8853 8856 8859 8862 8865 8868 8871 8874 8877 8880 8882 8885 8888 8891 8894 8897 8900 8903 8905 8908 8911 8914 8917 8920 8922 8925 8928 8931 8934 8937 8939 8942 8945 8947 8950 8953 8956 8959 8961 8964 8967 8970 8973 8976 8979 8981 8984 8986 8989 8991 8993 8996 8998 9001 9004 9007 9009 9012 9015 9018 9021 9024 9026 9029 9032 9035 9037 9040 9043 9046 9049 9051 9053 9055 9058 9061 9064 9067 9069 9071 9074 9076 9079 9082 9085 9088 9091 9094 9096 9099 9101 9104 9107 9109 9112 9115 9118 9120 9123 9126 9128 9131 9134 9137 9140 9143 9146 9149 9152 9155 9158 9161 9164 9166 9169 9172 9175 9178 9180 9183 9186 9189 9192 9194 9197 9200 9203 9206 9209 9212 9215 9218 9221 9223 9225 9227 9230 9233 9236 9238 9240 9243 9246 9248 9251 9253 9256 9259 9262 9265 9268 9271 9274 9276 9279 9282 9285 9288 9291 9294 9297 9300 9303 9306 9309 9312 9315 9318 9321 9324 9326 9329 9332 9335 9338 9341 9344 9347 9350 9353 9355 9358 9361 9363 9366 9368 9371 9373 9376 9379 9381 9384 9387 9390 9392 9394 9397 9400 9402 9405 9408 9411 9413 9416 9419 9422 9425 9427 9430 9433 9436 9439 9442 9445 9448 9451 9454 9457 9460 9462 9464 9467 9470 9473 9476 9479 9482 9485 9488 9491 9494 9497 9500 9503 9506 9509 9512 9515 9518 9521 9524 9527 9530 9533 9536 9539 9542 9545 9548 9551 9554 9557 9560 9562 9565 9568 9571 9574 9577 9580 9583 9586 9589 9592 9595 9598 9601 9604 9607 9610 9613 9616 9619 9621 9624 9627 9630 9633 9636 9639 9641 9643 9646 9649 9651 9653 9656 9659 9662 9664 9667 9670 9673 9676 9679 9682 9685 9688 9691 9694 9697 9700 9703 9706 9709 9712 9715 9718 9721 9724 9727 9730 9733 9735 9738 9740 9743 9745 9748 9751 9754 9757 9760 9763 9765 9768 9770 9772 9775 9778 9780 9783 9786 9789 9792 9795 9798 9800 9802 9805 9808 9810 9812 9815 9818 9820 9822 9825 9828 9831 9834 9837 9840 9843 9846 9848 9851 9854 9857 9860 9863 9865 9868 9871 9873 9876 9879 9882 9884 9887 9890 9893 9896 9899 9902 9905 9908 9911 9914 9917 9920 9923 9926 9929 9932 9935 9938 9941 9944 9947 9950 9953 9956 9959 9962 9965 9968 9971 9974 9977 9980 9983 9986 9988 9991 9994 9996 9999 10001 10003 10006 10009 10012 10015 10018 10021 10024 10027 10030 10032 10035 10038 10041 10044 10047 10049 10052 10055 10058 10061 10064 10067 10070 10072 10075 10078 10081 10084 10087 10090 10093 10096 10098 10101 10104 10107 10110 10113 10115 10118 10121 10124 10127 10130 10133 10136 10139 10142 10145 10148 10151 10154 10157 10160 10163 10166 10169 10172 10175 10178 10181 10184 10187 10190 10193 10196 10199 10202 10205 10207 10209 10212 10215 10218 10221 10224 10227 10230 10232 10235 10238 10241 10243 10246 10248 10251 10254 10257 10260 10263 10266 10269 10272 10275 10278 10281 10284 10287 10290 10293 10296 10299 10302 10305 10308 10311 10313 10316 10319 10322 10325 10328 10331 10333 10336 10339 10342 10345 10348 10351 10354 10356 10359 10362 10364 10367 10370 10373 10376 10379 10382 10384 10387 10390 10393 10395 10398 10401 10403 10405 10408 10411 10414 10417 10420 10423 10426 10429 10432 10435 10438 10441 10444 10447 10450 10453 10456 10459 10462 10465 10468 10471 10474 10477 10480 10483 10486 10489 10491 10494 10497 10500 10503 10506 10509 10512 10515 10518 10521 10524 10527 10530 10533 10536 10539 10542 10545 10548 10550 10553 10556 10559 10561 10563 10566 10569 10572 10575 10578 10580 10583 10586 10589 10591 10594 10597 10600 10603 10606 10608 10611 10614 10617 10620 10623 10626 10629 10632 10635 10638 10641 10644 10647 10650 10653 10656 10659 10662 10665 10668 10671 10673 10676 10679 10682 10685 10688 10691 10693 10696 10699 10702 10705 10708 10711 10714 10717 10720 10723 10726 10729 10731 10734 10737 10740 10743 10745 10748 10750 10753 10756 10759 10762 10765 10768 10771 10774 10777 10780 10783 10786 10789 10791 10794 10797 10800 10803 10806 10808 10811 10814 10817 10820 10823 10826 10828 10831 10834 10837 10840 10843 10846 10849 10852 10855 10858 10861 10864 10866 10869 10872 10874 10877 10880 10882 10885 10888 10890 10893 10896 10899 10902 10905 10908 10911 10914 10917 10920 10922 10925 10928 10931 10934 10937 10940 10943 10946 10948 10951 10954 10957 10959 10962 10965 10968 10970 10973 10976 10978 10981 10984 10987 10989 10992 10995 10998 11001 11004 11006 11009 11011 11014 11017 11020 11023 11025 11027 11030 11033 11036 11038 11041 11044 11047 11050 11052 11055 11058 11061 11064 11067 11070 11073 11076 11079 11082 11085 11088 11091 11094 11097 11099 11102 11105 11107 11109 11112 11115 11118 11121 11123 11126 11129 11132 11135 11138 11141 11143 11146 11149 11152 11155 11158 11161 11163 11166 11169 11172 11175 11178 11181 11184 11187 11189 11192 11195 11198 11201 11204 11207 11210 11213 11216 11219 11221 11224 11227 11229 11232 11235 11237 11240 11243 11246 11249 11252 11254 11256 11259 11262 11264 11266 11269 11271 11274 11276 11279 11281 11283 11286 11289 11291 11294 11296 11299 11301 11304 11306 11309 11311 11314 11317 11319 11322 11324 11327 11329 11332 11335 11338 11341 11344 11347 11349 11352 11355 11358 11360 11363 11366 11369 11372 11375 11378 11381 11384 11387 11389 11392 11395 11397 11400 11402 11405 11407 11410 11413 11416 11418 11420 11423 11426 11429 11432 11435 11438 11441 11444 11447 11450 11453 11455 11458 11461 11464 11467 11470 11472 11475 11478 11481 11484 11487 11490 11493 11496 11499 11502 11505 11508 11511 11514 11517 11520 11523 11525 11528 11531 11534 11537 11540 11543 11545 11548 11551 11554 11556 11559 11562 11564 11567 11570 11573 11575 11578 11580 11582 11585 11588 11591 11594 11597 11600 11603 11606 11609 11611 11614 11617 11620 11623 11626 11629 11632 11634 11637 11639 11642 11644 11647 11650 11653 11656 11659 11662 11665 11668 11671 11674 11677 11680 11683 11686 11689 11692 11695 11698 11701 11704 11707 11710 11713 11716 11719 11722 11725 11728 11731 11734 11737 11740 11743 11746 11749 11752 11755 11757 11760 11763 11765 11767 11770 11773 11776 11779 11781 11784 11787 11790 11793 11796 11798 11801 11804 11806 11808 11811 11814 11817 11820 11823 11826 11828 11831 11833 11836 11839 11841 11843 11846 11848 11851 11854 11857 11859 11862 11865 11868 11871 11873 11876 11879 11882 11884 11887 11890 11892 11894 11897 11900 11903 11905 11908 11911 11914 11917 11919 11922 11925 11927 11930 11933 11936 11938 11941 11944 11946 11949 11952 11955 11957 11960 11962 11965 11968 11970 11973 11976 11978 11980 11983 11986 11988 11991 11993 11995 11998 12001 12004 12007 12009 12012 12015 12018 12021 12023 12026 12029 12032 12035 12038 12041 12044 12047 12050 12053 12056 12059 12061 12064 12067 12070 12073 12075 12078 12080 12083 12086 12089 12092 12095 12097 12099 12101 12104 12107 12110 12113 12116 12119 12122 12125 12127 12130 12133 12136 12139 12142 12145 12147 12150 12153 12156 12159 12161 12164 12167 12170 12173 12176 12179 12182 12185 12188 12191 12194 12197 12200 12203 12206 12209 12212 12215 12217 12220 12222 12225 12228 12230 12232 12235 12237 12240 12243 12245 12248 12250 12253 12255 12258 12260 12263 12266 12269 12272 12274 12277 12280 12283 12285 12288 12291 12294 12297 12300 12303 12306 12309 12312 12315 12318 12321 12324 12327 12330 12333 12336 12339 12342 12345 12348 12351 12354 12357 12360 12362 12365 12368 12371 12374 12377 12379 12382 12385 12388 12391 12394 12397 12400 12403 12406 12409 12412 12414 12417 12420 12423 12426 12429 12431 12434 12437 12439 12441 12444 12447 12450 12452 12455 12458 12460 12462 12465 12467 12470 12473 12476 12479 12482 12485 12488 12491 12494 12497 12500 12503 12506 12509 12512 12515 12517 12520 12523 12526 12529 12531 12534 12537 12540 12543 12546 12549 12552 12555 12557 12559 12562 12565 12567 12570 12573 12576 12579 12582 12585 12588 12591 12594 12596 12598 12601 12604 12606 12609 12612 12615 12617 12620 12623 12626 12629 12632 12635 12638 12641 12644 12647 12650 12653 12656 12659 12662 12665 12668 12671 12674 12677 12680 12683 12686 12689 12692 12695 12697 12700 12703 12706 12709 12712 12715 12718 12721 12724 12727 12730 12733 12736 12739 12742 12745 12748 12751 12754 12757 12759 12762 12765 12768 12770 12772 12775 12778 12781 12783 12786 12789 12791 12794 12797 12800 12803 12806 12808 12811 12813 12816 12819 12822 12825 12828 12831 12834 12837 12839 12842 12845 12848 12850 12853 12856 12858 12861 12863 12866 12869 12872 12874 12877 12880 12883 12885 12888 12891 12894 12897 12900 12903 12906 12909 12912 12915 12918 12921 12924 12927 12930 12933 12936 12938 12941 12944 12947 12950 12953 12956 12959 12962 12965 12967 12970 12973 12976 12979 12982 12985 12988 12991 12993 12996 12999 13002 13005 13008 13011 13014 13017 13020 13023 13026 13029 13032 13034 13037 13040 13043 13045 13048 13051 13054 13057 13060 13063 13066 13069 13072 13075 13078 13081 13084 13087 13090 13093 13096 13099 13102 13104 13107 13110 13113 13115 13118 13120 13123 13126 13129 13131 13134 13137 13140 13142 13144 13147 13150 13153 13156 13159 13162 13165 13168 13171 13174 13177 13180 13183 13186 13189 13192 13195 13198 13201 13204 13207 13210 13212 13215 13218 13221 13224 13226 13229 13232 13235 13238 13240 13243 13246 13249 13252 13255 13258 13261 13263 13266 13269 13272 13275 13277 13280 13283 13286 13289 13292 13295 13297 13300 13303 13306 13309 13312 13315 13317 13320 13323 13326 13328 13331 13334 13337 13340 13343 13346 13349 13352 13355 13357 13360 13363 13366 13369 13372 13375 13377 13380 13383 13386 13389 13392 13395 13398 13401 13404 13407 13410 13412 13415 13418 13420 13423 13426 13429 13432 13435 13437 13440 13443 13445 13448 13451 13454 13457 13460 13463 13466 13468 13470 13473 13476 13479 13482 13484 13487 13490 13493 13496 13499 13502 13504 13507 13510 13513 13516 13519 13522 13525 13528 13531 13534 13536 13539 13542 13545 13548 13551 13554 13557 13560 13563 13566 13569 13572 13574 13577 13579 13582 13585 13588 13590 13593 13596 13598 13601 13604 13607 13610 13612 13615 13618 13621 13624 13627 13629 13632 13635 13638 13641 13644 13647 13650 13653 13655 13658 13661 13664 13667 13669 13672 13675 13678 13681 13684 13687 13690 13692 13695 13698 13701 13704 13707 13710 13713 13716 13719 13722 13724 13727 13730 13733 13735 13738 13740 13743 13746 13749 13752 13755 13758 13760 13763 13765 13768 13770 13773 13776 13779 13782 13784 13787 13790 13793 13796 13799 13802 13805 13808 13811 13814 13817 13820 13823 13826 13828 13831 13833 13836 13839 13842 13845 13848 13851 13854 13856 13859 13862 13865 13868 13871 13874 13877 13880 13883 13886 13889 13892 13895 13897 13900 13903 13906 13909 13911 13914 13917 13920 13923 13926 13929 13932 13935 13938 13941 13944 13947 13950 13953 13956 13959 13962 13965 13968 13971 13974 13977 13980 13983 13985 13988 13991 13994 13997 13999 14002 14005 14008 14010 14013 14016 14018 14021 14024 14026 14029 14032 14035 14038 14041 14044 14047 14050 14053 14056 14059 14062 14065 14068 14071 14073 14076 14079 14081 14084 14087 14090 14093 14096 14099 14102 14104 14107 14110 14113 14116 14119 14121 14124 14127 14130 14132 14135 14138 14141 14143 14146 14149 14152 14155 14158 14161 14164 14166 14169 14172 14175 14177 14180 14182 14184 14187 14190 14193 14196 14199 14201 14204 14207 14210 14213 14216 14219 14222 14225 14228 14231 14233 14236 14239 14242 14245 14248 14251 14254 14257 14260 14263 14266 14269 14272 14275 14278 14281 14284 14287 14290 14293 14296 14299 14302 14305 14308 14311 14314 14317 14320 14323 14326 14329 14332 14335 14338 14341 14344 14346 14349 14352 14355 14358 14361 14364 14367 14370 14373 14376 14379 14382 14385 14388 14391 14394 14396 14399 14402 14405 14408 14411 14414 14417 14420 14423 14425 14428 14431 14434 14437 14440 14443 14446 14448 14451 14454 14457 14460 14463 14466 14469 14472 14475 14478 14481 14484 14487 14490 14493 14496 14499 14502 14505 14508 14511 14513 14516 14519 14522 14525 14528 14531 14534 14537 14540 14543 14546 14549 14552 14555 14558 14561 14564 14566 14569 14572 14575 14578 14581 14584 14587 14590 14593 14596 14599 14602 14605 14608 14611 14614 14617 14620 14623 14626 14629 14632 14635 14638 14641 14644 14647 14650 14653 14656 14659 14662 14665 14668 14671 14674 14677 14680 14683 14686 14689 14692 14695 14698 14701 14704 14706 14709 14712 14715 14718 14721 14724 14727 14730 14733 14736 14739 14742 14745 14747 14750 14752 14755 14758 14761 14764 14767 14769 14772 14775 14778 14781 14784 14786 14788 14791 14794 14797 14800 14803 14806 14809 14812 14815 14818 14821 14824 14827 14830 14833 14836 14839 14841 14843 14846 14849 14852 14855 14858 14861 14863 14866 14868 14871 14874 14877 14880 14883 14886 14889 14892 14895 14897 14900 14903 14906 14909 14912 14915 14918 14921 14924 14927 14930 14933 14936 14939 14942 14945 14948 14951 14954 14956 14959 14962 14965 14968 14971 14973 14976 14978 14981 14984 14987 14990 14993 14996 14999 15001 15004 15007 15010 15012 15015 15018 15021 15023 15026 15029 15031 15034 15037 15040 15042 15045 15048 15050 15053 15055 15058 15060 15063 15066 15068 15071 15074 15077 15080 15083 15086 15089 15092 15095 15098 15101 15104 15107 15110 15113 15116 15119 15122 15125 15128 15131 15133 15136 15138 15141 15144 15147 15150 15153 15156 15159 15161 15164 15167 15170 15173 15176 15179 15182 15185 15188 15191 15194 15197 15200 15203 15206 15209 15212 15215 15218 15220 15223 15226 15229 15231 15234 15237 15240 15243 15246 15249 15252 15255 15258 15261 15263 15266 15269 15272 15275 15277 15280 15283 15285 15288 15291 15294 15297 15300 15302 15305 15308 15311 15314 15316 15319 15321 15324 15327 15329 15332 15335 15338 15341 15344 15347 15350 15352 15355 15358 15360 15363 15365 15368 15371 15374 15377 15380 15383 15386 15389 15392 15395 15398 15401 15404 15407 15410 15413 15416 15419 15421 15424 15427 15430 15433 15436 15439 15442 15444 15447 15450 15453 15456 15458 15461 15464 15467 15470 15473 15476 15479 15482 15485 15487 15490 15493 15496 15499 15501 15504 15507 15510 15513 15516 15519 15522 15525 15528 15531 15534 15537 15539 15542 15545 15548 15551 15554 15557 15560 15563 15566 15568 15571 15574 15577 15580 15583 15586 15589 15592 15595 15598 15601 15604 15606 15609 15612 15614 15617 15620 15623 15626 15629 15632 15635 15638 15641 15643 15645 15647 15650 15653 15656 15658 15661 15664 15667 15670 15673 15676 15678 15681 15684 15687 15689 15691 15694 15697 15700 15703 15706 15709 15712 15715 15718 15721 15724 15727 15729 15732 15735 15738 15740 15742 15745 15748 15751 15754 15757 15759 15762 15765 15768 15771 15773 15776 15779 15782 15785 15787 15790 15793 15796 15799 15802 15804 15806 15808 15811 15814 15817 15819 15821 15824 15827 15830 15833 15836 15839 15842 15845 15848 15850 15852 15855 15858 15861 15863 15865 15868 15871 15874 15877 15880 15883 15886 15889 15892 15895 15898 15901 15904 15907 15910 15913 15916 15918 15921 15923 15926 15929 15932 15935 15937 15940 15943 15946 15949 15952 15955 15958 15960 15963 15966 15969 15972 15975 15978 15981 15983 15986 15989 15991 15994 15996 15998 16001 16004 16007 16009 16011 16014 16017 16020 16022 16024 16027 16030 16033 16036 16039 16042 16045 16048 16051 16054 16056 16059 16062 16065 16068 16071 16074 16077 16079 16082 16085 16088 16091 16093 16096 16099 16102 16105 16108 16111 16113 16116 16119 16122 16125 16127 16130 16132 16135 16138 16141 16144 16147 16150 16153 16156 16159 16162 16165 16168 16171 16174 16176 16179 16182 16185 16188 16191 16194 16197 16199 16202 16205 16208 16211 16213 16216 16219 16222 16224 16227 16230 16233 16236 16239 16242 16245 16248 16251 16254 16257 16260 16263 16266 16269 16272 16275 16278 16281 16284 16287 16290 16292 16295 16297 16300 16303 16305 16308 16311 16314 16316 16319 16322 16324 16327 16330 16333 16336 16339 16342 16345 16348 16351 16354 16357 16360 16363 16366 16369 16372 16375 16378 16381 16384 16386 16388 16390 16393 16396 16399 16402 16405 16408 16411 16414 16417 16420 16423 16426 16429 16431 16434 16437 16440 16442 16445 16448 16450 16453 16456 16459 16462 16464 16467 16470 16472 16474 16477 16480 16483 16486 16488 16491 16494 16496 16499 16501 16504 16507 16510 16513 16516 16519 16522 16525 16528 16531 16534 16537 16539 16542 16545 16548 16551 16554 16557 16560 16562 16565 16567 16570 16573 16576 16579 16581 16584 16587 16590 16593 16596 16599 16602 16605 16608 16611 16614 16617 16620 16623 16626 16629 16632 16635 16638 16641 16644 16647 16650 16652 16655 16658 16661 16663 16666 16668 16671 16674 16677 16679 16682 16685 16688 16691 16694 16696 16699 16702 16704 16707 16710 16713 16716 16719 16722 16725 16728 16730 16733 16736 16739 16742 16745 16747 16750 16753 16756 16759 16762 16765 16768 16771 16774 16777 16780 16783 16786 16789 16791 16794 16797 16800 16803 16805 16808 16811 16814 16817 16820 16823 16826 16829 16832 16835 16838 16841 16843 16846 16849 16852 16855 16857 16860 16863 16866 16869 16872 16875 16878 16881 16884 16887 16890 16893 16896 16898 16901 16904 16906 16909 16912 16915 16917 16920 16923 16926 16929 16932 16935 16938 16941 16944 16947 16950 16953 16956 16958 16960 16963 16965 16967 16970 16973 16976 16978 16980 16983 16985 16988 16990 16993 16995 16998 17001 17004 17006 17009 17011 17014 17017 17020 17023 17025 17028 17031 17034 17037 17040 17043 17045 17048 17051 17054 17057 17060 17062 17065 17068 17070 17073 17076 17078 17081 17084 17086 17089 17092 17095 17098 17101 17103 17106 17108 17111 17114 17117 17120 17123 17126 17129 17132 17135 17138 17141 17144 17147 17149 17152 17155 17157 17160 17163 17166 17169 17172 17175 17178 17181 17184 17186 17189 17192 17195 17198 17201 17204 17207 17210 17213 17215 17218 17221 17223 17226 17228 17231 17234 17237 17240 17243 17246 17249 17251 17254 17257 17260 17263 17266 17269 17272 17274 17277 17279 17282 17285 17287 17290 17293 17296 17298 17301 17304 17307 17310 17312 17315 17318 17321 17324 17327 17329 17332 17335 17338 17341 17344 17347 17350 17353 17356 17359 17362 17365 17368 17371 17374 17377 17380 17383 17386 17389 17392 17394 17397 17400 17402 17405 17408 17411 17413 17416 17419 17422 17425 17427 17430 17433 17436 17439 17442 17445 17448 17451 17454 17457 17460 17463 17466 17469 17472 17475 17478 17481 17484 17487 17490 17493 17496 17498 17501 17504 17507 17510 17513 17516 17518 17521 17524 17527 17530 17533 17536 17539 17542 17545 17548 17551 17554 17557 17559 17562 17564 17567 17570 17572 17575 17578 17581 17584 17586 17588 17591 17593 17596 17598 17601 17604 17607 17610 17613 17615 17618 17621 17623 17625 17628 17631 17634 17637 17640 17642 17645 17648 17650 17653 17656 17659 17662 17665 17668 17671 17674 17676 17678 17681 17684 17687 17689 17692 17694 17697 17700 17703 17706 17709 17711 17714 17716 17719 17722 17725 17728 17731 17733 17735 17738 17741 17744 17747 17749 17752 17755 17758 17761 17763 17766 17769 17772 17775 17778 17781 17784 17787 17790 17793 17796 17799 17802 17805 17808 17811 17814 17816 17819 17822 17824 17827 17830 17833 17835 17838 17841 17844 17847 17850 17853 17856 17859 17862 17865 17868 17871 17874 17877 17880 17883 17886 17889 17892 17894 17897 17900 17903 17906 17909 17912 17915 17918 17921 17924 17927 17930 17933 17936 17938 17940 17943 17946 17949 17951 17954 17957 17960 17963 17966 17968 17971 17974 17977 17980 17983 17986 17989 17992 17995 17998 18001 18003 18006 18009 18011 18014 18017 18020 18023 18026 18029 18032 18035 18038 18041 18043 18046 18049 18052 18054 18057 18059 18062 18064 18067 18070 18073 18075 18077 18080 18082 18085 18088 18090 18093 18096 18098 18100 18103 18106 18109 18111 18114 18117 18119 18122 18124 18127 18130 18133 18135 18138 18141 18143 18145 18148 18150 18153 18156 18158 18161 18163 18166 18169 18172 18175 18178 18181 18184 18187 18190 18192 18195 18198 18201 18204 18207 18209 18212 18215 18218 18221 18224 18227 18230 18233 18236 18239 18241 18244 18247 18250 18253 18255 18257 18260 18263 18265 18268 18270 18273 18276 18279 18282 18285 18287 18290 18293 18295 18298 18300 18303 18306 18309 18312 18315 18318 18321 18323 18326 18329 18332 18335 18338 18341 18344 18347 18350 18352 18355 18357 18360 18362 18365 18367 18370 18373 18376 18379 18381 18384 18387 18390 18393 18396 18398 18400 18403 18406 18409 18412 18415 18418 18420 18423 18426 18429 18432 18435 18437 18440 18443 18446 18449 18451 18454 18457 18459 18462 18464 18467 18470 18473 18475 18478 18480 18483 18486 18488 18490 18492 18495 18498 18501 18504 18507 18510 18512 18514 18516 18519 18522 18525 18528 18530 18533 18535 18538 18540 18543 18546 18549 18552 18555 18558 18560 18563 18566 18569 18572 18575 18578 18581 18584 18587 18590 18593 18596 18599 18602 18605 18608 18611 18614 18617 18620 18623 18626 18629 18632 18635 18638 18641 18644 18647 18650 18653 18656 18659 18662 18665 18668 18671 18674 18677 18680 18683 18686 18689 18692 18695 18698 18701 18704 18707 18709 18712 18715 18718 18720 18722 18725 18728 18731 18734 18737 18740 18743 18746 18749 18752 18755 18758 18761 18764 18767 18770 18773 18776 18779 18781 18784 18787 18790 18793 18796 18799 18802 18804 18807 18810 18812 18815 18818 18820 18823 18826 18828 18831 18833 18836 18839 18841 18844 18847 18850 18852 18855 18857 18860 18862 18864 18867 18870 18873 18875 18877 18880 18883 18885 18888 18891 18893 18896 18899 18902 18905 18908 18911 18914 18917 18920 18923 18926 18929 18931 18934 18937 18940 18943 18945 18948 18951 18954 18957 18959 18962 18965 18968 18971 18974 18977 18980 18983 18986 18988 18991 18993 18996 18999 19002 19005 19007 19010 19013 19016 19018 19021 19024 19027 19030 19033 19036 19038 19041 19044 19046 19049 19052 19055 19057 19060 19063 19066 19069 19072 19075 19078 19080 19083 19086 19089 19092 19095 19097 19100 19103 19106 19109 19112 19115 19118 19121 19124 19127 19130 19133 19136 19139 19142 19144 19147 19150 19153 19156 19159 19161 19164 19167 19169 19172 19174 19177 19180 19183 19186 19188 19190 19193 19196 19198 19201 19204 19207 19210 19213 19216 19219 19222 19225 19228 19231 19233 19236 19238 19241 19244 19247 19250 19253 19255 19258 19261 19264 19266 19269 19272 19275 19277 19280 19283 19286 19289 19292 19295 19298 19301 19304 19307 19310 19313 19316 19318 19321 19324 19327 19330 19333 19336 19339 19341 19344 19346 19349 19352 19355 19358 19361 19364 19367 19369 19371 19374 19377 19380 19383 19386 19389 19392 19395 19398 19400 19403 19406 19409 19412 19415 19418 19420 19422 19424 19427 19429 19432 19435 19438 19441 19444 19447 19449 19452 19454 19457 19459 19462 19464 19467 19470 19473 19476 19479 19482 19484 19487 19490 19492 19495 19498 19501 19504 19506 19509 19512 19515 19518 19521 19524 19527 19530 19533 19536 19539 19542 19545 19548 19551 19554 19557 19560 19563 19566 19569 19571 19574 19576 19579 19582 19585 19588 19591 19594 19597 19600 19603 19606 19609 19612 19615 19618 19621 19624 19627 19630 19633 19636 19639 19642 19645 19648 19651 19654 19657 19660 19663 19666 19669 19672 19675 19678 19681 19684 19687 19690 19693 19696 19699 19702 19705 19708 19711 19714 19717 19720 19723 19726 19729 19732 19735 19738 19741 19744 19747 19750 19752 19755 19758 19761 19764 19767 19770 19773 19776 19779 19782 19785 19788 19791 19794 19797 19800 19803 19806 19809 19812 19815 19818 19821 19823 19826 19829 19832 19834 19837 19839 19842 19845 19848 19851 19854 19857 19860 19863 19866 19869 19872 19875 19878 19881 19884 19887 19890 19893 19896 19899 19902 19905 19908 19911 19914 19917 19920 19923 19926 19929 19932 19935 19938 19941 19944 19947 19950 19953 19956 19958 19961 19963 19966 19969 19972 19975 19978 19981 19984 19987 19990 19993 19996 19999 20002 20005 20008 20011 20014 20017 20020 20023 20026 20029 20032 20035 20038 20040 20043 20046 20049 20052 20055 20058 20061 20064 20067 20070 20073 20076 20079 20082 20085 20088 20091 20094 20097 20100 20103 20106 20109 20112 20115 20118 20121 20124 20127 20130 20133 20136 20139 20142 20145 20148 20151 20154 20157 20160 20163 20166 20169 20172 20175 20178 20181 20184 20187 20190 20193 20196 20199 20202 20205 20208 20211 20214 20217 20220 20223 20226 20229 20232 20235 20238 20241 20244 20247 20249 20252 20255 20258 20261 20264 20267 20270 20272 20275 20278 20280 20283 20286 20289 20292 20295 20298 20301 20304 20307 20310 20313 20316 20319 20322 20325 20328 20331 20334 20337 20340 20342 20345 20348 20351 20354 20357 20360 20363 20366 20369 20372 20375 20378 20381 20384 20387 20390 20393 20396 20399 20402 20405 20408 20411 20414 20417 20420 20423 20426 20429 20432 20435 20438 20440 20443 20446 20449 20452 20454 20457 20459 20462 20465 20468 20471 20474 20477 20479 20482 20485 20487 20490 20493 20495 20497 20500 20502 20505 20508 20511 20513 20516 20519 20522 20525 20528 20531 20534 20537 20540 20543 20546 20549 20552 20555 20558 20560 20563 20566 20569 20572 20575 20578 20581 20584 20586 20589 20592 20595 20598 20601 20604 20607 20610 20613 20616 20619 20622 20625 20628 20631 20634 20637 20640 20643 20646 20649 20652 20655 20658 20661 20664 20667 20670 20673 20676 20679 20682 20685 20688 20691 20694 20696 20699 20702 20705 20708 20711 20714 20717 20719 20722 20725 20727 20730 20732 20735 20738 20741 20744 20747 20750 20753 20756 20759 20762 20765 20767 20769 20772 20775 20777 20780 20783 20785 20787 20790 20793 20796 20799 20801 20804 20806 20809 20812 20814 20817 20819 20821 20824 20826 20829 20831 20834 20837 20840 20843 20846 20849 20852 20854 20857 20859 20862 20865 20868 20871 20874 20876 20879 20882 20885 20887 20890 20893 20895 20898 20900 20903 20905 20907 20910 20913 20915 20918 20921 20924 20927 20930 20933 20935 20938 20941 20944 20947 20950 20953 20956 20959 20961 20963 20966 20969 20972 20974 20977 20980 20983 20986 20988 20990 20993 20995 20998 21001 21004 21006 21009 21012 21015 21018 21021 21024 21027 21030 21033 21036 21039 21042 21045 21048 21051 21054 21056 21059 21062 21065 21068 21071 21074 21076 21079 21081 21084 21087 21090 21092 21094 21097 21100 21102 21105 21107 21110 21113 21116 21119 21122 21125 21128 21131 21134 21137 21140 21143 21145 21147 21150 21153 21156 21159 21162 21164 21167 21170 21173 21176 21179 21182 21185 21187 21190 21193 21196 21198 21201 21203 21206 21209 21211 21214 21217 21220 21223 21226 21229 21232 21235 21238 21240 21243 21246 21248 21251 21254 21257 21260 21263 21266 21269 21272 21275 21278 21281 21283 21286 21289 21292 21295 21298 21301 21304 21307 21310 21313 21316 21319 21322 21325 21328 21331 21334 21337 21340 21343 21346 21349 21351 21354 21357 21360 21363 21366 21369 21372 21375 21378 21381 21384 21386 21389 21392 21395 21398 21400 21403 21406 21409 21412 21415 21418 21421 21424 21427 21430 21433 21435 21438 21441 21444 21447 21450 21452 21455 21457 21460 21463 21466 21469 21472 21475 21478 21481 21484 21486 21489 21492 21494 21497 21500 21502 21505 21508 21511 21514 21516 21519 21522 21525 21528 21531 21534 21537 21540 21543 21546 21549 21552 21555 21558 21561 21564 21567 21570 21573 21576 21579 21581 21584 21587 21589 21592 21594 21597 21600 21603 21606 21609 21612 21615 21618 21621 21623 21626 21629 21631 21633 21635 21638 21641 21644 21646 21649 21652 21655 21658 21661 21664 21666 21668 21671 21673 21676 21679 21681 21684 21687 21689 21692 21695 21698 21701 21703 21706 21709 21712 21715 21717 21720 21723 21726 21729 21732 21735 21738 21741 21744 21747 21750 21752 21755 21758 21760 21763 21765 21767 21770 21773 21775 21777 21779 21782 21785 21788 21791 21794 21797 21800 21803 21806 21809 21811 21814 21817 21820 21823 21826 21829 21832 21835 21838 21840 21843 21846 21849 21852 21855 21857 21860 21863 21866 21869 21872 21875 21878 21881 21884 21887 21889 21892 21895 21898 21901 21904 21907 21910 21913 21916 21919 21922 21925 21928 21931 21934 21937 21940 21943 21946 21949 21952 21955 21958 21961 21963 21965 21968 21971 21974 21977 21980 21983 21986 21989 21991 21994 21997 22000 22003 22006 22009 22012 22015 22018 22021 22024 22027 22030 22033 22036 22039 22041 22044 22047 22050 22053 22055 22058 22061 22064 22066 22068 22071 22074 22077 22080 22083 22086 22088 22091 22093 22096 22099 22102 22104 22107 22110 22113 22116 22119 22122 22125 22128 22130 22133 22135 22137 22140 22143 22146 22149 22152 22155 22158 22161 22164 22167 22170 22173 22175 22178 22181 22183 22186 22188 22191 22194 22197 22200 22203 22206 22209 22212 22215 22218 22221 22224 22227 22230 22233 22236 22239 22242 22245 22248 22251 22254 22257 22259 22262 22265 22268 22271 22274 22276 22279 22282 22285 22288 22291 22294 22297 22300 22303 22306 22308 22311 22314 22317 22319 22322 22325 22328 22331 22334 22337 22340 22343 22346 22349 22352 22354 22356 22359 22362 22365 22368 22371 22373 22376 22379 22382 22384 22387 22390 22393 22396 22399 22402 22405 22408 22411 22414 22416 22419 22422 22425 22428 22431 22434 22437 22439 22441 22444 22446 22449 22452 22455 22458 22460 22463 22466 22469 22472 22475 22477 22480 22483 22486 22489 22492 22495 22498 22501 22504 22507 22509 22512 22515 22518 22521 22524 22527 22530 22533 22536 22539 22541 22544 22547 22550 22553 22556 22559 22562 22564 22567 22570 22573 22576 22579 22582 22585 22588 22591 22594 22597 22600 22603 22606 22609 22612 22615 22618 22621 22624 22626 22629 22632 22635 22637 22640 22643 22646 22649 22652 22655 22658 22661 22664 22667 22670 22673 22676 22678 22681 22683 22685 22688 22690 22692 22695 22698 22701 22704 22707 22709 22712 22715 22718 22721 22724 22727 22730 22732 22735 22738 22740 22743 22746 22748 22751 22754 22756 22759 22762 22764 22766 22768 22770 22773 22776 22778 22780 22783 22786 22788 22791 22794 22796 22799 22802 22805 22808 22810 22812 22814 22816 22819 22822 22825 22827 22830 22832 22835 22837 22840 22842 22844 22847 22850 22853 22856 22859 22862 22865 22867 22870 22873 22875 22878 22880 22883 22886 22888 22890 22893 22896 22899 22902 22905 22908 22911 22914 22917 22920 22923 22926 22929 22932 22935 22938 22941 22943 22946 22949 22952 22955 22958 22961 22964 22967 22970 22973 22976 22979 22982 22985 22988 22991 22994 22996 22999 23002 23005 23008 23011 23014 23017 23020 23023 23026 23029 23032 23035 23038 23040 23042 23045 23048 23051 23054 23056 23059 23061 23064 23067 23070 23072 23074 23077 23079 23082 23085 23088 23091 23094 23097 23100 23103 23106 23109 23112 23115 23118 23121 23124 23127 23130 23133 23136 23138 23141 23143 23146 23149 23152 23155 23157 23160 23163 23166 23169 23172 23175 23178 23181 23184 23187 23190 23193 23196 23199 23202 23205 23208 23211 23214 23217 23219 23222 23225 23228 23231 23234 23237 23240 23243 23246 23249 23252 23255 23258 23261 23263 23266 23269 23272 23275 23278 23281 23284 23287 23290 23293 23296 23299 23302 23305 23308 23311 23314 23317 23320 23323 23326 23329 23332 23335 23338 23341 23344 23347 23350 23353 23356 23359 23362 23365 23368 23371 23374 23377 23380 23383 23386 23389 23392 23395 23398 23401 23404 23407 23410 23413 23416 23419 23422 23425 23428 23431 23434 23437 23440 23443 23446 23449 23451 23454 23457 23460 23462 23465 23468 23470 23473 23476 23479 23482 23485 23488 23491 23494 23497 23500 23503 23505 23508 23511 23514 23517 23519 23522 23525 23528 23531 23534 23537 23540 23543 23546 23549 23552 23555 23558 23561 23564 23567 23570 23573 23576 23579 23582 23585 23588 23591 23594 23597 23600 23603 23606 23608 23611 23614 23617 23620 23622 23625 23628 23631 23634 23637 23640 23643 23646 23649 23652 23654 23657 23660 23662 23665 23668 23671 23674 23677 23680 23683 23686 23689 23692 23695 23698 23700 23703 23706 23709 23712 23715 23718 23721 23724 23726 23729 23732 23735 23738 23741 23744 23747 23750 23753 23756 23758 23761 23763 23766 23769 23772 23774 23777 23780 23783 23785 23788 23790 23793 23795 23797 23800 23803 23806 23809 23812 23814 23817 23820 23823 23826 23829 23832 23835 23838 23841 23844 23847 23850 23853 23856 23859 23862 23865 23868 23871 23874 23877 23880 23883 23885 23888 23891 23893 23896 23899 23902 23904 23907 23909 23912 23915 23918 23921 23924 23927 23930 23933 23936 23939 23942 23945 23947 23950 23953 23956 23959 23962 23965 23968 23971 23974 23977 23980 23983 23986 23989 23992 23995 23998 24001 24004 24006 24009 24012 24015 24018 24021 24024 24027 24030 24033 24036 24039 24042 24045 24048 24051 24054 24057 24060 24063 24066 24069 24072 24075 24078 24081 24084 24087 24089 24092 24095 24098 24101 24104 24107 24110 24113 24116 24119 24122 24125 24128 24131 24134 24137 24140 24143 24145 24148 24151 24154 24156 24159 24162 24165 24167 24169 24172 24175 24178 24181 24184 24186 24189 24192 24195 24198 24201 24204 24207 24209 24211 24214 24217 24220 24222 24225 24227 24230 24233 24236 24239 24242 24245 24247 24249 24252 24255 24257 24259 24262 24265 24268 24271 24274 24277 24280 24283 24286 24289 24291 24294 24297 24300 24303 24306 24309 24311 24314 24317 24320 24323 24326 24329 24332 24335 24338 24341 24344 24347 24350 24353 24356 24359 24362 24364 24367 24370 24373 24376 24378 24381 24384 24386 24389 24392 24395 24398 24401 24404 24407 24410 24413 24416 24419 24421 24424 24426 24429 24431 24434 24437 24440 24443 24446 24449 24452 24455 24458 24461 24464 24467 24470 24473 24476 24479 24482 24485 24488 24490 24493 24496 24498 24501 24504 24507 24509 24512 24515 24517 24520 24523 24526 24529 24531 24534 24537 24540 24543 24546 24549 24552 24554 24557 24560 24563 24566 24569 24572 24575 24578 24581 24584 24587 24590 24593 24596 24599 24602 24605 24608 24611 24614 24617 24620 24623 24626 24629 24632 24635 24638 24641 24643 24646 24649 24652 24655 24658 24661 24664 24667 24670 24673 24676 24679 24682 24685 24688 24691 24694 24697 24700 24703 24706 24709 24712 24715 24718 24721 24724 24727 24730 24733 24736 24739 24742 24745 24748 24751 24754 24756 24758 24760 24763 24766 24768 24771 24774 24777 24779 24782 24784 24787 24790 24793 24796 24799 24801 24804 24807 24810 24813 24816 24819 24822 24824 24827 24830 24833 24836 24839 24842 24845 24848 24851 24854 24857 24860 24863 24866 24868 24871 24874 24877 24879 24882 24884 24887 24890 24893 24896 24899 24902 24905 24908 24910 24913 24916 24919 24922 24925 24928 24931 24933 24936 24938 24941 24943 24946 24949 24952 24955 24958 24961 24964 24967 24969 24972 24975 24977 24979 24981 24984 24986 24989 24991 24994 24997 25000 25003 25006 25009 25012 25015 25018 25021 25024 25027 25030 25033 25036 25039 25042 25045 25048 25051 25054 25056 25059 25062 25064 25066 25069 25072 25075 25077 25080 25083 25086 25089 25092 25095 25098 25100 25103 25105 25108 25111 25114 25117 25119 25122 25125 25127 25130 25133 25136 25139 25142 25145 25148 25150 25153 25156 25158 25161 25164 25167 25169 25172 25175 25178 25181 25184 25187 25190 25193 25196 25198 25201 25204 25207 25210 25213 25216 25218 25221 25224 25226 25229 25232 25235 25238 25240 25243 25246 25249 25252 25255 25258 25260 25262 25264 25267 25270 25273 25275 25278 25280 25283 25285 25288 25291 25294 25297 25300 25303 25305 25308 25311 25314 25316 25319 25322 25325 25327 25330 25333 25336 25339 25342 25345 25348 25351 25354 25357 25360 25363 25365 25368 25371 25374 25376 25379 25382 25385 25388 25391 25393 25395 25398 25401 25403 25406 25408 25410 25412 25415 25418 25421 25423 25426 25429 25432 25435 25438 25440 25443 25446 25449 25452 25455 25458 25461 25464 25467 25470 25473 25476 25478 25481 25484 25487 25490 25493 25496 25498 25501 25504 25506 25509 25512 25514 25517 25520 25523 25526 25529 25531 25534 25537 25539 25542 25544 25547 25549 25552 25555 25558 25561 25564 25567 25569 25572 25575 25578 25581 25583 25586 25589 25592 25595 25598 25601 25604 25607 25610 25613 25615 25618 25621 25624 25627 25630 25632 25635 25638 25641 25644 25647 25650 25653 25656 25659 25662 25665 25668 25671 25674 25677 25679 25682 25685 25688 25691 25694 25696 25699 25701 25704 25707 25710 25713 25716 25718 25721 25724 25727 25730 25733 25735 25738 25741 25744 25747 25750 25752 25755 25758 25761 25764 25767 25770 25773 25776 25779 25782 25784 25787 25789 25792 25794 25797 25800 25802 25805 25808 25811 25814 25817 25820 25823 25826 25828 25831 25833 25836 25839 25842 25845 25848 25851 25854 25857 25860 25863 25865 25868 25871 25874 25877 25880 25883 25886 25889 25892 25895 25897 25900 25903 25906 25908 25911 25913 25915 25918 25921 25924 25926 25929 25932 25935 25937 25939 25942 25945 25948 25951 25954 25957 25960 25963 25966 25969 25971 25973 25976 25979 25982 25985 25988 25990 25993 25996 25999 26002 26005 26008 26011 26014 26017 26020 26022 26025 26027 26029 26031 26034 26037 26040 26043 26046 26049 26052 26055 26057 26060 26063 26066 26069 26072 26075 26078 26081 26084 26087 26090 26093 26096 26099 26102 26105 26108 26111 26114 26117 26120 26123 26126 26129 26132 26135 26138 26141 26144 26146 26149 26152 26155 26158 26160 26163 26166 26169 26172 26175 26178 26181 26184 26186 26189 26192 26195 26198 26201 26204 26207 26210 26212 26215 26218 26221 26224 26227 26230 26233 26236 26239 26242 26245 26248 26251 26254 26257 26260 26263 26266 26269 26272 26275 26278 26281 26284 26287 26290 26292 26295 26298 26301 26304 26307 26310 26312 26315 26317 26320 26323 26325 26328 26331 26334 26336 26339 26341 26344 26347 26350 26352 26355 26358 26361 26363 26366 26369 26372 26375 26378 26381 26383 26386 26389 26392 26395 26398 26401 26404 26407 26410 26413 26416 26419 26422 26425 26428 26431 26434 26437 26440 26443 26446 26449 26452 26455 26458 26461 26464 26466 26469 26471 26474 26477 26480 26483 26485 26488 26491 26494 26497 26500 26503 26506 26509 26512 26515 26518 26521 26524 26526 26529 26532 26534 26537 26540 26542 26545 26548 26551 26554 26557 26559 26562 26565 26568 26571 26574 26577 26580 26583 26585 26588 26590 26593 26596 26599 26602 26605 26607 26609 26612 26615 26617 26620 26623 26626 26628 26631 26634 26637 26640 26643 26646 26649 26651 26654 26657 26660 26663 26666 26669 26672 26675 26678 26681 26684 26687 26690 26693 26696 26699 26701 26704 26707 26710 26713 26716 26718 26721 26723 26726 26729 26732 26735 26738 26741 26744 26747 26750 26753 26756 26759 26761 26764 26766 26769 26772 26775 26778 26781 26784 26786 26788 26791 26794 26797 26800 26803 26806 26809 26812 26815 26818 26821 26824 26827 26830 26833 26836 26839 26842 26845 26848 26851 26853 26856 26859 26861 26864 26867 26870 26873 26876 26878 26881 26884 26887 26890 26893 26896 26898 26901 26904 26907 26910 26913 26916 26919 26922 26925 26928 26931 26934 26937 26940 26943 26946 26948 26951 26954 26956 26959 26962 26965 26968 26970 26973 26976 26979 26982 26985 26988 26991 26994 26997 27000 27003 27005 27008 27011 27014 27017 27020 27023 27026 27029 27032 27035 27038 27041 27044 27047 27050 27053 27056 27059 27062 27064 27067 27070 27073 27076 27079 27082 27085 27088 27091 27094 27097 27100 27102 27105 27108 27111 27114 27117 27120 27123 27126 27129 27132 27135 27138 27141 27143 27145 27148 27151 27154 27157 27160 27163 27165 27168 27171 27174 27177 27180 27183 27186 27189 27192 27195 27198 27201 27204 27207 27210 27213 27216 27219 27222 27225 27228 27231 27234 27237 27240 27243 27246 27249 27252 27255 27258 27261 27264 27267 27270 27272 27275 27278 27281 27284 27287 27290 27293 27296 27298 27301 27304 27307 27310 27313 27316 27319 27322 27325 27328 27331 27334 27336 27339 27342 27345 27348 27350 27353 27355 27358 27361 27364 27367 27370 27373 27376 27379 27381 27384 27387 27390 27393 27396 27399 27402 27405 27408 27411 27413 27416 27419 27422 27424 27427 27430 27432 27435 27438 27441 27444 27446 27449 27452 27454 27457 27460 27463 27466 27469 27472 27475 27478 27480 27483 27486 27489 27491 27494 27497 27500 27503 27506 27509 27512 27514 27517 27519 27522 27524 27527 27529 27531 27534 27537 27540 27542 27544 27546 27549 27552 27554 27557 27560 27563 27565 27568 27571 27574 27577 27579 27582 27585 27588 27591 27594 27597 27600 27603 27606 27609 27612 27615 27618 27621 27624 27627 27630 27633 27636 27639 27642 27645 27648 27651 27654 27657 27660 27663 27666 27669 27672 27675 27678 27681 27684 27687 27690 27693 27695 27698 27701 27704 27707 27710 27713 27716 27719 27721 27724 27727 27730 27733 27735 27738 27741 27743 27746 27749 27751 27754 27757 27760 27763 27765 27768 27771 27774 27777 27780 27782 27785 27788 27791 27794 27797 27800 27803 27806 27809 27812 27815 27818 27821 27823 27825 27828 27831 27834 27836 27839 27842 27845 27848 27851 27854 27857 27860 27863 27866 27869 27872 27875 27878 27880 27883 27886 27889 27892 27895 27898 27900 27903 27906 27908 27911 27914 27917 27920 27923 27926 27929 27932 27935 27938 27940 27943 27946 27949 27952 27955 27957 27960 27963 27966 27969 27972 27975 27978 27981 27984 27987 27989 27992 27995 27998 28001 28004 28007 28010 28013 28016 28019 28022 28025 28028 28031 28034 28036 28039 28042 28045 28048 28051 28054 28057 28060 28063 28066 28069 28072 28075 28078 28081 28084 28087 28090 28093 28096 28099 28102 28105 28107 28110 28112 28115 28118 28121 28123 28126 28129 28132 28135 28138 28141 28144 28147 28150 28152 28155 28158 28161 28163 28166 28169 28172 28175 28178 28181 28184 28187 28190 28193 28196 28199 28202 28205 28208 28211 28213 28216 28219 28222 28225 28228 28230 28233 28236 28239 28241 28244 28246 28249 28252 28255 28258 28261 28264 28266 28269 28272 28275 28278 28281 28284 28287 28290 28293 28296 28299 28302 28305 28308 28311 28314 28317 28320 28323 28326 28329 28332 28335 28338 28341 28344 28347 28349 28352 28355 28357 28360 28363 28366 28369 28372 28375 28378 28380 28383 28386 28389 28392 28394 28397 28400 28402 28405 28408 28411 28414 28417 28420 28422 28425 28428 28431 28433 28436 28439 28442 28444 28447 28450 28453 28456 28459 28461 28464 28467 28470 28473 28476 28478 28481 28484 28487 28490 28493 28496 28499 28502 28504 28507 28510 28512 28515 28518 28521 28524 28526 28529 28532 28535 28538 28540 28543 28546 28549 28552 28554 28557 28560 28563 28565 28568 28570 28573 28576 28579 28582 28585 28588 28591 28594 28597 28600 28602 28605 28608 28611 28614 28617 28620 28623 28625 28627 28630 28633 28636 28639 28642 28644 28647 28650 28653 28656 28659 28661 28664 28667 28670 28672 28675 28678 28680 28683 28686 28688 28691 28694 28697 28699 28702 28705 28708 28711 28714 28717 28719 28722 28725 28728 28731 28734 28736 28739 28742 28745 28748 28751 28753 28756 28759 28762 28765 28768 28771 28773 28776 28779 28782 28785 28787 28790 28793 28796 28799 28802 28804 28807 28810 28813 28816 28819 28822 28825 28828 28831 28834 28836 28839 28842 28845 28848 28851 28854 28857 28859 28862 28865 28868 28871 28873 28875 28878 28881 28883 28886 28889 28892 28895 28898 28901 28904 28906 28909 28912 28915 28918 28921 28924 28927 28929 28932 28934 28937 28940 28942 28945 28948 28951 28954 28956 28959 28961 28964 28967 28970 28973 28976 28979 28982 28985 28988 28991 28993 28996 28999 29002 29005 29008 29010 29013 29016 29019 29021 29024 29027 29030 29033 29035 29038 29041 29043 29046 29049 29052 29055 29058 29060 29063 29065 29068 29070 29072 29075 29078 29081 29084 29086 29088 29091 29094 29097 29100 29103 29106 29109 29112 29115 29118 29121 29124 29127 29129 29132 29135 29138 29141 29144 29147 29149 29151 29154 29157 29160 29163 29166 29169 29172 29175 29178 29181 29184 29187 29190 29192 29195 29198 29201 29204 29207 29210 29213 29216 29219 29222 29225 29228 29231 29234 29237 29240 29243 29246 29249 29252 29255 29258 29261 29264 29267 29270 29273 29276 29279 29282 29285 29288 29291 29293 29296 29299 29301 29304 29307 29310 29313 29316 29319 29322 29324 29327 29330 29333 29335 29338 29341 29343 29346 29349 29352 29354 29356 29359 29362 29365 29368 29370 29372 29375 29378 29381 29384 29387 29390 29393 29396 29399 29402 29405 29408 29411 29414 29416 29419 29422 29424 29427 29430 29433 29435 29438 29441 29444 29447 29449 29452 29455 29457 29460 29463 29466 29469 29472 29475 29478 29481 29484 29487 29490 29492 29495 29498 29501 29504 29507 29510 29513 29515 29518 29521 29524 29527 29530 29533 29536 29539 29542 29545 29548 29551 29554 29557 29560 29563 29566 29569 29571 29574 29577 29580 29583 29586 29589 29591 29594 29596 29599 29602 29605 29608 29611 29613 29616 29619 29621 29624 29627 29630 29632 29635 29638 29641 29643 29646 29649 29652 29655 29658 29661 29664 29667 29670 29673 29676 29679 29682 29685 29687 29690 29693 29696 29699 29701 29703 29706 29709 29712 29715 29718 29721 29724 29727 29730 29733 29736 29739 29742 29745 29748 29751 29754 29757 29760 29762 29765 29768 29771 29774 29777 29780 29783 29786 29788 29791 29793 29796 29799 29802 29805 29808 29811 29814 29816 29819 29821 29824 29827 29830 29833 29836 29838 29841 29844 29847 29850 29853 29856 29858 29861 29864 29867 29870 29873 29875 29877 29880 29883 29886 29888 29890 29892 29895 29898 29901 29904 29907 29909 29912 29915 29918 29921 29924 29926 29929 29932 29935 29938 29940 29943 29945 29947 29950 29952 29954 29957 29960 29963 29965 29968 29971 29974 29976 29979 29982 29985 29987 29990 29993 29996 29998 30001 30004 30007 30010 30013 30016 30019 30022 30024 30027 30030 30033 30035 30038 30041 30044 30047 30050 30053 30055 30058 30061 30064 30067 30070 30073 30075 30078 30081 30084 30087 30090 30093 30096 30099 30102 30105 30108 30111 30114 30117 30119 30122 30124 30127 30130 30133 30135 30138 30141 30143 30146 30148 30151 30153 30156 30159 30161 30164 30167 30170 30173 30176 30179 30181 30184 30187 30190 30193 30195 30198 30201 30204 30207 30210 30213 30215 30218 30221 30224 30227 30230 30233 30236 30239 30242 30245 30247 30250 30253 30256 30259 30262 30265 30268 30271 30274 30277 30280 30283 30286 30289 30292 30295 30298 30301 30304 30306 30308 30311 30314 30317 30319 30322 30325 30327 30330 30333 30335 30338 30341 30343 30346 30349 30351 30353 30356 30359 30362 30365 30367 30370 30373 30376 30379 30382 30385 30388 30391 30394 30397 30400 30402 30404 30407 30410 30413 30415 30418 30420 30423 30425 30428 30431 30434 30437 30440 30442 30445 30448 30450 30453 30455 30458 30461 30463 30465 30467 30470 30473 30476 30479 30481 30484 30487 30489 30492 30494 30497 30500 30502 30505 30508 30511 30514 30517 30520 30523 30526 30528 30531 30533 30535 30538 30541 30544 30547 30550 30552 30554 30557 30560 30563 30565 30567 30570 30573 30576 30579 30582 30585 30588 30591 30593 30596 30598 30601 30604 30607 30610 30613 30616 30619 30622 30625 30628 30631 30634 30637 30640 30643 30646 30649 30652 30655 30658 30661 30664 30667 30670 30673 30676 30679 30682 30685 30687 30690 30693 30696 30699 30702 30705 30708 30711 30714 30717 30720 30723 30726 30729 30732 30734 30737 30740 30742 30745 30748 30751 30754 30757 30759 30762 30765 30768 30771 30774 30777 30780 30783 30786 30789 30792 30795 30798 30800 30803 30806 30809 30812 30815 30818 30821 30824 30827 30829 30832 30835 30837 30840 30843 30846 30849 30851 30853 30855 30858 30861 30864 30867 30870 30872 30875 30878 30881 
</DataArray>
<DataArray type="UInt32" Name="types" format="ascii">
5 5 3 5 5 5 5 3 5 5 5 5 5 5 5 5 5 5 5 5 3 5 5 5 5 3 5 5 5 5 5 5 5 3 5 5 5 5 5 5 5 5 3 5 5 5 5 5 5 5 5 5 5 5 3 3 5 5 5 5 5 5 5 5 3 5 5 5 5 5 5 5 5 5 5 5 5 5 5 5 5 5 5 5 5 5 5 3 5 5 5 5 5 5 5 5 5 5 5 3 5 5 5 3 5 5 5 5 5 5 5 5 5 5 5 5 5 5 5 5 5 5 5 5 5 5 5 5 5 5 5 5 5 5 5 5 5 5 5 5 5 5 5 5 5 5 5 5 5 3 5 3 5 5 5 5 5 5 5 5 5 5 5 5 5 5 5 5 5 5 5 5 5 5 5 5 5 5 3 5 5 3 5 3 5 5 5 5 5 5 5 5 5 5 5 5 5 5 3 5 3 5 5 5 5 5 5 5 3 5 3 5 5 5 5 5 5 3 5 5 3 5 5 5 5 5 5 3 3 5 5 3 5 3 5 3 3 5 5 5 3 5 5 5 5 5 5 5 5 5 5 5 5 5 3 5 5 5 5 5 5 5 3 5 5 5 5 5 5 5 3 5 5 5 5 3 5 5 5 5 5 5 3 5 5 5 3 5 5 5 5 5 5 5 3 5 5 5 5 5 5 3 5 5 5 5 5 5 3 5 5 5 5 5 5 5 3 5 5 5 5 5 5 5 5 5 5 5 5 5 5 5 5 5 5 5 5 5 3 3 5 5 5 5 5 3 5 5 5 5 5 5 5 3 5 3 5 5 5 3 5 5 5 3 5 3 5 5 5 5 5 5 5 3 5 5 5 5 5 5 5 3 5 5 5 3 5 5 5 5 5 5 5 5 5 5 5 5 5 5 5 5 5 5 5 5 5 5 5 5 5 5 5 5 5 5 5 5 3 5 5 5 5 5 5 5 5 5 5 5 5 5 5 5 5 5 5 5 5 5 5 5 5 5 5 5 5 5 5 5 5 3 5 5 5 5 5 5 5 5 5 5 5 5 5 5 5 5 5 5 5 5 3 5 5 5 5 5 5 5 3 5 5 5 5 5 3 5 5 3 5 3 5 5 5 5 3 5 5 3 5 5 5 5 5 5 3 5 5 5 5 5 5 5 5 5 5 5 5 5 5 5 5 5 5 5 3 5 5 5 5 5 5 5 5 5 5 5 3 3 5 5 5 5 5 5 5 5 5 5 5 5 5 5 5 5 5 5 5 5 5 3 5 3 3 5 5 3 5 5 5 5 5 5 5 5 5 5 5 5 5 3 5 5 5 5 5 5 5 3 3 5 5 5 5 5 5 5 5 3 3 5 5 5 3 5 5 5 5 5 5 5 5 5 5 5 5 5 5 5 5 5 5 5 5 5 5 5 5 5 5 5 5 5 5 5 5 5 5 5 3 5 5 3 5 5 5 5 3 5 5 5 3 5 5 5 3 5 5 3 5 5 5 5 5 5 5 5 5 5 5 5 5 5 5 5 5 5 5 5 5 3 5 5 5 3 5 5 5 5 5 3 5 5 5 5 5 5 3 5 5 5 5 5 5 5 5 5 5 5 5 5 5 5 5 5 5 3 5 5 5 5 5 5 5 5 5 5 5 5 5 5 5 5 5 5 5 5 5 3 5 5 5 5 5 5 5 5 5 5 5 5 5 5 5 3 5 5 5 5 5 5 5 5 5 5 5 5 5 5 5 5 5 5 3 5 5 5 5 5 5 5 3 5 5 5 5 5 5 5 5 5 5 5 5 5 5 5 5 5 5 5 5 5 3 5 5 5 5 5 5 5 5 5 3 5 5 5 5 5 5 5 5 3 5 5 5 5 5 5 5 5 5 5 5 5 5 5 5 5 5 5 5 3 5 5 5 5 5 3 5 5 5 3 5 5 5 5 5 5 3 5 5 5 5 5 5 5 5 5 5 3 5 5 5 5 5 5 5 5 5 5 5 5 3 5 3 5 5 5 5 5 5 5 3 5 3 5 5 5 5 5 5 5 5 5 5 5 5 5 5 5 5 5 5 5 5 5 5 5 5 5 5 5 5 5 5 5 5 5 5 5 5 5 5 5 5 5 5 5 5 5 3 3 5 5 3 5 5 5 5 5 5 5 5 5 5 5 5 5 5 5 5 3 5 5 5 5 3 5 5 3 5 5 5 5 5 5 3 5 3 5 5 3 5 5 5 5 5 5 5 5 5 5 3 5 5 5 5 5 3 3 5 5 5 5 3 5 5 3 5 3 5 5 5 5 5 3 5 5 3 5 5 5 5 5 5 5 5 5 5 5 5 3 5 5 5 5 5 5 5 5 5 5 5 5 5 5 5 3 5 3 5 3 3 5 3 5 5 3 5 5 5 5 5 5 3 5 3 5 5 3 5 5 5 3 5 5 3 5 5 5 5 5 3 5 5 3 5 5 5 5 5 3 5 3 5 5 3 5 5 3 5 5 5 5 5 5 5 5 3 5 5 5 5 5 5 5 5 5 5 3 5 5 5 5 3 5 5 3 5 5 5 5 5 3 5 5 5 5 5 3 5 3 5 5 5 5 5 5 3 5 5 5 5 5 5 5 5 3 3 3 5 5 5 5 3 5 3 5 5 5 3 3 5 5 5 3 5 5 5 3 5 3 5 3 3 5 3 5 5 5 5 3 5 5 5 3 5 3 5 3 5 5 5 5 5 5 5 3 5 5 5 5 3 5 5 5 5 5 5 5 5 3 5 3 3 5 5 5 3 5 5 5 5 3 3 5 5 3 3 5 5 5 5 5 3 5 5 5 5 5 5 5 5 3 5 3 5 5 5 5 5 5 5 5 5 5 5 5 5 5 5 5 5 3 5 5 5 5 5 5 5 5 5 5 5 5 5 5 5 5 5 5 5 5 5 5 5 5 5 3 5 3 5 5 5 5 5 3 3 5 5 5 5 3 3 5 3 5 5 3 5 5 3 5 5 5 5 3 3 5 5 5 5 5 5 5 5 3 5 5 3 5 5 5 3 5 5 3 5 5 5 5 5 5 3 5 5 5 5 5 5 3 5 5 5 5 5 3 5 5 3 3 5 5 3 5 5 3 5 5 5 5 5 5 5 5 5 5 5 5 3 5 3 5 5 3 5 5 5 5 5 5 3 5 5 5 3 3 3 5 5 5 3 3 5 3 3 5 5 3 5 5 3 5 3 5 3 5 5 5 3 3 5 5 3 3 3 3 5 5 5 3 3 5 5 3 3 3 5 3 3 5 5 3 5 3 3 5 3 5 5 3 5 3 3 5 5 5 5 3 3 5 5 3 5 5 5 3 5 5 5 5 5 5 5 5 5 5 5 5 5 5 5 5 5 5 5 5 5 5 5 5 5 5 5 5 5 5 5 5 5 5 5 5 5 5 5 5 5 5 5 5 5 5 5 5 5 5 5 5 5 5 5 5 5 5 3 5 3 5 5 5 5 5 5 5 5 5 5 5 5 5 5 3 5 5 5 5 5 5 5 5 5 5 3 5 5 5 5 5 5 5 5 5 5 5 5 5 5 5 5 5 5 5 5 5 5 5 5 5 5 5 5 5 5 5 5 5 5 5 5 5 5 5 5 5 5 5 5 5 5 3 5 5 5 3 5 3 5 5 5 5 5 3 5 3 5 5 5 5 5 5 5 5 5 5 5 5 5 5 5 5 5 5 5 5 5 5 5 5 5 3 5 5 5 5 5 5 3 5 3 5 5 5 3 5 5 3 5 5 5 5 5 5 5 5 5 5 5 5 5 5 5 5 5 5 5 5 5 5 5 5 5 5 5 5 5 5 5 5 5 5 5 5 5 3 5 3 5 5 5 5 5 5 5 5 5 5 3 5 5 5 5 5 5 5 5 5 5 5 5 5 5 5 5 5 3 5 5 5 3 3 5 3 5 5 5 5 5 5 5 5 3 5 5 5 5 3 5 5 5 5 5 5 5 3 5 5 3 5 3 5 5 3 5 5 3 3 5 5 5 5 5 5 5 5 5 5 5 5 5 5 5 3 5 3 5 5 5 3 5 3 5 5 5 5 5 5 5 5 5 5 5 5 3 5 3 5 5 5 5 5 5 5 5 3 5 5 3 5 5 5 3 3 5 5 5 5 5 5 5 5 5 5 5 5 5 5 5 5 5 5 5 5 5 3 5 5 5 5 5 3 5 3 5 5 5 5 3 5 5 3 5 5 5 5 5 3 5 5 5 5 3 5 5 5 5 5 5 5 3 5 5 5 3 5 5 5 5 5 5 5 5 5 5 5 3 5 5 5 5 5 5 5 5 3 5 5 5 5 5 5 3 5 5 5 5 5 5 3 5 5 5 5 5 5 5 5 5 5 5 3 5 5 5 3 5 5 5 3 5 3 5 5 5 5 5 5 3 5 5 5 5 5 5 5 5 5 5 5 5 5 5 5 3 5 5 5 5 5 3 5 5 5 5 5 5 5 5 3 5 5 5 5 5 5 5 5 5 5 5 5 5 5 5 5 3 5 5 5 5 3 5 5 5 5 5 5 5 5 5 5 5 5 5 5 5 5 5 5 5 5 5 5 5 5 5 5 3 5 5 5 3 5 3 5 5 5 5 3 5 3 5 5 5 5 5 3 5 5 5 5 5 5 5 5 5 3 5 5 5 5 5 5 5 5 5 5 5 5 5 5 5 5 5 5 5 5 5 5 5 5 3 3 5 5 5 5 5 3 5 5 5 3 5 5 5 3 5 5 3 5 3 5 5 5 5 3 5 5 5 5 3 3 5 5 5 5 5 5 5 5 5 5 5 5 3 5 5 5 5 3 5 5 5 5 5 3 5 5 3 5 5 5 5 5 5 5 5 5 5 5 5 5 5 5 5 3 5 5 3 5 5 5 3 5 5 5 5 5 5 5 5 5 5 5 3 5 5 5 5 5 5 5 5 5 5 5 5 5 5 5 5 3 5 5 3 5 3 5 5 3 5 3 5 3 5 5 5 5 5 5 5 5 5 5 5 5 5 3 5 3 3 5 5 3 3 5 5 3 3 5 5 5 3 5 3 5 5 3 5 5 5 5 3 3 5 3 5 5 3 3 5 5 3 5 5 5 3 5 5 5 3 3 3 5 5 3 5 3 3 5 5 5 5 5 5 5 5 5 5 5 3 3 5 3 5 3 5 3 5 5 5 3 5 5 5 5 5 3 5 5 5 5 5 5 5 5 5 5 5 5 5 5 5 5 5 5 5 5 5 5 5 5 3 5 5 5 5 5 5 5 5 5 5 5 5 5 5 5 5 5 5 3 5 5 5 5 5 5 5 5 5 5 5 3 5 5 5 5 5 3 5 5 5 5 5 5 5 5 5 5 5 5 5 5 3 5 5 5 5 5 5 5 5 5 5 5 5 5 5 3 5 3 5 5 5 5 3 5 5 5 5 5 5 5 5 5 5 5 5 3 5 3 5 5 5 5 3 5 5 5 5 5 5 5 3 5 5 5 5 5 5 5 3 5 5 5 3 5 3 5 5 5 5 5 5 5 5 5 3 5 5 5 5 5 5 5 5 5 5 5 5 5 5 5 5 5 5 5 5 5 5 5 5 5 5 5 5 5 5 5 5 5 5 5 5 5 5 5 5 5 5 5 3 5 5 3 5 5 5 5 5 5 5 5 5 5 3 5 5 5 5 5 3 5 5 3 5 5 5 5 5 5 3 5 5 5 5 3 5 5 3 5 3 5 5 5 5 5 5 5 5 5 5 5 3 5 3 5 5 5 5 3 5 5 5 5 5 5 5 5 5 5 5 5 5 5 5 5 5 5 5 5 5 3 5 5 5 5 3 5 5 5 5 5 5 5 3 5 5 5 5 5 3 5 5 5 3 5 5 5 3 5 5 3 5 5 5 3 5 5 3 5 5 5 5 5 5 5 5 5 5 5 5 5 5 5 5 5 5 5 5 5 5 5 5 5 5 5 5 5 5 5 3 5 5 5 5 5 5 5 5 5 5 5 3 5 5 5 5 5 5 5 5 5 5 5 5 5 5 5 3 3 5 5 5 3 5 5 5 5 3 5 5 3 5 5 5 5 5 5 5 5 5 5 5 5 5 3 3 5 5 5 5 5 5 5 5 5 5 5 3 5 5 3 5 5 5 5 5 5 5 5 5 5 5 5 5 5 5 5 5 5 5 3 5 5 5 3 5 5 5 5 5 3 5 5 5 5 5 5 5 5 5 5 5 5 5 5 5 5 5 5 5 5 3 5 5 3 5 5 5 5 5 5 5 5 5 5 5 5 5 5 5 5 5 5 5 3 5 5 5 5 5 5 5 5 5 5 5 5 5 5 5 5 5 5 5 5 5 5 5 5 5 5 5 5 5 5 5 5 3 5 5 5 5 5 5 3 5 5 5 5 5 3 5 5 5 5 3 5 5 5 5 5 5 5 5 5 5 5 5 5 5 5 5 5 5 5 5 5 5 3 5 5 5 5 5 5 5 3 5 5 3 5 5 3 5 5 5 5 5 5 3 5 5 5 5 5 5 5 5 5 5 3 5 3 5 5 5 5 5 5 5 5 3 5 5 3 5 5 5 3 5 5 5 3 5 5 5 3 3 5 5 3 5 5 3 5 5 3 5 5 5 5 5 5 5 5 5 3 5 5 5 3 5 5 5 3 5 5 5 3 5 3 5 5 3 5 5 5 5 5 5 5 5 3 5 5 3 5 5 5 5 5 5 5 5 5 5 5 5 5 3 5 3 5 5 5 3 3 5 3 5 5 5 5 3 5 3 5 5 5 5 5 5 5 5 5 3 5 5 5 5 5 5 5 5 5 5 5 5 5 5 5 5 5 5 5 5 5 5 5 5 5 5 5 5 3 5 5 5 5 5 5 3 5 5 5 5 5 5 3 5 5 5 5 5 5 3 5 5 5 3 5 5 5 3 5 5 3 5 5 5 5 5 5 3 5 5 5 3 3 5 5 5 5 5 5 5 5 5 5 5 5 5 5 5 5 5 3 5 5 5 5 5 5 5 3 5 5 5 5 5 3 5 5 5 5 5 3 5 5 3 5 5 5 5 3 5 5 5 5 5 5 3 5 3 5 3 3 5 3 5 5 5 3 5 5 5 5 5 3 5 5 5 3 5 5 5 5 3 3 3 5 5 5 5 3 3 5 3 5 5 5 5 5 5 3 5 3 5 5 3 5 5 5 3 5 5 3 5 5 5 5 5 5 5 5 5 5 5 5 3 5 5 5 5 3 5 5 5 5 3 5 5 5 5 5 5 5 5 5 3 3 3 5 5 5 3 3 5 5 3 5 3 5 5 5 5 5 5 5 3 5 5 5 5 5 5 5 5 5 5 5 5 5 5 5 5 3 5 5 5 5 5 5 5 5 5 3 5 5 3 5 3 5 3 5 5 3 5 5 5 3 3 5 5 3 5 5 5 3 5 5 5 5 3 5 5 5 5 5 5 5 5 5 5 5 3 3 5 5 5 5 5 5 5 5 5 5 5 5 5 5 5 5 5 5 5 5 5 5 5 5 5 5 5 5 5 5 5 5 3 5 5 5 5 5 5 5 5 5 5 5 5 5 5 5 5 5 5 5 3 5 5 5 5 5 5 3 3 5 5 3 3 5 5 5 3 5 5 5 5 5 5 5 5 5 5 5 5 5 5 5 5 5 5 5 5 5 5 5 3 5 3 5 3 5 5 5 5 5 5 3 5 3 3 5 5 3 5 5 5 5 5 5 3 3 5 5 3 3 5 5 3 3 5 5 5 5 5 5 5 5 3 5 5 5 5 5 3 5 5 3 5 5 5 3 5 5 5 5 5 5 5 5 5 5 5 5 5 5 5 5 5 5 5 5 5 5 5 5 5 5 5 5 5 5 5 5 5 5 3 5 5 3 5 3 3 5 5 5 5 5 5 5 5 5 3 5 5 5 5 5 3 5 5 5 5 5 5 5 3 5 5 5 5 5 5 5 5 3 5 5 5 5 5 3 5 5 5 5 5 5 5 5 5 5 5 5 5 5 5 5 5 5 5 5 5 5 5 5 5 5 5 5 5 5 3 3 5 5 5 5 5 5 5 3 5 5 5 3 5 3 5 5 5 5 5 5 5 5 5 5 5 5 5 5 5 5 5 5 5 5 5 3 5 5 5 5 5 5 3 5 5 5 5 5 5 5 3 5 5 3 5 5 5 5 5 5 3 5 5 5 3 5 5 3 3 5 5 5 5 5 5 5 5 5 5 5 5 5 5 5 5 5 5 5 5 5 5 5 5 5 5 5 5 3 5 5 5 5 5 5 5 5 5 5 5 5 5 5 5 5 5 5 5 3 5 5 5 3 3 5 5 5 5 5 3 5 5 5 3 5 5 5 5 5 3 5 5 5 5 5 5 5 5 5 5 5 5 5 5 5 5 5 5 5 5 5 3 5 5 5 5 5 5 3 5 5 5 5 5 5 5 5 5 5 5 5 3 5 5 5 5 3 5 3 5 5 5 5 5 5 5 5 5 5 5 5 5 3 5 5 5 5 5 3 5 5 5 5 5 5 3 5 5 5 5 5 5 5 5 5 5 5 5 3 5 5 3 5 5 3 5 5 3 5 5 5 5 5 5 5 5 5 5 3 5 5 5 5 5 5 5 5 3 5 5 5 3 5 5 5 3 5 5 3 5 5 5 3 5 5 5 5 5 3 5 3 5 5 5 5 3 3 5 5 5 3 5 5 5 5 3 5 5 5 5 5 5 5 5 5 5 5 5 5 5 5 3 5 5 3 3 5 5 5 5 3 5 5 5 5 5 5 3 5 5 5 5 5 5 3 5 5 5 5 5 5 5 5 3 5 5 5 5 5 5 5 5 5 5 3 5 5 3 5 5 3 5 5 5 5 5 3 3 5 5 3 3 5 3 5 3 5 3 3 5 5 3 5 3 5 3 5 3 5 3 5 5 3 5 3 5 3 5 5 5 5 5 5 3 5 5 5 3 5 5 5 5 5 5 5 5 5 3 5 5 3 5 3 5 3 5 5 5 3 3 5 5 5 5 5 5 5 5 5 5 5 3 5 5 5 5 5 3 5 5 5 5 5 5 5 5 5 5 5 5 5 5 5 5 5 3 5 5 5 5 5 5 3 5 5 5 3 5 5 3 5 5 5 3 5 3 3 5 5 5 5 5 5 5 5 5 3 5 5 5 5 5 5 5 3 5 3 5 3 5 5 5 5 5 5 5 5 5 5 5 5 5 5 5 5 5 5 5 5 5 5 5 5 5 5 5 5 5 5 5 5 5 5 5 5 5 3 5 5 3 3 5 5 5 5 3 5 5 5 5 5 3 5 5 3 3 5 5 5 5 5 5 3 5 3 5 5 3 3 5 3 5 5 5 3 5 5 5 5 3 5 5 5 3 5 5 3 3 5 5 5 3 5 5 5 5 3 5 5 3 5 5 5 3 5 5 3 5 5 5 3 5 3 5 5 3 5 5 3 3 5 5 3 5 3 3 5 5 5 5 3 5 5 5 5 3 5 5 5 5 5 5 5 5 5 5 5 5 3 5 5 5 5 3 5 3 5 5 5 5 5 3 3 3 5 5 5 5 5 5 5 5 3 5 5 5 5 5 5 3 5 5 5 5 3 5 5 5 5 5 5 5 5 5 5 5 5 5 5 5 5 5 5 3 5 3 5 5 3 3 5 3 5 5 3 5 3 5 3 5 3 5 5 5 5 3 5 5 5 3 5 5 5 5 5 5 5 5 5 5 5 5 5 5 5 5 5 5 5 5 5 5 5 5 5 3 5 5 5 5 5 3 5 5 5 5 5 5 5 5 5 5 5 3 5 5 5 5 5 3 5 5 3 3 5 5 5 3 5 5 3 3 5 3 5 5 5 5 5 5 5 5 5 5 5 5 5 5 5 5 3 5 5 5 5 3 5 5 5 5 5 5 5 5 3 3 5 5 3 5 5 5 5 5 5 5 5 5 3 3 5 5 3 5 5 5 3 5 5 5 5 5 5 5 5 5 5 5 5 5 5 5 5 5 5 5 5 5 5 5 5 5 5 3 5 5 5 5 5 5 5 5 5 5 5 5 5 5 5 5 5 5 5 5 3 5 5 5 3 3 5 5 5 3 5 5 3 5 5 5 5 5 3 5 3 5 5 5 5 5 5 5 5 3 5 5 5 3 5 5 3 5 3 5 5 5 3 5 5 5 3 5 5 5 5 5 5 5 5 5 5 5 5 5 5 5 5 5 3 5 5 5 5 5 5 5 5 5 3 5 5 5 5 5 5 5 5 3 5 5 5 5 5 5 5 5 5 5 5 5 5 3 5 5 5 3 5 5 5 5 5 5 5 5 5 5 5 5 5 5 5 5 5 5 5 3 5 5 5 3 5 3 5 5 5 3 5 5 5 3 3 5 5 5 5 5 5 5 5 5 5 5 5 5 5 5 5 5 5 5 5 5 5 3 5 5 5 5 3 5 5 5 5 3 5 5 5 5 5 5 5 3 5 5 5 5 3 5 5 5 5 5 5 3 5 5 5 5 5 5 3 5 5 5 3 5 5 5 5 5 5 5 5 5 3 5 5 5 5 5 5 3 5 5 5 5 5 5 5 5 5 5 5 3 5 5 3 5 5 5 5 5 3 5 5 3 5 5 5 5 5 5 5 3 3 5 5 5 5 3 5 5 5 5 5 5 3 5 5 5 5 5 5 5 5 5 5 3 5 5 5 5 5 5 5 5 5 5 5 5 3 5 3 5 5 5 3 5 5 3 5 5 5 5 3 5 5 5 5 5 3 5 5 5 5 5 5 5 5 3 5 5 5 5 3 5 5 5 5 5 5 5 3 5 5 5 5 5 5 5 5 5 5 3 5 5 5 3 5 3 5 5 5 5 5 5 3 5 3 5 3 5 5 5 5 3 5 5 5 5 5 5 5 5 5 5 5 5 5 5 3 5 3 5 5 5 5 5 5 5 3 5 5 5 5 5 5 5 5 5 5 5 5 5 3 5 5 5 5 3 5 5 5 5 5 5 5 5 5 5 5 5 5 5 5 5 5 5 5 5 5 5 5 5 3 5 5 5 5 3 5 5 5 3 5 5 3 5 5 3 5 5 5 5 5 5 5 5 5 5 5 5 5 5 5 3 5 5 3 5 5 5 5 5 5 5 3 5 5 5 5 5 3 5 5 5 3 5 5 5 3 5 5 5 5 5 5 5 3 5 5 5 3 5 3 3 5 5 5 5 5 3 5 5 5 5 5 5 5 5 5 5 3 5 5 5 5 5 5 5 5 5 5 5 5 5 5 5 5 5 5 5 5 5 5 5 5 5 5 5 5 5 5 5 5 5 5 5 5 5 3 5 5 5 5 5 5 5 5 5 5 5 5 5 5 5 5 3 5 5 5 5 5 5 5 5 5 3 5 5 5 5 5 5 5 3 5 5 5 5 5 5 5 5 5 5 5 5 5 5 5 5 5 5 5 5 5 3 5 5 5 5 5 5 5 5 5 5 5 5 5 5 5 5 5 3 5 5 5 5 5 5 5 5 5 5 5 5 5 5 5 5 5 5 5 5 5 5 5 5 5 5 5 5 5 5 5 5 5 5 5 5 5 5 5 5 5 5 5 5 5 5 3 5 5 5 5 5 5 5 5 5 5 5 5 5 3 5 3 5 5 5 5 5 3 5 5 5 5 5 3 3 5 5 5 5 5 5 5 5 5 5 5 5 5 5 5 5 5 3 3 5 5 5 5 5 5 3 5 3 5 5 5 5 5 5 5 5 5 3 5 5 5 5 5 5 5 5 5 5 5 5 5 5 5 5 5 5 5 3 5 5 5 5 5 3 5 3 5 5 5 5 5 5 5 3 5 5 5 3 5 5 5 3 5 5 3 5 5 5 3 5 5 3 5 3 5 3 5 5 3 5 5 5 5 5 5 5 5 5 5 5 5 5 5 5 5 5 5 5 5 5 3 5 3 5 5 5 5 5 5 5 3 5 5 5 5 5 5 5 5 5 5 5 5 5 5 5 5 5 5 5 3 5 5 5 3 5 5 5 5 5 5 5 5 5 5 3 5 5 5 5 3 5 5 3 5 5 5 5 5 3 5 5 5 5 3 5 3 5 5 3 5 5 5 5 5 5 5 3 5 5 3 5 3 5 5 5 5 5 5 5 5 5 5 5 5 5 5 5 5 5 5 3 5 5 5 5 5 5 5 3 5 5 5 5 3 5 5 5 5 5 5 5 5 5 3 5 5 5 5 3 5 5 5 5 5 5 5 5 5 5 5 5 3 5 5 5 5 5 5 5 5 5 3 5 5 5 5 5 5 5 5 5 5 5 5 3 5 5 3 5 5 5 5 5 5 5 5 5 3 3 3 5 5 5 3 5 5 5 5 5 5 3 5 5 5 3 3 5 5 5 5 5 5 5 5 5 5 5 5 3 5 5 5 3 3 5 5 5 5 5 3 5 5 5 5 3 5 5 5 5 3 5 5 5 5 5 3 3 3 5 5 5 3 3 5 5 5 5 5 5 5 5 5 3 3 5 5 5 3 3 5 5 5 5 5 5 5 5 5 5 5 5 5 5 5 5 5 3 5 3 5 5 5 5 3 5 5 5 5 5 5 5 3 5 5 5 5 5 5 5 3 5 5 3 5 3 3 5 5 5 3 3 5 5 5 3 3 5 5 5 5 5 5 5 5 5 5 3 5 5 5 5 5 5 5 3 5 5 5 5 3 5 5 5 5 5 5 3 5 5 5 5 3 5 3 5 5 5 5 5 5 5 5 5 5 5 5 5 5 3 5 5 5 5 5 5 5 3 5 5 5 5 3 5 5 5 3 5 5 5 5 5 5 5 5 5 5 5 5 5 5 5 5 5 5 5 5 5 5 3 5 3 5 5 3 5 5 5 3 5 5 3 5 5 5 5 5 5 5 5 5 5 5 5 5 5 5 5 5 5 5 5 3 3 3 5 5 5 5 5 5 5 5 5 5 5 5 5 3 5 5 5 3 5 5 3 5 5 5 5 3 5 5 3 3 5 5 5 5 3 5 5 3 5 3 5 5 5 5 5 5 5 5 5 5 5 5 3 5 5 5 5 5 5 5 3 5 3 5 5 5 5 3 5 5 5 5 5 5 5 5 5 5 5 5 5 5 5 5 5 5 5 5 5 5 5 3 5 5 5 3 5 3 5 5 5 3 5 5 5 5 5 3 5 5 3 5 5 5 5 5 5 5 5 3 5 5 5 5 5 3 5 5 5 5 5 5 5 5 5 5 5 5 5 5 3 5 5 5 5 3 5 5 5 5 5 5 5 5 5 5 5 5 3 5 5 5 5 3 5 5 5 5 5 5 5 5 5 5 5 5 5 3 5 5 3 5 5 5 3 5 5 5 5 5 5 5 5 5 5 5 5 5 3 3 5 3 3 5 5 5 3 3 5 3 5 3 5 3 5 5 5 3 5 3 5 5 5 5 3 5 5 5 5 5 5 3 5 5 5 5 5 3 5 5 3 5 5 3 5 5 3 5 5 5 5 5 3 5 3 5 5 5 5 5 5 5 5 5 5 5 5 5 3 5 5 3 5 5 5 5 5 5 5 5 5 3 5 5 5 5 5 5 5 5 5 3 5 5 3 5 3 5 5 5 5 5 5 5 3 5 5 5 5 5 5 5 3 5 3 5 5 3 5 5 5 3 5 5 5 5 3 5 5 5 5 5 3 5 5 5 5 5 5 5 5 5 5 5 5 5 5 5 5 5 5 5 5 5 3 5 5 3 5 5 5 3 5 5 5 5 3 5 5 5 5 5 5 5 5 5 5 5 5 5 5 5 5 5 5 5 5 5 5 5 3 5 5 5 5 5 5 3 5 5 5 5 5 5 5 5 5 5 5 5 5 3 5 3 5 5 3 5 5 5 5 3 3 5 3 5 3 5 5 5 5 5 3 5 5 3 3 5 5 5 5 5 3 5 5 3 5 5 5 5 5 5 5 5 3 3 5 5 5 3 5 3 5 5 5 5 5 3 5 3 5 5 5 5 5 3 3 5 5 5 5 3 5 5 5 5 3 5 5 5 5 5 5 5 5 5 5 5 5 5 5 5 5 5 3 5 5 3 5 5 5 3 5 5 5 5 5 5 5 5 5 5 5 5 5 5 5 5 5 5 5 3 5 5 5 5 5 5 5 5 5 5 5 5 5 5 3 3 5 5 5 3 5 5 5 5 5 3 5 5 5 5 5 5 5 5 5 5 5 3 5 5 3 5 5 5 5 5 5 5 5 5 5 3 5 5 5 3 5 3 5 3 5 5 5 3 3 5 3 5 5 3 5 5 3 3 5 5 5 3 5 5 3 5 3 5 5 5 3 5 5 3 3 5 3 5 5 3 5 3 5 5 5 5 5 5 5 5 5 3 5 5 5 5 5 3 5 5 5 5 5 5 5 5 5 5 3 5 5 5 5 3 3 5 5 3 5 3 5 5 5 5 5 3 5 5 3 5 3 5 5 5 5 5 5 5 3 5 5 5 5 5 5 5 5 5 3 5 3 5 3 5 3 5 5 5 5 3 5 5 5 5 5 3 3 5 5 5 5 5 5 3 5 5 5 5 5 3 5 5 5 5 3 5 5 3 5 3 5 5 5 3 5 3 5 5 3 3 3 5 5 5 5 5 5 3 3 3 5 5 5 5 3 5 3 5 3 5 5 5 5 5 5 3 5 5 5 5 5 5 5 5 5 5 5 5 5 5 5 5 5 5 5 5 5 5 5 5 5 5 5 5 5 5 5 5 5 5 5 5 5 5 5 5 5 5 5 5 5 5 5 5 5 3 5 5 5 3 3 5 5 5 5 5 5 5 5 5 5 5 5 5 5 5 5 5 5 5 3 5 5 5 5 5 5 5 3 5 5 3 5 5 3 5 5 3 5 3 5 5 3 5 5 5 3 5 3 5 3 3 5 5 5 3 3 5 5 3 5 5 3 5 5 5 5 5 5 5 5 5 5 5 5 3 5 5 5 5 3 5 5 5 5 3 5 5 5 5 5 5 5 5 5 3 5 3 5 5 5 5 3 5 5 5 3 5 5 5 5 5 5 3 5 5 3 5 5 5 3 5 5 5 5 5 5 5 3 5 5 5 5 5 3 5 5 5 5 5 5 5 5 5 5 5 5 5 5 5 3 5 5 5 5 5 3 5 5 3 5 3 5 5 5 5 3 3 5 5 3 5 5 5 5 5 5 5 5 5 5 5 3 5 3 5 5 5 5 5 3 5 5 5 3 5 5 5 3 5 5 5 5 5 5 5 5 5 5 5 5 5 3 5 5 5 5 5 5 5 3 5 3 5 5 5 5 5 5 5 3 3 5 5 5 5 5 5 5 5 5 3 5 5 5 5 5 5 3 3 3 5 3 5 5 5 5 5 5 3 5 3 5 3 5 3 5 5 5 5 5 5 3 5 5 3 5 5 5 5 3 5 5 5 5 5 5 5 5 5 5 5 5 5 5 5 5 5 5 5 5 5 3 5 3 5 5 5 5 5 5 5 5 5 5 5 5 5 5 5 5 5 5 5 5 5 5 5 5 5 5 5 5 5 5 5 5 5 5 5 5 5 5 5 5 5 5 5 5 5 5 5 5 5 5 5 5 5 5 5 5 5 5 3 5 5 5 5 5 5 5 5 5 5 5 5 5 5 5 5 5 5 5 5 5 5 5 3 5 5 5 3 5 3 5 5 5 5 5 5 5 5 5 5 5 5 5 5 5 5 5 5 5 5 5 5 5 5 5 5 5 5 5 5 5 5 5 5 5 5 5 5 5 3 5 3 5 5 5 5 5 5 5 5 5 5 5 5 5 5 5 5 5 5 5 5 5 5 5 5 5 3 5 5 5 5 5 5 5 5 5 5 5 5 5 5 5 5 5 5 5 5 5 5 5 5 5 5 5 5 5 5 5 5 5 5 5 5 5 5 5 5 5 5 5 5 5 5 5 5 5 5 5 5 5 5 5 5 5 5 5 5 5 5 5 5 5 5 5 5 5 3 5 5 5 5 5 5 5 3 5 5 3 5 5 5 5 5 5 5 5 5 5 5 5 5 5 5 5 5 5 5 5 3 5 5 5 5 5 5 5 5 5 5 5 5 5 5 5 5 5 5 5 5 5 5 5 5 5 5 5 5 5 5 5 5 3 5 5 5 5 3 5 3 5 5 5 5 5 5 3 5 5 3 5 5 3 3 5 3 5 5 5 3 5 5 5 5 5 5 5 5 5 5 5 5 5 5 5 3 5 5 5 5 5 5 5 5 3 5 5 5 5 5 5 5 5 5 5 5 5 5 5 5 5 5 5 5 5 5 5 5 5 5 5 5 5 5 5 5 5 5 5 5 5 3 5 5 5 5 5 5 5 3 5 5 3 5 3 5 5 5 5 5 5 5 5 5 5 5 3 3 5 5 3 5 5 3 3 5 5 5 5 3 5 3 5 5 3 5 3 3 5 3 5 3 5 5 5 5 5 5 5 3 5 3 5 5 5 5 5 3 5 5 5 3 5 5 3 5 3 5 3 3 5 5 3 5 5 5 5 5 5 3 5 5 5 5 5 5 5 5 3 3 5 5 5 3 5 5 5 5 3 3 5 3 5 5 5 3 5 5 5 5 5 5 5 5 5 5 5 5 5 5 5 5 3 5 5 5 5 5 5 3 5 3 5 5 5 3 3 5 5 3 5 3 5 5 5 5 5 5 5 5 5 5 5 5 3 3 5 5 5 5 5 3 5 5 5 5 5 5 5 3 5 5 5 3 5 3 5 5 3 5 5 5 5 5 5 5 5 5 3 5 5 3 5 5 5 5 5 5 5 5 5 5 5 3 5 5 5 5 5 5 5 5 5 5 5 5 5 5 5 5 5 5 5 5 5 5 3 5 5 5 5 5 5 5 5 5 5 5 3 5 5 5 5 3 5 5 5 5 5 5 5 5 5 5 5 3 5 5 5 5 5 3 5 3 5 5 5 5 5 5 5 5 5 3 5 5 3 5 5 3 5 5 5 5 3 5 5 5 5 5 5 5 5 5 5 5 5 5 5 5 5 5 5 5 5 5 3 5 5 3 5 3 5 5 5 5 5 5 5 5 5 3 5 5 3 3 3 5 5 5 3 5 5 5 5 5 5 3 3 5 3 5 5 3 5 5 3 5 5 5 5 3 5 5 5 5 3 5 5 5 5 5 5 5 5 5 5 5 3 5 5 3 5 3 3 5 5 3 3 3 5 5 5 5 5 5 5 5 5 5 3 5 5 5 5 5 5 5 5 5 3 5 5 5 5 5 3 5 5 5 5 5 5 5 5 5 5 3 5 5 5 5 5 5 5 5 5 5 5 5 5 5 5 5 5 5 5 5 5 5 5 5 3 3 5 5 5 5 5 5 5 5 3 5 5 5 5 5 5 5 5 5 5 5 5 5 5 5 5 3 5 5 5 5 3 5 5 5 3 3 5 5 5 5 5 5 3 5 3 5 5 5 3 5 5 5 5 5 5 5 5 3 5 3 3 5 5 5 5 5 5 5 5 5 5 5 5 3 5 5 3 5 3 5 5 5 5 5 5 5 5 5 5 5 5 5 5 5 5 5 5 5 5 5 5 5 3 5 5 5 5 5 3 5 5 5 5 5 5 5 5 5 5 3 5 5 5 3 5 5 5 5 5 5 5 5 5 5 5 3 3 5 5 5 5 5 3 5 5 5 3 5 5 5 5 5 5 5 5 5 5 3 5 5 5 5 5 5 5 3 3 5 3 5 5 5 5 3 5 5 5 5 5 3 5 5 5 5 5 5 5 5 5 5 3 5 5 5 5 5 5 5 5 5 5 3 5 5 5 5 5 5 5 3 5 5 5 5 5 5 5 5 5 5 5 5 5 5 5 5 5 5 5 5 3 5 5 5 3 5 5 5 5 5 5 5 5 5 5 5 5 5 3 5 3 3 5 3 3 5 5 5 5 5 3 5 5 5 5 5 5 5 3 5 5 3 5 5 3 5 5 3 5 5 3 3 3 3 5 5 3 3 5 5 3 5 5 3 5 5 5 5 3 3 3 3 5 5 5 3 5 3 5 3 5 3 3 5 5 5 5 5 5 5 3 5 5 3 5 3 5 5 3 3 5 5 5 5 5 5 5 5 5 5 5 5 5 5 5 5 5 3 5 5 5 5 5 5 5 5 5 5 5 5 5 5 5 5 5 3 5 5 5 5 5 5 5 5 5 5 5 5 5 5 3 3 5 5 5 5 3 5 3 5 5 5 3 3 5 3 5 5 5 5 5 5 5 5 5 5 5 5 5 5 5 5 5 5 5 3 5 3 5 5 5 5 3 5 5 5 5 5 5 5 5 5 5 5 5 5 5 5 5 5 5 5 5 3 5 5 5 5 5 5 5 5 5 5 5 5 5 5 3 5 5 5 5 5 5 5 5 5 5 5 5 5 5 5 5 5 5 5 5 5 5 5 5 5 5 5 5 5 5 5 5 5 5 5 5 5 5 5 5 5 5 5 5 5 5 5 5 5 5 5 5 5 5 5 5 5 5 5 5 5 5 3 5 5 5 3 5 5 3 5 5 5 5 5 5 5 5 5 5 5 3 5 5 5 5 3 5 5 5 5 5 5 5 5 5 5 5 5 5 5 5 5 5 5 5 5 5 5 5 5 5 5 5 5 5 3 5 5 5 5 3 5 5 5 5 5 5 5 5 5 5 3 5 5 3 5 5 5 5 5 5 5 5 5 5 5 5 3 5 5 5 5 5 5 5 5 3 5 5 5 5 5 5 5 5 5 5 3 5 3 5 5 5 3 5 5 5 3 5 3 5 3 3 5 5 5 5 5 3 5 5 5 5 5 5 5 5 5 5 5 5 5 5 5 5 5 5 5 5 5 5 5 3 5 5 3 5 5 5 3 5 3 5 5 5 5 5 5 5 5 5 5 5 5 3 5 5 5 5 5 5 5 5 5 5 5 5 5 5 5 5 5 5 5 3 5 5 5 5 5 5 5 5 5 5 5 5 5 5 5 5 5 5 5 5 5 5 5 5 5 5 5 3 5 5 5 5 5 5 5 5 5 5 5 5 5 5 5 5 5 5 3 5 5 5 3 5 5 5 3 3 5 5 5 5 5 3 5 5 5 5 5 5 5 3 3 5 5 5 3 5 3 5 5 5 5 5 5 3 3 5 5 3 3 5 5 5 5 5 5 5 5 5 5 3 5 5 5 5 5 5 3 5 5 5 5 5 5 5 5 5 5 5 5 5 5 5 5 5 3 5 5 5 5 3 5 5 3 5 5 5 5 5 5 5 5 5 5 5 3 5 3 5 3 5 5 5 5 5 5 5 5 5 5 5 5 5 5 5 5 5 5 5 3 5 5 3 5 5 5 3 5 5 3 5 5 5 5 3 5 5 5 5 5 5 5 3 5 5 5 5 5 5 5 5 5 5 5 5 5 5 5 5 5 5 5 5 5 5 5 5 5 5 5 5 5 3 5 5 5 5 5 5 5 5 5 5 5 5 5 5 5 5 5 5 5 5 5 5 5 5 5 5 5 5 5 5 5 5 5 5 5 5 5 3 3 3 5 5 3 5 5 5 3 5 3 5 5 5 5 5 3 5 5 5 5 5 5 5 3 5 5 5 5 5 5 5 5 5 5 5 5 5 5 3 5 5 5 3 5 3 5 5 5 5 5 5 5 5 3 5 5 5 5 5 5 5 3 5 3 5 3 5 5 5 5 5 5 5 5 3 5 5 3 3 3 5 3 5 3 5 5 5 5 5 5 5 5 5 5 5 5 5 5 5 5 5 5 5 5 5 3 5 5 3 3 5 5 5 3 5 5 5 5 5 5 5 3 5 3 5 5 5 5 3 5 5 3 5 5 5 5 5 5 5 3 5 5 3 5 5 5 3 5 5 5 5 5 5 5 5 5 3 5 5 5 5 5 5 3 5 5 3 5 5 5 5 3 5 5 5 5 5 5 3 3 3 5 5 5 3 5 3 5 3 5 5 5 5 5 5 3 5 5 5 3 5 5 5 3 5 5 5 5 5 5 5 5 5 5 5 5 3 5 5 5 3 5 5 5 5 5 3 3 5 5 3 5 3 3 3 5 5 5 3 5 5 5 5 5 3 5 5 5 5 5 5 5 5 5 5 5 5 3 5 5 5 5 5 5 3 5 5 3 5 5 3 5 5 5 5 5 3 5 5 3 5 3 5 3 5 5 5 5 5 5 3 5 5 5 5 3 5 5 5 5 5 5 5 5 5 5 3 5 5 5 5 5 3 5 5 5 5 5 5 5 5 5 5 5 5 5 5 5 3 5 5 5 5 5 3 5 3 5 5 5 5 5 3 5 5 5 5 5 3 5 5 5 5 5 3 5 5 5 5 5 5 5 5 5 5 3 5 3 5 3 5 5 3 5 5 5 5 5 5 5 5 3 5 3 5 5 5 5 5 5 5 5 5 5 3 5 5 5 5 5 5 5 5 5 5 3 5 5 5 3 5 3 3 5 5 5 3 5 5 5 3 3 5 5 5 5 5 5 5 5 5 5 3 3 5 5 5 5 5 3 5 5 5 5 5 5 5 5 5 5 3 5 3 3 3 5 5 5 5 5 5 5 5 3 5 5 5 5 5 5 5 5 5 5 5 5 5 5 5 5 5 5 5 5 5 5 5 5 5 5 5 5 5 3 5 5 5 5 3 5 5 5 5 5 5 5 5 3 5 5 5 5 5 5 5 5 3 5 5 5 5 5 5 5 5 5 5 5 5 5 5 5 5 5 5 5 5 5 5 5 5 5 5 3 5 5 5 5 5 5 3 5 3 5 5 3 5 5 5 3 5 3 5 5 5 3 5 5 5 3 5 5 5 5 5 5 3 5 5 5 5 5 5 5 5 5 5 5 5 5 5 5 5 5 5 5 5 5 5 5 5 5 5 5 3 5 3 5 5 5 5 3 5 5 5 5 5 5 5 5 5 5 5 5 5 3 5 5 3 5 5 3 5 5 5 5 5 3 5 5 5 5 5 5 5 5 3 5 3 5 5 5 5 5 3 3 5 5 3 5 5 5 3 5 5 5 5 5 5 5 3 5 5 5 5 5 5 5 5 5 5 5 5 5 5 5 5 3 5 5 5 5 5 3 5 3 5 5 5 5 5 5 5 5 5 5 5 5 3 5 3 5 5 5 5 5 5 3 3 5 5 5 5 5 5 5 5 5 5 5 5 5 5 5 5 5 5 5 5 5 3 5 5 3 5 5 5 5 5 3 5 5 5 5 5 5 3 5 5 5 5 5 5 5 5 5 5 5 5 5 5 5 5 3 5 5 3 5 5 5 5 3 5 5 5 5 5 5 5 5 5 5 5 3 5 5 5 5 5 5 5 5 5 5 5 5 5 5 5 5 5 5 5 3 5 5 5 5 5 5 5 5 5 5 5 5 3 5 5 5 5 5 5 5 5 5 5 5 5 5 3 3 5 5 5 5 5 5 3 5 5 5 5 5 5 5 5 5 5 5 5 5 5 5 5 5 5 5 5 5 5 5 5 5 5 5 5 5 5 5 5 5 5 5 3 5 5 5 5 5 5 5 5 3 5 5 5 5 5 5 5 5 5 5 5 5 3 5 5 5 5 3 5 3 5 5 5 5 5 5 5 5 3 5 5 5 5 5 5 5 5 5 5 3 5 5 5 3 5 5 3 5 5 5 5 3 5 5 3 5 5 5 5 5 5 5 5 3 5 5 5 3 5 5 5 5 5 5 5 3 5 3 5 3 5 3 3 5 5 5 3 3 3 5 5 3 5 5 5 3 5 5 5 5 3 5 5 5 5 5 5 5 5 5 5 5 5 5 5 5 5 5 5 5 5 5 5 5 5 5 5 5 5 5 5 5 5 5 5 5 5 5 5 3 5 5 5 5 5 5 5 5 3 5 5 5 5 3 5 5 3 5 5 3 5 5 5 5 3 5 5 5 5 5 3 5 5 5 5 5 5 5 5 5 5 5 5 5 3 3 5 5 5 3 5 5 5 5 5 5 5 5 5 5 5 5 5 5 3 5 5 5 5 5 5 3 5 5 3 5 5 5 5 5 5 5 5 5 5 3 5 5 5 5 5 3 5 5 5 5 5 5 5 5 5 5 3 5 5 5 5 5 5 5 5 5 5 5 5 5 5 5 3 5 5 5 5 5 5 5 5 5 5 5 5 5 5 5 5 5 5 5 5 5 5 5 3 5 3 5 5 5 3 5 5 5 5 5 5 5 5 5 3 5 5 5 3 5 5 5 5 5 5 5 5 5 5 5 5 5 5 5 5 3 5 5 5 5 5 3 5 5 5 3 5 3 5 5 5 5 5 5 3 5 5 5 5 5 5 5 5 5 5 5 5 5 5 5 5 5 5 5 5 5 5 5 5 5 5 5 3 5 5 3 5 5 5 5 5 5 5 3 5 5 5 5 3 5 5 3 5 5 5 5 5 5 3 5 5 5 3 5 5 5 3 5 5 5 5 5 3 5 5 5 5 5 3 5 5 5 5 5 5 5 5 3 5 5 3 5 5 5 5 3 5 5 5 5 3 5 5 5 5 3 5 5 5 3 5 3 5 5 5 5 5 5 5 5 5 5 3 5 5 5 5 5 5 5 3 3 5 5 5 5 5 3 5 5 5 5 5 3 5 5 5 3 5 5 3 5 5 3 5 5 5 3 5 5 5 5 5 5 3 5 5 5 5 5 3 5 5 5 5 5 3 5 5 5 5 5 5 3 5 5 5 5 3 5 5 5 5 5 3 5 5 5 5 5 5 5 5 5 5 3 5 5 5 5 5 5 5 3 5 5 5 5 3 3 5 5 3 5 5 5 5 5 5 5 3 5 5 5 5 5 5 5 3 5 3 5 5 3 5 5 5 5 3 5 3 5 5 5 5 5 5 5 5 5 5 3 5 5 5 5 5 3 5 5 5 3 5 5 5 5 3 5 5 3 5 5 5 5 5 3 5 3 5 3 3 5 5 5 5 3 3 5 5 5 5 5 5 5 5 5 5 5 5 5 3 5 5 5 5 5 5 3 3 5 5 5 5 5 5 5 5 5 5 5 5 5 3 5 5 5 5 5 5 5 5 5 5 5 5 5 5 5 5 5 5 5 5 5 5 5 5 5 5 5 5 5 5 5 5 5 3 5 5 3 5 5 5 5 5 5 5 3 5 5 5 3 5 5 3 5 5 5 3 3 5 5 5 5 3 3 5 5 5 5 5 5 5 5 5 5 5 5 5 5 3 5 5 3 5 5 5 3 5 5 5 5 3 5 5 3 5 5 5 5 5 5 5 5 5 5 5 3 5 5 5 5 5 5 5 3 5 5 5 5 5 5 5 5 5 5 5 5 5 5 5 5 5 5 3 5 5 5 5 5 5 3 5 3 5 5 5 5 5 3 5 5 3 5 5 5 3 5 5 5 3 5 5 5 5 5 5 5 5 5 5 5 5 5 5 3 5 5 5 5 3 3 5 5 5 5 5 5 5 5 5 5 5 5 5 5 5 5 5 5 5 3 5 5 5 5 5 5 5 5 3 5 3 5 5 5 5 5 5 5 3 5 3 5 5 5 5 5 3 5 5 5 5 5 5 3 5 5 5 5 5 3 3 5 5 5 3 3 3 5 5 5 5 5 3 5 5 5 5 5 3 5 5 5 5 3 5 3 3 5 3 3 5 5 5 3 5 5 5 3 5 5 5 3 5 5 5 3 5 5 5 5 5 5 5 5 3 5 5 5 3 5 5 5 5 5 5 3 5 5 5 5 5 5 3 5 5 5 5 5 5 5 5 5 5 5 5 5 5 3 5 3 5 5 5 3 5 5 3 5 3 5 3 5 5 3 5 5 5 5 5 5 3 5 5 5 5 3 5 5 5 5 5 5 3 5 5 5 5 5 5 5 5 5 5 3 5 5 5 5 5 5 5 5 5 5 5 5 5 5 5 5 5 5 5 3 3 5 5 5 3 5 5 3 5 5 3 5 5 3 5 5 3 3 5 5 5 5 3 5 5 5 5 5 5 5 5 5 5 5 3 3 5 5 5 3 5 3 5 3 5 5 5 5 5 3 5 5 3 5 3 5 5 3 3 3 5 5 5 5 3 5 5 3 5 3 5 5 3 5 5 5 5 5 5 5 5 3 5 3 3 5 5 5 5 5 3 3 5 5 5 3 3 5 5 5 5 5 5 5 5 3 5 3 5 5 5 5 5 5 5 5 5 5 5 5 5 5 5 5 5 5 5 5 5 5 5 5 5 5 5 5 5 3 5 5 5 5 5 5 5 5 5 5 5 5 5 5 5 3 5 5 3 5 5 5 5 5 3 5 5 5 5 5 5 5 5 5 5 5 5 5 3 5 5 5 5 5 5 5 5 5 3 5 5 3 5 5 5 5 3 3 3 5 5 5 5 5 3 5 5 5 
</DataArray>
</Cells>
<PointData Scalars="" Vectors="displacement," Tensors="">
<DataArray type="Float64" Name="displacement" NumberOfComponents="3" format="ascii">
0.064999610335356534 -1.7947635781786797e-07 0 0.064998713106293751 3.6257923420006271e-07 0 0.063054215423873586 -6.0933323893656196e-08 0 0.064998713106293751 3.6257923420006271e-07 0 0.063054215423873586 -6.0933323893656196e-08 0 0.060139091538642421 -5.4456475309868387e-07 0 0.0649942494101034 9.3882891333433097e-07 0 0.06260668875729572 8.7004092336093736e-05 0 0.064996298293713159 1.1363344273602404e-06 0 0.063398247329591428 0.00046687638342798144 0 0.062443075365827938 0.00055242696209998644 0 0.064996298293713159 1.1363344273602404e-06 0 0.063398247329591428 0.00046687638342798144 0 0.064999038832414674 8.2939551101963867e-08 0 0.063398247329591428 0.00046687638342798144 0 0.061746291517741192 0.00039351217055607371 0 0.062277468099517508 0.00053763094442201139 0 0.063398247329591428 0.00046687638342798144 0 0.062443075365827938 0.00055242696209998644 0 0.061746291517741192 0.00039351217055607371 0 0.06260668875729572 8.7004092336093736e-05 0 0.060142054420010381 -6.1927417547975805e-07 0 0.062443075365827938 0.00055242696209998644 0 0.060135271909933903 2.0767274898680076e-06 0 0.061746291517741192 0.00039351217055607371 0 0.060135271909933903 2.0767274898680076e-06 0 0.061746291517741192 0.00039351217055607371 0 0.060151559384842825 0.00034974764210986899 0 0.061746291517741192 0.00039351217055607371 0 0.060151559384842825 0.00034974764210986899 0 0.062277468099517508 0.00053763094442201139 0 0.060774718379815913 0.00029637939339841637 0 0.060151559384842825 0.00034974764210986899 0 0.062277468099517508 0.00053763094442201139 0 0.060774718379815913 0.00029637939339841637 0 0.060151559384842825 0.00034974764210986899 0 0.058929899320864107 0.0001205411500631534 0 0.060151559384842825 0.00034974764210986899 0 0.056260827728182486 4.3632145421582194e-07 0 0.058929899320864107 0.0001205411500631534 0 0.060135271909933903 2.0767274898680076e-06 0 0.060151559384842825 0.00034974764210986899 0 0.056260827728182486 4.3632145421582194e-07 0 0.061834132373902818 0.0002604040440374853 0 0.062729868549760134 -4.2679448038384655e-05 0 0.06176948763069532 -0.00024713062386411377 0 0.060774718379815913 0.00029637939339841637 0 0.061834132373902818 0.0002604040440374853 0 0.062277468099517508 0.00053763094442201139 0 0.060774718379815913 0.00029637939339841637 0 0.061834132373902818 0.0002604040440374853 0 0.060660064479516808 -0.00019063891521340566 0 0.061834132373902818 0.0002604040440374853 0 0.062277468099517508 0.00053763094442201139 0 0.063102982954957559 0.00063228346285923952 0 0.061834132373902818 0.0002604040440374853 0 0.063102982954957559 0.00063228346285923952 0 0.062729868549760134 -4.2679448038384655e-05 0 0.064238640127954744 0.00024110577306788589 0 0.063929127564890081 6.79755199333409e-05 0 0.062277468099517508 0.00053763094442201139 0 0.063102982954957559 0.00063228346285923952 0 0.063784889535405731 0.00039283865507517396 0 0.063398247329591428 0.00046687638342798144 0 0.062277468099517508 0.00053763094442201139 0 0.063784889535405731 0.00039283865507517396 0 0.063398247329591428 0.00046687638342798144 0 0.063784889535405731 0.00039283865507517396 0 0.064999038832414674 8.2939551101963867e-08 0 0.063784889535405731 0.00039283865507517396 0 0.064999038832414674 8.2939551101963867e-08 0 0.064997253488424792 5.4237570548285023e-07 0 0.064238640127954744 0.00024110577306788589 0 0.064998592007776662 4.4484085567009818e-07 0 0.064262064769928379 0.00015532636790953599 0 0.064999535072926509 6.6274564123974332e-08 0 0.064692008919778804 8.4257020370568489e-05 0 0.063102982954957559 0.00063228346285923952 0 0.063784889535405731 0.00039283865507517396 0 0.064997253488424792 5.4237570548285023e-07 0 0.064999535072926509 6.6274564123974332e-08 0 0.064692008919778804 8.4257020370568489e-05 0 0.064999408318311996 1.6345860048746464e-07 0 0.064692008919778804 8.4257020370568489e-05 0 0.064999408318311996 1.6345860048746464e-07 0 0.06450423854608657 0.00014332718727326071 0 0.064999408318311996 1.6345860048746464e-07 0 0.06450423854608657 0.00014332718727326071 0 0.06484193228680972 9.6446188577840238e-05 0 0.064262064769928379 0.00015532636790953599 0 0.064692008919778804 8.4257020370568489e-05 0 0.06450423854608657 0.00014332718727326071 0 0.064999440337111122 1.2912426074090938e-07 0 0.064848094494785596 0.00011011168331152991 0 0.064747697412980004 8.5127732965269235e-05 0 0.063560179681849169 -0.0003432576464545118 0 0.063826670296938781 -0.00017326909978085362 0 0.064999440337111122 1.2912426074090938e-07 0 0.06484193228680972 9.6446188577840238e-05 0 0.064848094494785596 0.00011011168331152991 0 0.064999408318311996 1.6345860048746464e-07 0 0.064999440337111122 1.2912426074090938e-07 0 0.06484193228680972 9.6446188577840238e-05 0 0.06450423854608657 0.00014332718727326071 0 0.06484193228680972 9.6446188577840238e-05 0 0.064848094494785596 0.00011011168331152991 0 0.06450423854608657 0.00014332718727326071 0 0.064848094494785596 0.00011011168331152991 0 0.064349293539604308 -2.6970226743558915e-06 0 0.062590108834711458 -0.00028244049840695114 0 0.064044839530015149 -0.00020480347740776177 0 0.063402181791041415 -0.00073316704837145523 0 0.062590108834711458 -0.00028244049840695114 0 0.064747697412980004 8.5127732965269235e-05 0 0.064044839530015149 -0.00020480347740776177 0 0.062365926054377789 -0.0014622950674746406 0 0.063402181791041415 -0.00073316704837145523 0 0.063132730700603656 -0.0013943404562889487 0 0.062590108834711458 -0.00028244049840695114 0 0.062365926054377789 -0.0014622950674746406 0 0.063402181791041415 -0.00073316704837145523 0 0.063560179681849169 -0.0003432576464545118 0 0.063075501338168943 -0.00074600488548169121 0 0.062590108834711458 -0.00028244049840695114 0 0.062365926054377789 -0.0014622950674746406 0 0.061341603535868462 -0.0013508209304074629 0 0.061551255680392949 -0.0019891947294286348 0 0.061011149606069244 -0.0018983257972568358 0 0.061562666808386353 -0.0025419180550200608 0 0.062365926054377789 -0.0014622950674746406 0 0.061551255680392949 -0.0019891947294286348 0 0.061833332704725581 -0.0023173984890209089 0 0.062365926054377789 -0.0014622950674746406 0 0.061551255680392949 -0.0019891947294286348 0 0.061341603535868462 -0.0013508209304074629 0 0.062365926054377789 -0.0014622950674746406 0 0.062312877912609844 -0.0022869530135312295 0 0.061833332704725581 -0.0023173984890209089 0 0.062365926054377789 -0.0014622950674746406 0 0.062312877912609844 -0.0022869530135312295 0 0.063132730700603656 -0.0013943404562889487 0 0.064262064769928379 0.00015532636790953599 0 0.063765944096713781 0.00010026219233753415 0 0.062729868549760134 -4.2679448038384655e-05 0 0.064262064769928379 0.00015532636790953599 0 0.06450423854608657 0.00014332718727326071 0 0.063765944096713781 0.00010026219233753415 0 0.063765944096713781 0.00010026219233753415 0 0.064349293539604308 -2.6970226743558915e-06 0 0.063827292790895093 -0.00015737165709499957 0 0.06450423854608657 0.00014332718727326071 0 0.063765944096713781 0.00010026219233753415 0 0.064349293539604308 -2.6970226743558915e-06 0 0.061551255680392949 -0.0019891947294286348 0 0.061341603535868462 -0.0013508209304074629 0 0.061011149606069244 -0.0018983257972568358 0 0.063075501338168943 -0.00074600488548169121 0 0.062824629085212053 -0.0010134988346436865 0 0.062824629085212053 -0.0010134988346436865 0 0.062954870863604753 -0.00084451018488826684 0 0.063765944096713781 0.00010026219233753415 0 0.062958986922081656 -0.0003041377237382095 0 0.062729868549760134 -4.2679448038384655e-05 0 0.063765944096713781 0.00010026219233753415 0 0.063827292790895093 -0.00015737165709499957 0 0.062958986922081656 -0.0003041377237382095 0 0.062958986922081656 -0.0003041377237382095 0 0.062729868549760134 -4.2679448038384655e-05 0 0.062423867517390062 -0.00040573762562467921 0 0.062423867517390062 -0.00040573762562467921 0 0.062649939736714566 -0.00058641681088855918 0 0.061913142952020307 -0.00074775961754000803 0 0.062958986922081656 -0.0003041377237382095 0 0.062423867517390062 -0.00040573762562467921 0 0.062649939736714566 -0.00058641681088855918 0 0.061011149606069244 -0.0018983257972568358 0 0.061399462318919844 -0.0028315830798447414 0 0.061562666808386353 -0.0025419180550200608 0 0.063134717276837574 -0.00010150803579189299 0 0.062958986922081656 -0.0003041377237382095 0 0.062649939736714566 -0.00058641681088855918 0 0.063134717276837574 -0.00010150803579189299 0 0.062649939736714566 -0.00058641681088855918 0 0.062687348589906308 -0.00085528694770434037 0 0.062824629085212053 -0.0010134988346436865 0 0.062321198172876263 -0.0014602572737472189 0 0.062649939736714566 -0.00058641681088855918 0 0.062687348589906308 -0.00085528694770434037 0 0.062247997304603307 -0.00096925798194153346 0 0.062687348589906308 -0.00085528694770434037 0 0.062247997304603307 -0.00096925798194153346 0 0.061918004428304078 -0.0014458072290339545 0 0.062247997304603307 -0.00096925798194153346 0 0.061918004428304078 -0.0014458072290339545 0 0.061913142952020307 -0.00074775961754000803 0 0.062649939736714566 -0.00058641681088855918 0 0.062247997304603307 -0.00096925798194153346 0 0.061913142952020307 -0.00074775961754000803 0 0.062312877912609844 -0.0022869530135312295 0 0.061717037490609819 -0.0026680966385756104 0 0.061621684399087204 -0.0029839042859449269 0 0.062312877912609844 -0.0022869530135312295 0 0.061717037490609819 -0.0026680966385756104 0 0.061833332704725581 -0.0023173984890209089 0 0.061717037490609819 -0.0026680966385756104 0 0.061833332704725581 -0.0023173984890209089 0 0.061562666808386353 -0.0025419180550200608 0 0.061551255680392949 -0.0019891947294286348 0 0.061833332704725581 -0.0023173984890209089 0 0.061562666808386353 -0.0025419180550200608 0 0.061399462318919844 -0.0028315830798447414 0 0.061442909431798899 -0.002895631207433455 0 0.061404811185784572 -0.0026048182812713197 0 0.061717037490609819 -0.0026680966385756104 0 0.061562666808386353 -0.0025419180550200608 0 0.061442909431798899 -0.002895631207433455 0 0.061399462318919844 -0.0028315830798447414 0 0.061562666808386353 -0.0025419180550200608 0 0.061442909431798899 -0.002895631207433455 0 0.061717037490609819 -0.0026680966385756104 0 0.061442909431798899 -0.002895631207433455 0 0.061621684399087204 -0.0029839042859449269 0 0.061442909431798899 -0.002895631207433455 0 0.061621684399087204 -0.0029839042859449269 0 0.061160929588582581 -0.0029923633697699855 0 0.060947694213634884 -0.0026305584241549003 0 0.061160929588582581 -0.0029923633697699855 0 0.060560333768213348 -0.0027940535744526217 0 0.061442909431798899 -0.002895631207433455 0 0.060947694213634884 -0.0026305584241549003 0 0.061160929588582581 -0.0029923633697699855 0 0.061442909431798899 -0.002895631207433455 0 0.060947694213634884 -0.0026305584241549003 0 0.061404811185784572 -0.0026048182812713197 0 0.061404811185784572 -0.0026048182812713197 0 0.061707254628192584 -0.0023370838029666209 0 0.061280178714383522 -0.0017925835106186478 0 0.061404811185784572 -0.0026048182812713197 0 0.060531993878052442 -0.0017084107055664447 0 0.061280178714383522 -0.0017925835106186478 0 0.060947694213634884 -0.0026305584241549003 0 0.061404811185784572 -0.0026048182812713197 0 0.060531993878052442 -0.0017084107055664447 0 0.060947694213634884 -0.0026305584241549003 0 0.060531993878052442 -0.0017084107055664447 0 0.060159579503936612 -0.0021842530471076018 0 0.062687348589906308 -0.00085528694770434037 0 0.061918004428304078 -0.0014458072290339545 0 0.062076529124843099 -0.0017638122961791123 0 0.061399462318919844 -0.0028315830798447414 0 0.061404811185784572 -0.0026048182812713197 0 0.061707254628192584 -0.0023370838029666209 0 0.062321198172876263 -0.0014602572737472189 0 0.062067412672991311 -0.0016509629677392474 0 0.062076529124843099 -0.0017638122961791123 0 0.061776891331971714 -0.001817640782340154 0 0.061735948747997219 -0.0016706924756635824 0 0.061776891331971714 -0.001817640782340154 0 0.061202411758462957 -0.0019528531912421634 0 0.061555659520272782 -0.0019557889487215145 0 0.061918004428304078 -0.0014458072290339545 0 0.061776891331971714 -0.001817640782340154 0 0.061202411758462957 -0.0019528531912421634 0 0.061918004428304078 -0.0014458072290339545 0 0.062076529124843099 -0.0017638122961791123 0 0.061776891331971714 -0.001817640782340154 0 0.061202411758462957 -0.0019528531912421634 0 0.061011945937587846 -0.0013178039930214342 0 0.060028194435879485 -0.0019989538242718269 0 0.061918004428304078 -0.0014458072290339545 0 0.061202411758462957 -0.0019528531912421634 0 0.061011945937587846 -0.0013178039930214342 0 0.061011945937587846 -0.0013178039930214342 0 0.060028194435879485 -0.0019989538242718269 0 0.059443856036665008 -0.0014748884856851357 0 0.061202411758462957 -0.0019528531912421634 0 0.060028194435879485 -0.0019989538242718269 0 0.060324160264032985 -0.0024148632243221357 0 0.060028194435879485 -0.0019989538242718269 0 0.059043793278232823 -0.0024974015272806321 0 0.060324160264032985 -0.0024148632243221357 0 0.059043793278232823 -0.0024974015272806321 0 0.057668199081576943 -0.0022237491791096795 0 0.058818598092584225 -0.0019939474789165434 0 0.060028194435879485 -0.0019989538242718269 0 0.059043793278232823 -0.0024974015272806321 0 0.058818598092584225 -0.0019939474789165434 0 0.050876148642309202 0.00019247773924966217 0 0.048683580262228444 -0.0010216491644939327 0 0.051042741597023294 -2.1794899551181013e-05 0 0.052381009416885282 -1.81824835715868e-06 0 0.048502502875893388 4.1499220303247242e-07 0 0.051042741597023294 -2.1794899551181013e-05 0 0.048697578461820074 -8.9335072768046916e-05 0 0.048502502875893388 4.1499220303247242e-07 0 0.059043793278232823 -0.0024974015272806321 0 0.057668199081576943 -0.0022237491791096795 0 0.058091274225964259 -0.0030201424875164998 0 0.050876148642309202 0.00019247773924966217 0 0.051627474463848071 0.00085033546189532648 0 0.057668199081576943 -0.0022237491791096795 0 0.058818598092584225 -0.0019939474789165434 0 0.05800736364095746 -0.0014761707167082678 0 0.051042741597023294 -2.1794899551181013e-05 0 0.052381009416885282 -1.81824835715868e-06 0 0.05562633518379264 -0.00032089464857797091 0 0.057668199081576943 -0.0022237491791096795 0 0.05800736364095746 -0.0014761707167082678 0 0.05562633518379264 -0.00032089464857797091 0 0.060028194435879485 -0.0019989538242718269 0 0.058818598092584225 -0.0019939474789165434 0 0.059443856036665008 -0.0014748884856851357 0 0.058818598092584225 -0.0019939474789165434 0 0.05800736364095746 -0.0014761707167082678 0 0.059443856036665008 -0.0014748884856851357 0 0.059443856036665008 -0.0014748884856851357 0 0.058949807593799752 -0.00049592921818650357 0 0.06033616891565774 -0.00081568325638896278 0 0.05800736364095746 -0.0014761707167082678 0 0.058949807593799752 -0.00049592921818650357 0 0.05562633518379264 -0.00032089464857797091 0 0.05800736364095746 -0.0014761707167082678 0 0.059443856036665008 -0.0014748884856851357 0 0.058949807593799752 -0.00049592921818650357 0 0.058949807593799752 -0.00049592921818650357 0 0.05562633518379264 -0.00032089464857797091 0 0.057349570201826058 -0.00012343048053597495 0 0.052381009416885282 -1.81824835715868e-06 0 0.05562633518379264 -0.00032089464857797091 0 0.056260827728182486 4.3632145421582194e-07 0 0.05562633518379264 -0.00032089464857797091 0 0.057349570201826058 -0.00012343048053597495 0 0.056260827728182486 4.3632145421582194e-07 0 0.057349570201826058 -0.00012343048053597495 0 0.056260827728182486 4.3632145421582194e-07 0 0.058929899320864107 0.0001205411500631534 0 0.060774718379815913 0.00029637939339841637 0 0.058929899320864107 0.0001205411500631534 0 0.060660064479516808 -0.00019063891521340566 0 0.058949807593799752 -0.00049592921818650357 0 0.058929899320864107 0.0001205411500631534 0 0.060660064479516808 -0.00019063891521340566 0 0.058949807593799752 -0.00049592921818650357 0 0.057349570201826058 -0.00012343048053597495 0 0.058929899320864107 0.0001205411500631534 0 0.061834132373902818 0.0002604040440374853 0 0.060660064479516808 -0.00019063891521340566 0 0.06176948763069532 -0.00024713062386411377 0 0.060660064479516808 -0.00019063891521340566 0 0.061201720007827434 -0.00065407479874384259 0 0.06033616891565774 -0.00081568325638896278 0 0.060660064479516808 -0.00019063891521340566 0 0.06176948763069532 -0.00024713062386411377 0 0.061201720007827434 -0.00065407479874384259 0 0.062729868549760134 -4.2679448038384655e-05 0 0.062423867517390062 -0.00040573762562467921 0 0.06176948763069532 -0.00024713062386411377 0 0.062423867517390062 -0.00040573762562467921 0 0.06176948763069532 -0.00024713062386411377 0 0.061913142952020307 -0.00074775961754000803 0 0.06176948763069532 -0.00024713062386411377 0 0.061201720007827434 -0.00065407479874384259 0 0.061913142952020307 -0.00074775961754000803 0 0.061918004428304078 -0.0014458072290339545 0 0.061011945937587846 -0.0013178039930214342 0 0.061913142952020307 -0.00074775961754000803 0 0.061011945937587846 -0.0013178039930214342 0 0.061201720007827434 -0.00065407479874384259 0 0.061913142952020307 -0.00074775961754000803 0 0.061011945937587846 -0.0013178039930214342 0 0.061201720007827434 -0.00065407479874384259 0 0.06033616891565774 -0.00081568325638896278 0 0.061011945937587846 -0.0013178039930214342 0 0.059443856036665008 -0.0014748884856851357 0 0.06033616891565774 -0.00081568325638896278 0 0.058949807593799752 -0.00049592921818650357 0 0.060660064479516808 -0.00019063891521340566 0 0.06033616891565774 -0.00081568325638896278 0 0.064794550889319846 5.9264553457614008e-05 0 0.064806777557504427 1.2639077802945734e-05 0 0.06479025739582589 4.4252852017019087e-05 0 0.064794550889319846 5.9264553457614008e-05 0 0.064841364317478389 -1.8050890028902549e-05 0 0.064806777557504427 1.2639077802945734e-05 0 0.064794550889319846 5.9264553457614008e-05 0 0.06479025739582589 4.4252852017019087e-05 0 0.064746247104077656 0.00010537785221198503 0 0.064794550889319846 5.9264553457614008e-05 0 0.064841364317478389 -1.8050890028902549e-05 0 0.064893103268181526 -2.0474546163502974e-05 0 0.064841364317478389 -1.8050890028902549e-05 0 0.064893103268181526 -2.0474546163502974e-05 0 0.064900904826825229 -0.00010913181247686753 0 0.064893103268181526 -2.0474546163502974e-05 0 0.0648678302259839 -4.0305042413590822e-05 0 0.064752691003111457 8.371809081646279e-05 0 0.064794550889319846 5.9264553457614008e-05 0 0.064893103268181526 -2.0474546163502974e-05 0 0.064752691003111457 8.371809081646279e-05 0 0.064794550889319846 5.9264553457614008e-05 0 0.064752691003111457 8.371809081646279e-05 0 0.064746247104077656 0.00010537785221198503 0 0.0648678302259839 -4.0305042413590822e-05 0 0.064999998243715093 2.6048368924545241e-08 0 0.064999355821068236 -3.8428266377606611e-07 0 0.0648678302259839 -4.0305042413590822e-05 0 0.064999998243715093 2.6048368924545241e-08 0 0.064965064017763308 -4.8426097404863032e-05 0 0.064893103268181526 -2.0474546163502974e-05 0 0.0648678302259839 -4.0305042413590822e-05 0 0.064965064017763308 -4.8426097404863032e-05 0 0.064893103268181526 -2.0474546163502974e-05 0 0.064965064017763308 -4.8426097404863032e-05 0 0.064954128203083605 -0.00011241149932577327 0 0.064965064017763308 -4.8426097404863032e-05 0 0.064999944471412927 -7.221885143610269e-08 0 0.064954128203083605 -0.00011241149932577327 0 0.064999998243715093 2.6048368924545241e-08 0 0.064965064017763308 -4.8426097404863032e-05 0 0.064999944471412927 -7.221885143610269e-08 0 0.064999944471412927 -7.221885143610269e-08 0 0.064954128203083605 -0.00011241149932577327 0 0.064947220061705765 -0.00015626667672779374 0 0.064954128203083605 -0.00011241149932577327 0 0.064900904826825229 -0.00010913181247686753 0 0.064876201014623047 -0.00032276962560295658 0 0.064893103268181526 -2.0474546163502974e-05 0 0.064954128203083605 -0.00011241149932577327 0 0.064900904826825229 -0.00010913181247686753 0 0.064841364317478389 -1.8050890028902549e-05 0 0.064900904826825229 -0.00010913181247686753 0 0.064875010009388168 -5.1978580540296468e-05 0 0.064900904826825229 -0.00010913181247686753 0 0.064876201014623047 -0.00032276962560295658 0 0.064903048167618091 -8.8877162788852503e-05 0 0.063027625175031229 -0.0018194555130379257 0 0.062465124736391729 -0.0021933910793340973 0 0.064876201014623047 -0.00032276962560295658 0 0.064721870846983345 -0.00048810530049526394 0 0.064795329168419125 -0.0004001625920715363 0 0.063110678001406656 -0.00099862039470214551 0 0.06263642357088843 -0.0013022631020224442 0 0.064876201014623047 -0.00032276962560295658 0 0.064721870846983345 -0.00048810530049526394 0 0.064947220061705765 -0.00015626667672779374 0 0.064954128203083605 -0.00011241149932577327 0 0.064876201014623047 -0.00032276962560295658 0 0.064947220061705765 -0.00015626667672779374 0 0.064999944471412927 -7.221885143610269e-08 0 0.064947220061705765 -0.00015626667672779374 0 0.065000041604314843 -8.4267956559359008e-08 0 0.064947220061705765 -0.00015626667672779374 0 0.065000041604314843 -8.4267956559359008e-08 0 0.06483033959132932 -6.6428306093647575e-05 0 0.065000041604314843 -8.4267956559359008e-08 0 0.064998847597548398 1.5689945121178008e-07 0 0.06483033959132932 -6.6428306093647575e-05 0 0.064721870846983345 -0.00048810530049526394 0 0.064947220061705765 -0.00015626667672779374 0 0.06483033959132932 -6.6428306093647575e-05 0 0.064721870846983345 -0.00048810530049526394 0 0.064358604589500282 -0.0002753938355689012 0 0.06483033959132932 -6.6428306093647575e-05 0 0.064358604589500282 -0.0002753938355689012 0 0.06483033959132932 -6.6428306093647575e-05 0 0.064618805587371597 -4.4779817036886829e-05 0 0.064998847597548398 1.5689945121178008e-07 0 0.06483033959132932 -6.6428306093647575e-05 0 0.064618805587371597 -4.4779817036886829e-05 0 0.064998847597548398 1.5689945121178008e-07 0 0.064747697412980004 8.5127732965269235e-05 0 0.064618805587371597 -4.4779817036886829e-05 0 0.064999440337111122 1.2912426074090938e-07 0 0.064998847597548398 1.5689945121178008e-07 0 0.064747697412980004 8.5127732965269235e-05 0 0.064747697412980004 8.5127732965269235e-05 0 0.064618805587371597 -4.4779817036886829e-05 0 0.064044839530015149 -0.00020480347740776177 0 0.064358604589500282 -0.0002753938355689012 0 0.064044839530015149 -0.00020480347740776177 0 0.063402181791041415 -0.00073316704837145523 0 0.064358604589500282 -0.0002753938355689012 0 0.064618805587371597 -4.4779817036886829e-05 0 0.064044839530015149 -0.00020480347740776177 0 0.063402181791041415 -0.00073316704837145523 0 0.063889832493849455 -0.00085036791831544732 0 0.063132730700603656 -0.0013943404562889487 0 0.064358604589500282 -0.0002753938355689012 0 0.063402181791041415 -0.00073316704837145523 0 0.063889832493849455 -0.00085036791831544732 0 0.064721870846983345 -0.00048810530049526394 0 0.064358604589500282 -0.0002753938355689012 0 0.063889832493849455 -0.00085036791831544732 0 0.064721870846983345 -0.00048810530049526394 0 0.063889832493849455 -0.00085036791831544732 0 0.063543643202939842 -0.0017763519698989622 0 0.064721870846983345 -0.00048810530049526394 0 0.063543643202939842 -0.0017763519698989622 0 0.064654543510962628 -0.0021036781274315765 0 0.062312877912609844 -0.0022869530135312295 0 0.063543643202939842 -0.0017763519698989622 0 0.063132730700603656 -0.0013943404562889487 0 0.063889832493849455 -0.00085036791831544732 0 0.063543643202939842 -0.0017763519698989622 0 0.063132730700603656 -0.0013943404562889487 0 0.062312877912609844 -0.0022869530135312295 0 0.061621684399087204 -0.0029839042859449269 0 0.06240637867674944 -0.0028894105573837228 0 0.062312877912609844 -0.0022869530135312295 0 0.063543643202939842 -0.0017763519698989622 0 0.06240637867674944 -0.0028894105573837228 0 0.063543643202939842 -0.0017763519698989622 0 0.06240637867674944 -0.0028894105573837228 0 0.063802093855175712 -0.0030990664426194556 0 0.063543643202939842 -0.0017763519698989622 0 0.063802093855175712 -0.0030990664426194556 0 0.064654543510962628 -0.0021036781274315765 0 0.06240637867674944 -0.0028894105573837228 0 0.063802093855175712 -0.0030990664426194556 0 0.062958553683758939 -0.0042689122804829872 0 0.060989636996642817 -0.0011479609653751986 0 0.060767667117261066 -0.00099270738884221755 0 0.063802093855175712 -0.0030990664426194556 0 0.062958553683758939 -0.0042689122804829872 0 0.064894249914890692 -0.0040238068631048059 0 0.06240637867674944 -0.0028894105573837228 0 0.061494403676876634 -0.0032921613357509492 0 0.061058618529330401 -0.003295342113201268 0 0.060989636996642817 -0.0011479609653751986 0 0.060964918258335145 -0.0012016491180421617 0 0.061621684399087204 -0.0029839042859449269 0 0.06240637867674944 -0.0028894105573837228 0 0.061058618529330401 -0.003295342113201268 0 0.061252507547461588 -0.0017311284406743774 0 0.060989636996642817 -0.0011479609653751986 0 0.061621684399087204 -0.0029839042859449269 0 0.061160929588582581 -0.0029923633697699855 0 0.061058618529330401 -0.003295342113201268 0 0.061160929588582581 -0.0029923633697699855 0 0.061058618529330401 -0.003295342113201268 0 0.060560333768213348 -0.0027940535744526217 0 0.059938064416551091 -0.0035408103877683185 0 0.0603225284450346 -0.0029953097494822239 0 0.059594686040397242 -0.0024493943254471416 0 0.061058618529330401 -0.003295342113201268 0 0.0603225284450346 -0.0029953097494822239 0 0.060560333768213348 -0.0027940535744526217 0 0.059938064416551091 -0.0035408103877683185 0 0.061058618529330401 -0.003295342113201268 0 0.0603225284450346 -0.0029953097494822239 0 0.059594686040397242 -0.0024493943254471416 0 0.060560333768213348 -0.0027940535744526217 0 0.060159579503936612 -0.0021842530471076018 0 0.0603225284450346 -0.0029953097494822239 0 0.059594686040397242 -0.0024493943254471416 0 0.060560333768213348 -0.0027940535744526217 0 0.060947694213634884 -0.0026305584241549003 0 0.060560333768213348 -0.0027940535744526217 0 0.060159579503936612 -0.0021842530471076018 0 0.059594686040397242 -0.0024493943254471416 0 0.060159579503936612 -0.0021842530471076018 0 0.059376144640837632 -0.0015058711510279891 0 0.060531993878052442 -0.0017084107055664447 0 0.060159579503936612 -0.0021842530471076018 0 0.059376144640837632 -0.0015058711510279891 0 0.059594686040397242 -0.0024493943254471416 0 0.059376144640837632 -0.0015058711510279891 0 0.057985470107078871 -0.0017259821601504442 0 0.059938064416551091 -0.0035408103877683185 0 0.059594686040397242 -0.0024493943254471416 0 0.057985470107078871 -0.0017259821601504442 0 0.057259261587621998 0.0032317951118028799 0 0.057417405804938905 0.0026588075088148102 0 0.057568452406765974 0.002989300805305563 0 0.057259261587621998 0.0032317951118028799 0 0.057568452406765974 0.002989300805305563 0 0.057762064483376299 0.0032771294021024873 0 0.060989636996642817 -0.0011479609653751986 0 0.058881623370863147 0.00062914969653940749 0 0.057568452406765974 0.002989300805305563 0 0.057844709418740599 0.002773134171796776 0 0.057762064483376299 0.0032771294021024873 0 0.059578133885011771 0.00043378350573270851 0 0.060767667117261066 -0.00099270738884221755 0 0.057417405804938905 0.0026588075088148102 0 0.057568452406765974 0.002989300805305563 0 0.057844709418740599 0.002773134171796776 0 0.057417405804938905 0.0026588075088148102 0 0.057844709418740599 0.002773134171796776 0 0.057710212179154341 0.0023716449244693314 0 0.059060743373248542 -0.00094274258850530362 0 0.059009132391096959 -0.00090569018095262128 0 0.059000138544962402 -0.00097634869321623348 0 0.059009132391096959 -0.00090569018095262128 0 0.059000138544962402 -0.00097634869321623348 0 0.058972570929868739 -0.00091238273420130109 0 0.059060743373248542 -0.00094274258850530362 0 0.059000138544962402 -0.00097634869321623348 0 0.059079260358017444 -0.0010385844530097226 0 0.059000138544962402 -0.00097634869321623348 0 0.059079260358017444 -0.0010385844530097226 0 0.058989518961917092 -0.0010485477556136497 0 0.064799279091226 -0.00049670455732406509 0 0.064851059603443562 -0.00043623306598227038 0 0.064881059204454014 -0.00048596701482305366 0 0.060767667117261066 -0.00099270738884221755 0 0.061340464551651631 -0.0018533162790453227 0 0.063802093855175712 -0.0030990664426194556 0 0.064894249914890692 -0.0040238068631048059 0 0.064654543510962628 -0.0021036781274315765 0 0.060767667117261066 -0.00099270738884221755 0 0.06263642357088843 -0.0013022631020224442 0 0.064799279091226 -0.00049670455732406509 0 0.064795329168419125 -0.0004001625920715363 0 0.064851059603443562 -0.00043623306598227038 0 0.064851059603443562 -0.00043623306598227038 0 0.06490808207064655 -0.00041772821370261558 0 0.064881059204454014 -0.00048596701482305366 0 0.064876201014623047 -0.00032276962560295658 0 0.064795329168419125 -0.0004001625920715363 0 0.064851059603443562 -0.00043623306598227038 0 0.064876201014623047 -0.00032276962560295658 0 0.064851059603443562 -0.00043623306598227038 0 0.06490808207064655 -0.00041772821370261558 0 0.064900904826825229 -0.00010913181247686753 0 0.064903048167618091 -8.8877162788852503e-05 0 0.064875010009388168 -5.1978580540296468e-05 0 0.064903048167618091 -8.8877162788852503e-05 0 0.064875010009388168 -5.1978580540296468e-05 0 0.064854157088829981 -3.2830107206191545e-06 0 0.062465124736391729 -0.0021933910793340973 0 0.060273214441481447 -0.0033407339262715402 0 0.064841364317478389 -1.8050890028902549e-05 0 0.064875010009388168 -5.1978580540296468e-05 0 0.064854157088829981 -3.2830107206191545e-06 0 0.06490808207064655 -0.00041772821370261558 0 0.064940371850220877 -0.0004823849124837429 0 0.064881059204454014 -0.00048596701482305366 0 0.060273214441481447 -0.0033407339262715402 0 0.061340464551651631 -0.0018533162790453227 0 0.058901507408781945 -0.0010637738674517483 0 0.058989518961917092 -0.0010485477556136497 0 0.058924888822855209 -0.00098121246510902201 0 0.059000138544962402 -0.00097634869321623348 0 0.058989518961917092 -0.0010485477556136497 0 0.058924888822855209 -0.00098121246510902201 0 0.059000138544962402 -0.00097634869321623348 0 0.058972570929868739 -0.00091238273420130109 0 0.058924888822855209 -0.00098121246510902201 0 0.058924888822855209 -0.00098121246510902201 0 0.058827118678641349 -0.00099386527074354892 0 0.058880653552416153 -0.00090142463163801886 0 0.058972570929868739 -0.00091238273420130109 0 0.058924888822855209 -0.00098121246510902201 0 0.058880653552416153 -0.00090142463163801886 0 0.058901507408781945 -0.0010637738674517483 0 0.058924888822855209 -0.00098121246510902201 0 0.058827118678641349 -0.00099386527074354892 0 0.060273214441481447 -0.0033407339262715402 0 0.056298741942811821 -0.0067716526578223369 0 0.056298741942811821 -0.0067716526578223369 0 0.055126741708908487 -0.0074275534910528641 0 0.050731951622957981 -0.014767130630412146 0 0.050558267305854852 -0.014596965958155503 0 0.050850785687324609 -0.014592345190426051 0 0.049999162487694565 -0.014568598698528326 0 0.050558267305854852 -0.014596965958155503 0 0.051451531051609281 -0.014212996201175398 0 0.056298741942811821 -0.0067716526578223369 0 0.055610102892602306 -0.0087614956054915018 0 0.049999162487694565 -0.014568598698528326 0 0.051451531051609281 -0.014212996201175398 0 0.051185499358642812 -0.011144290300666779 0 0.056298741942811821 -0.0067716526578223369 0 0.0581708345240518 -0.0050864239418856793 0 0.051451531051609281 -0.014212996201175398 0 0.051185499358642812 -0.011144290300666779 0 0.054376476194888376 -0.010584529817260342 0 0.0581708345240518 -0.0050864239418856793 0 0.057260881090687984 -0.0054314272943647244 0 0.060273214441481447 -0.0033407339262715402 0 0.0581708345240518 -0.0050864239418856793 0 0.064854157088829981 -3.2830107206191545e-06 0 0.0648000886266559 1.2251787425971287e-05 0 0.064806777557504427 1.2639077802945734e-05 0 0.058234982324798255 -0.0046446959270399352 0 0.057912672039037258 -0.0042973174107956771 0 0.057706127062792371 -0.0046894055857582169 0 0.064841364317478389 -1.8050890028902549e-05 0 0.064854157088829981 -3.2830107206191545e-06 0 0.064806777557504427 1.2639077802945734e-05 0 0.0581708345240518 -0.0050864239418856793 0 0.059624366246263522 -0.0035535952716617201 0 0.0648000886266559 1.2251787425971287e-05 0 0.064806777557504427 1.2639077802945734e-05 0 0.06479025739582589 4.4252852017019087e-05 0 0.052009079760761814 -0.010774256399044248 0 0.055149918220457672 -0.0064978091363473928 0 0.054376476194888376 -0.010584529817260342 0 0.04989277522619974 -0.01332166997319824 0 0.049970587528350846 -0.013858440317894226 0 0.049388978121575604 -0.013393278364597959 0 0.04989277522619974 -0.01332166997319824 0 0.050499023162088992 -0.013057831986588107 0 0.049815856916456687 -0.01276632384153571 0 0.04989277522619974 -0.01332166997319824 0 0.050499023162088992 -0.013057831986588107 0 0.050554054853981428 -0.013763655522189623 0 0.050499023162088992 -0.013057831986588107 0 0.050554054853981428 -0.013763655522189623 0 0.051133675017907131 -0.01339457246150412 0 0.050554054853981428 -0.013763655522189623 0 0.049970587528350846 -0.013858440317894226 0 0.050476387483793177 -0.01430453280390517 0 0.04989277522619974 -0.01332166997319824 0 0.050554054853981428 -0.013763655522189623 0 0.049970587528350846 -0.013858440317894226 0 0.049970587528350846 -0.013858440317894226 0 0.050476387483793177 -0.01430453280390517 0 0.050027229338513564 -0.014274746759006566 0 0.050558267305854852 -0.014596965958155503 0 0.050476387483793177 -0.01430453280390517 0 0.050027229338513564 -0.014274746759006566 0 0.050558267305854852 -0.014596965958155503 0 0.050476387483793177 -0.01430453280390517 0 0.050850785687324609 -0.014592345190426051 0 0.050476387483793177 -0.01430453280390517 0 0.051239074191446014 -0.014226429899456057 0 0.050850785687324609 -0.014592345190426051 0 0.050554054853981428 -0.013763655522189623 0 0.050476387483793177 -0.01430453280390517 0 0.051239074191446014 -0.014226429899456057 0 0.054509865159438849 -0.007107984007763404 0 0.055126741708908487 -0.0074275534910528641 0 0.058972570929868739 -0.00091238273420130109 0 0.058880653552416153 -0.00090142463163801886 0 0.0589620122036143 -0.00086196579281170877 0 0.058970392081561879 -0.0008276288228526048 0 0.058880653552416153 -0.00090142463163801886 0 0.0589620122036143 -0.00086196579281170877 0 0.058972570929868739 -0.00091238273420130109 0 0.0589620122036143 -0.00086196579281170877 0 0.058989856614780345 -0.00086648348814483936 0 0.0589620122036143 -0.00086196579281170877 0 0.058981151788581189 -0.00082719426184625763 0 0.058989856614780345 -0.00086648348814483936 0 0.058970392081561879 -0.0008276288228526048 0 0.058993195194449462 -0.00082989963098748334 0 0.058981151788581189 -0.00082719426184625763 0 0.058970392081561879 -0.0008276288228526048 0 0.0589620122036143 -0.00086196579281170877 0 0.058981151788581189 -0.00082719426184625763 0 0.058970392081561879 -0.0008276288228526048 0 0.059140009673531967 -0.00090034289008288787 0 0.058993195194449462 -0.00082989963098748334 0 0.054509865159438849 -0.007107984007763404 0 0.05358733047053401 -0.0064799266173192543 0 0.059140009673531967 -0.00090034289008288787 0 0.0589348606261519 -0.00091225640158359273 0 0.058993195194449462 -0.00082989963098748334 0 0.050554054853981428 -0.013763655522189623 0 0.051239074191446014 -0.014226429899456057 0 0.051133675017907131 -0.01339457246150412 0 0.051239074191446014 -0.014226429899456057 0 0.051133675017907131 -0.01339457246150412 0 0.051896250469068074 -0.013542002791522746 0 0.051133675017907131 -0.01339457246150412 0 0.051705683231835664 -0.012969946356379013 0 0.051173266751134892 -0.012653606196765874 0 0.050499023162088992 -0.013057831986588107 0 0.051133675017907131 -0.01339457246150412 0 0.051173266751134892 -0.012653606196765874 0 0.051896250469068074 -0.013542002791522746 0 0.052729790320488523 -0.012545919335768776 0 0.051705683231835664 -0.012969946356379013 0 0.051133675017907131 -0.01339457246150412 0 0.051896250469068074 -0.013542002791522746 0 0.051705683231835664 -0.012969946356379013 0 0.05358733047053401 -0.0064799266173192543 0 0.051383267684537819 -0.0057932548403082608 0 0.058687421436110915 -0.0012059883339940827 0 0.057865097062763958 8.9952101427946644e-05 0 0.058294013318551136 0.00095442641870937314 0 0.059140009673531967 -0.00090034289008288787 0 0.058687421436110915 -0.0012059883339940827 0 0.059071792962902471 -0.0020005034950281346 0 0.058687421436110915 -0.0012059883339940827 0 0.058908967196564972 -0.00080515921161600354 0 0.0589348606261519 -0.00091225640158359273 0 0.059140009673531967 -0.00090034289008288787 0 0.058687421436110915 -0.0012059883339940827 0 0.0589348606261519 -0.00091225640158359273 0 0.058911718043618784 -0.00050945180229732326 0 0.058925473163646207 -7.0622157230527957e-05 0 0.058687421436110915 -0.0012059883339940827 0 0.057574186337540578 -0.0012253780278572957 0 0.057865097062763958 8.9952101427946644e-05 0 0.057865097062763958 8.9952101427946644e-05 0 0.056599325194125361 0.00014656913623798279 0 0.056790234247912297 -0.00089828887657788853 0 0.057574186337540578 -0.0012253780278572957 0 0.057865097062763958 8.9952101427946644e-05 0 0.056790234247912297 -0.00089828887657788853 0 0.057574186337540578 -0.0012253780278572957 0 0.056790234247912297 -0.00089828887657788853 0 0.056678148976203026 -0.0017738768915557684 0 0.057865097062763958 8.9952101427946644e-05 0 0.058294013318551136 0.00095442641870937314 0 0.057526540272217784 0.0018254546618629746 0 0.057865097062763958 8.9952101427946644e-05 0 0.05672449146966483 0.00093774635188276407 0 0.056998546297396202 0.00084141004605652883 0 0.058055632609444748 0.00058488180639342793 0 0.058093808406896735 0.00095118129656641547 0 0.057865097062763958 8.9952101427946644e-05 0 0.056998546297396202 0.00084141004605652883 0 0.056599325194125361 0.00014656913623798279 0 0.058908967196564972 -0.00080515921161600354 0 0.0589348606261519 -0.00091225640158359273 0 0.058993195194449462 -0.00082989963098748334 0 0.058908967196564972 -0.00080515921161600354 0 0.058993195194449462 -0.00082989963098748334 0 0.058981151788581189 -0.00082719426184625763 0 0.058925473163646207 -7.0622157230527957e-05 0 0.05908838186891751 0.000420592740046451 0 0.058908967196564972 -0.00080515921161600354 0 0.058981151788581189 -0.00082719426184625763 0 0.059016878840379289 -0.00084795309769175034 0 0.059060743373248542 -0.00094274258850530362 0 0.059009132391096959 -0.00090569018095262128 0 0.059016878840379289 -0.00084795309769175034 0 0.058981151788581189 -0.00082719426184625763 0 0.058989856614780345 -0.00086648348814483936 0 0.059016878840379289 -0.00084795309769175034 0 0.059009132391096959 -0.00090569018095262128 0 0.058989856614780345 -0.00086648348814483936 0 0.059016878840379289 -0.00084795309769175034 0 0.059009132391096959 -0.00090569018095262128 0 0.058972570929868739 -0.00091238273420130109 0 0.058989856614780345 -0.00086648348814483936 0 0.057844709418740599 0.002773134171796776 0 0.057710212179154341 0.0023716449244693314 0 0.058015064188850468 0.0021418176087645096 0 0.057710212179154341 0.0023716449244693314 0 0.058015064188850468 0.0021418176087645096 0 0.057526540272217784 0.0018254546618629746 0 0.059578133885011771 0.00043378350573270851 0 0.05908838186891751 0.000420592740046451 0 0.057417405804938905 0.0026588075088148102 0 0.057710212179154341 0.0023716449244693314 0 0.057526540272217784 0.0018254546618629746 0 0.058294013318551136 0.00095442641870937314 0 0.058015064188850468 0.0021418176087645096 0 0.057526540272217784 0.0018254546618629746 0 0.05672449146966483 0.00093774635188276407 0 0.058067749997234297 -0.00023156262136021287 0 0.056822531512446761 0.0017955468359453302 0 0.05672449146966483 0.00093774635188276407 0 0.056822531512446761 0.0017955468359453302 0 0.056998546297396202 0.00084141004605652883 0 0.059376144640837632 -0.0015058711510279891 0 0.057985470107078871 -0.0017259821601504442 0 0.058067749997234297 -0.00023156262136021287 0 0.057985470107078871 -0.0017259821601504442 0 0.05672449146966483 0.00093774635188276407 0 0.058067749997234297 -0.00023156262136021287 0 0.058881623370863147 0.00062914969653940749 0 0.058093808406896735 0.00095118129656641547 0 0.060531993878052442 -0.0017084107055664447 0 0.059376144640837632 -0.0015058711510279891 0 0.059601619720461144 -0.00053698532591910043 0 0.059376144640837632 -0.0015058711510279891 0 0.058067749997234297 -0.00023156262136021287 0 0.059601619720461144 -0.00053698532591910043 0 0.058067749997234297 -0.00023156262136021287 0 0.059601619720461144 -0.00053698532591910043 0 0.056822531512446761 0.0017955468359453302 0 0.059601619720461144 -0.00053698532591910043 0 0.056822531512446761 0.0017955468359453302 0 0.060367099671185927 0.00074496853953868764 0 0.056822531512446761 0.0017955468359453302 0 0.056599325194125361 0.00014656913623798279 0 0.053205402528390719 -0.00049860368758730569 0 0.056822531512446761 0.0017955468359453302 0 0.053205402528390719 -0.00049860368758730569 0 0.05053179545067172 0.0040194752824127709 0 0.054781723765862197 0.0015469212021973937 0 0.053827799738086476 0.0014327759004834565 0 0.056822531512446761 0.0017955468359453302 0 0.056998546297396202 0.00084141004605652883 0 0.056599325194125361 0.00014656913623798279 0 0.056599325194125361 0.00014656913623798279 0 0.055565878390592467 -0.0010715800562757483 0 0.053205402528390719 -0.00049860368758730569 0 0.056599325194125361 0.00014656913623798279 0 0.056790234247912297 -0.00089828887657788853 0 0.055565878390592467 -0.0010715800562757483 0 0.056790234247912297 -0.00089828887657788853 0 0.055565878390592467 -0.0010715800562757483 0 0.055891295446380489 -0.0017964527264613436 0 0.055565878390592467 -0.0010715800562757483 0 0.053205402528390719 -0.00049860368758730569 0 0.055019441272456622 -0.0019743727074699544 0 0.053205402528390719 -0.00049860368758730569 0 0.05452777501908735 -0.0030225862081548773 0 0.055019441272456622 -0.0019743727074699544 0 0.053205402528390719 -0.00049860368758730569 0 0.053906944137080019 -0.0063891965083285882 0 0.051191737482639943 -0.0032992277846643947 0 0.049054296768262597 -0.0032667559686050608 0 0.047930095807644763 -0.0046758650372229404 0 0.05452777501908735 -0.0030225862081548773 0 0.055128996938004771 -0.0027741583771050534 0 0.055019441272456622 -0.0019743727074699544 0 0.053906944137080019 -0.0063891965083285882 0 0.051940052318342957 -0.006672831730446571 0 0.051191737482639943 -0.0032992277846643947 0 0.055565878390592467 -0.0010715800562757483 0 0.055019441272456622 -0.0019743727074699544 0 0.055891295446380489 -0.0017964527264613436 0 0.055019441272456622 -0.0019743727074699544 0 0.055891295446380489 -0.0017964527264613436 0 0.055567529526830729 -0.0024293035385473658 0 0.056790234247912297 -0.00089828887657788853 0 0.055891295446380489 -0.0017964527264613436 0 0.056678148976203026 -0.0017738768915557684 0 0.055891295446380489 -0.0017964527264613436 0 0.056678148976203026 -0.0017738768915557684 0 0.056331512733508643 -0.002552722045607241 0 0.056678148976203026 -0.0017738768915557684 0 0.056331512733508643 -0.002552722045607241 0 0.057139738666192361 -0.0021686825244902719 0 0.055891295446380489 -0.0017964527264613436 0 0.056331512733508643 -0.002552722045607241 0 0.055567529526830729 -0.0024293035385473658 0 0.055128996938004771 -0.0027741583771050534 0 0.055019441272456622 -0.0019743727074699544 0 0.055567529526830729 -0.0024293035385473658 0 0.056331512733508643 -0.002552722045607241 0 0.055567529526830729 -0.0024293035385473658 0 0.055772050814532542 -0.0029337556929027813 0 0.055128996938004771 -0.0027741583771050534 0 0.055567529526830729 -0.0024293035385473658 0 0.055772050814532542 -0.0029337556929027813 0 0.055128996938004771 -0.0027741583771050534 0 0.055772050814532542 -0.0029337556929027813 0 0.055422034747950953 -0.0036034726522997927 0 0.055422034747950953 -0.0036034726522997927 0 0.055987441548195814 -0.0042430619613340785 0 0.055096160236272111 -0.0052539852556831501 0 0.055772050814532542 -0.0029337556929027813 0 0.055422034747950953 -0.0036034726522997927 0 0.05613293711615356 -0.003335495099615355 0 0.05613293711615356 -0.003335495099615355 0 0.056738605930882223 -0.0039084225032291857 0 0.057016941911548047 -0.0029243075336128654 0 0.056331512733508643 -0.002552722045607241 0 0.055772050814532542 -0.0029337556929027813 0 0.05613293711615356 -0.003335495099615355 0 0.056331512733508643 -0.002552722045607241 0 0.05613293711615356 -0.003335495099615355 0 0.057016941911548047 -0.0029243075336128654 0 0.05613293711615356 -0.003335495099615355 0 0.055987441548195814 -0.0042430619613340785 0 0.056738605930882223 -0.0039084225032291857 0 0.055987441548195814 -0.0042430619613340785 0 0.056426931983419699 -0.0047932550949943819 0 0.056738605930882223 -0.0039084225032291857 0 0.055422034747950953 -0.0036034726522997927 0 0.05613293711615356 -0.003335495099615355 0 0.055987441548195814 -0.0042430619613340785 0 0.053736161649476803 -0.007520280511460027 0 0.055133714422892867 -0.011928573109001257 0 0.050199623139715516 -0.0094528189108287058 0 0.047930095807644763 -0.0046758650372229404 0 0.042275602623793179 -0.0028434424364331312 0 0.044435094979040711 -0.0032836970322620753 0 0.041197240230633515 -0.0037381101982138535 0 0.053736161649476803 -0.007520280511460027 0 0.051940052318342957 -0.006672831730446571 0 0.049902067913766224 -0.009839927848831866 0 0.05452777501908735 -0.0030225862081548773 0 0.055422034747950953 -0.0036034726522997927 0 0.055096160236272111 -0.0052539852556831501 0 0.053906944137080019 -0.0063891965083285882 0 0.053736161649476803 -0.007520280511460027 0 0.055133714422892867 -0.011928573109001257 0 0.05452777501908735 -0.0030225862081548773 0 0.055128996938004771 -0.0027741583771050534 0 0.055422034747950953 -0.0036034726522997927 0 0.053906944137080019 -0.0063891965083285882 0 0.053736161649476803 -0.007520280511460027 0 0.051940052318342957 -0.006672831730446571 0 0.042275602623793179 -0.0028434424364331312 0 0.041197240230633515 -0.0037381101982138535 0 0.030827626202544069 0.00087295541707782336 0 0.030590153334273441 0.0010064249611210299 0 0.030606000943103423 0.00076088943208040753 0 0.030827626202544069 0.00087295541707782336 0 0.030749507503710929 0.00074365483750067228 0 0.030606000943103423 0.00076088943208040753 0 0.030827626202544069 0.00087295541707782336 0 0.030749507503710929 0.00074365483750067228 0 0.030844504335322549 0.00068201690913070683 0 0.030749507503710929 0.00074365483750067228 0 0.030709910751774875 0.00066482882906578555 0 0.030844504335322549 0.00068201690913070683 0 0.030749507503710929 0.00074365483750067228 0 0.030606000943103423 0.00076088943208040753 0 0.030709910751774875 0.00066482882906578555 0 0.03225078180109188 0.00030035767778040592 0 0.032221085704036652 0.00032877360648096298 0 0.032205588515992756 0.00031672363547581692 0 0.03225078180109188 0.00030035767778040592 0 0.032224030350384007 0.0003181707720220994 0 0.032221085704036652 0.00032877360648096298 0 0.042275602623793179 -0.0028434424364331312 0 0.036673425548380864 0.00029023274281538166 0 0.055096160236272111 -0.0052539852556831501 0 0.056426931983419699 -0.0047932550949943819 0 0.057026342115504836 -0.0062442336049866017 0 0.042275602623793179 -0.0028434424364331312 0 0.042781597428463415 -0.0014085814171380111 0 0.055987441548195814 -0.0042430619613340785 0 0.055096160236272111 -0.0052539852556831501 0 0.056426931983419699 -0.0047932550949943819 0 0.056426931983419699 -0.0047932550949943819 0 0.057165090930070911 -0.0046141031289397422 0 0.056738605930882223 -0.0039084225032291857 0 0.056426931983419699 -0.0047932550949943819 0 0.057165090930070911 -0.0046141031289397422 0 0.057026342115504836 -0.0062442336049866017 0 0.045949475286122012 -0.0056522234864951086 0 0.042781597428463415 -0.0014085814171380111 0 0.034036874391891382 -0.0022110096941167145 0 0.034754095507557987 -0.00081040817596272614 0 0.033889826551741109 -0.0012407979402207084 0 0.057165090930070911 -0.0046141031289397422 0 0.058043911615935452 -0.0043917060728504188 0 0.057026342115504836 -0.0062442336049866017 0 0.034754095507557987 -0.00081040817596272614 0 0.033595551684491867 -0.00077039208192011962 0 0.033889826551741109 -0.0012407979402207084 0 0.042781597428463415 -0.0014085814171380111 0 0.036878913281065323 0.00049336975664389371 0 0.032241291334786169 0.00037372047779369514 0 0.032262077594395408 0.00033709132259196505 0 0.032333550506262271 0.00036384090868237152 0 0.042781597428463415 -0.0014085814171380111 0 0.042438592560642412 -0.001561062042390382 0 0.032262077594395408 0.00033709132259196505 0 0.032221085704036652 0.00032877360648096298 0 0.0322354042761809 0.00030576135353596492 0 0.032241291334786169 0.00037372047779369514 0 0.032262077594395408 0.00033709132259196505 0 0.032221085704036652 0.00032877360648096298 0 0.033537220180312903 -0.00026125133908815821 0 0.03306282923263227 -0.00073679555956048394 0 0.032536909619006904 0.00015045305046884906 0 0.034754095507557987 -0.00081040817596272614 0 0.033537220180312903 -0.00026125133908815821 0 0.033595551684491867 -0.00077039208192011962 0 0.033595551684491867 -0.00077039208192011962 0 0.03306282923263227 -0.00073679555956048394 0 0.033889826551741109 -0.0012407979402207084 0 0.033537220180312903 -0.00026125133908815821 0 0.033595551684491867 -0.00077039208192011962 0 0.03306282923263227 -0.00073679555956048394 0 0.053514220884644609 -0.011303368191085577 0 0.052841433922037294 -0.010097560732245171 0 0.052848989211827492 -0.01092570293135583 0 0.045949475286122012 -0.0056522234864951086 0 0.044248654612221154 -0.0047098696368700179 0 0.052841433922037294 -0.010097560732245171 0 0.052848989211827492 -0.01092570293135583 0 0.052531934614937471 -0.010540308776255109 0 0.034036874391891382 -0.0022110096941167145 0 0.03306282923263227 -0.00073679555956048394 0 0.033889826551741109 -0.0012407979402207084 0 0.053514220884644609 -0.011303368191085577 0 0.052848989211827492 -0.01092570293135583 0 0.053005482735713767 -0.011322073941244083 0 0.052848989211827492 -0.01092570293135583 0 0.052594389930952459 -0.01140150890865523 0 0.053005482735713767 -0.011322073941244083 0 0.052594389930952459 -0.01140150890865523 0 0.052819673413675591 -0.011717026869548227 0 0.052325468360719551 -0.012007758503640966 0 0.053514220884644609 -0.011303368191085577 0 0.052819673413675591 -0.011717026869548227 0 0.052729790320488523 -0.012545919335768776 0 0.058100684382245214 -0.0043951644986913027 0 0.057941516008688153 -0.0029968645811853678 0 0.059071792962902471 -0.0020005034950281346 0 0.045949475286122012 -0.0056522234864951086 0 0.051383267684537819 -0.0057932548403082608 0 0.052594389930952459 -0.01140150890865523 0 0.053005482735713767 -0.011322073941244083 0 0.052819673413675591 -0.011717026869548227 0 0.052819673413675591 -0.011717026869548227 0 0.052729790320488523 -0.012545919335768776 0 0.052325468360719551 -0.012007758503640966 0 0.053514220884644609 -0.011303368191085577 0 0.053005482735713767 -0.011322073941244083 0 0.052819673413675591 -0.011717026869548227 0 0.045949475286122012 -0.0056522234864951086 0 0.046515929927217439 -0.0059417154263347914 0 0.057165090930070911 -0.0046141031289397422 0 0.058043911615935452 -0.0043917060728504188 0 0.057602065555697725 -0.0036904099147617771 0 0.058100684382245214 -0.0043951644986913027 0 0.057602065555697725 -0.0036904099147617771 0 0.057941516008688153 -0.0029968645811853678 0 0.057165090930070911 -0.0046141031289397422 0 0.057602065555697725 -0.0036904099147617771 0 0.056738605930882223 -0.0039084225032291857 0 0.057602065555697725 -0.0036904099147617771 0 0.056738605930882223 -0.0039084225032291857 0 0.057016941911548047 -0.0029243075336128654 0 0.057602065555697725 -0.0036904099147617771 0 0.057016941911548047 -0.0029243075336128654 0 0.057941516008688153 -0.0029968645811853678 0 0.057016941911548047 -0.0029243075336128654 0 0.057941516008688153 -0.0029968645811853678 0 0.057904164631328123 -0.0020574622860444866 0 0.056331512733508643 -0.002552722045607241 0 0.057016941911548047 -0.0029243075336128654 0 0.057139738666192361 -0.0021686825244902719 0 0.057016941911548047 -0.0029243075336128654 0 0.057904164631328123 -0.0020574622860444866 0 0.057139738666192361 -0.0021686825244902719 0 0.057574186337540578 -0.0012253780278572957 0 0.056678148976203026 -0.0017738768915557684 0 0.057139738666192361 -0.0021686825244902719 0 0.058687421436110915 -0.0012059883339940827 0 0.057574186337540578 -0.0012253780278572957 0 0.057904164631328123 -0.0020574622860444866 0 0.057574186337540578 -0.0012253780278572957 0 0.057904164631328123 -0.0020574622860444866 0 0.057139738666192361 -0.0021686825244902719 0 0.058687421436110915 -0.0012059883339940827 0 0.057904164631328123 -0.0020574622860444866 0 0.059071792962902471 -0.0020005034950281346 0 0.057941516008688153 -0.0029968645811853678 0 0.057904164631328123 -0.0020574622860444866 0 0.059071792962902471 -0.0020005034950281346 0 0.052729790320488523 -0.012545919335768776 0 0.051870765286870756 -0.01241041472892705 0 0.051705683231835664 -0.012969946356379013 0 0.052729790320488523 -0.012545919335768776 0 0.051870765286870756 -0.01241041472892705 0 0.052325468360719551 -0.012007758503640966 0 0.051870765286870756 -0.01241041472892705 0 0.051173266751134892 -0.012653606196765874 0 0.051584265154645891 -0.011810738014903274 0 0.051870765286870756 -0.01241041472892705 0 0.051705683231835664 -0.012969946356379013 0 0.051173266751134892 -0.012653606196765874 0 0.051584265154645891 -0.011810738014903274 0 0.050937841134008913 -0.011403250194373353 0 0.050488425328264024 -0.012201904991115736 0 0.051173266751134892 -0.012653606196765874 0 0.051584265154645891 -0.011810738014903274 0 0.050488425328264024 -0.012201904991115736 0 0.051584265154645891 -0.011810738014903274 0 0.052109370822872189 -0.011444319640915539 0 0.051652102928939327 -0.010936148860352112 0 0.051584265154645891 -0.011810738014903274 0 0.052109370822872189 -0.011444319640915539 0 0.052325468360719551 -0.012007758503640966 0 0.051870765286870756 -0.01241041472892705 0 0.051584265154645891 -0.011810738014903274 0 0.052325468360719551 -0.012007758503640966 0 0.052594389930952459 -0.01140150890865523 0 0.052109370822872189 -0.011444319640915539 0 0.052325468360719551 -0.012007758503640966 0 0.052848989211827492 -0.01092570293135583 0 0.052594389930952459 -0.01140150890865523 0 0.052394654388204315 -0.010982248317356566 0 0.052594389930952459 -0.01140150890865523 0 0.052109370822872189 -0.011444319640915539 0 0.052394654388204315 -0.010982248317356566 0 0.052109370822872189 -0.011444319640915539 0 0.052394654388204315 -0.010982248317356566 0 0.051652102928939327 -0.010936148860352112 0 0.052166897601669412 -0.010555199303880677 0 0.051840706168950181 -0.0102066725365578 0 0.051652102928939327 -0.010936148860352112 0 0.052394654388204315 -0.010982248317356566 0 0.052166897601669412 -0.010555199303880677 0 0.051652102928939327 -0.010936148860352112 0 0.052848989211827492 -0.01092570293135583 0 0.052394654388204315 -0.010982248317356566 0 0.052531934614937471 -0.010540308776255109 0 0.052394654388204315 -0.010982248317356566 0 0.052166897601669412 -0.010555199303880677 0 0.052531934614937471 -0.010540308776255109 0 0.052166897601669412 -0.010555199303880677 0 0.052531934614937471 -0.010540308776255109 0 0.052300777457507351 -0.010220032776496368 0 0.052841433922037294 -0.010097560732245171 0 0.052099002383740392 -0.0096895181452987863 0 0.052184385049643164 -0.0086553713404276256 0 0.044248654612221154 -0.0047098696368700179 0 0.043454944004411265 -0.0037293625122071794 0 0.052841433922037294 -0.010097560732245171 0 0.052300777457507351 -0.010220032776496368 0 0.052099002383740392 -0.0096895181452987863 0 0.052841433922037294 -0.010097560732245171 0 0.052531934614937471 -0.010540308776255109 0 0.052300777457507351 -0.010220032776496368 0 0.052300777457507351 -0.010220032776496368 0 0.051840706168950181 -0.0102066725365578 0 0.052099002383740392 -0.0096895181452987863 0 0.051840706168950181 -0.0102066725365578 0 0.052099002383740392 -0.0096895181452987863 0 0.051537095357069962 -0.0098186263761636354 0 0.052166897601669412 -0.010555199303880677 0 0.052300777457507351 -0.010220032776496368 0 0.051840706168950181 -0.0102066725365578 0 0.050960860946391601 -0.0097872950876949794 0 0.051537095357069962 -0.0098186263761636354 0 0.051449492608681271 -0.0091539196832733562 0 0.052099002383740392 -0.0096895181452987863 0 0.051537095357069962 -0.0098186263761636354 0 0.051449492608681271 -0.0091539196832733562 0 0.051840706168950181 -0.0102066725365578 0 0.051537095357069962 -0.0098186263761636354 0 0.051327803555892046 -0.010285969183888792 0 0.050960860946391601 -0.0097872950876949794 0 0.051327803555892046 -0.010285969183888792 0 0.050799273567365001 -0.010683782383758994 0 0.050960860946391601 -0.0097872950876949794 0 0.051537095357069962 -0.0098186263761636354 0 0.051327803555892046 -0.010285969183888792 0 0.051327803555892046 -0.010285969183888792 0 0.051652102928939327 -0.010936148860352112 0 0.050799273567365001 -0.010683782383758994 0 0.051840706168950181 -0.0102066725365578 0 0.051327803555892046 -0.010285969183888792 0 0.051652102928939327 -0.010936148860352112 0 0.051584265154645891 -0.011810738014903274 0 0.051652102928939327 -0.010936148860352112 0 0.050937841134008913 -0.011403250194373353 0 0.051652102928939327 -0.010936148860352112 0 0.050937841134008913 -0.011403250194373353 0 0.050799273567365001 -0.010683782383758994 0 0.050031813717189275 -0.011326377852116399 0 0.050799273567365001 -0.010683782383758994 0 0.050199233071089346 -0.01007026295727949 0 0.050937841134008913 -0.011403250194373353 0 0.050031813717189275 -0.011326377852116399 0 0.050799273567365001 -0.010683782383758994 0 0.050960860946391601 -0.0097872950876949794 0 0.050799273567365001 -0.010683782383758994 0 0.050199233071089346 -0.01007026295727949 0 0.050960860946391601 -0.0097872950876949794 0 0.050199233071089346 -0.01007026295727949 0 0.050453783270485289 -0.0089079579048296151 0 0.049235413232500448 -0.010465653353170391 0 0.048921115128412428 -0.0088773473343465234 0 0.04803117566214804 -0.010262992861011139 0 0.050199233071089346 -0.01007026295727949 0 0.049235413232500448 -0.010465653353170391 0 0.048921115128412428 -0.0088773473343465234 0 0.050031813717189275 -0.011326377852116399 0 0.049235413232500448 -0.010465653353170391 0 0.048861755307973945 -0.011489284203904349 0 0.050031813717189275 -0.011326377852116399 0 0.050199233071089346 -0.01007026295727949 0 0.049235413232500448 -0.010465653353170391 0 0.050031813717189275 -0.011326377852116399 0 0.049476226632422904 -0.012152059186544809 0 0.048861755307973945 -0.011489284203904349 0 0.050937841134008913 -0.011403250194373353 0 0.050031813717189275 -0.011326377852116399 0 0.050488425328264024 -0.012201904991115736 0 0.050031813717189275 -0.011326377852116399 0 0.049476226632422904 -0.012152059186544809 0 0.050488425328264024 -0.012201904991115736 0 0.050499023162088992 -0.013057831986588107 0 0.050488425328264024 -0.012201904991115736 0 0.049815856916456687 -0.01276632384153571 0 0.050499023162088992 -0.013057831986588107 0 0.051173266751134892 -0.012653606196765874 0 0.050488425328264024 -0.012201904991115736 0 0.049476226632422904 -0.012152059186544809 0 0.050488425328264024 -0.012201904991115736 0 0.049815856916456687 -0.01276632384153571 0 0.049476226632422904 -0.012152059186544809 0 0.049815856916456687 -0.01276632384153571 0 0.049147920071116249 -0.012888351161016392 0 0.04989277522619974 -0.01332166997319824 0 0.049815856916456687 -0.01276632384153571 0 0.049147920071116249 -0.012888351161016392 0 0.038077329351608298 -0.00042556025025800828 0 0.038239194527245897 4.770900901566346e-05 0 0.038334739159197294 1.2273136126832026e-05 0 0.038077329351608298 -0.00042556025025800828 0 0.038334739159197294 1.2273136126832026e-05 0 0.039388302253375203 -0.00028339076778602709 0 0.040064883994603499 -0.00059084337869409721 0 0.04567224553420865 -5.0920708201841484e-05 0 0.038077329351608298 -0.00042556025025800828 0 0.038506062519524459 0.00048057009161462776 0 0.038239194527245897 4.770900901566346e-05 0 0.038077329351608298 -0.00042556025025800828 0 0.038506062519524459 0.00048057009161462776 0 0.039105503944850087 0.0016690899487048223 0 0.038506062519524459 0.00048057009161462776 0 0.038239194527245897 4.770900901566346e-05 0 0.03825123639769188 -4.997421476961553e-05 0 0.038506062519524459 0.00048057009161462776 0 0.03825123639769188 -4.997421476961553e-05 0 0.038751880150109844 3.5090018209201695e-05 0 0.03825123639769188 -4.997421476961553e-05 0 0.03835095731795779 -0.00041956811119561618 0 0.038751880150109844 3.5090018209201695e-05 0 0.03825123639769188 -4.997421476961553e-05 0 0.03835095731795779 -0.00041956811119561618 0 0.038081198981447018 -0.00018048211158639769 0 0.038334739159197294 1.2273136126832026e-05 0 0.038354223708959342 8.2872778502566356e-05 0 0.038081198981447018 -0.00018048211158639769 0 0.038334739159197294 1.2273136126832026e-05 0 0.038354223708959342 8.2872778502566356e-05 0 0.039251109364383766 4.7011656556025551e-05 0 0.03825123639769188 -4.997421476961553e-05 0 0.038334739159197294 1.2273136126832026e-05 0 0.038081198981447018 -0.00018048211158639769 0 0.038239194527245897 4.770900901566346e-05 0 0.03825123639769188 -4.997421476961553e-05 0 0.038334739159197294 1.2273136126832026e-05 0 0.038354223708959342 8.2872778502566356e-05 0 0.039251109364383766 4.7011656556025551e-05 0 0.038551798296545897 0.00026287009654112504 0 0.039251109364383766 4.7011656556025551e-05 0 0.04048044314324508 3.1879270404140713e-05 0 0.038551798296545897 0.00026287009654112504 0 0.038334739159197294 1.2273136126832026e-05 0 0.039251109364383766 4.7011656556025551e-05 0 0.039388302253375203 -0.00028339076778602709 0 0.039251109364383766 4.7011656556025551e-05 0 0.04048044314324508 3.1879270404140713e-05 0 0.040485943615140151 -0.00027035768365226342 0 0.041605704576688302 2.9605709351056585e-07 0 0.04048044314324508 3.1879270404140713e-05 0 0.038551798296545897 0.00026287009654112504 0 0.041605704576688302 2.9605709351056585e-07 0 0.04048044314324508 3.1879270404140713e-05 0 0.042927710538567594 -0.00020991353843035165 0 0.041605704576688302 2.9605709351056585e-07 0 0.042927710538567594 -0.00020991353843035165 0 0.045054105682382432 -1.2239541045723897e-06 0 0.042927710538567594 -0.00020991353843035165 0 0.041410673689003273 -0.0014210628441696097 0 0.042165772615729569 -0.0029781153364929398 0 0.04048044314324508 3.1879270404140713e-05 0 0.042927710538567594 -0.00020991353843035165 0 0.040485943615140151 -0.00027035768365226342 0 0.042927710538567594 -0.00020991353843035165 0 0.040485943615140151 -0.00027035768365226342 0 0.041410673689003273 -0.0014210628441696097 0 0.040064883994603499 -0.00059084337869409721 0 0.040468775971236763 -0.00079606664434887916 0 0.038077329351608298 -0.00042556025025800828 0 0.041410673689003273 -0.0014210628441696097 0 0.039388302253375203 -0.00028339076778602709 0 0.040485943615140151 -0.00027035768365226342 0 0.041410673689003273 -0.0014210628441696097 0 0.039388302253375203 -0.00028339076778602709 0 0.039251109364383766 4.7011656556025551e-05 0 0.040485943615140151 -0.00027035768365226342 0 0.039388302253375203 -0.00028339076778602709 0 0.041410673689003273 -0.0014210628441696097 0 0.039506967144757571 -0.0025046544331691922 0 0.040764536674700327 -0.0028698430490812672 0 0.038343015454680093 -0.0017411967578072672 0 0.041410673689003273 -0.0014210628441696097 0 0.039506967144757571 -0.0025046544331691922 0 0.040764536674700327 -0.0028698430490812672 0 0.041143249392837207 -0.0035983157262114 0 0.039654817840998606 -0.0036964044204104212 0 0.039506967144757571 -0.0025046544331691922 0 0.040764536674700327 -0.0028698430490812672 0 0.039654817840998606 -0.0036964044204104212 0 0.046952986100218669 -0.00017584718768773105 0 0.047394283359358358 -0.00058409393166232557 0 0.042927710538567594 -0.00020991353843035165 0 0.045054105682382432 -1.2239541045723897e-06 0 0.045980280113259421 2.8721815334840277e-05 0 0.045054105682382432 -1.2239541045723897e-06 0 0.045980280113259421 2.8721815334840277e-05 0 0.048499338494168008 5.2202787538377183e-07 0 0.041410673689003273 -0.0014210628441696097 0 0.040764536674700327 -0.0028698430490812672 0 0.042165772615729569 -0.0029781153364929398 0 0.040764536674700327 -0.0028698430490812672 0 0.042165772615729569 -0.0029781153364929398 0 0.041143249392837207 -0.0035983157262114 0 0.042165772615729569 -0.0029781153364929398 0 0.041143249392837207 -0.0035983157262114 0 0.042014604818190318 -0.0048213561508397423 0 0.047394283359358358 -0.00058409393166232557 0 0.048683580262228444 -0.0010216491644939327 0 0.041143249392837207 -0.0035983157262114 0 0.042014604818190318 -0.0048213561508397423 0 0.039654817840998606 -0.0036964044204104212 0 0.045980280113259421 2.8721815334840277e-05 0 0.047889425715343242 -2.9679614317152549e-05 0 0.048499338494168008 5.2202787538377183e-07 0 0.048683580262228444 -0.0010216491644939327 0 0.048500123529743748 -7.0806725244586036e-06 0 0.059043793278232823 -0.0024974015272806321 0 0.058091274225964259 -0.0030201424875164998 0 0.059519250471051617 -0.0031338752200643291 0 0.048683580262228444 -0.0010216491644939327 0 0.049267358046592255 -0.0019233401465770523 0 0.059043793278232823 -0.0024974015272806321 0 0.059519250471051617 -0.0031338752200643291 0 0.060324160264032985 -0.0024148632243221357 0 0.060324160264032985 -0.0024148632243221357 0 0.060475315838589366 -0.0026366021451835085 0 0.061095227643004929 -0.0023357750374289367 0 0.059519250471051617 -0.0031338752200643291 0 0.060324160264032985 -0.0024148632243221357 0 0.060475315838589366 -0.0026366021451835085 0 0.059519250471051617 -0.0031338752200643291 0 0.060475315838589366 -0.0026366021451835085 0 0.060878049329192538 -0.0026793799066237552 0 0.049267358046592255 -0.0019233401465770523 0 0.048423799573684645 -0.001581005585036708 0 0.039506967144757571 -0.0025046544331691922 0 0.039654817840998606 -0.0036964044204104212 0 0.03757007615165088 -0.0026327578898030614 0 0.038343015454680093 -0.0017411967578072672 0 0.039506967144757571 -0.0025046544331691922 0 0.03757007615165088 -0.0026327578898030614 0 0.048423799573684645 -0.001581005585036708 0 0.04567224553420865 -5.0920708201841484e-05 0 0.060878049329192538 -0.0026793799066237552 0 0.061095227643004929 -0.0023357750374289367 0 0.061584203728643913 -0.001967898701134679 0 0.038343015454680093 -0.0017411967578072672 0 0.03757007615165088 -0.0026327578898030614 0 0.035689241216619379 -0.0017765178379133505 0 0.061202411758462957 -0.0019528531912421634 0 0.061095227643004929 -0.0023357750374289367 0 0.061555659520272782 -0.0019557889487215145 0 0.061202411758462957 -0.0019528531912421634 0 0.060324160264032985 -0.0024148632243221357 0 0.061095227643004929 -0.0023357750374289367 0 0.060475315838589366 -0.0026366021451835085 0 0.060878049329192538 -0.0026793799066237552 0 0.061095227643004929 -0.0023357750374289367 0 0.061776891331971714 -0.001817640782340154 0 0.061555659520272782 -0.0019557889487215145 0 0.061735948747997219 -0.0016706924756635824 0 0.062067412672991311 -0.0016509629677392474 0 0.061953318384327341 -0.0014963610125460032 0 0.062076529124843099 -0.0017638122961791123 0 0.061735948747997219 -0.0016706924756635824 0 0.061624432999724532 -0.0012984250959529476 0 0.061672589350439656 -0.0014536720277785651 0 0.061622630917782084 -0.00082429926437562156 0 0.061584203728643913 -0.001967898701134679 0 0.061735948747997219 -0.0016706924756635824 0 0.061624432999724532 -0.0012984250959529476 0 0.061672589350439656 -0.0014536720277785651 0 0.061624432999724532 -0.0012984250959529476 0 0.061672589350439656 -0.0014536720277785651 0 0.061622630917782084 -0.00082429926437562156 0 0.061095227643004929 -0.0023357750374289367 0 0.061555659520272782 -0.0019557889487215145 0 0.061584203728643913 -0.001967898701134679 0 0.061555659520272782 -0.0019557889487215145 0 0.061735948747997219 -0.0016706924756635824 0 0.061584203728643913 -0.001967898701134679 0 0.061735948747997219 -0.0016706924756635824 0 0.061672589350439656 -0.0014536720277785651 0 0.061584203728643913 -0.001967898701134679 0 0.060531993878052442 -0.0017084107055664447 0 0.061280178714383522 -0.0017925835106186478 0 0.060880197553409107 -0.00087734769288687581 0 0.060531993878052442 -0.0017084107055664447 0 0.059601619720461144 -0.00053698532591910043 0 0.060880197553409107 -0.00087734769288687581 0 0.061707254628192584 -0.0023370838029666209 0 0.061624432999724532 -0.0012984250959529476 0 0.061280178714383522 -0.0017925835106186478 0 0.061624432999724532 -0.0012984250959529476 0 0.061280178714383522 -0.0017925835106186478 0 0.060880197553409107 -0.00087734769288687581 0 0.061624432999724532 -0.0012984250959529476 0 0.061189468706802461 -0.00060215870497404528 0 0.060880197553409107 -0.00087734769288687581 0 0.061189468706802461 -0.00060215870497404528 0 0.060367099671185927 0.00074496853953868764 0 0.061622630917782084 -0.00082429926437562156 0 0.061624432999724532 -0.0012984250959529476 0 0.061189468706802461 -0.00060215870497404528 0 0.061622630917782084 -0.00082429926437562156 0 0.059601619720461144 -0.00053698532591910043 0 0.060880197553409107 -0.00087734769288687581 0 0.060367099671185927 0.00074496853953868764 0 0.061189468706802461 -0.00060215870497404528 0 0.060880197553409107 -0.00087734769288687581 0 0.060367099671185927 0.00074496853953868764 0 0.053205402528390719 -0.00049860368758730569 0 0.05053179545067172 0.0040194752824127709 0 0.049671211034086657 4.0357618379709936e-06 0 0.05053179545067172 0.0040194752824127709 0 0.046873087279540385 0.0018281022845545931 0 0.049671211034086657 4.0357618379709936e-06 0 0.05053179545067172 0.0040194752824127709 0 0.046873087279540385 0.0018281022845545931 0 0.043655235467130363 0.0045820070272668684 0 0.053827799738086476 0.0014327759004834565 0 0.051097331860332329 0.00092903711167788945 0 0.046873087279540385 0.0018281022845545931 0 0.044514805189548957 0.00059072388064821389 0 0.04258472262725313 0.0019484128645097644 0 0.046873087279540385 0.0018281022845545931 0 0.043655235467130363 0.0045820070272668684 0 0.04258472262725313 0.0019484128645097644 0 0.044514805189548957 0.00059072388064821389 0 0.046811525066827293 -0.0012904679010569897 0 0.043491479112167462 -0.00083343437281220177 0 0.046811525066827293 -0.0012904679010569897 0 0.043491479112167462 -0.00083343437281220177 0 0.044292477120019061 -0.0029840385230000006 0 0.046873087279540385 0.0018281022845545931 0 0.044514805189548957 0.00059072388064821389 0 0.046811525066827293 -0.0012904679010569897 0 0.046873087279540385 0.0018281022845545931 0 0.046811525066827293 -0.0012904679010569897 0 0.049671211034086657 4.0357618379709936e-06 0 0.046811525066827293 -0.0012904679010569897 0 0.049671211034086657 4.0357618379709936e-06 0 0.051191737482639943 -0.0032992277846643947 0 0.053205402528390719 -0.00049860368758730569 0 0.049671211034086657 4.0357618379709936e-06 0 0.051191737482639943 -0.0032992277846643947 0 0.039105503944850087 0.0016690899487048223 0 0.039798807582569456 -0.0001644068151290242 0 0.038751880150109844 3.5090018209201695e-05 0 0.038506062519524459 0.00048057009161462776 0 0.039105503944850087 0.0016690899487048223 0 0.038751880150109844 3.5090018209201695e-05 0 0.039105503944850087 0.0016690899487048223 0 0.041398657027190283 0.00049397904155260442 0 0.039798807582569456 -0.0001644068151290242 0 0.04567224553420865 -5.0920708201841484e-05 0 0.043435531707029407 0.00099306117519189913 0 0.051097331860332329 0.00092903711167788945 0 0.04567224553420865 -5.0920708201841484e-05 0 0.039105503944850087 0.0016690899487048223 0 0.04258472262725313 0.0019484128645097644 0 0.041398657027190283 0.00049397904155260442 0 0.043655235467130363 0.0045820070272668684 0 0.03678992571426213 0.0044902902492480242 0 0.04258472262725313 0.0019484128645097644 0 0.044514805189548957 0.00059072388064821389 0 0.04258472262725313 0.0019484128645097644 0 0.041398657027190283 0.00049397904155260442 0 0.041398657027190283 0.00049397904155260442 0 0.041412196128770791 -0.0011538852385200896 0 0.039798807582569456 -0.0001644068151290242 0 0.044514805189548957 0.00059072388064821389 0 0.041398657027190283 0.00049397904155260442 0 0.043491479112167462 -0.00083343437281220177 0 0.041398657027190283 0.00049397904155260442 0 0.043491479112167462 -0.00083343437281220177 0 0.041412196128770791 -0.0011538852385200896 0 0.043491479112167462 -0.00083343437281220177 0 0.041412196128770791 -0.0011538852385200896 0 0.044292477120019061 -0.0029840385230000006 0 0.041412196128770791 -0.0011538852385200896 0 0.039798807582569456 -0.0001644068151290242 0 0.039870872579028542 -0.0014377679741653022 0 0.039798807582569456 -0.0001644068151290242 0 0.038830596363415404 -0.00095185141547382741 0 0.039870872579028542 -0.0014377679741653022 0 0.039798807582569456 -0.0001644068151290242 0 0.038751880150109844 3.5090018209201695e-05 0 0.038830596363415404 -0.00095185141547382741 0 0.03835095731795779 -0.00041956811119561618 0 0.038751880150109844 3.5090018209201695e-05 0 0.038830596363415404 -0.00095185141547382741 0 0.038830596363415404 -0.00095185141547382741 0 0.038584150995728012 -0.0010743592113672069 0 0.038233864818177192 -0.00062076922877912614 0 0.038830596363415404 -0.00095185141547382741 0 0.038584150995728012 -0.0010743592113672069 0 0.039179034928789706 -0.0019637858513583905 0 0.038584150995728012 -0.0010743592113672069 0 0.039179034928789706 -0.0019637858513583905 0 0.038452990533031223 -0.00086145846625230787 0 0.038830596363415404 -0.00095185141547382741 0 0.039179034928789706 -0.0019637858513583905 0 0.039870872579028542 -0.0014377679741653022 0 0.041412196128770791 -0.0011538852385200896 0 0.039870872579028542 -0.0014377679741653022 0 0.041098031295612014 -0.0028111398004519892 0 0.039179034928789706 -0.0019637858513583905 0 0.039870872579028542 -0.0014377679741653022 0 0.041098031295612014 -0.0028111398004519892 0 0.041412196128770791 -0.0011538852385200896 0 0.041098031295612014 -0.0028111398004519892 0 0.044292477120019061 -0.0029840385230000006 0 0.041098031295612014 -0.0028111398004519892 0 0.044292477120019061 -0.0029840385230000006 0 0.043646757584305591 -0.0049133310341051319 0 0.041098031295612014 -0.0028111398004519892 0 0.041089449447741427 -0.0053886551822291988 0 0.043646757584305591 -0.0049133310341051319 0 0.039179034928789706 -0.0019637858513583905 0 0.038144684501222943 -0.0014500549391596555 0 0.038452990533031223 -0.00086145846625230787 0 0.039199679809907878 -0.0031400267978631989 0 0.039159958919544574 -0.0031558022801619554 0 0.039179034928789706 -0.0019637858513583905 0 0.041098031295612014 -0.0028111398004519892 0 0.041038242309057803 -0.0037686363924717683 0 0.039194317073733914 -0.0031737815417788484 0 0.039159958919544574 -0.0031558022801619554 0 0.039159958919544574 -0.0031558022801619554 0 0.040997398361704782 -0.0039655740174682095 0 0.038415576065535452 -0.0028634020667653759 0 0.038417398801495251 -0.0030113534876607647 0 0.038561290529428499 -0.0029338147544987351 0 0.038144684501222943 -0.0014500549391596555 0 0.038110109827391464 -0.00059757519439398456 0 0.038452990533031223 -0.00086145846625230787 0 0.039159958919544574 -0.0031558022801619554 0 0.037770309196629395 -0.0023896186403838129 0 0.038110109827391464 -0.00059757519439398456 0 0.038452990533031223 -0.00086145846625230787 0 0.037993395257300444 -0.00052515242770218354 0 0.038452990533031223 -0.00086145846625230787 0 0.037993395257300444 -0.00052515242770218354 0 0.03792836586734432 -0.00046763137282917989 0 0.038584150995728012 -0.0010743592113672069 0 0.038452990533031223 -0.00086145846625230787 0 0.03792836586734432 -0.00046763137282917989 0 0.046811525066827293 -0.0012904679010569897 0 0.051191737482639943 -0.0032992277846643947 0 0.047812487526005074 -0.0044924163892774496 0 0.051940052318342957 -0.006672831730446571 0 0.050141457704803716 -0.0063544730279534618 0 0.051191737482639943 -0.0032992277846643947 0 0.050141457704803716 -0.0063544730279534618 0 0.047812487526005074 -0.0044924163892774496 0 0.048235882619014882 -0.0070837569228848511 0 0.050141457704803716 -0.0063544730279534618 0 0.051191737482639943 -0.0032992277846643947 0 0.047812487526005074 -0.0044924163892774496 0 0.045815479669544718 -0.0053850170308884747 0 0.047812487526005074 -0.0044924163892774496 0 0.044292477120019061 -0.0029840385230000006 0 0.045815479669544718 -0.0053850170308884747 0 0.047812487526005074 -0.0044924163892774496 0 0.048235882619014882 -0.0070837569228848511 0 0.046811525066827293 -0.0012904679010569897 0 0.047812487526005074 -0.0044924163892774496 0 0.044292477120019061 -0.0029840385230000006 0 0.045815479669544718 -0.0053850170308884747 0 0.043646757584305591 -0.0049133310341051319 0 0.045771332000208595 -0.0079178597264983209 0 0.045815479669544718 -0.0053850170308884747 0 0.044292477120019061 -0.0029840385230000006 0 0.043646757584305591 -0.0049133310341051319 0 0.041089449447741427 -0.0053886551822291988 0 0.043646757584305591 -0.0049133310341051319 0 0.045771332000208595 -0.0079178597264983209 0 0.040997398361704782 -0.0039655740174682095 0 0.041197240230633515 -0.0037381101982138535 0 0.038561290529428499 -0.0029338147544987351 0 0.038710966773900735 -0.0030050005056738538 0 0.038562823493980311 -0.0030840633253711273 0 0.038417398801495251 -0.0030113534876607647 0 0.038561290529428499 -0.0029338147544987351 0 0.038562823493980311 -0.0030840633253711273 0 0.045815479669544718 -0.0053850170308884747 0 0.045771332000208595 -0.0079178597264983209 0 0.048235882619014882 -0.0070837569228848511 0 0.045771332000208595 -0.0079178597264983209 0 0.048235882619014882 -0.0070837569228848511 0 0.049902067913766224 -0.009839927848831866 0 0.050141457704803716 -0.0063544730279534618 0 0.048235882619014882 -0.0070837569228848511 0 0.049902067913766224 -0.009839927848831866 0 0.051940052318342957 -0.006672831730446571 0 0.050141457704803716 -0.0063544730279534618 0 0.049902067913766224 -0.009839927848831866 0 0.030590153334273441 0.0010064249611210299 0 0.030396430466035827 0.00092223071578028054 0 0.030606000943103423 0.00076088943208040753 0 0.041197240230633515 -0.0037381101982138535 0 0.037619623158008209 -0.0030674070653998993 0 0.037619623158008209 -0.0030674070653998993 0 0.036277841022156351 -0.0021071890105002315 0 0.030396430466035827 0.00092223071578028054 0 0.030348937535565376 0.00075096926736515452 0 0.030165071289180279 0.00082241020970943751 0 0.030348937535565376 0.00075096926736515452 0 0.030606000943103423 0.00076088943208040753 0 0.030418449930562502 0.00058693722287768825 0 0.030396430466035827 0.00092223071578028054 0 0.030348937535565376 0.00075096926736515452 0 0.030606000943103423 0.00076088943208040753 0 0.030348937535565376 0.00075096926736515452 0 0.030135176851564527 0.00052944774739725753 0 0.030418449930562502 0.00058693722287768825 0 0.037993395257300444 -0.00052515242770218354 0 0.037433864495246209 -0.0009090214577681812 0 0.037520392390996013 -0.00045855197380704083 0 0.037993395257300444 -0.00052515242770218354 0 0.037520392390996013 -0.00045855197380704083 0 0.03792836586734432 -0.00046763137282917989 0 0.038110109827391464 -0.00059757519439398456 0 0.037993395257300444 -0.00052515242770218354 0 0.038184642266423909 -0.00068617849095667534 0 0.038417398801495251 -0.0030113534876607647 0 0.038562823493980311 -0.0030840633253711273 0 0.038417853101100012 -0.003161271591500947 0 0.037770309196629395 -0.0023896186403838129 0 0.036277841022156351 -0.0021071890105002315 0 0.036277841022156351 -0.0021071890105002315 0 0.034389921953349639 -0.0011501739509540278 0 0.030194993571479756 -0.0039703680954115035 0 0.032450857841064572 -0.0027383234165834149 0 0.030140870775777574 -0.0021334069028069321 0 0.030348937535565376 0.00075096926736515452 0 0.030165071289180279 0.00082241020970943751 0 0.030135176851564527 0.00052944774739725753 0 0.037993395257300444 -0.00052515242770218354 0 0.038184642266423909 -0.00068617849095667534 0 0.037433864495246209 -0.0009090214577681812 0 0.036277841022156351 -0.0021071890105002315 0 0.035306036975169139 -0.0020392519906422693 0 0.037433864495246209 -0.0009090214577681812 0 0.035571467988680307 -0.00035484045800020605 0 0.036827392158729363 -0.00019249951404302259 0 0.037433864495246209 -0.0009090214577681812 0 0.036827392158729363 -0.00019249951404302259 0 0.037520392390996013 -0.00045855197380704083 0 0.037433864495246209 -0.0009090214577681812 0 0.035571467988680307 -0.00035484045800020605 0 0.034680295331047079 -0.0010684061447862514 0 0.036827392158729363 -0.00019249951404302259 0 0.037301253946914859 -7.4096364793150565e-05 0 0.036333260444567667 3.7955429452635303e-05 0 0.035571467988680307 -0.00035484045800020605 0 0.036827392158729363 -0.00019249951404302259 0 0.036333260444567667 3.7955429452635303e-05 0 0.036827392158729363 -0.00019249951404302259 0 0.037520392390996013 -0.00045855197380704083 0 0.03792836586734432 -0.00046763137282917989 0 0.03792836586734432 -0.00046763137282917989 0 0.037833168203445795 -0.00025369714804276614 0 0.037301253946914859 -7.4096364793150565e-05 0 0.03792836586734432 -0.00046763137282917989 0 0.037833168203445795 -0.00025369714804276614 0 0.038233864818177192 -0.00062076922877912614 0 0.036827392158729363 -0.00019249951404302259 0 0.03792836586734432 -0.00046763137282917989 0 0.037301253946914859 -7.4096364793150565e-05 0 0.038584150995728012 -0.0010743592113672069 0 0.03792836586734432 -0.00046763137282917989 0 0.038233864818177192 -0.00062076922877912614 0 0.037301253946914859 -7.4096364793150565e-05 0 0.037257206769963261 0.00014532373714273514 0 0.036333260444567667 3.7955429452635303e-05 0 0.037301253946914859 -7.4096364793150565e-05 0 0.037805267056133164 4.69773038200361e-05 0 0.037257206769963261 0.00014532373714273514 0 0.037833168203445795 -0.00025369714804276614 0 0.037301253946914859 -7.4096364793150565e-05 0 0.037805267056133164 4.69773038200361e-05 0 0.037833168203445795 -0.00025369714804276614 0 0.037805267056133164 4.69773038200361e-05 0 0.038081198981447018 -0.00018048211158639769 0 0.038354223708959342 8.2872778502566356e-05 0 0.037805267056133164 4.69773038200361e-05 0 0.038081198981447018 -0.00018048211158639769 0 0.03835095731795779 -0.00041956811119561618 0 0.038081198981447018 -0.00018048211158639769 0 0.038233864818177192 -0.00062076922877912614 0 0.03835095731795779 -0.00041956811119561618 0 0.038830596363415404 -0.00095185141547382741 0 0.038233864818177192 -0.00062076922877912614 0 0.037833168203445795 -0.00025369714804276614 0 0.038081198981447018 -0.00018048211158639769 0 0.038233864818177192 -0.00062076922877912614 0 0.041605704576688302 2.9605709351056585e-07 0 0.038551798296545897 0.00026287009654112504 0 0.038161583952901326 8.0581070312295059e-07 0 0.037805267056133164 4.69773038200361e-05 0 0.038551798296545897 0.00026287009654112504 0 0.037257206769963261 0.00014532373714273514 0 0.038354223708959342 8.2872778502566356e-05 0 0.037805267056133164 4.69773038200361e-05 0 0.038551798296545897 0.00026287009654112504 0 0.038551798296545897 0.00026287009654112504 0 0.037257206769963261 0.00014532373714273514 0 0.036339408395214046 0.00014331697344620293 0 0.038551798296545897 0.00026287009654112504 0 0.038161583952901326 8.0581070312295059e-07 0 0.036339408395214046 0.00014331697344620293 0 0.034715710359467272 -8.4435062011075857e-08 0 0.036339408395214046 0.00014331697344620293 0 0.03491789093996675 -3.5539926134348566e-05 0 0.038161583952901326 8.0581070312295059e-07 0 0.034715710359467272 -8.4435062011075857e-08 0 0.036339408395214046 0.00014331697344620293 0 0.036339408395214046 0.00014331697344620293 0 0.036333260444567667 3.7955429452635303e-05 0 0.03491789093996675 -3.5539926134348566e-05 0 0.037257206769963261 0.00014532373714273514 0 0.036339408395214046 0.00014331697344620293 0 0.036333260444567667 3.7955429452635303e-05 0 0.035571467988680307 -0.00035484045800020605 0 0.036333260444567667 3.7955429452635303e-05 0 0.03491789093996675 -3.5539926134348566e-05 0 0.035571467988680307 -0.00035484045800020605 0 0.03491789093996675 -3.5539926134348566e-05 0 0.033634844099923775 -0.00053427415024339298 0 0.034715710359467272 -8.4435062011075857e-08 0 0.03491789093996675 -3.5539926134348566e-05 0 0.031268440341147612 6.5278331397160561e-07 0 0.03491789093996675 -3.5539926134348566e-05 0 0.031268440341147612 6.5278331397160561e-07 0 0.033634844099923775 -0.00053427415024339298 0 0.031268440341147612 6.5278331397160561e-07 0 0.033634844099923775 -0.00053427415024339298 0 0.03153291279019229 -6.9783045594429076e-05 0 0.033634844099923775 -0.00053427415024339298 0 0.03153291279019229 -6.9783045594429076e-05 0 0.031045551359585206 -0.00042005436912597236 0 0.031268440341147612 6.5278331397160561e-07 0 0.03153291279019229 -6.9783045594429076e-05 0 0.027830213483167016 -2.9258377390998146e-06 0 0.032450857841064572 -0.0027383234165834149 0 0.033102787721328658 -0.0011888316441092468 0 0.034680295331047079 -0.0010684061447862514 0 0.035306036975169139 -0.0020392519906422693 0 0.0352391596195172 -0.0018273303463636557 0 0.035571467988680307 -0.00035484045800020605 0 0.033634844099923775 -0.00053427415024339298 0 0.034680295331047079 -0.0010684061447862514 0 0.033634844099923775 -0.00053427415024339298 0 0.034680295331047079 -0.0010684061447862514 0 0.0344717380238619 -0.0007840176455035018 0 0.032572099738304064 -0.00042457650439829036 0 0.032168636171362057 -0.00027442991021279654 0 0.03153291279019229 -6.9783045594429076e-05 0 0.031045551359585206 -0.00042005436912597236 0 0.031021382997562168 -0.00018109986978144825 0 0.033102787721328658 -0.0011888316441092468 0 0.034680295331047079 -0.0010684061447862514 0 0.0344717380238619 -0.0007840176455035018 0 0.033102787721328658 -0.0011888316441092468 0 0.0344717380238619 -0.0007840176455035018 0 0.032000484574744276 -0.00046068915250781217 0 0.031045551359585206 -0.00042005436912597236 0 0.031021382997562168 -0.00018109986978144825 0 0.029712985043076446 0.00024593971602604198 0 0.032168636171362057 -0.00027442991021279654 0 0.031139686140545613 0.0002976129799905774 0 0.031021382997562168 -0.00018109986978144825 0 0.030514351812486171 0.00048165962405617664 0 0.029712985043076446 0.00024593971602604198 0 0.0344717380238619 -0.0007840176455035018 0 0.031681504932679287 0.0010829737331704591 0 0.032000484574744276 -0.00046068915250781217 0 0.031021382997562168 -0.00018109986978144825 0 0.030514351812486171 0.00048165962405617664 0 0.031340376811435838 -0.00061205591257783765 0 0.028543851006238161 0.0003551040716668874 0 0.02813184963058683 0.00017954427381831965 0 0.025352950636975187 0.00073217116294627843 0 0.02639548761218247 0.0014415930367808495 0 0.024932190352842134 0.00049471490047855982 0 0.025352950636975187 0.00073217116294627843 0 0.02639548761218247 0.0014415930367808495 0 0.026200414407414174 0.00051875704868107047 0 0.030514351812486171 0.00048165962405617664 0 0.029712985043076446 0.00024593971602604198 0 0.02932617213212101 0.00053783260742157216 0 0.028543851006238161 0.0003551040716668874 0 0.028850226647241163 0.00035808817553166663 0 0.02639548761218247 0.0014415930367808495 0 0.027372537067143553 0.00060562750824048471 0 0.02932617213212101 0.00053783260742157216 0 0.02639548761218247 0.0014415930367808495 0 0.026200414407414174 0.00051875704868107047 0 0.027372537067143553 0.00060562750824048471 0 0.027822644268249631 4.6840107727143142e-07 0 0.02813184963058683 0.00017954427381831965 0 0.027817378038828014 -1.3386805811530503e-06 0 0.024932190352842134 0.00049471490047855982 0 0.024774836831853709 0.00063227550669066681 0 0.03153291279019229 -6.9783045594429076e-05 0 0.027830213483167016 -2.9258377390998146e-06 0 0.031340376811435838 -0.00061205591257783765 0 0.03153291279019229 -6.9783045594429076e-05 0 0.031021382997562168 -0.00018109986978144825 0 0.031340376811435838 -0.00061205591257783765 0 0.025352950636975187 0.00073217116294627843 0 0.024932190352842134 0.00049471490047855982 0 0.024774836831853709 0.00063227550669066681 0 0.025352950636975187 0.00073217116294627843 0 0.024774836831853709 0.00063227550669066681 0 0.025131121619323571 0.00033005299324100187 0 0.027817378038828014 -1.3386805811530503e-06 0 0.024774836831853709 0.00063227550669066681 0 0.023945920744784393 3.069305035879336e-06 0 0.024774836831853709 0.00063227550669066681 0 0.023945920744784393 3.069305035879336e-06 0 0.02369373221249323 0.00013250261076781837 0 0.023945920744784393 3.069305035879336e-06 0 0.02369373221249323 0.00013250261076781837 0 0.020073695329062887 -4.4526137432778801e-06 0 0.02419898529566002 -0.0013501604055323978 0 0.02369373221249323 0.00013250261076781837 0 0.020073695329062887 -4.4526137432778801e-06 0 0.02419898529566002 -0.0013501604055323978 0 0.02369373221249323 0.00013250261076781837 0 0.025145418344331903 -0.00047334686798851725 0 0.02369373221249323 0.00013250261076781837 0 0.025131121619323571 0.00033005299324100187 0 0.025145418344331903 -0.00047334686798851725 0 0.024774836831853709 0.00063227550669066681 0 0.02369373221249323 0.00013250261076781837 0 0.025131121619323571 0.00033005299324100187 0 0.025352950636975187 0.00073217116294627843 0 0.025131121619323571 0.00033005299324100187 0 0.026200414407414174 0.00051875704868107047 0 0.025131121619323571 0.00033005299324100187 0 0.026200414407414174 0.00051875704868107047 0 0.026209484579074821 -0.00026032847337960829 0 0.025131121619323571 0.00033005299324100187 0 0.026209484579074821 -0.00026032847337960829 0 0.025145418344331903 -0.00047334686798851725 0 0.027372537067143553 0.00060562750824048471 0 0.027306748368811237 8.2676718249017397e-05 0 0.028172309740101781 0.00027807690822319515 0 0.026200414407414174 0.00051875704868107047 0 0.027372537067143553 0.00060562750824048471 0 0.027306748368811237 8.2676718249017397e-05 0 0.026209484579074821 -0.00026032847337960829 0 0.027306748368811237 8.2676718249017397e-05 0 0.027473259812452445 -0.00044073771548268077 0 0.026200414407414174 0.00051875704868107047 0 0.026209484579074821 -0.00026032847337960829 0 0.027306748368811237 8.2676718249017397e-05 0 0.027306748368811237 8.2676718249017397e-05 0 0.027473259812452445 -0.00044073771548268077 0 0.028676332515946524 1.4781384670167574e-05 0 0.019795591836888365 0.0011920355639035353 0 0.022349960557046224 -0.00066531065113034724 0 0.024772885120587947 0.0011317615184607145 0 0.023504086593862203 -3.1496581673864794e-05 0 0.025552971997122927 0.00010252855689522869 0 0.027473259812452445 -0.00044073771548268077 0 0.026494346078635152 -0.0013515330924331545 0 0.028473452916603116 -0.00068903442199035601 0 0.026209484579074821 -0.00026032847337960829 0 0.027473259812452445 -0.00044073771548268077 0 0.026494346078635152 -0.0013515330924331545 0 0.02419898529566002 -0.0013501604055323978 0 0.025145418344331903 -0.00047334686798851725 0 0.026494346078635152 -0.0013515330924331545 0 0.021700542103031201 -0.00010042784672328859 0 0.023504086593862203 -3.1496581673864794e-05 0 0.026209484579074821 -0.00026032847337960829 0 0.025145418344331903 -0.00047334686798851725 0 0.026494346078635152 -0.0013515330924331545 0 0.017853363039394467 -5.8034256052092927e-05 0 0.019795591836888365 0.0011920355639035353 0 0.018642029059616691 -0.0002906806878689322 0 0.019795591836888365 0.0011920355639035353 0 0.018642029059616691 -0.0002906806878689322 0 0.022349960557046224 -0.00066531065113034724 0 0.018642029059616691 -0.0002906806878689322 0 0.022349960557046224 -0.00066531065113034724 0 0.023318486158008109 -0.0037391393083695836 0 0.018656861421337375 -0.00010669808690586456 0 0.01826377230701005 -0.00011267186910654883 0 0.018430509830597335 -0.00051782696234902521 0 0.020041926129699347 -0.0011682512255223253 0 0.020959233094455954 -0.0017992417377411855 0 0.018642029059616691 -0.0002906806878689322 0 0.01826377230701005 -0.00011267186910654883 0 0.017660016236114007 0.00022622635374512033 0 0.018642029059616691 -0.0002906806878689322 0 0.018656861421337375 -0.00010669808690586456 0 0.01826377230701005 -0.00011267186910654883 0 0.017660016236114007 0.00022622635374512033 0 0.01758207551801472 -0.00014097405079737096 0 0.016605503895653569 0.00011086388487992779 0 0.01826377230701005 -0.00011267186910654883 0 0.017660016236114007 0.00022622635374512033 0 0.01758207551801472 -0.00014097405079737096 0 0.017660016236114007 0.00022622635374512033 0 0.017046196680102429 1.9674620895813236e-06 0 0.016605503895653569 0.00011086388487992779 0 0.017853363039394467 -5.8034256052092927e-05 0 0.017660016236114007 0.00022622635374512033 0 0.020062712517918448 -1.2418365770978367e-06 0 0.021700542103031201 -0.00010042784672328859 0 0.020070439177622579 -4.5094813714909703e-07 0 0.017660016236114007 0.00022622635374512033 0 0.017046196680102429 1.9674620895813236e-06 0 0.020062712517918448 -1.2418365770978367e-06 0 0.017853363039394467 -5.8034256052092927e-05 0 0.018642029059616691 -0.0002906806878689322 0 0.017660016236114007 0.00022622635374512033 0 0.029185917238113371 -0.0027117949979555494 0 0.028189151813034326 -0.0013467400972911364 0 0.030093555718745859 -0.00075570295047053704 0 0.030483726402775899 -0.0027058699204579807 0 0.029185917238113371 -0.0027117949979555494 0 0.030093555718745859 -0.00075570295047053704 0 0.030483726402775899 -0.0027058699204579807 0 0.030093555718745859 -0.00075570295047053704 0 0.031549027896037418 -0.001739359265747709 0 0.030483726402775899 -0.0027058699204579807 0 0.029640718622690791 -0.0038901817825388015 0 0.029185917238113371 -0.0027117949979555494 0 0.030483726402775899 -0.0027058699204579807 0 0.03171416689394612 -0.0033046444469125931 0 0.030661038081392387 -0.0041453379105412577 0 0.030483726402775899 -0.0027058699204579807 0 0.029640718622690791 -0.0038901817825388015 0 0.030661038081392387 -0.0041453379105412577 0 0.029640718622690791 -0.0038901817825388015 0 0.029185917238113371 -0.0027117949979555494 0 0.028402022236005742 -0.0039415242077022418 0 0.029185917238113371 -0.0027117949979555494 0 0.028402022236005742 -0.0039415242077022418 0 0.027253208787375801 -0.0030672656164510855 0 0.029185917238113371 -0.0027117949979555494 0 0.027253208787375801 -0.0030672656164510855 0 0.028189151813034326 -0.0013467400972911364 0 0.028402022236005742 -0.0039415242077022418 0 0.027253208787375801 -0.0030672656164510855 0 0.026816537762607784 -0.0051990367032025498 0 0.023318486158008109 -0.0037391393083695836 0 0.027253208787375801 -0.0030672656164510855 0 0.025196820042090614 -0.0016211936586374997 0 0.023318486158008109 -0.0037391393083695836 0 0.027253208787375801 -0.0030672656164510855 0 0.026816537762607784 -0.0051990367032025498 0 0.022349960557046224 -0.00066531065113034724 0 0.025196820042090614 -0.0016211936586374997 0 0.024772885120587947 0.0011317615184607145 0 0.022349960557046224 -0.00066531065113034724 0 0.023318486158008109 -0.0037391393083695836 0 0.025196820042090614 -0.0016211936586374997 0 0.025196820042090614 -0.0016211936586374997 0 0.028189151813034326 -0.0013467400972911364 0 0.024772885120587947 0.0011317615184607145 0 0.027253208787375801 -0.0030672656164510855 0 0.025196820042090614 -0.0016211936586374997 0 0.028189151813034326 -0.0013467400972911364 0 0.026606322735099528 0.00015902097904297731 0 0.025552971997122927 0.00010252855689522869 0 0.028189151813034326 -0.0013467400972911364 0 0.028861752153148217 2.3449643854532629e-05 0 0.024772885120587947 0.0011317615184607145 0 0.028861752153148217 2.3449643854532629e-05 0 0.028473452916603116 -0.00068903442199035601 0 0.028676332515946524 1.4781384670167574e-05 0 0.027473259812452445 -0.00044073771548268077 0 0.028473452916603116 -0.00068903442199035601 0 0.028676332515946524 1.4781384670167574e-05 0 0.027372537067143553 0.00060562750824048471 0 0.028172309740101781 0.00027807690822319515 0 0.02932617213212101 0.00053783260742157216 0 0.027306748368811237 8.2676718249017397e-05 0 0.028676332515946524 1.4781384670167574e-05 0 0.028172309740101781 0.00027807690822319515 0 0.028676332515946524 1.4781384670167574e-05 0 0.029218286483130171 0.0005830084465386113 0 0.02932617213212101 0.00053783260742157216 0 0.028676332515946524 1.4781384670167574e-05 0 0.028172309740101781 0.00027807690822319515 0 0.02932617213212101 0.00053783260742157216 0 0.029218286483130171 0.0005830084465386113 0 0.029885316630153775 0.00041778157036978611 0 0.029849163180981374 0.00063957711833461273 0 0.028861752153148217 2.3449643854532629e-05 0 0.028676332515946524 1.4781384670167574e-05 0 0.029218286483130171 0.0005830084465386113 0 0.028861752153148217 2.3449643854532629e-05 0 0.029218286483130171 0.0005830084465386113 0 0.029885316630153775 0.00041778157036978611 0 0.028861752153148217 2.3449643854532629e-05 0 0.029885316630153775 0.00041778157036978611 0 0.030093555718745859 -0.00075570295047053704 0 0.028189151813034326 -0.0013467400972911364 0 0.028861752153148217 2.3449643854532629e-05 0 0.030093555718745859 -0.00075570295047053704 0 0.030093555718745859 -0.00075570295047053704 0 0.030648512387670513 0.00024076998929906815 0 0.03113334607475739 -0.00038871433126137908 0 0.029885316630153775 0.00041778157036978611 0 0.030093555718745859 -0.00075570295047053704 0 0.030648512387670513 0.00024076998929906815 0 0.029885316630153775 0.00041778157036978611 0 0.030648512387670513 0.00024076998929906815 0 0.030414569075824967 0.00049224118972314088 0 0.029885316630153775 0.00041778157036978611 0 0.030095564657151533 0.00053688817531653127 0 0.029849163180981374 0.00063957711833461273 0 0.029885316630153775 0.00041778157036978611 0 0.030414569075824967 0.00049224118972314088 0 0.030095564657151533 0.00053688817531653127 0 0.030095564657151533 0.00053688817531653127 0 0.030184119264542807 0.00037156216999753529 0 0.03029092958211544 0.0003939509167042003 0 0.030414569075824967 0.00049224118972314088 0 0.030095564657151533 0.00053688817531653127 0 0.03029092958211544 0.0003939509167042003 0 0.030414569075824967 0.00049224118972314088 0 0.03029092958211544 0.0003939509167042003 0 0.030672947983425111 0.000524922486731141 0 0.029218286483130171 0.0005830084465386113 0 0.029712985043076446 0.00024593971602604198 0 0.02932617213212101 0.00053783260742157216 0 0.030576165580137399 0.00055178609570497928 0 0.031139686140545613 0.0002976129799905774 0 0.031681504932679287 0.0010829737331704591 0 0.030010632169674849 0.00072487741832671048 0 0.03060882923293462 0.00071014301009290947 0 0.029218286483130171 0.0005830084465386113 0 0.031681504932679287 0.0010829737331704591 0 0.030010632169674849 0.00072487741832671048 0 0.030010632169674849 0.00072487741832671048 0 0.030170062796112371 0.00062484070475199644 0 0.03060882923293462 0.00071014301009290947 0 0.029218286483130171 0.0005830084465386113 0 0.030010632169674849 0.00072487741832671048 0 0.029849163180981374 0.00063957711833461273 0 0.030010632169674849 0.00072487741832671048 0 0.029849163180981374 0.00063957711833461273 0 0.030170062796112371 0.00062484070475199644 0 0.030095564657151533 0.00053688817531653127 0 0.029849163180981374 0.00063957711833461273 0 0.030170062796112371 0.00062484070475199644 0 0.030095564657151533 0.00053688817531653127 0 0.030170062796112371 0.00062484070475199644 0 0.030184119264542807 0.00037156216999753529 0 0.030184119264542807 0.00037156216999753529 0 0.030811044832659687 0.00038454388921082882 0 0.03020556705286262 -8.3194069596524605e-05 0 0.030170062796112371 0.00062484070475199644 0 0.03060882923293462 0.00071014301009290947 0 0.030811044832659687 0.00038454388921082882 0 0.030170062796112371 0.00062484070475199644 0 0.030184119264542807 0.00037156216999753529 0 0.030811044832659687 0.00038454388921082882 0 0.031681504932679287 0.0010829737331704591 0 0.030811044832659687 0.00038454388921082882 0 0.032000484574744276 -0.00046068915250781217 0 0.031681504932679287 0.0010829737331704591 0 0.03060882923293462 0.00071014301009290947 0 0.030811044832659687 0.00038454388921082882 0 0.033102787721328658 -0.0011888316441092468 0 0.032000484574744276 -0.00046068915250781217 0 0.031383071900986763 -0.0012255276032845288 0 0.032000484574744276 -0.00046068915250781217 0 0.03020556705286262 -8.3194069596524605e-05 0 0.031383071900986763 -0.0012255276032845288 0 0.030811044832659687 0.00038454388921082882 0 0.032000484574744276 -0.00046068915250781217 0 0.03020556705286262 -8.3194069596524605e-05 0 0.033821096066947512 -0.00078092650027430791 0 0.034389921953349639 -0.0011501739509540278 0 0.03020556705286262 -8.3194069596524605e-05 0 0.030140870775777574 -0.0021334069028069321 0 0.031383071900986763 -0.0012255276032845288 0 0.03020556705286262 -8.3194069596524605e-05 0 0.030135176851564527 0.00052944774739725753 0 0.030365684573438606 0.00033709892731039577 0 0.032450857841064572 -0.0027383234165834149 0 0.030140870775777574 -0.0021334069028069321 0 0.031383071900986763 -0.0012255276032845288 0 0.032450857841064572 -0.0027383234165834149 0 0.033102787721328658 -0.0011888316441092468 0 0.031383071900986763 -0.0012255276032845288 0 0.03029092958211544 0.0003939509167042003 0 0.030529430954468341 0.00052370085678647997 0 0.030672947983425111 0.000524922486731141 0 0.03029092958211544 0.0003939509167042003 0 0.030365684573438606 0.00033709892731039577 0 0.030529430954468341 0.00052370085678647997 0 0.030184119264542807 0.00037156216999753529 0 0.03020556705286262 -8.3194069596524605e-05 0 0.03029092958211544 0.0003939509167042003 0 0.03020556705286262 -8.3194069596524605e-05 0 0.03029092958211544 0.0003939509167042003 0 0.030365684573438606 0.00033709892731039577 0 0.030365684573438606 0.00033709892731039577 0 0.030418449930562502 0.00058693722287768825 0 0.030529430954468341 0.00052370085678647997 0 0.030135176851564527 0.00052944774739725753 0 0.030365684573438606 0.00033709892731039577 0 0.030418449930562502 0.00058693722287768825 0 0.030606000943103423 0.00076088943208040753 0 0.030418449930562502 0.00058693722287768825 0 0.030529430954468341 0.00052370085678647997 0 0.030606000943103423 0.00076088943208040753 0 0.030529430954468341 0.00052370085678647997 0 0.030709910751774875 0.00066482882906578555 0 0.030529430954468341 0.00052370085678647997 0 0.030709910751774875 0.00066482882906578555 0 0.030746626153999694 0.00060355726917876804 0 0.030709910751774875 0.00066482882906578555 0 0.030746626153999694 0.00060355726917876804 0 0.030844504335322549 0.00068201690913070683 0 0.030746626153999694 0.00060355726917876804 0 0.030672947983425111 0.000524922486731141 0 0.030966978159056434 0.00060087623185844517 0 0.030529430954468341 0.00052370085678647997 0 0.030746626153999694 0.00060355726917876804 0 0.030672947983425111 0.000524922486731141 0 0.032141087892786399 0.00022997785684518467 0 0.032205588515992756 0.00031672363547581692 0 0.032205846201265952 0.00029408549647343341 0 0.030746626153999694 0.00060355726917876804 0 0.030966978159056434 0.00060087623185844517 0 0.030844504335322549 0.00068201690913070683 0 0.034215774913536334 0.00060164165413234333 0 0.036673425548380864 0.00029023274281538166 0 0.032221085704036652 0.00032877360648096298 0 0.032205588515992756 0.00031672363547581692 0 0.032205846201265952 0.00029408549647343341 0 0.032221085704036652 0.00032877360648096298 0 0.032205846201265952 0.00029408549647343341 0 0.0322354042761809 0.00030576135353596492 0 0.032262077594395408 0.00033709132259196505 0 0.0322354042761809 0.00030576135353596492 0 0.032288209785748631 0.00028744180433169715 0 0.03222009750639377 0.00026187174179878657 0 0.032288209785748631 0.00028744180433169715 0 0.032272551238439202 0.00024601704206908299 0 0.0322354042761809 0.00030576135353596492 0 0.03222009750639377 0.00026187174179878657 0 0.032288209785748631 0.00028744180433169715 0 0.032205846201265952 0.00029408549647343341 0 0.0322354042761809 0.00030576135353596492 0 0.03222009750639377 0.00026187174179878657 0 0.032333550506262271 0.00036384090868237152 0 0.032427566363939057 0.00023672559984759111 0 0.032536909619006904 0.00015045305046884906 0 0.036878913281065323 0.00049336975664389371 0 0.035415289224485232 0.00090214549933172856 0 0.032333550506262271 0.00036384090868237152 0 0.032427566363939057 0.00023672559984759111 0 0.032352410535798515 0.00027655373511275395 0 0.032333550506262271 0.00036384090868237152 0 0.032288209785748631 0.00028744180433169715 0 0.032352410535798515 0.00027655373511275395 0 0.032262077594395408 0.00033709132259196505 0 0.032333550506262271 0.00036384090868237152 0 0.032288209785748631 0.00028744180433169715 0 0.032288209785748631 0.00028744180433169715 0 0.032352410535798515 0.00027655373511275395 0 0.032361811448090125 0.00025714661067256924 0 0.032288209785748631 0.00028744180433169715 0 0.032361811448090125 0.00025714661067256924 0 0.032272551238439202 0.00024601704206908299 0 0.032427566363939057 0.00023672559984759111 0 0.032361811448090125 0.00025714661067256924 0 0.032436395710576882 0.0002682607058312135 0 0.032427566363939057 0.00023672559984759111 0 0.032352410535798515 0.00027655373511275395 0 0.032361811448090125 0.00025714661067256924 0 0.032285402356550044 0.00022208452954642794 0 0.032378424834182261 0.00026544817104496129 0 0.032347400459795631 0.00015674068901016703 0 0.032361811448090125 0.00025714661067256924 0 0.032285402356550044 0.00022208452954642794 0 0.032378424834182261 0.00026544817104496129 0 0.032361811448090125 0.00025714661067256924 0 0.032272551238439202 0.00024601704206908299 0 0.032285402356550044 0.00022208452954642794 0 0.032272551238439202 0.00024601704206908299 0 0.032285402356550044 0.00022208452954642794 0 0.032192737296626216 0.00020804210438733336 0 0.032141087892786399 0.00022997785684518467 0 0.03222009750639377 0.00026187174179878657 0 0.032192737296626216 0.00020804210438733336 0 0.032141087892786399 0.00022997785684518467 0 0.032205846201265952 0.00029408549647343341 0 0.03222009750639377 0.00026187174179878657 0 0.03222009750639377 0.00026187174179878657 0 0.032272551238439202 0.00024601704206908299 0 0.032192737296626216 0.00020804210438733336 0 0.032192737296626216 0.00020804210438733336 0 0.032208473399248108 0.00013944379188279377 0 0.032035448238836965 0.00010617368888082772 0 0.032141087892786399 0.00022997785684518467 0 0.032192737296626216 0.00020804210438733336 0 0.032035448238836965 0.00010617368888082772 0 0.032285402356550044 0.00022208452954642794 0 0.032208473399248108 0.00013944379188279377 0 0.032347400459795631 0.00015674068901016703 0 0.032285402356550044 0.00022208452954642794 0 0.032192737296626216 0.00020804210438733336 0 0.032208473399248108 0.00013944379188279377 0 0.032208473399248108 0.00013944379188279377 0 0.032249091744486126 3.5322739569527857e-05 0 0.032347400459795631 0.00015674068901016703 0 0.032208473399248108 0.00013944379188279377 0 0.032249091744486126 3.5322739569527857e-05 0 0.032089717158274723 5.3086350659084065e-05 0 0.032249091744486126 3.5322739569527857e-05 0 0.032089717158274723 5.3086350659084065e-05 0 0.032114936720116942 -7.4007135236024688e-05 0 0.033198492568454502 0.00038580729087146288 0 0.032938142536534744 0.00020801918401717163 0 0.032089717158274723 5.3086350659084065e-05 0 0.032035448238836965 0.00010617368888082772 0 0.031793274667404538 -0.00010934882248455786 0 0.032208473399248108 0.00013944379188279377 0 0.032089717158274723 5.3086350659084065e-05 0 0.032035448238836965 0.00010617368888082772 0 0.031305157785078287 0.00043021903636017629 0 0.030900618897873752 0.00044636650435470634 0 0.031108273557317812 0.00015391560527395199 0 0.031305157785078287 0.00043021903636017629 0 0.031108273557317812 0.00015391560527395199 0 0.031793274667404538 -0.00010934882248455786 0 0.030648512387670513 0.00024076998929906815 0 0.030414569075824967 0.00049224118972314088 0 0.030900618897873752 0.00044636650435470634 0 0.030648512387670513 0.00024076998929906815 0 0.030900618897873752 0.00044636650435470634 0 0.031108273557317812 0.00015391560527395199 0 0.030672947983425111 0.000524922486731141 0 0.030966978159056434 0.00060087623185844517 0 0.030900618897873752 0.00044636650435470634 0 0.030414569075824967 0.00049224118972314088 0 0.030672947983425111 0.000524922486731141 0 0.030900618897873752 0.00044636650435470634 0 0.030966978159056434 0.00060087623185844517 0 0.031305157785078287 0.00043021903636017629 0 0.030900618897873752 0.00044636650435470634 0 0.034215774913536334 0.00060164165413234333 0 0.033198492568454502 0.00038580729087146288 0 0.048921115128412428 -0.0088773473343465234 0 0.049832238021258995 -0.0079131572816296385 0 0.048699577928142418 -0.006765327008303971 0 0.049832238021258995 -0.0079131572816296385 0 0.050149283460556235 -0.00687766496878057 0 0.048699577928142418 -0.006765327008303971 0 0.048921115128412428 -0.0088773473343465234 0 0.050453783270485289 -0.0089079579048296151 0 0.049832238021258995 -0.0079131572816296385 0 0.050199233071089346 -0.01007026295727949 0 0.048921115128412428 -0.0088773473343465234 0 0.050453783270485289 -0.0089079579048296151 0 0.050453783270485289 -0.0089079579048296151 0 0.049832238021258995 -0.0079131572816296385 0 0.050876126720279233 -0.0080929645527894594 0 0.051306565129385029 -0.0070053221973364558 0 0.050876126720279233 -0.0080929645527894594 0 0.050149283460556235 -0.00687766496878057 0 0.049832238021258995 -0.0079131572816296385 0 0.050876126720279233 -0.0080929645527894594 0 0.050149283460556235 -0.00687766496878057 0 0.051306565129385029 -0.0070053221973364558 0 0.050876126720279233 -0.0080929645527894594 0 0.052184385049643164 -0.0086553713404276256 0 0.04361987846903654 -0.0030106215583660541 0 0.043454944004411265 -0.0037293625122071794 0 0.032572020379306038 0.00022250311573756971 0 0.032336287828306491 0.00035924356646344454 0 0.032429935979902708 0.00022229175399740022 0 0.050453783270485289 -0.0089079579048296151 0 0.050876126720279233 -0.0080929645527894594 0 0.051449492608681271 -0.0091539196832733562 0 0.050876126720279233 -0.0080929645527894594 0 0.051449492608681271 -0.0091539196832733562 0 0.052184385049643164 -0.0086553713404276256 0 0.050960860946391601 -0.0097872950876949794 0 0.050453783270485289 -0.0089079579048296151 0 0.051449492608681271 -0.0091539196832733562 0 0.03306282923263227 -0.00073679555956048394 0 0.032336287828306491 0.00035924356646344454 0 0.032536909619006904 0.00015045305046884906 0 0.052099002383740392 -0.0096895181452987863 0 0.051449492608681271 -0.0091539196832733562 0 0.052184385049643164 -0.0086553713404276256 0 0.032336287828306491 0.00035924356646344454 0 0.032436395710576882 0.0002682607058312135 0 0.032378424834182261 0.00026544817104496129 0 0.032427566363939057 0.00023672559984759111 0 0.032536909619006904 0.00015045305046884906 0 0.032436395710576882 0.0002682607058312135 0 0.032336287828306491 0.00035924356646344454 0 0.032536909619006904 0.00015045305046884906 0 0.032436395710576882 0.0002682607058312135 0 0.032361811448090125 0.00025714661067256924 0 0.032436395710576882 0.0002682607058312135 0 0.032378424834182261 0.00026544817104496129 0 0.032378424834182261 0.00026544817104496129 0 0.032429935979902708 0.00022229175399740022 0 0.032347400459795631 0.00015674068901016703 0 0.032336287828306491 0.00035924356646344454 0 0.032378424834182261 0.00026544817104496129 0 0.032429935979902708 0.00022229175399740022 0 0.032429935979902708 0.00022229175399740022 0 0.032347400459795631 0.00015674068901016703 0 0.03250097402088023 6.4863056497564486e-05 0 0.032347400459795631 0.00015674068901016703 0 0.032373968936524208 6.0064951154863658e-05 0 0.03250097402088023 6.4863056497564486e-05 0 0.032249091744486126 3.5322739569527857e-05 0 0.032347400459795631 0.00015674068901016703 0 0.032373968936524208 6.0064951154863658e-05 0 0.032400899350941523 -4.9253338995231636e-05 0 0.03250097402088023 6.4863056497564486e-05 0 0.032534316296288585 -0.0001606114241408162 0 0.032249091744486126 3.5322739569527857e-05 0 0.032373968936524208 6.0064951154863658e-05 0 0.032400899350941523 -4.9253338995231636e-05 0 0.032249091744486126 3.5322739569527857e-05 0 0.032400899350941523 -4.9253338995231636e-05 0 0.03225765948497835 -0.00015055908296535952 0 0.032373968936524208 6.0064951154863658e-05 0 0.032400899350941523 -4.9253338995231636e-05 0 0.03250097402088023 6.4863056497564486e-05 0 0.045534255407972159 -0.0033366924783643538 0 0.041242488576333745 -0.0027018355583446978 0 0.03250097402088023 6.4863056497564486e-05 0 0.032744648583341779 3.4031598521898682e-05 0 0.032534316296288585 -0.0001606114241408162 0 0.032572020379306038 0.00022250311573756971 0 0.03250097402088023 6.4863056497564486e-05 0 0.032744648583341779 3.4031598521898682e-05 0 0.032572020379306038 0.00022250311573756971 0 0.032429935979902708 0.00022229175399740022 0 0.03250097402088023 6.4863056497564486e-05 0 0.050149283460556235 -0.00687766496878057 0 0.050281260975031133 -0.0054280800448434996 0 0.048699577928142418 -0.006765327008303971 0 0.051306565129385029 -0.0070053221973364558 0 0.050149283460556235 -0.00687766496878057 0 0.050281260975031133 -0.0054280800448434996 0 0.04361987846903654 -0.0030106215583660541 0 0.045534255407972159 -0.0033366924783643538 0 0.04834709958914761 -0.0042843295314539016 0 0.048065208093499213 -0.004236875477760949 0 0.048500649180858932 -0.003936697199156995 0 0.04834709958914761 -0.0042843295314539016 0 0.048377718207162593 -0.0043217987570381179 0 0.048500649180858932 -0.003936697199156995 0 0.04834709958914761 -0.0042843295314539016 0 0.048473167617450137 -0.0043656752170089363 0 0.048065208093499213 -0.004236875477760949 0 0.045562477057528313 -0.0033654114721755305 0 0.045534255407972159 -0.0033366924783643538 0 0.048473167617450137 -0.0043656752170089363 0 0.048065208093499213 -0.004236875477760949 0 0.047680876950239939 -0.0046278537486942458 0 0.048065208093499213 -0.004236875477760949 0 0.047206157776394149 -0.003808170845300067 0 0.047535160314171404 -0.0029785361997643725 0 0.048065208093499213 -0.004236875477760949 0 0.047206157776394149 -0.003808170845300067 0 0.047680876950239939 -0.0046278537486942458 0 0.047206157776394149 -0.003808170845300067 0 0.047680876950239939 -0.0046278537486942458 0 0.046578691769854984 -0.0043105127820281799 0 0.048473167617450137 -0.0043656752170089363 0 0.047680876950239939 -0.0046278537486942458 0 0.047682819008405819 -0.005785307252175069 0 0.047680876950239939 -0.0046278537486942458 0 0.047682819008405819 -0.005785307252175069 0 0.046578691769854984 -0.0043105127820281799 0 0.045534255407972159 -0.0033366924783643538 0 0.046564069248194742 -0.0051107012739281124 0 0.04833635528492361 -0.00074183088453482632 0 0.047234780133613041 -0.0015706303568468693 0 0.04549662524130664 0.00094481615303118756 0 0.04833635528492361 -0.00074183088453482632 0 0.049425235892753022 5.1005788118362052e-05 0 0.04549662524130664 0.00094481615303118756 0 0.04833635528492361 -0.00074183088453482632 0 0.047234780133613041 -0.0015706303568468693 0 0.048366826526645305 -0.00196097248234053 0 0.047234780133613041 -0.0015706303568468693 0 0.047535160314171404 -0.0029785361997643725 0 0.046110596574220654 -0.0024746466707724919 0 0.047206157776394149 -0.003808170845300067 0 0.047535160314171404 -0.0029785361997643725 0 0.046110596574220654 -0.0024746466707724919 0 0.048065208093499213 -0.004236875477760949 0 0.047535160314171404 -0.0029785361997643725 0 0.048742520786128424 -0.002977353133202089 0 0.047234780133613041 -0.0015706303568468693 0 0.047535160314171404 -0.0029785361997643725 0 0.048366826526645305 -0.00196097248234053 0 0.047535160314171404 -0.0029785361997643725 0 0.048366826526645305 -0.00196097248234053 0 0.048742520786128424 -0.002977353133202089 0 0.048065208093499213 -0.004236875477760949 0 0.048742520786128424 -0.002977353133202089 0 0.050401322538084437 -0.0024284139028121791 0 0.048366826526645305 -0.00196097248234053 0 0.049275219217278919 -0.0021888970606103362 0 0.049600907247737795 -0.0013715197749089934 0 0.046705691490815431 -0.0017840472717443961 0 0.046124180835337439 -0.0010744994121601897 0 0.048366826526645305 -0.00196097248234053 0 0.049275219217278919 -0.0021888970606103362 0 0.048742520786128424 -0.002977353133202089 0 0.049275219217278919 -0.0021888970606103362 0 0.048742520786128424 -0.002977353133202089 0 0.050401322538084437 -0.0024284139028121791 0 0.049275219217278919 -0.0021888970606103362 0 0.049600907247737795 -0.0013715197749089934 0 0.050401322538084437 -0.0024284139028121791 0 0.049600907247737795 -0.0013715197749089934 0 0.050375629483117433 -0.0013879239886183596 0 0.050401322538084437 -0.0024284139028121791 0 0.049600907247737795 -0.0013715197749089934 0 0.050412393213124761 -0.00070147342101253222 0 0.050375629483117433 -0.0013879239886183596 0 0.04833635528492361 -0.00074183088453482632 0 0.048366826526645305 -0.00196097248234053 0 0.049600907247737795 -0.0013715197749089934 0 0.04833635528492361 -0.00074183088453482632 0 0.049600907247737795 -0.0013715197749089934 0 0.049569739643551436 -0.00064097886510966679 0 0.04833635528492361 -0.00074183088453482632 0 0.049569739643551436 -0.00064097886510966679 0 0.049425235892753022 5.1005788118362052e-05 0 0.049569739643551436 -0.00064097886510966679 0 0.050412393213124761 -0.00070147342101253222 0 0.049425235892753022 5.1005788118362052e-05 0 0.049600907247737795 -0.0013715197749089934 0 0.049569739643551436 -0.00064097886510966679 0 0.050412393213124761 -0.00070147342101253222 0 0.050412393213124761 -0.00070147342101253222 0 0.051080580619652406 -0.0010451440263972071 0 0.052631144568870865 -0.00038260886111252497 0 0.050412393213124761 -0.00070147342101253222 0 0.052631144568870865 -0.00038260886111252497 0 0.049425235892753022 5.1005788118362052e-05 0 0.040833163159055101 -0.0012751384458221278 0 0.042347939028189618 6.7524711936206642e-05 0 0.051080580619652406 -0.0010451440263972071 0 0.050401322538084437 -0.0024284139028121791 0 0.052631144568870865 -0.00038260886111252497 0 0.046124180835337439 -0.0010744994121601897 0 0.040833163159055101 -0.0012751384458221278 0 0.051080580619652406 -0.0010451440263972071 0 0.050375629483117433 -0.0013879239886183596 0 0.050401322538084437 -0.0024284139028121791 0 0.050412393213124761 -0.00070147342101253222 0 0.051080580619652406 -0.0010451440263972071 0 0.050375629483117433 -0.0013879239886183596 0 0.048500649180858932 -0.003936697199156995 0 0.048593141141604436 -0.0039562409814360017 0 0.04859413524958902 -0.0038452473993080796 0 0.048377718207162593 -0.0043217987570381179 0 0.048500649180858932 -0.003936697199156995 0 0.048593141141604436 -0.0039562409814360017 0 0.032534316296288585 -0.0001606114241408162 0 0.032366221405152287 -0.00020203765618083202 0 0.032269444208433258 -0.00048663788711888757 0 0.032400899350941523 -4.9253338995231636e-05 0 0.032534316296288585 -0.0001606114241408162 0 0.032366221405152287 -0.00020203765618083202 0 0.032400899350941523 -4.9253338995231636e-05 0 0.032366221405152287 -0.00020203765618083202 0 0.03225765948497835 -0.00015055908296535952 0 0.041242488576333745 -0.0027018355583446978 0 0.037874205190825315 -0.0021558942199983232 0 0.048593141141604436 -0.0039562409814360017 0 0.04859413524958902 -0.0038452473993080796 0 0.04862133593436313 -0.0038443801579840105 0 0.040833163159055101 -0.0012751384458221278 0 0.037874205190825315 -0.0021558942199983232 0 0.034875189445554594 0.0017169856253715133 0 0.034766973479051208 0.0013916279412718689 0 0.034027068566448125 0.0014380066066393752 0 0.034978336588376763 0.00229046821948397 0 0.034875189445554594 0.0017169856253715133 0 0.034027068566448125 0.0014380066066393752 0 0.034978336588376763 0.00229046821948397 0 0.034875189445554594 0.0017169856253715133 0 0.035349600634892286 0.0019034656853010091 0 0.035258750718182859 0.0015612513737574623 0 0.034875189445554594 0.0017169856253715133 0 0.035349600634892286 0.0019034656853010091 0 0.035258750718182859 0.0015612513737574623 0 0.034875189445554594 0.0017169856253715133 0 0.034766973479051208 0.0013916279412718689 0 0.034766973479051208 0.0013916279412718689 0 0.035131798729571784 0.0011108880023152226 0 0.034506688674586304 0.000915277909994748 0 0.035131798729571784 0.0011108880023152226 0 0.034506688674586304 0.000915277909994748 0 0.035152931625462271 0.00057675650583396021 0 0.035258750718182859 0.0015612513737574623 0 0.034766973479051208 0.0013916279412718689 0 0.035131798729571784 0.0011108880023152226 0 0.035258750718182859 0.0015612513737574623 0 0.035131798729571784 0.0011108880023152226 0 0.035640753663610268 0.0013796173912795282 0 0.035131798729571784 0.0011108880023152226 0 0.035640753663610268 0.0013796173912795282 0 0.035607273691362094 0.00090570496186720428 0 0.035131798729571784 0.0011108880023152226 0 0.035607273691362094 0.00090570496186720428 0 0.035152931625462271 0.00057675650583396021 0 0.035607273691362094 0.00090570496186720428 0 0.03609464446129839 0.0012280736892404983 0 0.036050400452872722 0.00072324688056338076 0 0.035607273691362094 0.00090570496186720428 0 0.036050400452872722 0.00072324688056338076 0 0.035713633734891094 0.00042046403198071761 0 0.035640753663610268 0.0013796173912795282 0 0.035607273691362094 0.00090570496186720428 0 0.03609464446129839 0.0012280736892404983 0 0.034978336588376763 0.00229046821948397 0 0.035787535615987673 0.0019297552298904606 0 0.036454295313431286 0.0021476513064841731 0 0.035640753663610268 0.0013796173912795282 0 0.03599945436914314 0.0016473344042696029 0 0.03609464446129839 0.0012280736892404983 0 0.034978336588376763 0.00229046821948397 0 0.035349600634892286 0.0019034656853010091 0 0.035787535615987673 0.0019297552298904606 0 0.03599945436914314 0.0016473344042696029 0 0.035663803683720852 0.0017004995846183917 0 0.035787535615987673 0.0019297552298904606 0 0.035640753663610268 0.0013796173912795282 0 0.03599945436914314 0.0016473344042696029 0 0.035663803683720852 0.0017004995846183917 0 0.035258750718182859 0.0015612513737574623 0 0.035663803683720852 0.0017004995846183917 0 0.035349600634892286 0.0019034656853010091 0 0.035258750718182859 0.0015612513737574623 0 0.035640753663610268 0.0013796173912795282 0 0.035663803683720852 0.0017004995846183917 0 0.035663803683720852 0.0017004995846183917 0 0.035349600634892286 0.0019034656853010091 0 0.035787535615987673 0.0019297552298904606 0 0.03599945436914314 0.0016473344042696029 0 0.035787535615987673 0.0019297552298904606 0 0.036287476281077362 0.0018880810446931108 0 0.035787535615987673 0.0019297552298904606 0 0.036287476281077362 0.0018880810446931108 0 0.036454295313431286 0.0021476513064841731 0 0.036287476281077362 0.0018880810446931108 0 0.036447176947880418 0.0019425969714853921 0 0.03644727362472485 0.0017846258652918269 0 0.036287476281077362 0.0018880810446931108 0 0.036447176947880418 0.0019425969714853921 0 0.036454295313431286 0.0021476513064841731 0 0.03644727362472485 0.0017846258652918269 0 0.036599792608819313 0.0019697434218302946 0 0.036599623154511637 0.001543329292346285 0 0.036447176947880418 0.0019425969714853921 0 0.036454295313431286 0.0021476513064841731 0 0.036599792608819313 0.0019697434218302946 0 0.036447176947880418 0.0019425969714853921 0 0.03644727362472485 0.0017846258652918269 0 0.036599792608819313 0.0019697434218302946 0 0.03644727362472485 0.0017846258652918269 0 0.036599623154511637 0.001543329292346285 0 0.036318951686632815 0.0015654343072543596 0 0.036599623154511637 0.001543329292346285 0 0.036318951686632815 0.0015654343072543596 0 0.036445049376972127 0.0012966837402530343 0 0.03599945436914314 0.0016473344042696029 0 0.036318951686632815 0.0015654343072543596 0 0.03609464446129839 0.0012280736892404983 0 0.036287476281077362 0.0018880810446931108 0 0.03644727362472485 0.0017846258652918269 0 0.036318951686632815 0.0015654343072543596 0 0.03599945436914314 0.0016473344042696029 0 0.036287476281077362 0.0018880810446931108 0 0.036318951686632815 0.0015654343072543596 0 0.03609464446129839 0.0012280736892404983 0 0.03644945969404486 0.00091437905916047122 0 0.036445049376972127 0.0012966837402530343 0 0.036318951686632815 0.0015654343072543596 0 0.03609464446129839 0.0012280736892404983 0 0.036445049376972127 0.0012966837402530343 0 0.03609464446129839 0.0012280736892404983 0 0.036050400452872722 0.00072324688056338076 0 0.03644945969404486 0.00091437905916047122 0 0.03644945969404486 0.00091437905916047122 0 0.03673926261986548 0.0011816573587537342 0 0.036890988967569795 0.00089084290135700453 0 0.036599623154511637 0.001543329292346285 0 0.036445049376972127 0.0012966837402530343 0 0.03673926261986548 0.0011816573587537342 0 0.03644945969404486 0.00091437905916047122 0 0.036445049376972127 0.0012966837402530343 0 0.03673926261986548 0.0011816573587537342 0 0.03673926261986548 0.0011816573587537342 0 0.036890988967569795 0.00089084290135700453 0 0.037100486453310301 0.0012499377685534128 0 0.036599623154511637 0.001543329292346285 0 0.03673926261986548 0.0011816573587537342 0 0.037100486453310301 0.0012499377685534128 0 0.036890988967569795 0.00089084290135700453 0 0.037100486453310301 0.0012499377685534128 0 0.037639222596199104 0.00067062208805573496 0 0.036599792608819313 0.0019697434218302946 0 0.037711454631713985 0.001063361071703181 0 0.038432042131194825 0.0018638251253688929 0 0.036454295313431286 0.0021476513064841731 0 0.036599792608819313 0.0019697434218302946 0 0.038432042131194825 0.0018638251253688929 0 0.042347939028189618 6.7524711936206642e-05 0 0.041599636447776034 0.00073835844754225612 0 0.034419235024458372 0.00063669132144686651 0 0.033425913599033137 0.00092175302929920421 0 0.036599792608819313 0.0019697434218302946 0 0.036599623154511637 0.001543329292346285 0 0.037100486453310301 0.0012499377685534128 0 0.03113334607475739 -0.00038871433126137908 0 0.033573534155510572 -0.00052231567817329961 0 0.032502555986522852 -0.0013112236404417426 0 0.032271874440760157 -0.00091558986960396768 0 0.033453740844073952 -0.001176279589358867 0 0.03113334607475739 -0.00038871433126137908 0 0.031418373211229013 -0.0002175542238956767 0 0.031676205895581316 -0.00046434120698763846 0 0.03113334607475739 -0.00038871433126137908 0 0.032502555986522852 -0.0013112236404417426 0 0.031549027896037418 -0.001739359265747709 0 0.030093555718745859 -0.00075570295047053704 0 0.03113334607475739 -0.00038871433126137908 0 0.031549027896037418 -0.001739359265747709 0 0.030648512387670513 0.00024076998929906815 0 0.03113334607475739 -0.00038871433126137908 0 0.031108273557317812 0.00015391560527395199 0 0.03113334607475739 -0.00038871433126137908 0 0.031108273557317812 0.00015391560527395199 0 0.031418373211229013 -0.0002175542238956767 0 0.031108273557317812 0.00015391560527395199 0 0.031418373211229013 -0.0002175542238956767 0 0.031793274667404538 -0.00010934882248455786 0 0.031418373211229013 -0.0002175542238956767 0 0.031793274667404538 -0.00010934882248455786 0 0.031676205895581316 -0.00046434120698763846 0 0.032089717158274723 5.3086350659084065e-05 0 0.031793274667404538 -0.00010934882248455786 0 0.032114936720116942 -7.4007135236024688e-05 0 0.031793274667404538 -0.00010934882248455786 0 0.032114936720116942 -7.4007135236024688e-05 0 0.032040654810996459 -0.00024644355531292205 0 0.031793274667404538 -0.00010934882248455786 0 0.032040654810996459 -0.00024644355531292205 0 0.031676205895581316 -0.00046434120698763846 0 0.032366221405152287 -0.00020203765618083202 0 0.03225765948497835 -0.00015055908296535952 0 0.032269444208433258 -0.00048663788711888757 0 0.032249091744486126 3.5322739569527857e-05 0 0.03225765948497835 -0.00015055908296535952 0 0.032114936720116942 -7.4007135236024688e-05 0 0.03225765948497835 -0.00015055908296535952 0 0.032114936720116942 -7.4007135236024688e-05 0 0.032040654810996459 -0.00024644355531292205 0 0.03225765948497835 -0.00015055908296535952 0 0.032040654810996459 -0.00024644355531292205 0 0.032269444208433258 -0.00048663788711888757 0 0.032040654810996459 -0.00024644355531292205 0 0.032269444208433258 -0.00048663788711888757 0 0.031676205895581316 -0.00046434120698763846 0 0.03580389879119223 -0.00077559404123730665 0 0.033573534155510572 -0.00052231567817329961 0 0.034622290058545106 -0.0018472072620262475 0 0.037874205190825315 -0.0021558942199983232 0 0.033453740844073952 -0.001176279589358867 0 0.033573534155510572 -0.00052231567817329961 0 0.033528234400195846 -0.0016348890923748318 0 0.034622290058545106 -0.0018472072620262475 0 0.034622290058545106 -0.0018472072620262475 0 0.035203088849768104 -0.0023794097521955063 0 0.034412604146819334 -0.0024911737543066742 0 0.034622290058545106 -0.0018472072620262475 0 0.033823726562666898 -0.0024061768292994168 0 0.034412604146819334 -0.0024911737543066742 0 0.033528234400195846 -0.0016348890923748318 0 0.034622290058545106 -0.0018472072620262475 0 0.033823726562666898 -0.0024061768292994168 0 0.040833163159055101 -0.0012751384458221278 0 0.03507617691778929 -0.0010605661480015038 0 0.03580334664867086 -0.00077116575931785282 0 0.034622290058545106 -0.0018472072620262475 0 0.035203088849768104 -0.0023794097521955063 0 0.036875936466213857 -0.00088710229724089039 0 0.03580334664867086 -0.00077116575931785282 0 0.035203088849768104 -0.0023794097521955063 0 0.037874205190825315 -0.0021558942199983232 0 0.037152659098239754 -0.0023863760542100886 0 0.034027068566448125 0.0014380066066393752 0 0.033926645399311769 0.00078352597871890082 0 0.034506688674586304 0.000915277909994748 0 0.034766973479051208 0.0013916279412718689 0 0.034027068566448125 0.0014380066066393752 0 0.034506688674586304 0.000915277909994748 0 0.034027068566448125 0.0014380066066393752 0 0.033926645399311769 0.00078352597871890082 0 0.033360374130967631 0.00084531417439335837 0 0.033926645399311769 0.00078352597871890082 0 0.033360374130967631 0.00084531417439335837 0 0.033036128312231364 0.00055071399690185781 0 0.033823726562666898 -0.0024061768292994168 0 0.034049282308888262 -0.0033746690471814491 0 0.033154480265609979 -0.003005991954729067 0 0.033823726562666898 -0.0024061768292994168 0 0.034412604146819334 -0.0024911737543066742 0 0.034049282308888262 -0.0033746690471814491 0 0.03507617691778929 -0.0010605661480015038 0 0.031586877082409676 -0.0010110334509133485 0 0.035203088849768104 -0.0023794097521955063 0 0.034412604146819334 -0.0024911737543066742 0 0.034049282308888262 -0.0033746690471814491 0 0.031586877082409676 -0.0010110334509133485 0 0.02944544811471592 -0.001222108448386459 0 0.034049282308888262 -0.0033746690471814491 0 0.033154480265609979 -0.003005991954729067 0 0.033506663269938806 -0.0038344319691969945 0 0.033154480265609979 -0.003005991954729067 0 0.03171416689394612 -0.0033046444469125931 0 0.033506663269938806 -0.0038344319691969945 0 0.031315073337122475 -0.0020888207019220508 0 0.02944544811471592 -0.001222108448386459 0 0.033154480265609979 -0.003005991954729067 0 0.032792389928843188 -0.0021941006615506515 0 0.03171416689394612 -0.0033046444469125931 0 0.033823726562666898 -0.0024061768292994168 0 0.033154480265609979 -0.003005991954729067 0 0.032792389928843188 -0.0021941006615506515 0 0.033528234400195846 -0.0016348890923748318 0 0.033823726562666898 -0.0024061768292994168 0 0.032792389928843188 -0.0021941006615506515 0 0.032792389928843188 -0.0021941006615506515 0 0.032502555986522852 -0.0013112236404417426 0 0.031549027896037418 -0.001739359265747709 0 0.033573534155510572 -0.00052231567817329961 0 0.033528234400195846 -0.0016348890923748318 0 0.032502555986522852 -0.0013112236404417426 0 0.033528234400195846 -0.0016348890923748318 0 0.032792389928843188 -0.0021941006615506515 0 0.032502555986522852 -0.0013112236404417426 0 0.032792389928843188 -0.0021941006615506515 0 0.031549027896037418 -0.001739359265747709 0 0.03171416689394612 -0.0033046444469125931 0 0.030483726402775899 -0.0027058699204579807 0 0.031549027896037418 -0.001739359265747709 0 0.03171416689394612 -0.0033046444469125931 0 0.03171416689394612 -0.0033046444469125931 0 0.03173403645340063 -0.0046816736465183483 0 0.033582483052544618 -0.0043920670833471577 0 0.03171416689394612 -0.0033046444469125931 0 0.03173403645340063 -0.0046816736465183483 0 0.030661038081392387 -0.0041453379105412577 0 0.023047189343320174 -0.00014225473505755893 0 0.020239821645371917 -0.0014367395461135953 0 0.03173403645340063 -0.0046816736465183483 0 0.032168403968887489 -0.0059261790460180767 0 0.030651150810962893 -0.0053334598572203611 0 0.020249548485640936 -0.00049985716974410932 0 0.019281377594195053 -0.00053435298046426217 0 0.019583943041345836 -0.0007947022836742037 0 0.020249548485640936 -0.00049985716974410932 0 0.019771165775516766 -0.001015824096157173 0 0.019583943041345836 -0.0007947022836742037 0 0.021166333058181115 0.00086033848641977164 0 0.021017698725502399 0.00026211815125954416 0 0.020362187839216728 -9.0225009185335212e-06 0 0.021166333058181115 0.00086033848641977164 0 0.021017698725502399 0.00026211815125954416 0 0.021583196345670824 0.00038457910316299124 0 0.023047189343320174 -0.00014225473505755893 0 0.018613908311690391 -7.5609786941445531e-06 0 0.023047189343320174 -0.00014225473505755893 0 0.022782357457307618 0.00010258438594828029 0 0.021663697165124927 0.00083333217797680267 0 0.022522388614867821 0.00086507934065577794 0 0.022455280697226278 0.0017128300995013113 0 0.021166333058181115 0.00086033848641977164 0 0.021583196345670824 0.00038457910316299124 0 0.022326321218852307 0.00088295743558288928 0 0.021583196345670824 0.00038457910316299124 0 0.022326321218852307 0.00088295743558288928 0 0.022620575707928785 0.00023655631810686181 0 0.03173403645340063 -0.0046816736465183483 0 0.032168403968887489 -0.0059261790460180767 0 0.033582483052544618 -0.0043920670833471577 0 0.023047189343320174 -0.00014225473505755893 0 0.028217879632847023 -0.0010539562008991183 0 0.03171416689394612 -0.0033046444469125931 0 0.033582483052544618 -0.0043920670833471577 0 0.033936760081637818 -0.0040034583008359322 0 0.022522388614867821 0.00086507934065577794 0 0.022455280697226278 0.0017128300995013113 0 0.022648759412900381 0.0019310365655731436 0 0.028217879632847023 -0.0010539562008991183 0 0.02944544811471592 -0.001222108448386459 0 0.022522388614867821 0.00086507934065577794 0 0.023070116747740354 0.001440249015008896 0 0.022648759412900381 0.0019310365655731436 0 0.02944544811471592 -0.001222108448386459 0 0.028409718723897935 0.00054128614125518147 0 0.023070116747740354 0.001440249015008896 0 0.022648759412900381 0.0019310365655731436 0 0.024154789820967318 0.0015839343727825814 0 0.033926645399311769 0.00078352597871890082 0 0.033036128312231364 0.00055071399690185781 0 0.034365829882474226 0.00022790014252149543 0 0.023070116747740354 0.001440249015008896 0 0.024154789820967318 0.0015839343727825814 0 0.023377035642954413 0.0008845494070005718 0 0.033926645399311769 0.00078352597871890082 0 0.034506688674586304 0.000915277909994748 0 0.034365829882474226 0.00022790014252149543 0 0.024154789820967318 0.0015839343727825814 0 0.024199059366927195 0.00073716151039556496 0 0.023377035642954413 0.0008845494070005718 0 0.020113521687834889 0.001917143678306523 0 0.018143061237776998 0.0014113657163451366 0 0.014502529529063836 0.0039701976929080156 0 0.013193542037379206 0.0035161331957106481 0 0.013792691312441223 0.0032479297065367073 0 0.024199059366927195 0.00073716151039556496 0 0.023377035642954413 0.0008845494070005718 0 0.022620575707928785 0.00023655631810686181 0 0.022782357457307618 0.00010258438594828029 0 0.022878418243595447 0.00018353970093941887 0 0.022326321218852307 0.00088295743558288928 0 0.023377035642954413 0.0008845494070005718 0 0.022620575707928785 0.00023655631810686181 0 0.022522388614867821 0.00086507934065577794 0 0.023070116747740354 0.001440249015008896 0 0.023377035642954413 0.0008845494070005718 0 0.013193542037379206 0.0035161331957106481 0 0.013792691312441223 0.0032479297065367073 0 0.013308091635778722 0.0029224852521830577 0 0.013792691312441223 0.0032479297065367073 0 0.013308091635778722 0.0029224852521830577 0 0.01374786877164311 0.0027575633332733978 0 0.013193542037379206 0.0035161331957106481 0 0.013308091635778722 0.0029224852521830577 0 0.012787407220232605 0.0028918229545317723 0 0.014502529529063836 0.0039701976929080156 0 0.014271474299042583 0.0031500601978005321 0 0.01471326931133517 0.0035008879483941001 0 0.014502529529063836 0.0039701976929080156 0 0.013792691312441223 0.0032479297065367073 0 0.014271474299042583 0.0031500601978005321 0 0.014271474299042583 0.0031500601978005321 0 0.014201092889974568 0.0027225778345796479 0 0.01374786877164311 0.0027575633332733978 0 0.013792691312441223 0.0032479297065367073 0 0.014271474299042583 0.0031500601978005321 0 0.01374786877164311 0.0027575633332733978 0 0.014271474299042583 0.0031500601978005321 0 0.014201092889974568 0.0027225778345796479 0 0.014744333745128489 0.0027950374452009453 0 0.014271474299042583 0.0031500601978005321 0 0.01471326931133517 0.0035008879483941001 0 0.014744333745128489 0.0027950374452009453 0 0.013985089157860169 0.0022445299655356886 0 0.014744333745128489 0.0027950374452009453 0 0.014212897434781848 0.0016431433916439919 0 0.010991753231354155 0.0042246491751109592 0 0.0075553169298043102 0.0047390424463844422 0 0.014201092889974568 0.0027225778345796479 0 0.013985089157860169 0.0022445299655356886 0 0.014744333745128489 0.0027950374452009453 0 0.014201092889974568 0.0027225778345796479 0 0.013985089157860169 0.0022445299655356886 0 0.01374786877164311 0.0027575633332733978 0 0.013985089157860169 0.0022445299655356886 0 0.013208863272105511 0.002404670617759 0 0.013223523490234403 0.0016607161941122168 0 0.013985089157860169 0.0022445299655356886 0 0.01374786877164311 0.0027575633332733978 0 0.013208863272105511 0.002404670617759 0 0.013308091635778722 0.0029224852521830577 0 0.01374786877164311 0.0027575633332733978 0 0.013208863272105511 0.002404670617759 0 0.013308091635778722 0.0029224852521830577 0 0.013208863272105511 0.002404670617759 0 0.012787407220232605 0.0028918229545317723 0 0.013208863272105511 0.002404670617759 0 0.012459887356171158 0.0022296334915494855 0 0.013223523490234403 0.0016607161941122168 0 0.013208863272105511 0.002404670617759 0 0.012459887356171158 0.0022296334915494855 0 0.012787407220232605 0.0028918229545317723 0 0.012459887356171158 0.0022296334915494855 0 0.012297726212565439 0.0027034677182952082 0 0.012787407220232605 0.0028918229545317723 0 0.012459887356171158 0.0022296334915494855 0 0.011978540484212543 0.0025697290001297076 0 0.011853493786617224 0.0018480313245582546 0 0.011978540484212543 0.0025697290001297076 0 0.011853493786617224 0.0018480313245582546 0 0.011343268280568333 0.0029345750647916495 0 0.012459887356171158 0.0022296334915494855 0 0.011978540484212543 0.0025697290001297076 0 0.012297726212565439 0.0027034677182952082 0 0.011978540484212543 0.0025697290001297076 0 0.012297726212565439 0.0027034677182952082 0 0.011967685342810366 0.0031194026916607754 0 0.01771709104648965 0.0010944138460508843 0 0.017239451844851296 0.0012359870666263657 0 0.016886366595137547 0.00085069911779405729 0 0.011978540484212543 0.0025697290001297076 0 0.011967685342810366 0.0031194026916607754 0 0.011343268280568333 0.0029345750647916495 0 0.016676084799620419 0.00069517673216235086 0 0.016622285877563026 0.00035201270479759655 0 0.021017698725502399 0.00026211815125954416 0 0.020771648649879838 -0.00033181039825411484 0 0.020353868397861248 -9.2316968181841527e-06 0 0.018901852186797796 8.3077092877792009e-05 0 0.018613908311690391 -7.5609786941445531e-06 0 0.020771648649879838 -0.00033181039825411484 0 0.020353868397861248 -9.2316968181841527e-06 0 0.020207672379162638 -0.00016785514597535315 0 0.016676084799620419 0.00069517673216235086 0 0.017946482808100961 1.7906552264357395e-05 0 0.018613908311690391 -7.5609786941445531e-06 0 0.017946482808100961 1.7906552264357395e-05 0 0.021017698725502399 0.00026211815125954416 0 0.021583196345670824 0.00038457910316299124 0 0.020771648649879838 -0.00033181039825411484 0 0.018143061237776998 0.0014113657163451366 0 0.016676084799620419 0.00069517673216235086 0 0.012297726212565439 0.0027034677182952082 0 0.011967685342810366 0.0031194026916607754 0 0.012787407220232605 0.0028918229545317723 0 0.013193542037379206 0.0035161331957106481 0 0.011981641806037757 0.0031224788692235076 0 0.012787407220232605 0.0028918229545317723 0 0.016676084799620419 0.00069517673216235086 0 0.014956610664403609 0.0013361007140346819 0 0.021583196345670824 0.00038457910316299124 0 0.022620575707928785 0.00023655631810686181 0 0.020771648649879838 -0.00033181039825411484 0 0.013348037339349909 0.010815281900429002 0 0.012870948843136758 0.0091935376213987102 0 0.01533559895034382 0.01034615737678854 0 0.013348037339349909 0.010815281900429002 0 0.013794433460417565 0.012241883288591155 0 0.01533559895034382 0.01034615737678854 0 0.036890988967569795 0.00089084290135700453 0 0.037030045871684771 0.00047890868276233934 0 0.036350052749368401 0.00029175761677256061 0 0.036890988967569795 0.00089084290135700453 0 0.037030045871684771 0.00047890868276233934 0 0.037639222596199104 0.00067062208805573496 0 0.013348037339349909 0.010815281900429002 0 0.013794433460417565 0.012241883288591155 0 0.011932970413707514 0.011710610113249599 0 0.026031239175312783 0.0041637957686162909 0 0.024235106880145772 0.0038314049771876325 0 0.036050400452872722 0.00072324688056338076 0 0.03644945969404486 0.00091437905916047122 0 0.036354573467928308 0.00012931662105514772 0 0.027032844670583814 0.0046152673526417545 0 0.024235106880145772 0.0038314049771876325 0 0.03644945969404486 0.00091437905916047122 0 0.036890988967569795 0.00089084290135700453 0 0.036354573467928308 0.00012931662105514772 0 0.036050400452872722 0.00072324688056338076 0 0.036354573467928308 0.00012931662105514772 0 0.035713633734891094 0.00042046403198071761 0 0.024235106880145772 0.0038314049771876325 0 0.024490981914100908 0.0026872089225839966 0 0.011932970413707514 0.011710610113249599 0 0.010179869809252402 0.0095396815159482888 0 0.012870948843136758 0.0091935376213987102 0 0.013348037339349909 0.010815281900429002 0 0.011932970413707514 0.011710610113249599 0 0.012870948843136758 0.0091935376213987102 0 0.016981224073529221 0.0047038884925531864 0 0.016410152318326737 0.004340049943963485 0 0.016020241049454959 0.0035404342606854223 0 0.024235106880145772 0.0038314049771876325 0 0.01677548904665754 0.0043210888830133888 0 0.016034867676093051 0.0044362137815494281 0 0.015358802397546889 0.0041017422978633341 0 0.016020241049454959 0.0035404342606854223 0 0.016981224073529221 0.0047038884925531864 0 0.016050614427167698 0.0044426849061502093 0 0.016410152318326737 0.004340049943963485 0 0.024490981914100908 0.0026872089225839966 0 0.024012863367850492 0.0028125260528763358 0 0.016034867676093051 0.0044362137815494281 0 0.016410152318326737 0.004340049943963485 0 0.016020241049454959 0.0035404342606854223 0 0.036354573467928308 0.00012931662105514772 0 0.035640253834556886 -0.00010064421853215837 0 0.035713633734891094 0.00042046403198071761 0 0.035607273691362094 0.00090570496186720428 0 0.035713633734891094 0.00042046403198071761 0 0.035152931625462271 0.00057675650583396021 0 0.035640253834556886 -0.00010064421853215837 0 0.035713633734891094 0.00042046403198071761 0 0.035152931625462271 0.00057675650583396021 0 0.034365829882474226 0.00022790014252149543 0 0.035640253834556886 -0.00010064421853215837 0 0.035152931625462271 0.00057675650583396021 0 0.028409718723897935 0.00054128614125518147 0 0.024490981914100908 0.0026872089225839966 0 0.034506688674586304 0.000915277909994748 0 0.034365829882474226 0.00022790014252149543 0 0.035152931625462271 0.00057675650583396021 0 0.024154789820967318 0.0015839343727825814 0 0.024199059366927195 0.00073716151039556496 0 0.025651290307293004 0.0011781170738026489 0 0.020113521687834889 0.001917143678306523 0 0.024490981914100908 0.0026872089225839966 0 0.014502529529063836 0.0039701976929080156 0 0.016034867676093051 0.0044362137815494281 0 0.015358802397546889 0.0041017422978633341 0 0.014502529529063836 0.0039701976929080156 0 0.015358802397546889 0.0041017422978633341 0 0.01471326931133517 0.0035008879483941001 0 0.014750372788004281 0.0026931839658039876 0 0.015080442435300399 0.0024135547303015385 0 0.016020241049454959 0.0035404342606854223 0 0.015358802397546889 0.0041017422978633341 0 0.014750372788004281 0.0026931839658039876 0 0.016020241049454959 0.0035404342606854223 0 0.015358802397546889 0.0041017422978633341 0 0.01471326931133517 0.0035008879483941001 0 0.014744333745128489 0.0027950374452009453 0 0.012110597850506999 0.0044755864331353003 0 0.010991753231354155 0.0042246491751109592 0 0.014750372788004281 0.0026931839658039876 0 0.015080442435300399 0.0024135547303015385 0 0.014131445173859204 0.0012901323451755735 0 0.012085005877788537 0.0046161613866091151 0 0.0075553169298043102 0.0047390424463844422 0 0.0084226782869503639 0.0073683196689704085 0 0.010584264877540554 0.0070786227087665738 0 0.00869345316487595 0.0053591390869476068 0 0.0084226782869503639 0.0073683196689704085 0 0.010584264877540554 0.0070786227087665738 0 0.010179869809252402 0.0095396815159482888 0 0.012085005877788537 0.0046161613866091151 0 0.01677548904665754 0.0043210888830133888 0 0.010584264877540554 0.0070786227087665738 0 0.010179869809252402 0.0095396815159482888 0 0.012870948843136758 0.0091935376213987102 0 0.010584264877540554 0.0070786227087665738 0 0.01293662824814054 0.0062169278614202213 0 0.012870948843136758 0.0091935376213987102 0 0.0012017863016006993 0.013387676980958203 0 0.0055389550639633389 0.013531406816857187 0 0.01293662824814054 0.0062169278614202213 0 0.012870948843136758 0.0091935376213987102 0 0.015470727662029844 0.0076450138864128771 0 -0.014648363159207726 0.022270602801505248 0 -0.015804415103237213 0.023400368633508552 0 -0.015514254205086897 0.020745212310748325 0 -0.012726564975211406 0.022381317219465204 0 -0.013594835064204402 0.022381580646909968 0 -0.012975992050765496 0.021599991712687075 0 -0.013594835064204402 0.022381580646909968 0 -0.013999936881814239 0.021592672450596418 0 -0.012975992050765496 0.021599991712687075 0 -0.013594835064204402 0.022381580646909968 0 -0.01305123677691462 0.02320351577913754 0 -0.01437997546691043 0.02331494438327816 0 -0.012726564975211406 0.022381317219465204 0 -0.013594835064204402 0.022381580646909968 0 -0.01305123677691462 0.02320351577913754 0 -0.013909713852388352 0.024856643163701852 0 -0.01305123677691462 0.02320351577913754 0 -0.011954891224876502 0.024381215697620407 0 -0.013909713852388352 0.024856643163701852 0 -0.01305123677691462 0.02320351577913754 0 -0.01437997546691043 0.02331494438327816 0 0.0012017863016006993 0.013387676980958203 0 -0.0014449256315193157 0.012394906644055787 0 0.010584264877540554 0.0070786227087665738 0 0.01293662824814054 0.0062169278614202213 0 0.010399895283332539 0.0047911712576452796 0 -0.013909713852388352 0.024856643163701852 0 -0.01437997546691043 0.02331494438327816 0 -0.015804415103237213 0.023400368633508552 0 -0.01437997546691043 0.02331494438327816 0 -0.014648363159207726 0.022270602801505248 0 -0.015804415103237213 0.023400368633508552 0 -0.013594835064204402 0.022381580646909968 0 -0.01437997546691043 0.02331494438327816 0 -0.014648363159207726 0.022270602801505248 0 -0.013594835064204402 0.022381580646909968 0 -0.014648363159207726 0.022270602801505248 0 -0.013999936881814239 0.021592672450596418 0 -0.015804415103237213 0.023400368633508552 0 -0.017487528883947022 0.022262780654771587 0 -0.015514254205086897 0.020745212310748325 0 0.010584264877540554 0.0070786227087665738 0 0.010399895283332539 0.0047911712576452796 0 0.00869345316487595 0.0053591390869476068 0 0.0084226782869503639 0.0073683196689704085 0 0.00869345316487595 0.0053591390869476068 0 0.0066696315549691944 0.0051956469660163528 0 0.00869345316487595 0.0053591390869476068 0 0.0078626150383745205 0.0033687611545998833 0 0.0066696315549691944 0.0051956469660163528 0 0.010399895283332539 0.0047911712576452796 0 0.00869345316487595 0.0053591390869476068 0 0.0078626150383745205 0.0033687611545998833 0 -0.0014449256315193157 0.012394906644055787 0 -0.0030228619548712866 0.010585141297425887 0 -0.017487528883947022 0.022262780654771587 0 -0.017560112959253318 0.020456404973103998 0 -0.015514254205086897 0.020745212310748325 0 -0.016541971956939704 0.014664377504493759 0 -0.016697587123579626 0.01442832021217442 0 -0.016407334264500664 0.014433138240800782 0 -0.016541971956939704 0.014664377504493759 0 -0.016152569915478806 0.014761045736372581 0 -0.016407334264500664 0.014433138240800782 0 -0.016152569915478806 0.014761045736372581 0 -0.016117532129958003 0.014508780364740754 0 -0.016407334264500664 0.014433138240800782 0 -0.015196137766374513 0.014417984521063002 0 -0.015233729017924379 0.016399752538885034 0 -0.014648363159207726 0.022270602801505248 0 -0.015514254205086897 0.020745212310748325 0 -0.013999936881814239 0.021592672450596418 0 -0.015514254205086897 0.020745212310748325 0 -0.013242589759249114 0.020991781758351674 0 -0.013999936881814239 0.021592672450596418 0 -0.015233729017924379 0.016399752538885034 0 -0.013763170227971955 0.017654852127439676 0 -0.016152569915478806 0.014761045736372581 0 -0.015952730377379706 0.014627280930987455 0 -0.015709594028727444 0.014849673575790897 0 -0.016152569915478806 0.014761045736372581 0 -0.016117532129958003 0.014508780364740754 0 -0.015952730377379706 0.014627280930987455 0 -0.016117532129958003 0.014508780364740754 0 -0.015952730377379706 0.014627280930987455 0 -0.015869940565446609 0.014386211675315907 0 -0.013163588795406536 0.01987278862599309 0 -0.013328936089803477 0.020685304163712601 0 -0.014477938095094052 0.01804943248234224 0 -0.015952730377379706 0.014627280930987455 0 -0.015709594028727444 0.014849673575790897 0 -0.015869940565446609 0.014386211675315907 0 -0.013763170227971955 0.017654852127439676 0 -0.014843829348695626 0.016109054530115074 0 -0.013163588795406536 0.01987278862599309 0 -0.012606260140678803 0.01930191731443762 0 -0.014477938095094052 0.01804943248234224 0 -0.013163588795406536 0.01987278862599309 0 -0.012521790436881976 0.02031717342842063 0 -0.012606260140678803 0.01930191731443762 0 -0.013163588795406536 0.01987278862599309 0 -0.013328936089803477 0.020685304163712601 0 -0.013183460259373742 0.020711208385103989 0 -0.013163588795406536 0.01987278862599309 0 -0.013183460259373742 0.020711208385103989 0 -0.012521790436881976 0.02031717342842063 0 -0.013183460259373742 0.020711208385103989 0 -0.012501930984574501 0.021052294221107788 0 -0.012521790436881976 0.02031717342842063 0 -0.013763170227971955 0.017654852127439676 0 -0.013760062262846054 0.017657966237107393 0 -0.013242589759249114 0.020991781758351674 0 -0.013999936881814239 0.021592672450596418 0 -0.012975992050765496 0.021599991712687075 0 -0.013763170227971955 0.017654852127439676 0 -0.013641640138321087 0.018036889991433058 0 -0.013355442718684867 0.020685361628050909 0 -0.013183460259373742 0.020711208385103989 0 -0.012975992050765496 0.021599991712687075 0 -0.013183460259373742 0.020711208385103989 0 -0.012975992050765496 0.021599991712687075 0 -0.012501930984574501 0.021052294221107788 0 0.012847735331456717 0.0010166195553235318 0 0.012363265375994645 0.00074275294700515491 0 0.012562408249993171 0.0015125406599726186 0 0.012847735331456717 0.0010166195553235318 0 0.013408266979944208 0.00069258334816694892 0 0.01268281035412934 0.0004906863309905575 0 0.012847735331456717 0.0010166195553235318 0 0.012363265375994645 0.00074275294700515491 0 0.01268281035412934 0.0004906863309905575 0 0.012363265375994645 0.00074275294700515491 0 0.011880228779592954 0.00091293201205999556 0 0.01211531407242392 0.00016525149486373299 0 0.013623250320022868 0.0017053909022136508 0 0.014050331658531881 0.0018766135739957369 0 0.012363265375994645 0.00074275294700515491 0 0.011880228779592954 0.00091293201205999556 0 0.011969645342349454 0.0015023380899301633 0 0.011880228779592954 0.00091293201205999556 0 0.011969645342349454 0.0015023380899301633 0 0.011652102523678362 0.001503904762603078 0 0.012363265375994645 0.00074275294700515491 0 0.011853493786617224 0.0018480313245582546 0 0.012562408249993171 0.0015125406599726186 0 0.012459887356171158 0.0022296334915494855 0 0.011853493786617224 0.0018480313245582546 0 0.012562408249993171 0.0015125406599726186 0 0.012459887356171158 0.0022296334915494855 0 0.012562408249993171 0.0015125406599726186 0 0.013223523490234403 0.0016607161941122168 0 0.012847735331456717 0.0010166195553235318 0 0.012562408249993171 0.0015125406599726186 0 0.013223523490234403 0.0016607161941122168 0 0.013985089157860169 0.0022445299655356886 0 0.013223523490234403 0.0016607161941122168 0 0.014212897434781848 0.0016431433916439919 0 0.013223523490234403 0.0016607161941122168 0 0.014212897434781848 0.0016431433916439919 0 0.013408266979944208 0.00069258334816694892 0 0.0075553169298043102 0.0047390424463844422 0 0.0026372392207634808 0.006035146943891477 0 0.0075553169298043102 0.0047390424463844422 0 0.0055715677543836757 0.0048618872086032636 0 -0.0030228619548712866 0.010585141297425887 0 -0.0026319947050415806 0.0079911546608490945 0 0.0044176387051081765 0.0062438531905516228 0 0.0040846415832866438 0.0054368954483491145 0 0.0035091405172357863 0.0051122292979463467 0 0.0078626150383745205 0.0033687611545998833 0 0.0066696315549691944 0.0051956469660163528 0 0.0059987412512196711 0.0035731603718141894 0 0.0078626150383745205 0.0033687611545998833 0 0.0059987412512196711 0.0035731603718141894 0 0.0053278657783799952 0.0019520218056291244 0 0.012847735331456717 0.0010166195553235318 0 0.013223523490234403 0.0016607161941122168 0 0.013408266979944208 0.00069258334816694892 0 0.0026372392207634808 0.006035146943891477 0 -0.0026319947050415806 0.0079911546608490945 0 0.0040846415832866438 0.0054368954483491145 0 0.0035091405172357863 0.0051122292979463467 0 0.0037528954269518632 0.0046292846716914221 0 -0.0026319947050415806 0.0079911546608490945 0 0.0014030460903782208 0.0055655801599888343 0 0.0035091405172357863 0.0051122292979463467 0 0.0037528954269518632 0.0046292846716914221 0 0.002610585068667114 0.0039784397579809665 0 -0.0039500860115416567 0.0092413829927246848 0 -0.0043840138998819753 0.0081612934069847601 0 -0.0062208507725920433 0.0079402367866769543 0 -0.019068611186775563 0.021223126515473405 0 -0.018774750523512729 0.021061016536395711 0 -0.01932640579300204 0.02050673357561332 0 -0.0026319947050415806 0.0079911546608490945 0 -0.0078239059811115817 0.01060302920278477 0 -0.0084580727975203298 0.010975005192997041 0 -0.0078239059811115817 0.01060302920278477 0 -0.017487528883947022 0.022262780654771587 0 -0.017560112959253318 0.020456404973103998 0 -0.018774750523512729 0.021061016536395711 0 -0.017487528883947022 0.022262780654771587 0 -0.019068611186775563 0.021223126515473405 0 -0.018774750523512729 0.021061016536395711 0 -0.017560112959253318 0.020456404973103998 0 -0.018774750523512729 0.021061016536395711 0 -0.019343468284825711 0.020513517116457242 0 -0.015196137766374513 0.014417984521063002 0 -0.0095316016005268824 0.011015059737289092 0 -0.017560112959253318 0.020456404973103998 0 -0.019484260940089378 0.020146398537340019 0 -0.019343468284825711 0.020513517116457242 0 -0.016541971956939704 0.014664377504493759 0 -0.016896654148646918 0.014590763221730278 0 -0.016697587123579626 0.01442832021217442 0 -0.010244066298271752 0.010462559912209493 0 -0.010643004421677125 0.010401122184799117 0 -0.010931631004124347 0.0087549830652050159 0 -0.0095316016005268824 0.011015059737289092 0 -0.011785869409127009 0.010257353443253512 0 -0.005069480741576371 0.0075324430733530699 0 -0.0043840138998819753 0.0081612934069847601 0 -0.0062208507725920433 0.0079402367866769543 0 -0.0095316016005268824 0.011015059737289092 0 -0.0085829656113892688 0.010377074049002405 0 -0.0077455444491309651 0.0089423613486943731 0 -0.0085721065860030962 0.0088157279795199189 0 -0.0073443529169089318 0.0099449243591060565 0 -0.0085829656113892688 0.010377074049002405 0 -0.0078239059811115817 0.01060302920278477 0 -0.0095316016005268824 0.011015059737289092 0 -0.0078239059811115817 0.01060302920278477 0 -0.016896654148646918 0.014590763221730278 0 -0.016850442093358856 0.014401506684307548 0 -0.016697587123579626 0.01442832021217442 0 -0.0085829656113892688 0.010377074049002405 0 -0.0078876350591948058 0.010104490172091571 0 -0.005069480741576371 0.0075324430733530699 0 -0.006961965362631637 0.0072416237839293893 0 -0.0062208507725920433 0.0079402367866769543 0 -0.0051033067561660518 0.0075359840848938245 0 -0.006961965362631637 0.0072416237839293893 0 -0.0074155003960962758 0.0053927908133580395 0 0.013408266979944208 0.00069258334816694892 0 0.01263356076196682 -0.00020842660249418467 0 0.01268281035412934 0.0004906863309905575 0 0.01263356076196682 -0.00020842660249418467 0 0.01268281035412934 0.0004906863309905575 0 0.01211531407242392 0.00016525149486373299 0 0.0055715677543836757 0.0048618872086032636 0 0.0014030460903782208 0.0055655801599888343 0 0.012363265375994645 0.00074275294700515491 0 0.01268281035412934 0.0004906863309905575 0 0.01211531407242392 0.00016525149486373299 0 0.011713136328906363 0.001015975323887878 0 0.01211531407242392 0.00016525149486373299 0 0.01146078492788033 0.00037786394878753105 0 0.01211531407242392 0.00016525149486373299 0 0.011712162006505085 -0.00071490289447893591 0 0.01146078492788033 0.00037786394878753105 0 0.013216691546507488 0.001232537552609524 0 0.01307063774054972 0.0010351486003808837 0 0.01263356076196682 -0.00020842660249418467 0 0.01211531407242392 0.00016525149486373299 0 0.011712162006505085 -0.00071490289447893591 0 0.0014030460903782208 0.0055655801599888343 0 -0.0020200727870791674 0.0028420899539135058 0 -0.006961965362631637 0.0072416237839293893 0 -0.0062208507725920433 0.0079402367866769543 0 -0.0083679457514128554 0.0067059131428908753 0 -0.0020200727870791674 0.0028420899539135058 0 0.0037871095127190754 0.00019955907223128183 0 -0.0020026749930584019 0.00034372565940567364 0 -0.0020513591472718926 0.00034058315876966505 0 -0.002262710544903805 8.1578693415861443e-05 0 -0.0020513591472718926 0.00034058315876966505 0 -0.0023306722373891762 0.00024444599925527285 0 -0.0018824601125665801 0.00047666440511959094 0 -0.0020513591472718926 0.00034058315876966505 0 -0.0018824601125665801 0.00047666440511959094 0 -0.002262710544903805 8.1578693415861443e-05 0 -0.0018824601125665801 0.00047666440511959094 0 -0.002262710544903805 8.1578693415861443e-05 0 -0.0013694924867995659 -0.00060687019910581194 0 0.011712162006505085 -0.00071490289447893591 0 0.010941611366385207 0.00038383263383916 0 0.01146078492788033 0.00037786394878753105 0 0.010941611366385207 0.00038383263383916 0 0.01146078492788033 0.00037786394878753105 0 0.011166196639684685 0.00067766905044042494 0 0.01146078492788033 0.00037786394878753105 0 0.011357861963514347 0.0010370599724539981 0 0.011166196639684685 0.00067766905044042494 0 0.013212936483288083 0.00099047582083173092 0 0.013399572216120231 0.0011183713673057825 0 0.011713136328906363 0.001015975323887878 0 0.01146078492788033 0.00037786394878753105 0 0.011403768440167758 0.0011218411313306835 0 0.011357861963514347 0.0010370599724539981 0 0.01090697730119944 0.00089884326567770865 0 0.011015488618899248 0.001296857120948236 0 0.011357861963514347 0.0010370599724539981 0 0.01090697730119944 0.00089884326567770865 0 0.011166196639684685 0.00067766905044042494 0 0.010941611366385207 0.00038383263383916 0 0.01090697730119944 0.00089884326567770865 0 0.011166196639684685 0.00067766905044042494 0 0.0037871095127190754 0.00019955907223128183 0 0.0074853490199177537 -0.00016625410501725624 0 0.01090697730119944 0.00089884326567770865 0 0.010647199609965548 0.0012629450116896175 0 0.010254413437513524 0.0013561106141077009 0 0.010941611366385207 0.00038383263383916 0 0.01090697730119944 0.00089884326567770865 0 0.010254413437513524 0.0013561106141077009 0 -0.002262710544903805 8.1578693415861443e-05 0 -0.0013694924867995659 -0.00060687019910581194 0 -0.0011998498299135539 -0.0019687079800530648 0 0.01090697730119944 0.00089884326567770865 0 0.010647199609965548 0.0012629450116896175 0 0.011015488618899248 0.001296857120948236 0 0.010647199609965548 0.0012629450116896175 0 0.010739627679581108 0.0015471017662782882 0 0.011015488618899248 0.001296857120948236 0 0.010739627679581108 0.0015471017662782882 0 0.010214295413237132 0.0014282032735227369 0 0.011008128234935265 0.002274908589880257 0 0.010647199609965548 0.0012629450116896175 0 0.010739627679581108 0.0015471017662782882 0 0.010270732075714927 0.0013498498414700342 0 0.010739627679581108 0.0015471017662782882 0 0.010214295413237132 0.0014282032735227369 0 0.010270732075714927 0.0013498498414700342 0 0.0078717099109978858 -0.00017321104984796494 0 0.0074853490199177537 -0.00016625410501725624 0 0.011713136328906363 0.001015975323887878 0 0.011403768440167758 0.0011218411313306835 0 0.011339714811046644 0.0018406475585514945 0 0.013399572216120231 0.0011183713673057825 0 0.014039771008995752 0.0011485062696452509 0 0.013216691546507488 0.001232537552609524 0 0.014039771008995752 0.0011485062696452509 0 0.011357861963514347 0.0010370599724539981 0 0.011286829414186872 0.0016667642875672873 0 0.011015488618899248 0.001296857120948236 0 0.010739627679581108 0.0015471017662782882 0 0.011286829414186872 0.0016667642875672873 0 0.011015488618899248 0.001296857120948236 0 0.0096098641610783998 -0.0012693483892058199 0 0.0095026360935587424 -0.0012499516647109809 0 0.0096365649075233189 -0.0011914811618325353 0 0.0070382662842689344 -0.00072973555898977007 0 0.0084939463795995172 -0.001327232716055651 0 0.00095626267794795183 -0.001200975436740136 0 0.001192158966166385 -0.00062196837448707783 0 0.0015867114389395169 -0.00091981374320161072 0 0.0096098641610783998 -0.0012693483892058199 0 0.0096663690032017715 -0.0012430310272906896 0 0.0096365649075233189 -0.0011914811618325353 0 0.0096098641610783998 -0.0012693483892058199 0 0.0096663690032017715 -0.0012430310272906896 0 0.009719743348028706 -0.001279630754509988 0 0.00095626267794795183 -0.001200975436740136 0 0.00019680380239258709 -0.0010675682045014562 0 0.00068105480140768506 -0.00052216736698338956 0 0.0070382662842689344 -0.00072973555898977007 0 0.0077807643149662578 -0.00025018824681079477 0 0.0077807643149662578 -0.00025018824681079477 0 0.012517529604494686 -0.0011718332107231633 0 0.0096663690032017715 -0.0012430310272906896 0 0.009719743348028706 -0.001279630754509988 0 0.0096529376352181128 -0.0011867748960240588 0 -0.001079460770383938 -0.0021287401803839613 0 -0.0011998498299135539 -0.0019687079800530648 0 -0.00088228185304666874 -0.0012763263587030724 0 0.0077807643149662578 -0.00025018824681079477 0 0.0074853490199177537 -0.00016625410501725624 0 0.0077807643149662578 -0.00025018824681079477 0 0.0044307167256901593 -0.0017248527767428109 0 -0.0013694924867995659 -0.00060687019910581194 0 -0.0011998498299135539 -0.0019687079800530648 0 -0.00088228185304666874 -0.0012763263587030724 0 -0.001079460770383938 -0.0021287401803839613 0 -0.00088228185304666874 -0.0012763263587030724 0 2.4657463154288087e-06 -0.0011036380519342361 0 -0.0013694924867995659 -0.00060687019910581194 0 -0.00088228185304666874 -0.0012763263587030724 0 -0.00041678769301263622 -0.00027206366537897855 0 -0.00088228185304666874 -0.0012763263587030724 0 2.4657463154288087e-06 -0.0011036380519342361 0 -0.00041678769301263622 -0.00027206366537897855 0 0.00095626267794795183 -0.001200975436740136 0 0.00068105480140768506 -0.00052216736698338956 0 0.001192158966166385 -0.00062196837448707783 0 0.0044307167256901593 -0.0017248527767428109 0 0.0038173840719362786 -0.0018179712965344121 0 0.00068105480140768506 -0.00052216736698338956 0 0.001192158966166385 -0.00062196837448707783 0 0.001054743456150167 -6.2155971561110796e-05 0 0.001192158966166385 -0.00062196837448707783 0 0.001054743456150167 -6.2155971561110796e-05 0 0.0016689996371513844 -0.00034837672600041637 0 0.001054743456150167 -6.2155971561110796e-05 0 -0.00041678769301263622 -0.00027206366537897855 0 0.00058049609790112992 0.00102315407854798 0 0.001054743456150167 -6.2155971561110796e-05 0 0.00058049609790112992 0.00102315407854798 0 0.0017937026702881721 0.0002832112654160437 0 2.4657463154288087e-06 -0.0011036380519342361 0 0.001054743456150167 -6.2155971561110796e-05 0 -0.00041678769301263622 -0.00027206366537897855 0 -0.0018824601125665801 0.00047666440511959094 0 -0.00041678769301263622 -0.00027206366537897855 0 0.00058049609790112992 0.00102315407854798 0 -0.0018824601125665801 0.00047666440511959094 0 -0.0013694924867995659 -0.00060687019910581194 0 -0.00041678769301263622 -0.00027206366537897855 0 -0.0023306722373891762 0.00024444599925527285 0 -0.0018824601125665801 0.00047666440511959094 0 -0.0031701754057541303 0.00056640571763030844 0 -0.0016737495864387547 0.00041016253039157099 0 -0.0014373135360026138 0.00043840572846920906 0 -0.0023306722373891762 0.00024444599925527285 0 -0.0031701754057541303 0.00056640571763030844 0 -0.0027481259920266845 -1.9176448123940889e-05 0 -0.0014373135360026138 0.00043840572846920906 0 -0.0011867818649807023 0.00034857639674289675 0 -0.0031701754057541303 0.00056640571763030844 0 -0.0039892939357842076 0.00015007195541508046 0 -0.003443922655799226 -3.9710668521449595e-05 0 0.00058049609790112992 0.00102315407854798 0 0.0020732983614612536 0.00074599011753490648 0 0.0017937026702881721 0.0002832112654160437 0 0.0020732983614612536 0.00074599011753490648 0 0.0023370783193966114 0.00045727839259542924 0 0.0017937026702881721 0.0002832112654160437 0 0.0020732983614612536 0.00074599011753490648 0 0.0023370783193966114 0.00045727839259542924 0 0.002108826507803134 -7.3057398318792909e-05 0 0.0023370783193966114 0.00045727839259542924 0 0.0026854119674771149 0.00019728481476653063 0 0.002177783696341919 -3.5067025873454029e-05 0 0.0023370783193966114 0.00045727839259542924 0 0.002177783696341919 -3.5067025873454029e-05 0 0.0017937026702881721 0.0002832112654160437 0 0.002177783696341919 -3.5067025873454029e-05 0 0.0017937026702881721 0.0002832112654160437 0 0.0016689996371513844 -0.00034837672600041637 0 0.001054743456150167 -6.2155971561110796e-05 0 0.0017937026702881721 0.0002832112654160437 0 0.0016689996371513844 -0.00034837672600041637 0 0.0019791803987483114 1.6107475252794976e-06 0 0.0022870160220419887 0.00043830785721420481 0 0.00049049669017648485 0.00021984416392205989 0 0.0022870160220419887 0.00043830785721420481 0 0.002108826507803134 -7.3057398318792909e-05 0 0.00049049669017648485 0.00021984416392205989 0 0.0023370783193966114 0.00045727839259542924 0 0.0022870160220419887 0.00043830785721420481 0 0.002108826507803134 -7.3057398318792909e-05 0 0.0023370783193966114 0.00045727839259542924 0 0.0026854119674771149 0.00019728481476653063 0 0.0022870160220419887 0.00043830785721420481 0 0.0026854119674771149 0.00019728481476653063 0 0.0022870160220419887 0.00043830785721420481 0 0.0031662069818710514 0.00026973310463473146 0 0.0019791803987483114 1.6107475252794976e-06 0 0.0031662069818710514 0.00026973310463473146 0 0.0042978910377114545 5.488490503747242e-05 0 0.0019791803987483114 1.6107475252794976e-06 0 0.0022870160220419887 0.00043830785721420481 0 0.0031662069818710514 0.00026973310463473146 0 0.0019791803987483114 1.6107475252794976e-06 0 0.0057159429212233197 7.6323116576962581e-07 0 0.0042978910377114545 5.488490503747242e-05 0 0.0057159429212233197 7.6323116576962581e-07 0 0.0042978910377114545 5.488490503747242e-05 0 0.005282581471906413 0.00012645462031490664 0 0.0071207551849390305 -0.0019651250814870136 0 0.0075841772126227867 -0.0020141908928878365 0 0.0042978910377114545 5.488490503747242e-05 0 0.0052662497529847177 0.0001268002592541048 0 0.005282581471906413 0.00012645462031490664 0 0.0031662069818710514 0.00026973310463473146 0 0.0042978910377114545 5.488490503747242e-05 0 0.0030010724937632018 -0.00022789000608650257 0 0.0026854119674771149 0.00019728481476653063 0 0.0031662069818710514 0.00026973310463473146 0 0.0030010724937632018 -0.00022789000608650257 0 0.0030010724937632018 -0.00022789000608650257 0 0.0030153277226434901 -0.0010069336322710578 0 0.0027168833268660761 -0.00074123638838146484 0 0.0042978910377114545 5.488490503747242e-05 0 0.0030010724937632018 -0.00022789000608650257 0 0.0030153277226434901 -0.0010069336322710578 0 0.0052662497529847177 0.0001268002592541048 0 0.0052623115707992772 5.9787879531577938e-06 0 0.005282581471906413 0.00012645462031490664 0 0.0052662497529847177 0.0001268002592541048 0 0.0052623115707992772 5.9787879531577938e-06 0 0.0050297654778023743 -8.4249302946976789e-05 0 0.0052623115707992772 5.9787879531577938e-06 0 0.0055113821456426806 -0.0001107947704014598 0 0.0049629339269888243 -0.00036800580699391654 0 0.0055113821456426806 -0.0001107947704014598 0 0.005282581471906413 0.00012645462031490664 0 0.0064148495083853141 6.3657626725340601e-05 0 0.0052623115707992772 5.9787879531577938e-06 0 0.0055113821456426806 -0.0001107947704014598 0 0.005282581471906413 0.00012645462031490664 0 0.0055113821456426806 -0.0001107947704014598 0 0.0064148495083853141 6.3657626725340601e-05 0 0.0059310810169252758 -0.00073679069054907894 0 0.0057159429212233197 7.6323116576962581e-07 0 0.0064148495083853141 6.3657626725340601e-05 0 0.0094498684364961068 -2.571300507780773e-06 0 0.0057159429212233197 7.6323116576962581e-07 0 0.005282581471906413 0.00012645462031490664 0 0.0064148495083853141 6.3657626725340601e-05 0 0.0020307046279482792 -0.0007352163586233912 0 0.0016689996371513844 -0.00034837672600041637 0 0.0015867114389395169 -0.00091981374320161072 0 0.001192158966166385 -0.00062196837448707783 0 0.0016689996371513844 -0.00034837672600041637 0 0.0015867114389395169 -0.00091981374320161072 0 0.002177783696341919 -3.5067025873454029e-05 0 0.0020307046279482792 -0.0007352163586233912 0 0.0016689996371513844 -0.00034837672600041637 0 0.002177783696341919 -3.5067025873454029e-05 0 0.0020307046279482792 -0.0007352163586233912 0 0.002485168429232762 -0.00041927576184441951 0 0.0026854119674771149 0.00019728481476653063 0 0.002177783696341919 -3.5067025873454029e-05 0 0.002485168429232762 -0.00041927576184441951 0 0.0026854119674771149 0.00019728481476653063 0 0.0030010724937632018 -0.00022789000608650257 0 0.002485168429232762 -0.00041927576184441951 0 0.0030010724937632018 -0.00022789000608650257 0 0.002485168429232762 -0.00041927576184441951 0 0.0027168833268660761 -0.00074123638838146484 0 0.002485168429232762 -0.00041927576184441951 0 0.0027168833268660761 -0.00074123638838146484 0 0.0023817835407621457 -0.00083742745796368777 0 0.0020307046279482792 -0.0007352163586233912 0 0.002485168429232762 -0.00041927576184441951 0 0.0023817835407621457 -0.00083742745796368777 0 0.0020307046279482792 -0.0007352163586233912 0 0.0020924919437495912 -0.0010041448277922061 0 0.0023817835407621457 -0.00083742745796368777 0 0.0020924919437495912 -0.0010041448277922061 0 0.0023817835407621457 -0.00083742745796368777 0 0.0027845918479366205 -0.0011175746282692696 0 0.0027845918479366205 -0.0011175746282692696 0 0.0024725128319377128 -0.001395132847770681 0 0.0019556341904380051 -0.0014119005196058434 0 0.0058629358516112933 -0.0019945345903513989 0 0.0084939463795995172 -0.001327232716055651 0 0.0020924919437495912 -0.0010041448277922061 0 0.0027845918479366205 -0.0011175746282692696 0 0.0017525617290100716 -0.0014466045900341086 0 0.0075841772126227867 -0.0020141908928878365 0 0.0095427901103904301 -0.0017223816616850109 0 0.0030153277226434901 -0.0010069336322710578 0 0.0027845918479366205 -0.0011175746282692696 0 0.0024725128319377128 -0.001395132847770681 0 0.0030153277226434901 -0.0010069336322710578 0 0.0027168833268660761 -0.00074123638838146484 0 0.0027845918479366205 -0.0011175746282692696 0 0.0027168833268660761 -0.00074123638838146484 0 0.0023817835407621457 -0.00083742745796368777 0 0.0027845918479366205 -0.0011175746282692696 0 0.0052623115707992772 5.9787879531577938e-06 0 0.0050297654778023743 -8.4249302946976789e-05 0 0.0049629339269888243 -0.00036800580699391654 0 0.0052662497529847177 0.0001268002592541048 0 0.0050297654778023743 -8.4249302946976789e-05 0 0.0048177521199742985 -0.0001163574391551701 0 0.0092886206596820477 -0.0017472064409427657 0 0.0095427901103904301 -0.0017223816616850109 0 0.010836435957362266 -0.00096359470521536019 0 0.011086838011175427 -0.0011566914454232352 0 0.0050297654778023743 -8.4249302946976789e-05 0 0.0048594682492172549 -0.00016043945028296791 0 0.0049629339269888243 -0.00036800580699391654 0 0.0050297654778023743 -8.4249302946976789e-05 0 0.0048594682492172549 -0.00016043945028296791 0 0.0047860176933638204 -0.00015878023586066598 0 0.0048594682492172549 -0.00016043945028296791 0 0.0046492611025206101 -0.00027991841680912697 0 0.0050366649543401145 -0.00037514354982150141 0 0.0048594682492172549 -0.00016043945028296791 0 0.0047860176933638204 -0.00015878023586066598 0 0.0046492611025206101 -0.00027991841680912697 0 0.0095427901103904301 -0.0017223816616850109 0 0.010813138649980824 -0.0013741804277564095 0 0.0095427901103904301 -0.0017223816616850109 0 0.010097467221405762 -0.0014387442690322379 0 0.010802115201472355 -0.0011502219733564027 0 0.010690209738234424 -0.0012472366910874549 0 0.010563761036905478 -0.0012156375588097787 0 0.010813138649980824 -0.0013741804277564095 0 0.010097467221405762 -0.0014387442690322379 0 0.00095626267794795183 -0.001200975436740136 0 0.0017525617290100716 -0.0014466045900341086 0 0.0015867114389395169 -0.00091981374320161072 0 0.0024725128319377128 -0.001395132847770681 0 0.0021758867277367122 -0.0014707768432220953 0 0.0019556341904380051 -0.0014119005196058434 0 0.010097467221405762 -0.0014387442690322379 0 0.0084939463795995172 -0.001327232716055651 0 0.0020924919437495912 -0.0010041448277922061 0 0.0017525617290100716 -0.0014466045900341086 0 0.0015867114389395169 -0.00091981374320161072 0 0.0020307046279482792 -0.0007352163586233912 0 0.0020924919437495912 -0.0010041448277922061 0 0.0015867114389395169 -0.00091981374320161072 0 0.010097467221405762 -0.0014387442690322379 0 0.012211953732538867 -0.0011634857140581591 0 0.017645326750467941 -0.0035710638590557603 0 0.017897624319386483 -0.0036312413053063851 0 0.018762309314172623 -0.0026115315837072681 0 0.018206248811609177 -0.0035912193669385209 0 0.019163623393904209 -0.0026445092694570853 0 0.017993796613172811 -0.0029343459179244102 0 0.017897624319386483 -0.0036312413053063851 0 0.018762309314172623 -0.0026115315837072681 0 0.019714781050765434 -0.003103960779435761 0 0.0088758220876967737 -0.001747478390293776 0 0.0094561818814261223 -0.0018827992583080851 0 0.011944752619903005 -0.00084360560232563748 0 0.010813138649980824 -0.0013741804277564095 0 0.015352425436007879 -0.00058505429645813668 0 0.010813138649980824 -0.0013741804277564095 0 0.011086838011175427 -0.0011566914454232352 0 0.018206248811609177 -0.0035912193669385209 0 0.017666285165889157 -0.0034719524354101367 0 0.017993796613172811 -0.0029343459179244102 0 0.018134139244942012 -0.0022883390323686333 0 0.016543764710755589 -0.0024151686307730203 0 0.017979603220036968 -0.0012863125491902327 0 0.017993796613172811 -0.0029343459179244102 0 0.018134139244942012 -0.0022883390323686333 0 0.016543764710755589 -0.0024151686307730203 0 0.018134139244942012 -0.0022883390323686333 0 0.018737253406098189 -0.0019625888198160383 0 0.017979603220036968 -0.0012863125491902327 0 0.019163623393904209 -0.0026445092694570853 0 0.018134139244942012 -0.0022883390323686333 0 0.018737253406098189 -0.0019625888198160383 0 0.019163623393904209 -0.0026445092694570853 0 0.017993796613172811 -0.0029343459179244102 0 0.018134139244942012 -0.0022883390323686333 0 0.018737253406098189 -0.0019625888198160383 0 0.019112879576114215 -0.0014611156545798116 0 0.019225550551284717 -0.0019727080263040957 0 0.019163623393904209 -0.0026445092694570853 0 0.018737253406098189 -0.0019625888198160383 0 0.019225550551284717 -0.0019727080263040957 0 0.0094540143078280289 -1.1073380636357896e-06 0 0.0095471982317381441 -0.0004502747874626537 0 0.0064148495083853141 6.3657626725340601e-05 0 0.0094498684364961068 -2.571300507780773e-06 0 0.0059310810169252758 -0.00073679069054907894 0 0.0094586231651472615 -5.8474117944039961e-07 0 0.010788551935456638 -0.00056854217786588977 0 0.010904552531621651 0.00019397855986706981 0 0.011086838011175427 -0.0011566914454232352 0 0.0095471982317381441 -0.0004502747874626537 0 0.0055113821456426806 -0.0001107947704014598 0 0.0049629339269888243 -0.00036800580699391654 0 0.0059310810169252758 -0.00073679069054907894 0 0.017666285165889157 -0.0034719524354101367 0 0.017993796613172811 -0.0029343459179244102 0 0.016543764710755589 -0.0024151686307730203 0 0.011521799860308449 -0.00074795117485018789 0 0.010788551935456638 -0.00056854217786588977 0 0.010904552531621651 0.00019397855986706981 0 0.011086838011175427 -0.0011566914454232352 0 0.013090459420873557 -0.00094162553228691352 0 0.0094586231651472615 -5.8474117944039961e-07 0 0.010904552531621651 0.00019397855986706981 0 0.011738070989399236 5.8227974718162115e-07 0 0.010904552531621651 0.00019397855986706981 0 0.011738070989399236 5.8227974718162115e-07 0 0.014019301339193478 -5.8163797046799921e-07 0 0.013090459420873557 -0.00094162553228691352 0 0.014020422145195369 -1.1525841341099839e-06 0 0.016543764710755589 -0.0024151686307730203 0 0.014027531831694095 -3.4525342595698133e-06 0 0.016794604264869412 -0.00074441097881559177 0 0.016543764710755589 -0.0024151686307730203 0 0.016794604264869412 -0.00074441097881559177 0 0.017979603220036968 -0.0012863125491902327 0 0.016794604264869412 -0.00074441097881559177 0 0.01758207551801472 -0.00014097405079737096 0 0.017979603220036968 -0.0012863125491902327 0 0.016794604264869412 -0.00074441097881559177 0 0.01758207551801472 -0.00014097405079737096 0 0.016605503895653569 0.00011086388487992779 0 0.017046196680102429 1.9674620895813236e-06 0 0.014027531831694095 -3.4525342595698133e-06 0 0.016605503895653569 0.00011086388487992779 0 0.014027531831694095 -3.4525342595698133e-06 0 0.016794604264869412 -0.00074441097881559177 0 0.016605503895653569 0.00011086388487992779 0 0.018948482593643883 -0.0014500715813677296 0 0.018576216750568524 -0.0014315937466705508 0 0.01879691035177972 -0.0011320550995081011 0 0.017979603220036968 -0.0012863125491902327 0 0.018430509830597335 -0.00051782696234902521 0 0.018737253406098189 -0.0019625888198160383 0 0.019112879576114215 -0.0014611156545798116 0 0.017979603220036968 -0.0012863125491902327 0 0.01758207551801472 -0.00014097405079737096 0 0.017979603220036968 -0.0012863125491902327 0 0.018430509830597335 -0.00051782696234902521 0 0.01826377230701005 -0.00011267186910654883 0 0.01758207551801472 -0.00014097405079737096 0 0.018430509830597335 -0.00051782696234902521 0 0.018656861421337375 -0.00010669808690586456 0 0.018430509830597335 -0.00051782696234902521 0 0.018966880697097878 -0.000679065940430918 0 0.01879691035177972 -0.0011320550995081011 0 0.018430509830597335 -0.00051782696234902521 0 0.018966880697097878 -0.000679065940430918 0 0.020959233094455954 -0.0017992417377411855 0 0.0220607529911283 -0.0025554984138282414 0 0.018656861421337375 -0.00010669808690586456 0 0.018966880697097878 -0.000679065940430918 0 0.019455648502485982 -0.00055593886225616237 0 0.018966880697097878 -0.000679065940430918 0 0.019442536705948282 -0.00085380995750613685 0 0.019455648502485982 -0.00055593886225616237 0 0.019112879576114215 -0.0014611156545798116 0 0.020048633193987558 -0.0014400561748720638 0 0.019861026307104533 -0.001821595010729693 0 0.019112879576114215 -0.0014611156545798116 0 0.019225550551284717 -0.0019727080263040957 0 0.019861026307104533 -0.001821595010729693 0 0.01879691035177972 -0.0011320550995081011 0 0.018966880697097878 -0.000679065940430918 0 0.019233138634329065 -0.0010260682320760602 0 0.018948482593643883 -0.0014500715813677296 0 0.01946687157445777 -0.0015293868145946528 0 0.01879691035177972 -0.0011320550995081011 0 0.019233138634329065 -0.0010260682320760602 0 0.019462568808486225 -0.0010880236856747863 0 0.018966880697097878 -0.000679065940430918 0 0.019233138634329065 -0.0010260682320760602 0 0.019442536705948282 -0.00085380995750613685 0 0.01946687157445777 -0.0015293868145946528 0 0.020797344905129606 -0.0018400066120588883 0 0.0220607529911283 -0.0025554984138282414 0 0.020797344905129606 -0.0018400066120588883 0 0.020048633193987558 -0.0014400561748720638 0 0.021016838574056351 -0.0017274518580025582 0 0.020403871223501589 -0.0020078508792157395 0 0.019489663651976716 -0.0011068353293217966 0 0.019442536705948282 -0.00085380995750613685 0 0.020198725385621227 -0.0010832157139247726 0 0.01946687157445777 -0.0015293868145946528 0 0.018018719469844301 -0.0011621627086033579 0 0.019442536705948282 -0.00085380995750613685 0 0.019455648502485982 -0.00055593886225616237 0 0.020198725385621227 -0.0010832157139247726 0 0.019233138634329065 -0.0010260682320760602 0 0.019489663651976716 -0.0011068353293217966 0 0.019442536705948282 -0.00085380995750613685 0 0.01944538533529629 -0.0015124654624623386 0 0.01946687157445777 -0.0015293868145946528 0 0.028402022236005742 -0.0039415242077022418 0 0.026816537762607784 -0.0051990367032025498 0 0.028892231969275598 -0.0049733092618117359 0 0.026816537762607784 -0.0051990367032025498 0 0.028892231969275598 -0.0049733092618117359 0 0.029049047607245884 -0.0062484928831490812 0 0.029640718622690791 -0.0038901817825388015 0 0.028402022236005742 -0.0039415242077022418 0 0.028892231969275598 -0.0049733092618117359 0 0.029640718622690791 -0.0038901817825388015 0 0.028892231969275598 -0.0049733092618117359 0 0.029872639952983657 -0.0049072720720447095 0 0.028892231969275598 -0.0049733092618117359 0 0.029872639952983657 -0.0049072720720447095 0 0.029376055043746817 -0.0056076325223402331 0 0.029640718622690791 -0.0038901817825388015 0 0.030661038081392387 -0.0041453379105412577 0 0.029872639952983657 -0.0049072720720447095 0 0.029872639952983657 -0.0049072720720447095 0 0.030651150810962893 -0.0053334598572203611 0 0.029922733302672058 -0.005579402349241952 0 0.029872639952983657 -0.0049072720720447095 0 0.029922733302672058 -0.005579402349241952 0 0.029376055043746817 -0.0056076325223402331 0 0.030661038081392387 -0.0041453379105412577 0 0.029872639952983657 -0.0049072720720447095 0 0.030651150810962893 -0.0053334598572203611 0 0.03173403645340063 -0.0046816736465183483 0 0.030661038081392387 -0.0041453379105412577 0 0.030651150810962893 -0.0053334598572203611 0 0.032168403968887489 -0.0059261790460180767 0 0.030651150810962893 -0.0053334598572203611 0 0.030134886179828294 -0.0060493830399575114 0 0.030651150810962893 -0.0053334598572203611 0 0.030134886179828294 -0.0060493830399575114 0 0.029922733302672058 -0.005579402349241952 0 0.020239821645371917 -0.0014367395461135953 0 0.020383559620123733 -0.0017892524447089262 0 0.030134886179828294 -0.0060493830399575114 0 0.029922733302672058 -0.005579402349241952 0 0.029645939480858186 -0.0060824269461498418 0 0.020239821645371917 -0.0014367395461135953 0 0.018461141002553642 -0.00064772769316069991 0 0.019321290230087305 -0.0011558221043920529 0 0.018653513636326443 -0.0011780866367919907 0 0.019092529268011988 -0.0020819862253154326 0 0.019321290230087305 -0.0011558221043920529 0 0.01943776611317043 -0.002332189530722284 0 0.019092529268011988 -0.0020819862253154326 0 0.020383559620123733 -0.0017892524447089262 0 0.018944612969444885 -0.00096458026296188939 0 0.019281377594195053 -0.00053435298046426217 0 0.019583943041345836 -0.0007947022836742037 0 0.019322937950396232 -0.00095620450104903212 0 0.019527903441924122 -0.0014267553552771936 0 0.019318810401998947 -0.0014270513699812283 0 0.019341548912502036 -0.0014089960492997874 0 0.019527903441924122 -0.0014267553552771936 0 0.019317266531415234 -0.0013570734235598865 0 0.019341548912502036 -0.0014089960492997874 0 0.028892231969275598 -0.0049733092618117359 0 0.029376055043746817 -0.0056076325223402331 0 0.029049047607245884 -0.0062484928831490812 0 0.029922733302672058 -0.005579402349241952 0 0.029376055043746817 -0.0056076325223402331 0 0.029645939480858186 -0.0060824269461498418 0 0.029376055043746817 -0.0056076325223402331 0 0.029049047607245884 -0.0062484928831490812 0 0.029670658508940614 -0.0062171995210512756 0 0.020741043199668817 -0.0022400584219935266 0 0.020383559620123733 -0.0017892524447089262 0 0.019318810401998947 -0.0014270513699812283 0 0.019317279394993139 -0.0013504827378306599 0 0.019341548912502036 -0.0014089960492997874 0 0.019318810401998947 -0.0014270513699812283 0 0.019317279394993139 -0.0013504827378306599 0 0.019203189301684645 -0.0013384416267282514 0 0.019678004398952169 -0.001635845499698645 0 0.020027889991698199 -0.0016233947386193033 0 0.020226233234523504 -0.0020327309710434951 0 0.020797344905129606 -0.0018400066120588883 0 0.018944612969444885 -0.00096458026296188939 0 0.020797344905129606 -0.0018400066120588883 0 0.020383559620123733 -0.0017892524447089262 0 0.018018719469844301 -0.0011621627086033579 0 0.018045395689328472 -0.0011886787014575746 0 0.021016838574056351 -0.0017274518580025582 0 0.020823002709557684 -0.0021595294761820017 0 0.020403871223501589 -0.0020078508792157395 0 0.021016838574056351 -0.0017274518580025582 0 0.021282371500178098 -0.0023006258272136051 0 0.020823002709557684 -0.0021595294761820017 0 0.017080927303028362 -0.00046929919829041225 0 0.017111741141829045 -0.00053625238144873097 0 0.017148407992763938 -0.00048742405555117458 0 0.018018719469844301 -0.0011621627086033579 0 0.016224401447773765 -0.00035267861099512563 0 0.018018719469844301 -0.0011621627086033579 0 0.018372318679258488 -0.00070583012954320316 0 0.016127132472572633 7.5823799896020428e-05 0 0.016305230568669463 -0.00031113915327941015 0 0.014592361528581888 -0.00080996811538827087 0 0.016224401447773765 -0.00035267861099512563 0 0.015512319810555097 3.4393587123672401e-05 0 0.016224401447773765 -0.00035267861099512563 0 0.015170208052409841 -0.00062350187181541147 0 0.021282371500178098 -0.0023006258272136051 0 0.020823002709557684 -0.0021595294761820017 0 0.020584636122887051 -0.0026077210968729371 0 0.020823002709557684 -0.0021595294761820017 0 0.020584636122887051 -0.0026077210968729371 0 0.020403871223501589 -0.0020078508792157395 0 0.018613908311690391 -7.5609786941445531e-06 0 0.018100774508996033 -0.00010663636046845549 0 0.017060400388143816 0.0001639862354396268 0 0.017273537948160403 0.0001004486765246984 0 0.016630323517124242 -0.00059724151923341536 0 0.017963392584656502 -0.00080077825096375491 0 0.018223533324216366 -0.00069443713030541241 0 0.018096705638264151 -0.00065611374531962855 0 0.018100774508996033 -0.00010663636046845549 0 0.017946482808100961 1.7906552264357395e-05 0 0.019771165775516766 -0.001015824096157173 0 0.019583943041345836 -0.0007947022836742037 0 0.019606171322064648 -0.0010839396113027113 0 0.018100774508996033 -0.00010663636046845549 0 0.018461141002553642 -0.00064772769316069991 0 0.019583943041345836 -0.0007947022836742037 0 0.019606171322064648 -0.0010839396113027113 0 0.019322937950396232 -0.00095620450104903212 0 0.018100774508996033 -0.00010663636046845549 0 0.017436555735746168 -0.00018615175978457292 0 0.018059636263381359 0.00060384062885708925 0 0.017435045419247376 0.00041425591662245197 0 0.017385808938142504 0.00090865035488512801 0 0.017111741141829045 -0.00053625238144873097 0 0.017160648259924399 -0.00051221440908703127 0 0.017148407992763938 -0.00048742405555117458 0 0.019317279394993139 -0.0013504827378306599 0 0.019188505318570619 -0.0013074846891543376 0 0.019203189301684645 -0.0013384416267282514 0 0.017436555735746168 -0.00018615175978457292 0 0.018461141002553642 -0.00064772769316069991 0 0.017436555735746168 -0.00018615175978457292 0 0.018372318679258488 -0.00070583012954320316 0 0.017668414732685555 -0.0011971530679371633 0 0.017627729670775871 -0.00078342269398030723 0 0.017489977604029615 -0.00082970501138333733 0 0.018990704016436967 -0.00037089127198805364 0 0.018494847405065056 -0.00053773964353217934 0 0.018099538454523539 0.00027514559919565845 0 0.018372318679258488 -0.00070583012954320316 0 0.018944612969444885 -0.00096458026296188939 0 0.018461141002553642 -0.00064772769316069991 0 0.018944612969444885 -0.00096458026296188939 0 0.018461141002553642 -0.00064772769316069991 0 0.018372318679258488 -0.00070583012954320316 0 0.016224401447773765 -0.00035267861099512563 0 0.017436555735746168 -0.00018615175978457292 0 0.01613170451141337 -0.00040294118737838644 0 0.016925785776029864 -1.0666837335921041e-05 0 0.016977790599083539 -0.0005355947367984659 0 0.01613170451141337 -0.00040294118737838644 0 0.016284894266258631 -0.00073583176138333382 0 0.016977790599083539 -0.0005355947367984659 0 0.014787996083701243 -4.5666078334472284e-05 0 0.014978745399648496 9.6136719576518162e-06 0 0.014846015225762928 -0.00017244844865877486 0 0.015512319810555097 3.4393587123672401e-05 0 0.01626626072693271 0.00028473858569195266 0 0.017436555735746168 -0.00018615175978457292 0 0.01626626072693271 0.00028473858569195266 0 0.017060400388143816 0.0001639862354396268 0 0.016362461805142354 -4.7704091550517773e-05 0 0.016630323517124242 -0.00059724151923341536 0 0.017186540345818565 0.00033317423175099285 0 0.017096292950505635 0.0012258946056123647 0 0.016793210379894351 0.0011389044113545293 0 0.017436555735746168 -0.00018615175978457292 0 0.016622285877563026 0.00035201270479759655 0 0.01626626072693271 0.00028473858569195266 0 0.016622285877563026 0.00035201270479759655 0 0.017946482808100961 1.7906552264357395e-05 0 0.016622285877563026 0.00035201270479759655 0 0.010739627679581108 0.0015471017662782882 0 0.011286829414186872 0.0016667642875672873 0 0.011008128234935265 0.002274908589880257 0 0.014039771008995752 0.0011485062696452509 0 0.014773990544354323 0.00039847576653401543 0 0.014050331658531881 0.0018766135739957369 0 0.016622285877563026 0.00035201270479759655 0 0.011969645342349454 0.0015023380899301633 0 0.011609028280174809 0.0021355148806882626 0 0.011661278376291545 0.0021502125663762695 0 0.015178370026324483 0.0011207838115450805 0 0.015299204750373481 -2.9955067824353437e-05 0 0.015550158463424984 0.0003207395196281451 0 0.014039771008995752 0.0011485062696452509 0 0.01626626072693271 0.00028473858569195266 0 0.011969645342349454 0.0015023380899301633 0 0.011652102523678362 0.001503904762603078 0 0.011609028280174809 0.0021355148806882626 0 0.01626626072693271 0.00028473858569195266 0 0.014773990544354323 0.00039847576653401543 0 0.015512319810555097 3.4393587123672401e-05 0 0.014773990544354323 0.00039847576653401543 0 0.012381479946443548 0.00032079010335682987 0 0.012526245695034721 4.3906510795474131e-06 0 0.011370965324613602 2.7995425516490582e-05 0 0.0077807643149662578 -0.00025018824681079477 0 0.014773990544354323 0.00039847576653401543 0 0.011199011805452991 -0.001427152344231846 0 0.012526245695034721 4.3906510795474131e-06 0 0.011370965324613602 2.7995425516490582e-05 0 0.016127132472572633 7.5823799896020428e-05 0 0.014592361528581888 -0.00080996811538827087 0 0.014492193272919758 -0.00060106259808934636 0 0.015512319810555097 3.4393587123672401e-05 0 0.013712754761161152 -0.00061082067404990312 0 0.011199011805452991 -0.001427152344231846 0 0.011370965324613602 2.7995425516490582e-05 0 0.010364420523140032 -0.00026507552237469388 0 0.015170208052409841 -0.00062350187181541147 0 0.012517529604494686 -0.0011718332107231633 0 0.013712754761161152 -0.00061082067404990312 0 0.012517529604494686 -0.0011718332107231633 0 0.014592361528581888 -0.00080996811538827087 0 0.014492193272919758 -0.00060106259808934636 0 0.012879664817428305 -0.0013140620960641525 0 0.019853492203918504 -0.0029584236675597058 0 0.019579206240716757 -0.002614698171055402 0 0.019967705612256643 -0.0025460328590985954 0 0.020584636122887051 -0.0026077210968729371 0 0.019853492203918504 -0.0029584236675597058 0 0.019967705612256643 -0.0025460328590985954 0 0.0096663690032017715 -0.0012430310272906896 0 0.0096529376352181128 -0.0011867748960240588 0 0.0096365649075233189 -0.0011914811618325353 0 0.0084939463795995172 -0.001327232716055651 0 0.012211953732538867 -0.0011634857140581591 0 0.012517529604494686 -0.0011718332107231633 0 0.012211953732538867 -0.0011634857140581591 0 0.018762309314172623 -0.0026115315837072681 0 0.019714781050765434 -0.003103960779435761 0 0.019579206240716757 -0.002614698171055402 0 0.019893156163934382 -0.0030508438490206612 0 0.019714781050765434 -0.003103960779435761 0 0.019579206240716757 -0.002614698171055402 0 0.012517529604494686 -0.0011718332107231633 0 0.012985286745944444 -0.0015761156709479349 0 0.019579206240716757 -0.002614698171055402 0 0.019694713886009189 -0.0023027598548656042 0 0.019967705612256643 -0.0025460328590985954 0 0.018762309314172623 -0.0026115315837072681 0 0.019694713886009189 -0.0023027598548656042 0 0.019861026307104533 -0.001821595010729693 0 0.019163623393904209 -0.0026445092694570853 0 0.019225550551284717 -0.0019727080263040957 0 0.019861026307104533 -0.001821595010729693 0 0.015352425436007879 -0.00058505429645813668 0 0.01663815467384968 -0.00038489170131671612 0 0.018762309314172623 -0.0026115315837072681 0 0.019579206240716757 -0.002614698171055402 0 0.019694713886009189 -0.0023027598548656042 0 0.020048633193987558 -0.0014400561748720638 0 0.019861026307104533 -0.001821595010729693 0 0.020403871223501589 -0.0020078508792157395 0 0.019694713886009189 -0.0023027598548656042 0 0.019861026307104533 -0.001821595010729693 0 0.020102934668542887 -0.0022534759980203265 0 0.019861026307104533 -0.001821595010729693 0 0.020403871223501589 -0.0020078508792157395 0 0.020102934668542887 -0.0022534759980203265 0 0.020584636122887051 -0.0026077210968729371 0 0.020403871223501589 -0.0020078508792157395 0 0.020102934668542887 -0.0022534759980203265 0 0.020584636122887051 -0.0026077210968729371 0 0.019967705612256643 -0.0025460328590985954 0 0.020102934668542887 -0.0022534759980203265 0 0.019694713886009189 -0.0023027598548656042 0 0.019967705612256643 -0.0025460328590985954 0 0.020102934668542887 -0.0022534759980203265 0 0.01890773968655619 0.0032811257923279209 0 0.01983518450252638 0.0038064072059748101 0 0.019603926983699053 0.0031483717984966903 0 0.01890773968655619 0.0032811257923279209 0 0.019603926983699053 0.0031483717984966903 0 0.019117787348561666 0.002631529224354313 0 0.01890773968655619 0.0032811257923279209 0 0.019117787348561666 0.002631529224354313 0 0.018442691414620477 0.0025053843609971729 0 0.01890773968655619 0.0032811257923279209 0 0.017999254770755459 0.0029075176270196685 0 0.018112026379325678 0.0034787721755115942 0 0.01890773968655619 0.0032811257923279209 0 0.017999254770755459 0.0029075176270196685 0 0.018442691414620477 0.0025053843609971729 0 0.017999254770755459 0.0029075176270196685 0 0.018442691414620477 0.0025053843609971729 0 0.017789073856457588 0.0024197051931884265 0 0.017999254770755459 0.0029075176270196685 0 0.018112026379325678 0.0034787721755115942 0 0.017564734806515547 0.003273363935410068 0 0.01890773968655619 0.0032811257923279209 0 0.018112026379325678 0.0034787721755115942 0 0.018470321837083307 0.003916334517544519 0 0.018470321837083307 0.003916334517544519 0 0.017686460680422861 0.0039561063114850808 0 0.018389713133953701 0.0043955388326163553 0 0.018112026379325678 0.0034787721755115942 0 0.018470321837083307 0.003916334517544519 0 0.017686460680422861 0.0039561063114850808 0 0.018470321837083307 0.003916334517544519 0 0.019072717159446403 0.0040468471171366928 0 0.018389713133953701 0.0043955388326163553 0 0.01890773968655619 0.0032811257923279209 0 0.019072717159446403 0.0040468471171366928 0 0.01983518450252638 0.0038064072059748101 0 0.01890773968655619 0.0032811257923279209 0 0.018470321837083307 0.003916334517544519 0 0.019072717159446403 0.0040468471171366928 0 0.019072717159446403 0.0040468471171366928 0 0.01983518450252638 0.0038064072059748101 0 0.019983114883107899 0.0044886889680248888 0 0.01983518450252638 0.0038064072059748101 0 0.020626160462105518 0.0043422433543303159 0 0.019983114883107899 0.0044886889680248888 0 0.01983518450252638 0.0038064072059748101 0 0.020626160462105518 0.0043422433543303159 0 0.020604225693473512 0.0037825045396039331 0 0.020626160462105518 0.0043422433543303159 0 0.021318742973397323 0.0046317496746755334 0 0.0212079705933504 0.0041776123333305106 0 0.020604225693473512 0.0037825045396039331 0 0.021215910875566336 0.0036289046498135299 0 0.0212079705933504 0.0041776123333305106 0 0.020626160462105518 0.0043422433543303159 0 0.020604225693473512 0.0037825045396039331 0 0.0212079705933504 0.0041776123333305106 0 0.020604225693473512 0.0037825045396039331 0 0.021215910875566336 0.0036289046498135299 0 0.020289634232059456 0.0031991155699799762 0 0.021215910875566336 0.0036289046498135299 0 0.020289634232059456 0.0031991155699799762 0 0.020907772569042034 0.0027576880555723491 0 0.021215910875566336 0.0036289046498135299 0 0.020907772569042034 0.0027576880555723491 0 0.021796068199929613 0.0028320028915759039 0 0.019603926983699053 0.0031483717984966903 0 0.020289634232059456 0.0031991155699799762 0 0.019922586144576988 0.0022301780625880079 0 0.01983518450252638 0.0038064072059748101 0 0.019603926983699053 0.0031483717984966903 0 0.020289634232059456 0.0031991155699799762 0 0.01983518450252638 0.0038064072059748101 0 0.020604225693473512 0.0037825045396039331 0 0.020289634232059456 0.0031991155699799762 0 0.019603926983699053 0.0031483717984966903 0 0.019922586144576988 0.0022301780625880079 0 0.019117787348561666 0.002631529224354313 0 0.020289634232059456 0.0031991155699799762 0 0.019922586144576988 0.0022301780625880079 0 0.020907772569042034 0.0027576880555723491 0 0.019922586144576988 0.0022301780625880079 0 0.020907772569042034 0.0027576880555723491 0 0.021011902786388186 0.0018148582525868084 0 0.020907772569042034 0.0027576880555723491 0 0.021011902786388186 0.0018148582525868084 0 0.021796068199929613 0.0028320028915759039 0 0.021011902786388186 0.0018148582525868084 0 0.020120567782576419 0.0011618215695006185 0 0.02119347409884818 0.00051424090074684604 0 0.019922586144576988 0.0022301780625880079 0 0.020120567782576419 0.0011618215695006185 0 0.019090442985611231 0.0012081672026575615 0 0.019922586144576988 0.0022301780625880079 0 0.021011902786388186 0.0018148582525868084 0 0.020120567782576419 0.0011618215695006185 0 0.019090442985611231 0.0012081672026575615 0 0.018775734708270177 0.0019830820189305804 0 0.018178505433571072 0.001520743534757418 0 0.019922586144576988 0.0022301780625880079 0 0.019090442985611231 0.0012081672026575615 0 0.018775734708270177 0.0019830820189305804 0 0.019922586144576988 0.0022301780625880079 0 0.018775734708270177 0.0019830820189305804 0 0.019117787348561666 0.002631529224354313 0 0.018775734708270177 0.0019830820189305804 0 0.019117787348561666 0.002631529224354313 0 0.018442691414620477 0.0025053843609971729 0 0.018442691414620477 0.0025053843609971729 0 0.018151319672174437 0.0020655496540339857 0 0.017789073856457588 0.0024197051931884265 0 0.018775734708270177 0.0019830820189305804 0 0.018151319672174437 0.0020655496540339857 0 0.018178505433571072 0.001520743534757418 0 0.018775734708270177 0.0019830820189305804 0 0.018442691414620477 0.0025053843609971729 0 0.018151319672174437 0.0020655496540339857 0 0.018151319672174437 0.0020655496540339857 0 0.017789073856457588 0.0024197051931884265 0 0.017592740630653442 0.0018960313777856871 0 0.018151319672174437 0.0020655496540339857 0 0.018178505433571072 0.001520743534757418 0 0.017592740630653442 0.0018960313777856871 0 0.019090442985611231 0.0012081672026575615 0 0.018178505433571072 0.001520743534757418 0 0.018168594286029918 0.00067034314112453372 0 0.018178505433571072 0.001520743534757418 0 0.017504013402090967 0.0014321031301721369 0 0.018168594286029918 0.00067034314112453372 0 0.017504013402090967 0.0014321031301721369 0 0.016947955993423927 0.001224294322319135 0 0.018168594286029918 0.00067034314112453372 0 0.027522100207766062 -0.001116881086918911 0 0.026956406995049628 -0.00058946421530024773 0 0.029505083172134818 -0.0013814364408714958 0 0.017504013402090967 0.0014321031301721369 0 0.017110045640370733 0.0017694988269413713 0 0.017592740630653442 0.0018960313777856871 0 0.018178505433571072 0.001520743534757418 0 0.017504013402090967 0.0014321031301721369 0 0.017592740630653442 0.0018960313777856871 0 0.017504013402090967 0.0014321031301721369 0 0.017110045640370733 0.0017694988269413713 0 0.01706170822219218 0.0015186380467898787 0 0.017504013402090967 0.0014321031301721369 0 0.01706170822219218 0.0015186380467898787 0 0.016947955993423927 0.001224294322319135 0 0.027522100207766062 -0.001116881086918911 0 0.026956406995049628 -0.00058946421530024773 0 0.021589737756635582 -0.0018811002029975789 0 0.016699193394711296 0.0016451439990656292 0 0.016393437990959533 0.0018807749149016631 0 0.01586586965984927 0.0017643851585635931 0 0.021545872404547074 0.00016413126048910037 0 0.018932689445750904 0.0010660373965256148 0 0.016947955993423927 0.001224294322319135 0 0.016699193394711296 0.0016451439990656292 0 0.01586586965984927 0.0017643851585635931 0 0.025215155976979754 -0.0012430415417132945 0 0.023858162444213783 -0.0012284594071311778 0 0.01706170822219218 0.0015186380467898787 0 0.016947955993423927 0.001224294322319135 0 0.016699193394711296 0.0016451439990656292 0 0.017110045640370733 0.0017694988269413713 0 0.01706170822219218 0.0015186380467898787 0 0.016699193394711296 0.0016451439990656292 0 0.017110045640370733 0.0017694988269413713 0 0.016699193394711296 0.0016451439990656292 0 0.016700368717475489 0.0020239847224868611 0 0.017110045640370733 0.0017694988269413713 0 0.016700368717475489 0.0020239847224868611 0 0.017149652344525111 0.0022489038999394619 0 0.016700368717475489 0.0020239847224868611 0 0.016393437990959533 0.0018807749149016631 0 0.016216463808590896 0.0021997453842136382 0 0.016699193394711296 0.0016451439990656292 0 0.016700368717475489 0.0020239847224868611 0 0.016393437990959533 0.0018807749149016631 0 0.016676555681063375 0.0023865587272029875 0 0.016216463808590896 0.0021997453842136382 0 0.016365757791402653 0.0026298220919898766 0 0.016700368717475489 0.0020239847224868611 0 0.016676555681063375 0.0023865587272029875 0 0.016216463808590896 0.0021997453842136382 0 0.016700368717475489 0.0020239847224868611 0 0.016676555681063375 0.0023865587272029875 0 0.017149652344525111 0.0022489038999394619 0 0.016676555681063375 0.0023865587272029875 0 0.017149652344525111 0.0022489038999394619 0 0.016887533352752341 0.0028852502514504189 0 0.017149652344525111 0.0022489038999394619 0 0.017789073856457588 0.0024197051931884265 0 0.017592740630653442 0.0018960313777856871 0 0.017149652344525111 0.0022489038999394619 0 0.017789073856457588 0.0024197051931884265 0 0.017446695695879897 0.0027549688387979486 0 0.017110045640370733 0.0017694988269413713 0 0.017149652344525111 0.0022489038999394619 0 0.017592740630653442 0.0018960313777856871 0 0.015906764026190914 -0.0015969281386150299 0 0.020755036197276814 0.00095863085736084576 0 0.015207335495585485 0.0020287197476832903 0 0.022240265584073961 -0.0010879605292511869 0 0.023858162444213783 -0.0012284594071311778 0 0.015906764026190914 -0.0015969281386150299 0 0.020755036197276814 0.00095863085736084576 0 0.021589737756635582 -0.0018811002029975789 0 0.026956406995049628 -0.00058946421530024773 0 0.020755036197276814 0.00095863085736084576 0 0.021589737756635582 -0.0018811002029975789 0 0.016393437990959533 0.0018807749149016631 0 0.01586586965984927 0.0017643851585635931 0 0.016216463808590896 0.0021997453842136382 0 0.016216463808590896 0.0021997453842136382 0 0.015922229917454744 0.0026611059772114185 0 0.016365757791402653 0.0026298220919898766 0 0.016216463808590896 0.0021997453842136382 0 0.015685756697063857 0.0022239326492480417 0 0.015922229917454744 0.0026611059772114185 0 0.015685756697063857 0.0022239326492480417 0 0.015407337280717272 0.0025557931459664006 0 0.015922229917454744 0.0026611059772114185 0 0.01586586965984927 0.0017643851585635931 0 0.016216463808590896 0.0021997453842136382 0 0.015685756697063857 0.0022239326492480417 0 0.015685756697063857 0.0022239326492480417 0 0.015407337280717272 0.0025557931459664006 0 0.015207335495585485 0.0020287197476832903 0 0.01586586965984927 0.0017643851585635931 0 0.015685756697063857 0.0022239326492480417 0 0.015207335495585485 0.0020287197476832903 0 0.015407337280717272 0.0025557931459664006 0 0.015207335495585485 0.0020287197476832903 0 0.014812292844562277 0.0028792905065277833 0 0.018932689445750904 0.0010660373965256148 0 0.017437166349115896 0.0015480234561892603 0 0.015407337280717272 0.0025557931459664006 0 0.015440609381834371 0.003262770715232244 0 0.014812292844562277 0.0028792905065277833 0 0.015407337280717272 0.0025557931459664006 0 0.015922229917454744 0.0026611059772114185 0 0.015440609381834371 0.003262770715232244 0 0.015922229917454744 0.0026611059772114185 0 0.015998394112306167 0.0034832123639540837 0 0.015440609381834371 0.003262770715232244 0 0.015922229917454744 0.0026611059772114185 0 0.015998394112306167 0.0034832123639540837 0 0.016431660859040922 0.0031004147123612174 0 0.015922229917454744 0.0026611059772114185 0 0.016365757791402653 0.0026298220919898766 0 0.016431660859040922 0.0031004147123612174 0 0.015998394112306167 0.0034832123639540837 0 0.015440609381834371 0.003262770715232244 0 0.015464155437026011 0.0041164572099622989 0 0.015998394112306167 0.0034832123639540837 0 0.015464155437026011 0.0041164572099622989 0 0.016206495598849714 0.0041365165255645856 0 0.015440609381834371 0.003262770715232244 0 0.014812292844562277 0.0028792905065277833 0 0.014668236403660344 0.0038653985445099705 0 0.015440609381834371 0.003262770715232244 0 0.015464155437026011 0.0041164572099622989 0 0.014668236403660344 0.0038653985445099705 0 0.017564734806515547 0.003273363935410068 0 0.016887533352752341 0.0028852502514504189 0 0.017050961254107933 0.0034850060304491247 0 0.017564734806515547 0.003273363935410068 0 0.017446695695879897 0.0027549688387979486 0 0.016887533352752341 0.0028852502514504189 0 0.017999254770755459 0.0029075176270196685 0 0.017564734806515547 0.003273363935410068 0 0.017446695695879897 0.0027549688387979486 0 0.017999254770755459 0.0029075176270196685 0 0.017789073856457588 0.0024197051931884265 0 0.017446695695879897 0.0027549688387979486 0 0.017149652344525111 0.0022489038999394619 0 0.017446695695879897 0.0027549688387979486 0 0.016887533352752341 0.0028852502514504189 0 0.016676555681063375 0.0023865587272029875 0 0.016887533352752341 0.0028852502514504189 0 0.016365757791402653 0.0026298220919898766 0 0.016887533352752341 0.0028852502514504189 0 0.016365757791402653 0.0026298220919898766 0 0.016431660859040922 0.0031004147123612174 0 0.016887533352752341 0.0028852502514504189 0 0.016431660859040922 0.0031004147123612174 0 0.017050961254107933 0.0034850060304491247 0 0.016431660859040922 0.0031004147123612174 0 0.01652203135887842 0.0036490231383477182 0 0.017050961254107933 0.0034850060304491247 0 0.015998394112306167 0.0034832123639540837 0 0.016431660859040922 0.0031004147123612174 0 0.01652203135887842 0.0036490231383477182 0 0.015998394112306167 0.0034832123639540837 0 0.01652203135887842 0.0036490231383477182 0 0.016206495598849714 0.0041365165255645856 0 0.01652203135887842 0.0036490231383477182 0 0.016837001420495785 0.0041037609466566278 0 0.016206495598849714 0.0041365165255645856 0 0.01652203135887842 0.0036490231383477182 0 0.017050961254107933 0.0034850060304491247 0 0.016837001420495785 0.0041037609466566278 0 0.017050961254107933 0.0034850060304491247 0 0.017686460680422861 0.0039561063114850808 0 0.016837001420495785 0.0041037609466566278 0 0.017564734806515547 0.003273363935410068 0 0.017050961254107933 0.0034850060304491247 0 0.017686460680422861 0.0039561063114850808 0 0.018112026379325678 0.0034787721755115942 0 0.017564734806515547 0.003273363935410068 0 0.017686460680422861 0.0039561063114850808 0 0.017686460680422861 0.0039561063114850808 0 0.017182640720439006 0.0045911143847691361 0 0.01781272251156707 0.0044717469246629109 0 0.017686460680422861 0.0039561063114850808 0 0.017182640720439006 0.0045911143847691361 0 0.016837001420495785 0.0041037609466566278 0 0.017182640720439006 0.0045911143847691361 0 0.017857886432132434 0.0049414874706325378 0 0.01781272251156707 0.0044717469246629109 0 0.016837001420495785 0.0041037609466566278 0 0.016555028052135844 0.0047406229998645834 0 0.016206495598849714 0.0041365165255645856 0 0.017182640720439006 0.0045911143847691361 0 0.016837001420495785 0.0041037609466566278 0 0.016555028052135844 0.0047406229998645834 0 0.016555028052135844 0.0047406229998645834 0 0.017154541911116577 0.0051643827229678248 0 0.016283865088066181 0.0055190469393818758 0 0.017154541911116577 0.0051643827229678248 0 0.016896528454652511 0.0058025481673957251 0 0.016283865088066181 0.0055190469393818758 0 0.016555028052135844 0.0047406229998645834 0 0.015640730658217302 0.0049153017242480656 0 0.016283865088066181 0.0055190469393818758 0 0.017154541911116577 0.0051643827229678248 0 0.017502954517633382 0.0056252571972075166 0 0.016896528454652511 0.0058025481673957251 0 0.017154541911116577 0.0051643827229678248 0 0.017502954517633382 0.0056252571972075166 0 0.017857886432132434 0.0049414874706325378 0 0.017182640720439006 0.0045911143847691361 0 0.017154541911116577 0.0051643827229678248 0 0.017857886432132434 0.0049414874706325378 0 0.017182640720439006 0.0045911143847691361 0 0.016555028052135844 0.0047406229998645834 0 0.017154541911116577 0.0051643827229678248 0 0.015464155437026011 0.0041164572099622989 0 0.015640730658217302 0.0049153017242480656 0 0.014660339553447489 0.0048611539655682 0 0.015464155437026011 0.0041164572099622989 0 0.014660339553447489 0.0048611539655682 0 0.014668236403660344 0.0038653985445099705 0 0.016555028052135844 0.0047406229998645834 0 0.016206495598849714 0.0041365165255645856 0 0.015640730658217302 0.0049153017242480656 0 0.015464155437026011 0.0041164572099622989 0 0.016206495598849714 0.0041365165255645856 0 0.015640730658217302 0.0049153017242480656 0 0.015640730658217302 0.0049153017242480656 0 0.015029203707167697 0.0057707602773373647 0 0.016283865088066181 0.0055190469393818758 0 0.015640730658217302 0.0049153017242480656 0 0.014660339553447489 0.0048611539655682 0 0.015029203707167697 0.0057707602773373647 0 0.015029203707167697 0.0057707602773373647 0 0.01565835272328377 0.0065561233785299284 0 0.014766488558361608 0.0067555142329304273 0 0.015029203707167697 0.0057707602773373647 0 0.014766488558361608 0.0067555142329304273 0 0.014031761134475473 0.006405513393754469 0 0.015029203707167697 0.0057707602773373647 0 0.01565835272328377 0.0065561233785299284 0 0.016283865088066181 0.0055190469393818758 0 0.01486128874039315 0.0063936632737997155 0 0.015295444971125687 0.0060146939215198819 0 0.015105805752976278 0.006184128626310504 0 0.014056155662834467 0.007006018097813523 0 0.015379143883306308 0.006878477698667629 0 0.015105805752976278 0.006184128626310504 0 0.016312512079237909 0.0063300276851352109 0 0.015379143883306308 0.006878477698667629 0 0.01565835272328377 0.0065561233785299284 0 0.014766488558361608 0.0067555142329304273 0 0.014890076020954197 0.007689286015615325 0 0.01486128874039315 0.0063936632737997155 0 0.013955178409958751 0.0070369455152562831 0 0.016896528454652511 0.0058025481673957251 0 0.016312512079237909 0.0063300276851352109 0 0.017324932792685037 0.0061752589272327458 0 0.017287532386142702 0.0059934198513976892 0 0.017271061195736927 0.0060816242444890166 0 0.017502954517633382 0.0056252571972075166 0 0.016896528454652511 0.0058025481673957251 0 0.017324932792685037 0.0061752589272327458 0 0.016896528454652511 0.0058025481673957251 0 0.016283865088066181 0.0055190469393818758 0 0.016312512079237909 0.0063300276851352109 0 0.015105805752976278 0.006184128626310504 0 0.016283865088066181 0.0055190469393818758 0 0.016312512079237909 0.0063300276851352109 0 0.016312512079237909 0.0063300276851352109 0 0.016281760335517398 0.007293417870020651 0 0.017294476022400126 0.0068770723781095095 0 0.016312512079237909 0.0063300276851352109 0 0.017324932792685037 0.0061752589272327458 0 0.017294476022400126 0.0068770723781095095 0 0.017271061195736927 0.0060816242444890166 0 0.017212905241826379 0.0059493279714166111 0 0.021178400084206333 0.0054849189755069297 0 0.021226052579912547 0.0049240732000941072 0 0.021759889795663897 0.0050811790082068058 0 0.019243276463985895 0.005624903559413889 0 0.017212905241826379 0.0059493279714166111 0 0.017568517230643468 0.0065847250626967961 0 0.019001201714137543 0.0067802479758381547 0 0.017601598998777109 0.0075154845189315993 0 0.021178400084206333 0.0054849189755069297 0 0.020794741010366311 0.0051295768725513509 0 0.021226052579912547 0.0049240732000941072 0 0.019001201714137543 0.0067802479758381547 0 0.019363124702900927 0.0056622438587779845 0 0.02032846681349193 0.0058903148244127922 0 0.019001201714137543 0.0067802479758381547 0 0.019363124702900927 0.0056622438587779845 0 0.018482818796908117 0.0059288151184270655 0 0.017568517230643468 0.0065847250626967961 0 0.019001201714137543 0.0067802479758381547 0 0.018482818796908117 0.0059288151184270655 0 0.017502954517633382 0.0056252571972075166 0 0.017568517230643468 0.0065847250626967961 0 0.018482818796908117 0.0059288151184270655 0 0.017502954517633382 0.0056252571972075166 0 0.018482818796908117 0.0059288151184270655 0 0.018682847845212621 0.0051547483356082528 0 0.017502954517633382 0.0056252571972075166 0 0.017857886432132434 0.0049414874706325378 0 0.018682847845212621 0.0051547483356082528 0 0.019363124702900927 0.0056622438587779845 0 0.018482818796908117 0.0059288151184270655 0 0.018682847845212621 0.0051547483356082528 0 0.019363124702900927 0.0056622438587779845 0 0.018682847845212621 0.0051547483356082528 0 0.01973955468271155 0.0049709642135992074 0 0.018682847845212621 0.0051547483356082528 0 0.01909905942674444 0.0046283785539238511 0 0.018389713133953701 0.0043955388326163553 0 0.018682847845212621 0.0051547483356082528 0 0.01909905942674444 0.0046283785539238511 0 0.01973955468271155 0.0049709642135992074 0 0.019072717159446403 0.0040468471171366928 0 0.01909905942674444 0.0046283785539238511 0 0.019983114883107899 0.0044886889680248888 0 0.019072717159446403 0.0040468471171366928 0 0.01909905942674444 0.0046283785539238511 0 0.018389713133953701 0.0043955388326163553 0 0.017857886432132434 0.0049414874706325378 0 0.018682847845212621 0.0051547483356082528 0 0.018389713133953701 0.0043955388326163553 0 0.017686460680422861 0.0039561063114850808 0 0.018389713133953701 0.0043955388326163553 0 0.01781272251156707 0.0044717469246629109 0 0.017857886432132434 0.0049414874706325378 0 0.018389713133953701 0.0043955388326163553 0 0.01781272251156707 0.0044717469246629109 0 0.020626160462105518 0.0043422433543303159 0 0.020604547176083329 0.0050510869653262371 0 0.019983114883107899 0.0044886889680248888 0 0.020626160462105518 0.0043422433543303159 0 0.020604547176083329 0.0050510869653262371 0 0.021318742973397323 0.0046317496746755334 0 0.020604547176083329 0.0050510869653262371 0 0.019983114883107899 0.0044886889680248888 0 0.01973955468271155 0.0049709642135992074 0 0.01909905942674444 0.0046283785539238511 0 0.019983114883107899 0.0044886889680248888 0 0.01973955468271155 0.0049709642135992074 0 0.020604547176083329 0.0050510869653262371 0 0.01973955468271155 0.0049709642135992074 0 0.02032846681349193 0.0058903148244127922 0 0.019363124702900927 0.0056622438587779845 0 0.01973955468271155 0.0049709642135992074 0 0.02032846681349193 0.0058903148244127922 0 0.020604547176083329 0.0050510869653262371 0 0.02032846681349193 0.0058903148244127922 0 0.020760826258589951 0.0055841731121061616 0 0.02032846681349193 0.0058903148244127922 0 0.020283691237983046 0.0057626741785238821 0 0.020760826258589951 0.0055841731121061616 0 0.019243276463985895 0.005624903559413889 0 0.019705839027381464 0.0055799930201980829 0 0.02032846681349193 0.0058903148244127922 0 0.020321177894482286 0.0053613000007277679 0 0.020794741010366311 0.0051295768725513509 0 0.021178400084206333 0.0054849189755069297 0 0.02032846681349193 0.0058903148244127922 0 0.020794741010366311 0.0051295768725513509 0 0.02032846681349193 0.0058903148244127922 0 0.020283691237983046 0.0057626741785238821 0 0.020321177894482286 0.0053613000007277679 0 0.020283691237983046 0.0057626741785238821 0 0.020617142296515029 0.0058056717819238469 0 0.019203805495025119 0.005534621278013724 0 0.020283691237983046 0.0057626741785238821 0 0.019203805495025119 0.005534621278013724 0 0.020321177894482286 0.0053613000007277679 0 0.020283691237983046 0.0057626741785238821 0 0.020760826258589951 0.0055841731121061616 0 0.020617142296515029 0.0058056717819238469 0 0.018952115075959692 0.0094235485993928569 0 0.018173823381875516 0.012234773849726313 0 0.020760826258589951 0.0055841731121061616 0 0.020617142296515029 0.0058056717819238469 0 0.021728897153340181 0.0054178423245526018 0 0.018952115075959692 0.0094235485993928569 0 0.019371021247266168 0.0078863614408321309 0 0.017221614900862634 0.012296680305824609 0 0.01504285677020034 0.0074257287385040413 0 0.019203805495025119 0.005534621278013724 0 0.017221614900862634 0.012296680305824609 0 0.007787694292548367 0.0082964479456583955 0 0.01504285677020034 0.0074257287385040413 0 0.017221614900862634 0.012296680305824609 0 0.007787694292548367 0.0082964479456583955 0 0.0069572436607533567 0.017851992833872891 0 0.00016989589842725461 0.013894599273905813 0 -0.0040178839012550227 0.017715929047013405 0 0.007787694292548367 0.0082964479456583955 0 0.0069572436607533567 0.017851992833872891 0 -0.000462147491841942 0.01484668670108996 0 0.017221614900862634 0.012296680305824609 0 0.0069572436607533567 0.017851992833872891 0 0.014328120157796565 0.019874810875929277 0 0.018173823381875516 0.012234773849726313 0 0.017669981141605604 0.014356593244199869 0 0.0069572436607533567 0.017851992833872891 0 0.014328120157796565 0.019874810875929277 0 0.011365014060942907 0.027856323353590666 0 0.0069572436607533567 0.017851992833872891 0 0.0032501278854769693 0.02457443433024763 0 0.0018149524380846589 0.019492101498291683 0 0.0069572436607533567 0.017851992833872891 0 0.0032501278854769693 0.02457443433024763 0 0.011365014060942907 0.027856323353590666 0 0.0032501278854769693 0.02457443433024763 0 0.011365014060942907 0.027856323353590666 0 0.0056274946278083559 0.030156653365511061 0 0.021728897153340181 0.0054178423245526018 0 0.022552330332259254 0.0046324218687071109 0 0.022026630699872103 0.004609466754583607 0 0.021728897153340181 0.0054178423245526018 0 0.022026630699872103 0.004609466754583607 0 0.021282626813353835 0.0050707948789275592 0 0.020604547176083329 0.0050510869653262371 0 0.021282626813353835 0.0050707948789275592 0 0.021318742973397323 0.0046317496746755334 0 0.022026630699872103 0.004609466754583607 0 0.021282626813353835 0.0050707948789275592 0 0.021318742973397323 0.0046317496746755334 0 0.020604547176083329 0.0050510869653262371 0 0.020760826258589951 0.0055841731121061616 0 0.021282626813353835 0.0050707948789275592 0 0.020760826258589951 0.0055841731121061616 0 0.021728897153340181 0.0054178423245526018 0 0.021282626813353835 0.0050707948789275592 0 -0.012975992050765496 0.021599991712687075 0 -0.012501930984574501 0.021052294221107788 0 -0.012027595005175331 0.021778938779509274 0 -0.012501930984574501 0.021052294221107788 0 -0.011849491398988098 0.020856809187040748 0 -0.012027595005175331 0.021778938779509274 0 -0.011137976327262822 0.021325226381802051 0 -0.011849491398988098 0.020856809187040748 0 -0.010850096474945951 0.020419778157710827 0 -0.011137976327262822 0.021325226381802051 0 -0.011849491398988098 0.020856809187040748 0 -0.012027595005175331 0.021778938779509274 0 -0.011849491398988098 0.020856809187040748 0 -0.011745146039635983 0.020078844527532329 0 -0.010850096474945951 0.020419778157710827 0 -0.011849491398988098 0.020856809187040748 0 -0.011745146039635983 0.020078844527532329 0 -0.012521790436881976 0.02031717342842063 0 -0.012501930984574501 0.021052294221107788 0 -0.011849491398988098 0.020856809187040748 0 -0.012521790436881976 0.02031717342842063 0 -0.011745146039635983 0.020078844527532329 0 -0.012521790436881976 0.02031717342842063 0 -0.012606260140678803 0.01930191731443762 0 -0.012606260140678803 0.01930191731443762 0 -0.011482005430249935 0.019328667030335717 0 -0.0122665648263071 0.018064507062427047 0 -0.011745146039635983 0.020078844527532329 0 -0.011482005430249935 0.019328667030335717 0 -0.010850096474945951 0.020419778157710827 0 -0.011745146039635983 0.020078844527532329 0 -0.012606260140678803 0.01930191731443762 0 -0.011482005430249935 0.019328667030335717 0 -0.011482005430249935 0.019328667030335717 0 -0.0098454636129847034 0.01924158702007386 0 -0.011009025743063146 0.018278767368284418 0 -0.011482005430249935 0.019328667030335717 0 -0.0098454636129847034 0.01924158702007386 0 -0.010850096474945951 0.020419778157710827 0 -0.0098454636129847034 0.01924158702007386 0 -0.010850096474945951 0.020419778157710827 0 -0.0095031998537894961 0.020754198089046053 0 -0.011137976327262822 0.021325226381802051 0 -0.010850096474945951 0.020419778157710827 0 -0.010064662426798227 0.021455665711254152 0 -0.010850096474945951 0.020419778157710827 0 -0.0095031998537894961 0.020754198089046053 0 -0.010064662426798227 0.021455665711254152 0 -0.0098454636129847034 0.01924158702007386 0 -0.0095031998537894961 0.020754198089046053 0 -0.0080972696824285796 0.020392110162595831 0 -0.0095031998537894961 0.020754198089046053 0 -0.0080972696824285796 0.020392110162595831 0 -0.0089029787488374059 0.022328327911978783 0 -0.0098454636129847034 0.01924158702007386 0 -0.0080972696824285796 0.020392110162595831 0 -0.0084195043202034501 0.018260300016850708 0 -0.0066285998198397185 0.018629482374498699 0 -0.0080972696824285796 0.020392110162595831 0 -0.0084195043202034501 0.018260300016850708 0 0.0069572436607533567 0.017851992833872891 0 -0.000462147491841942 0.01484668670108996 0 0.0018149524380846589 0.019492101498291683 0 -0.000462147491841942 0.01484668670108996 0 0.0018149524380846589 0.019492101498291683 0 -0.0022802891505602635 0.022175352086617025 0 0.0032501278854769693 0.02457443433024763 0 0.0018149524380846589 0.019492101498291683 0 -0.0022802891505602635 0.022175352086617025 0 0.0032501278854769693 0.02457443433024763 0 -0.0021202433109904161 0.028145105473927925 0 0.0056274946278083559 0.030156653365511061 0 0.0032501278854769693 0.02457443433024763 0 -0.0022802891505602635 0.022175352086617025 0 -0.0021202433109904161 0.028145105473927925 0 -0.0021202433109904161 0.028145105473927925 0 -0.0069796441042195541 0.023948416359243531 0 -0.0078148598479886328 0.031088495739008962 0 -0.0022802891505602635 0.022175352086617025 0 -0.0021202433109904161 0.028145105473927925 0 -0.0069796441042195541 0.023948416359243531 0 0.0079016003072504507 0.020580752855138294 0 0.010524258925693537 0.016487807759625599 0 -0.0069796441042195541 0.023948416359243531 0 -0.0088916719919667347 0.024002165219741703 0 -0.0080999278970696666 0.02647410649912017 0 -0.0040178839012550227 0.017715929047013405 0 -0.0065275131106940828 0.020087560661413643 0 -0.000462147491841942 0.01484668670108996 0 -0.0022802891505602635 0.022175352086617025 0 -0.0089029787488374059 0.022328327911978783 0 -0.0022802891505602635 0.022175352086617025 0 -0.0069796441042195541 0.023948416359243531 0 -0.0089029787488374059 0.022328327911978783 0 -0.0069796441042195541 0.023948416359243531 0 -0.0089029787488374059 0.022328327911978783 0 -0.0088916719919667347 0.024002165219741703 0 -0.0095031998537894961 0.020754198089046053 0 -0.010064662426798227 0.021455665711254152 0 -0.0089029787488374059 0.022328327911978783 0 -0.010064662426798227 0.021455665711254152 0 -0.0089029787488374059 0.022328327911978783 0 -0.0098811881476283722 0.022470985173469793 0 -0.010064662426798227 0.021455665711254152 0 -0.0098811881476283722 0.022470985173469793 0 -0.01090488517538683 0.022180790928924422 0 -0.011137976327262822 0.021325226381802051 0 -0.010064662426798227 0.021455665711254152 0 -0.01090488517538683 0.022180790928924422 0 -0.0098811881476283722 0.022470985173469793 0 -0.01015903115514526 0.024109468037862382 0 -0.01090488517538683 0.022180790928924422 0 -0.0089029787488374059 0.022328327911978783 0 -0.0098811881476283722 0.022470985173469793 0 -0.0088916719919667347 0.024002165219741703 0 -0.0098811881476283722 0.022470985173469793 0 -0.0088916719919667347 0.024002165219741703 0 -0.01015903115514526 0.024109468037862382 0 -0.0026798448404814447 0.016469567205558044 0 0.010524258925693537 0.016487807759625599 0 -0.0088916719919667347 0.024002165219741703 0 -0.01015903115514526 0.024109468037862382 0 -0.0080999278970696666 0.02647410649912017 0 -0.01015903115514526 0.024109468037862382 0 -0.011954891224876502 0.024381215697620407 0 -0.0080999278970696666 0.02647410649912017 0 -0.01015903115514526 0.024109468037862382 0 -0.011954891224876502 0.024381215697620407 0 -0.011841829992992756 0.023084975687996431 0 -0.01305123677691462 0.02320351577913754 0 -0.011954891224876502 0.024381215697620407 0 -0.011841829992992756 0.023084975687996431 0 -0.012726564975211406 0.022381317219465204 0 -0.01305123677691462 0.02320351577913754 0 -0.011841829992992756 0.023084975687996431 0 -0.01015903115514526 0.024109468037862382 0 -0.011841829992992756 0.023084975687996431 0 -0.01090488517538683 0.022180790928924422 0 -0.011137976327262822 0.021325226381802051 0 -0.01090488517538683 0.022180790928924422 0 -0.012027595005175331 0.021778938779509274 0 -0.011841829992992756 0.023084975687996431 0 -0.01090488517538683 0.022180790928924422 0 -0.012027595005175331 0.021778938779509274 0 -0.012726564975211406 0.022381317219465204 0 -0.012975992050765496 0.021599991712687075 0 -0.012027595005175331 0.021778938779509274 0 -0.012726564975211406 0.022381317219465204 0 -0.011841829992992756 0.023084975687996431 0 -0.012027595005175331 0.021778938779509274 0 0.015470727662029844 0.0076450138864128771 0 0.016653332309537167 0.0096803657366065238 0 0.01533559895034382 0.01034615737678854 0 0.012870948843136758 0.0091935376213987102 0 0.015470727662029844 0.0076450138864128771 0 0.01533559895034382 0.01034615737678854 0 -0.013909713852388352 0.024856643163701852 0 -0.011954891224876502 0.024381215697620407 0 -0.011661410205925813 0.026302117922141429 0 -0.011954891224876502 0.024381215697620407 0 -0.011661410205925813 0.026302117922141429 0 -0.010068326872776222 0.026297548304599939 0 -0.011954891224876502 0.024381215697620407 0 -0.010068326872776222 0.026297548304599939 0 -0.0089025968624180524 0.025210761373489512 0 -0.010068326872776222 0.026297548304599939 0 -0.0092333509466651382 0.027648046005729433 0 -0.0089025968624180524 0.025210761373489512 0 -0.011661410205925813 0.026302117922141429 0 -0.010068326872776222 0.026297548304599939 0 -0.0092333509466651382 0.027648046005729433 0 0.0055389550639633389 0.013531406816857187 0 0.015369658734514643 0.013586846277799066 0 0.015470727662029844 0.0076450138864128771 0 0.018001702905809335 0.0090742642679183701 0 0.016653332309537167 0.0096803657366065238 0 0.038392191625698312 0.0048188662063599307 0 0.036279824894146169 0.0049583034494102658 0 0.037870823817108788 0.0087756843052232969 0 0.038392191625698312 0.0048188662063599307 0 0.037630428991746637 0.0043985508989443567 0 0.036279824894146169 0.0049583034494102658 0 0.015369658734514643 0.013586846277799066 0 0.016034108635998832 0.013726300347957099 0 0.015369658734514643 0.013586846277799066 0 0.010524258925693537 0.016487807759625599 0 -0.0021202433109904161 0.028145105473927925 0 -0.0078148598479886328 0.031088495739008962 0 0.00035672090938682451 0.033630174926433665 0 0.010524258925693537 0.016487807759625599 0 0.016646780367046227 0.015597582510411205 0 0.036279824894146169 0.0049583034494102658 0 0.037870823817108788 0.0087756843052232969 0 0.034221198334335123 0.0076363895223993134 0 -0.0021202433109904161 0.028145105473927925 0 0.00035672090938682451 0.033630174926433665 0 0.0056274946278083559 0.030156653365511061 0 0.036279824894146169 0.0049583034494102658 0 0.034221198334335123 0.0076363895223993134 0 0.033251836140661656 0.0048086475490219278 0 0.036279824894146169 0.0049583034494102658 0 0.033251836140661656 0.0048086475490219278 0 0.034552542205466115 0.0029935012231575697 0 0.033251836140661656 0.0048086475490219278 0 0.034552542205466115 0.0029935012231575697 0 0.032034391884041162 0.001987777785846496 0 0.036279824894146169 0.0049583034494102658 0 0.034552542205466115 0.0029935012231575697 0 0.036429137619760937 0.0023037139390765745 0 0.034552542205466115 0.0029935012231575697 0 0.03475590509600416 0.00088760117684580136 0 0.036429137619760937 0.0023037139390765745 0 0.034552542205466115 0.0029935012231575697 0 0.03475590509600416 0.00088760117684580136 0 0.032034391884041162 0.001987777785846496 0 0.0268600077093374 0.0021782794495482888 0 0.029135194987262199 -0.00071856143525431604 0 0.03475590509600416 0.00088760117684580136 0 0.036319702633841731 -0.00061049347183683657 0 0.033896730216133736 -0.0027921669880383777 0 0.03475590509600416 0.00088760117684580136 0 0.032034391884041162 0.001987777785846496 0 0.033896730216133736 -0.0027921669880383777 0 0.03475590509600416 0.00088760117684580136 0 0.037213964529232098 0.0010275253687459258 0 0.036319702633841731 -0.00061049347183683657 0 0.036319702633841731 -0.00061049347183683657 0 0.038847903347295668 0.0010707167547122293 0 0.036846678684582863 -0.0035291845516485856 0 0.038095327526234145 -0.00032678426285507234 0 0.037571928478966711 -0.0013345914557844757 0 0.038847903347295668 0.0010707167547122293 0 0.039097099561096978 0.00078743564330609119 0 0.039367978411427057 0.0012303976009039274 0 0.037213964529232098 0.0010275253687459258 0 0.036319702633841731 -0.00061049347183683657 0 0.038847903347295668 0.0010707167547122293 0 0.037213964529232098 0.0010275253687459258 0 0.039102106821776277 0.0016992552464738832 0 0.038847903347295668 0.0010707167547122293 0 0.037213964529232098 0.0010275253687459258 0 0.036429137619760937 0.0023037139390765745 0 0.039102106821776277 0.0016992552464738832 0 0.03475590509600416 0.00088760117684580136 0 0.037213964529232098 0.0010275253687459258 0 0.036429137619760937 0.0023037139390765745 0 0.037630428991746637 0.0043985508989443567 0 0.036279824894146169 0.0049583034494102658 0 0.038633179495505571 0.0026390432572788829 0 0.038309744065861247 0.0047960632853205794 0 0.037630428991746637 0.0043985508989443567 0 0.038633179495505571 0.0026390432572788829 0 0.029486347670097522 0.0036073077846981959 0 0.0252251504269153 0.006284545371695348 0 0.036279824894146169 0.0049583034494102658 0 0.036429137619760937 0.0023037139390765745 0 0.039102106821776277 0.0016992552464738832 0 0.016653332309537167 0.0096803657366065238 0 0.01778438515588146 0.010638219931402435 0 0.01533559895034382 0.01034615737678854 0 0.015369658734514643 0.013586846277799066 0 0.0252251504269153 0.006284545371695348 0 0.018001702905809335 0.0090742642679183701 0 0.016653332309537167 0.0096803657366065238 0 0.01778438515588146 0.010638219931402435 0 0.0252251504269153 0.006284545371695348 0 0.027978360187427359 0.0039507900495829862 0 0.039118803631846978 0.00023675583711179764 0 0.039097099561096978 0.00078743564330609119 0 0.038763203902347339 0.00070140706726550949 0 0.039118803631846978 0.00023675583711179764 0 0.03863565708319066 0.00066644306845056441 0 0.038763203902347339 0.00070140706726550949 0 0.0252251504269153 0.006284545371695348 0 0.027771442382968019 0.0030867144125739055 0 0.039102106821776277 0.0016992552464738832 0 0.038847903347295668 0.0010707167547122293 0 0.039097099561096978 0.00078743564330609119 0 0.013794433460417565 0.012241883288591155 0 0.015653825937147231 0.012770079711064659 0 0.01533559895034382 0.01034615737678854 0 0.026031239175312783 0.0041637957686162909 0 0.027978360187427359 0.0039507900495829862 0 0.027978360187427359 0.0039507900495829862 0 0.028379250937107567 0.0039971383981710108 0 0.01778438515588146 0.010638219931402435 0 0.015653825937147231 0.012770079711064659 0 0.01533559895034382 0.01034615737678854 0 0.023123561230035308 0.0041530685899809332 0 0.02213305849006033 0.0037676167708880523 0 0.022519944022014692 0.0042175506133837635 0 0.023123561230035308 0.0041530685899809332 0 0.022519944022014692 0.0042175506133837635 0 0.022588019654208469 0.0042889711168663846 0 0.023123561230035308 0.0041530685899809332 0 0.026513872005140691 0.0033565059029923056 0 0.023889958094187123 0.002393258557932672 0 0.023123561230035308 0.0041530685899809332 0 0.02213305849006033 0.0037676167708880523 0 0.022586426805934749 0.0030032275883885777 0 0.02213305849006033 0.0037676167708880523 0 0.021796068199929613 0.0028320028915759039 0 0.022586426805934749 0.0030032275883885777 0 0.021215910875566336 0.0036289046498135299 0 0.02213305849006033 0.0037676167708880523 0 0.021796068199929613 0.0028320028915759039 0 0.021215910875566336 0.0036289046498135299 0 0.02213305849006033 0.0037676167708880523 0 0.021907033637400007 0.0042388843846776093 0 0.02213305849006033 0.0037676167708880523 0 0.021907033637400007 0.0042388843846776093 0 0.022519944022014692 0.0042175506133837635 0 0.022026630699872103 0.004609466754583607 0 0.021318742973397323 0.0046317496746755334 0 0.021907033637400007 0.0042388843846776093 0 0.021215910875566336 0.0036289046498135299 0 0.021907033637400007 0.0042388843846776093 0 0.0212079705933504 0.0041776123333305106 0 0.021318742973397323 0.0046317496746755334 0 0.021907033637400007 0.0042388843846776093 0 0.0212079705933504 0.0041776123333305106 0 0.022026630699872103 0.004609466754583607 0 0.021907033637400007 0.0042388843846776093 0 0.022519944022014692 0.0042175506133837635 0 0.022552330332259254 0.0046324218687071109 0 0.022026630699872103 0.004609466754583607 0 0.022588019654208469 0.0042889711168663846 0 0.022026630699872103 0.004609466754583607 0 0.022519944022014692 0.0042175506133837635 0 0.022588019654208469 0.0042889711168663846 0 0.017669981141605604 0.014356593244199869 0 0.019121584631621547 0.011467473820466523 0 0.022552330332259254 0.0046324218687071109 0 0.022588019654208469 0.0042889711168663846 0 0.022599700790989729 0.0043052519932327152 0 0.016646780367046227 0.015597582510411205 0 0.019121584631621547 0.011467473820466523 0 0.011365014060942907 0.027856323353590666 0 0.0056274946278083559 0.030156653365511061 0 0.0082604032528774424 0.036110513001348765 0 0.00035672090938682451 0.033630174926433665 0 0.0056274946278083559 0.030156653365511061 0 0.0082604032528774424 0.036110513001348765 0 0.034221198334335123 0.0076363895223993134 0 0.033251836140661656 0.0048086475490219278 0 0.030350235304074134 0.0064233884237444991 0 0.019121584631621547 0.011467473820466523 0 0.0268600077093374 0.0021782794495482888 0 0.033251836140661656 0.0048086475490219278 0 0.030350235304074134 0.0064233884237444991 0 0.032034391884041162 0.001987777785846496 0 0.021500208478472192 0.010121167907997849 0 0.019121584631621547 0.011467473820466523 0 0.030368271797643467 0.0069653604982582874 0 0.026513872005140691 0.0033565059029923056 0 0.028704918196765704 0.0023229629844820324 0 0.023123561230035308 0.0041530685899809332 0 0.030368271797643467 0.0069653604982582874 0 0.026513872005140691 0.0033565059029923056 0 0.023123561230035308 0.0041530685899809332 0 0.022588019654208469 0.0042889711168663846 0 0.022599700790989729 0.0043052519932327152 0 0.026513872005140691 0.0033565059029923056 0 0.028704918196765704 0.0023229629844820324 0 0.02682857114907522 0.0014521763858353803 0 0.028704918196765704 0.0023229629844820324 0 0.032383067115881223 0.00097185778720127835 0 0.02825865058605528 -0.00082332495685792423 0 0.028704918196765704 0.0023229629844820324 0 0.02682857114907522 0.0014521763858353803 0 0.02825865058605528 -0.00082332495685792423 0 0.030368271797643467 0.0069653604982582874 0 0.028704918196765704 0.0023229629844820324 0 0.032383067115881223 0.00097185778720127835 0 0.032383067115881223 0.00097185778720127835 0 0.031034882046416461 -0.0015712223750227953 0 0.02825865058605528 -0.00082332495685792423 0 0.032383067115881223 0.00097185778720127835 0 0.031034882046416461 -0.0015712223750227953 0 0.033896730216133736 -0.0027921669880383777 0 0.02682857114907522 0.0014521763858353803 0 0.02825865058605528 -0.00082332495685792423 0 0.024260583435899617 -0.0024235162887228799 0 0.031034882046416461 -0.0015712223750227953 0 0.02825865058605528 -0.00082332495685792423 0 0.029028507881532176 -0.0026033851643762753 0 0.02825865058605528 -0.00082332495685792423 0 0.027186059052733517 -0.0014604336981530789 0 0.029028507881532176 -0.0026033851643762753 0 0.027348853145709368 -0.0011809644192380671 0 0.027310394954774966 -0.0011921588322458614 0 0.02682857114907522 0.0014521763858353803 0 0.024260583435899617 -0.0024235162887228799 0 0.023889958094187123 0.002393258557932672 0 0.027310394954774966 -0.0011921588322458614 0 0.026916612623990737 -0.00010327497866373226 0 0.023423866113396846 0.00099933656859321198 0 0.023889958094187123 0.002393258557932672 0 0.022525466521671735 0.0017881180909625548 0 0.023123561230035308 0.0041530685899809332 0 0.023889958094187123 0.002393258557932672 0 0.022586426805934749 0.0030032275883885777 0 0.023889958094187123 0.002393258557932672 0 0.022586426805934749 0.0030032275883885777 0 0.022525466521671735 0.0017881180909625548 0 0.026513872005140691 0.0033565059029923056 0 0.02682857114907522 0.0014521763858353803 0 0.023889958094187123 0.002393258557932672 0 0.021011902786388186 0.0018148582525868084 0 0.021796068199929613 0.0028320028915759039 0 0.022525466521671735 0.0017881180909625548 0 0.021796068199929613 0.0028320028915759039 0 0.022586426805934749 0.0030032275883885777 0 0.022525466521671735 0.0017881180909625548 0 0.021011902786388186 0.0018148582525868084 0 0.022525466521671735 0.0017881180909625548 0 0.02119347409884818 0.00051424090074684604 0 0.023423866113396846 0.00099933656859321198 0 0.022525466521671735 0.0017881180909625548 0 0.02119347409884818 0.00051424090074684604 0 0.027310394954774966 -0.0011921588322458614 0 0.025201089739534915 -0.0015310215598439939 0 0.027829919306660671 -0.0023490706760057301 0 0.027429842062728204 -0.0020456317779679383 0 0.027417562964017927 -0.0026446350311323322 0 0.028256470406094129 -0.0017377200914134075 0 0.027829919306660671 -0.0023490706760057301 0 0.027429842062728204 -0.0020456317779679383 0 0.03070410794826936 -0.0044154108105921921 0 0.029333840612981166 -0.0031667750599002464 0 0.027829919306660671 -0.0023490706760057301 0 0.028235171163611558 -0.0029365921495117771 0 0.027417562964017927 -0.0026446350311323322 0 0.027418453908390521 -0.0040571258210683045 0 0.028977400566070281 -0.0063938466334868679 0 0.027461871265156118 -0.0070987871854928455 0 0.027829919306660671 -0.0023490706760057301 0 0.028244859668047326 -0.0023352332024227378 0 0.028235171163611558 -0.0029365921495117771 0 0.028832100831627544 -0.0029771212592074755 0 0.03070410794826936 -0.0044154108105921921 0 0.027310394954774966 -0.0011921588322458614 0 0.028832100831627544 -0.0029771212592074755 0 0.027186059052733517 -0.0014604336981530789 0 0.027418453908390521 -0.0040571258210683045 0 0.029028507881532176 -0.0026033851643762753 0 0.028256470406094129 -0.0017377200914134075 0 0.027829919306660671 -0.0023490706760057301 0 0.028244859668047326 -0.0023352332024227378 0 0.031034882046416461 -0.0015712223750227953 0 0.029028507881532176 -0.0026033851643762753 0 0.03125984131088827 -0.0034138086355999481 0 0.029028507881532176 -0.0026033851643762753 0 0.03125984131088827 -0.0034138086355999481 0 0.029716094210542148 -0.0047076214220113342 0 0.03125984131088827 -0.0034138086355999481 0 0.031354079384508786 -0.0053599444490817997 0 0.029716094210542148 -0.0047076214220113342 0 0.027418453908390521 -0.0040571258210683045 0 0.029028507881532176 -0.0026033851643762753 0 0.029716094210542148 -0.0047076214220113342 0 0.031034882046416461 -0.0015712223750227953 0 0.03125984131088827 -0.0034138086355999481 0 0.033896730216133736 -0.0027921669880383777 0 0.03125984131088827 -0.0034138086355999481 0 0.032754002972639008 -0.0046791330394948313 0 0.033896730216133736 -0.0027921669880383777 0 0.03125984131088827 -0.0034138086355999481 0 0.032754002972639008 -0.0046791330394948313 0 0.031354079384508786 -0.0053599444490817997 0 0.032754002972639008 -0.0046791330394948313 0 0.032556306580922775 -0.0058634911298287096 0 0.033511413071361969 -0.0061758650938942431 0 0.032754002972639008 -0.0046791330394948313 0 0.032556306580922775 -0.0058634911298287096 0 0.031354079384508786 -0.0053599444490817997 0 0.032556306580922775 -0.0058634911298287096 0 0.031354079384508786 -0.0053599444490817997 0 0.032318384887698517 -0.0069599721449562484 0 0.032556306580922775 -0.0058634911298287096 0 0.033070936063785958 -0.0068963088530973595 0 0.032318384887698517 -0.0069599721449562484 0 0.031354079384508786 -0.0053599444490817997 0 0.03075356860882893 -0.0063595749825166954 0 0.032318384887698517 -0.0069599721449562484 0 0.032556306580922775 -0.0058634911298287096 0 0.033070936063785958 -0.0068963088530973595 0 0.033511413071361969 -0.0061758650938942431 0 0.033070936063785958 -0.0068963088530973595 0 0.033646918288675241 -0.007327203048964049 0 0.033511413071361969 -0.0061758650938942431 0 0.027418453908390521 -0.0040571258210683045 0 0.029716094210542148 -0.0047076214220113342 0 0.028977400566070281 -0.0063938466334868679 0 0.031354079384508786 -0.0053599444490817997 0 0.029716094210542148 -0.0047076214220113342 0 0.03075356860882893 -0.0063595749825166954 0 0.03075356860882893 -0.0063595749825166954 0 0.028977400566070281 -0.0063938466334868679 0 0.030723658661370942 -0.0077399790644755249 0 0.029716094210542148 -0.0047076214220113342 0 0.03075356860882893 -0.0063595749825166954 0 0.028977400566070281 -0.0063938466334868679 0 0.028977400566070281 -0.0063938466334868679 0 0.030723658661370942 -0.0077399790644755249 0 0.030581338286067336 -0.0080689236340391619 0 0.03220015662389708 -0.0054038099350182363 0 0.03070410794826936 -0.0044154108105921921 0 0.028977400566070281 -0.0063938466334868679 0 0.030581338286067336 -0.0080689236340391619 0 0.027461871265156118 -0.0070987871854928455 0 0.031762054959416315 -0.0073084934728268542 0 0.030723658661370942 -0.0077399790644755249 0 0.033375269354857642 -0.0081640879512899674 0 0.03075356860882893 -0.0063595749825166954 0 0.031762054959416315 -0.0073084934728268542 0 0.030723658661370942 -0.0077399790644755249 0 0.030723658661370942 -0.0077399790644755249 0 0.030580762145659714 -0.0081443617746384291 0 0.033375269354857642 -0.0081640879512899674 0 0.03075356860882893 -0.0063595749825166954 0 0.031762054959416315 -0.0073084934728268542 0 0.032318384887698517 -0.0069599721449562484 0 0.032193547188890746 -0.0054192335300706582 0 0.03220015662389708 -0.0054038099350182363 0 0.034721118653732196 -0.0085144508053249315 0 0.033375269354857642 -0.0081640879512899674 0 0.034456391770464244 -0.0073273509284810983 0 0.03220015662389708 -0.0054038099350182363 0 0.032346896735302832 -0.0055626316161334604 0 0.033070936063785958 -0.0068963088530973595 0 0.033646918288675241 -0.007327203048964049 0 0.033375269354857642 -0.0081640879512899674 0 0.033070936063785958 -0.0068963088530973595 0 0.032318384887698517 -0.0069599721449562484 0 0.033375269354857642 -0.0081640879512899674 0 0.031762054959416315 -0.0073084934728268542 0 0.032318384887698517 -0.0069599721449562484 0 0.033375269354857642 -0.0081640879512899674 0 0.033646918288675241 -0.007327203048964049 0 0.033375269354857642 -0.0081640879512899674 0 0.033478821279428639 -0.0078353702958840286 0 0.035608152547011857 -0.0047813972350386098 0 0.035283306110472076 -0.0054388539173888086 0 0.034456391770464244 -0.0073273509284810983 0 0.033478821279428639 -0.0078353702958840286 0 0.035118691444698404 -0.0060859660587784985 0 0.033375269354857642 -0.0081640879512899674 0 0.034456391770464244 -0.0073273509284810983 0 0.033478821279428639 -0.0078353702958840286 0 0.03220015662389708 -0.0054038099350182363 0 0.033117555290891242 -0.0058217736600733915 0 0.032464608194211146 -0.0054468244543094801 0 0.032378922990397935 -0.0055581813617636682 0 0.032422701845783664 -0.0055737862556454309 0 0.034721118653732196 -0.0085144508053249315 0 0.034456391770464244 -0.0073273509284810983 0 0.035964555703959449 -0.0064601704440335707 0 0.03433843058376234 -0.0047553981118376417 0 0.033224029418121963 -0.0035709008773136723 0 0.03276033960748799 -0.0046475303622626231 0 0.033224029418121963 -0.0035709008773136723 0 0.034345751680250274 -0.0030106179847489774 0 0.032677423537600621 -0.0024267854037303789 0 0.03433843058376234 -0.0047553981118376417 0 0.033224029418121963 -0.0035709008773136723 0 0.034345751680250274 -0.0030106179847489774 0 0.032390745023542479 -0.0051985783936892606 0 0.03070410794826936 -0.0044154108105921921 0 0.032464608194211146 -0.0054468244543094801 0 0.032378922990397935 -0.0055581813617636682 0 0.03237738661433217 -0.0054156294773638576 0 0.037711454631713985 0.001063361071703181 0 0.038432042131194825 0.0018638251253688929 0 0.038607453433989136 0.0010121662025107719 0 0.038432042131194825 0.0018638251253688929 0 0.038607453433989136 0.0010121662025107719 0 0.039021586654734187 0.0011946411887393121 0 0.037711454631713985 0.001063361071703181 0 0.038567057960817497 0.00058081251022410125 0 0.038607453433989136 0.0010121662025107719 0 0.033425913599033137 0.00092175302929920421 0 0.027978360187427359 0.0039507900495829862 0 0.038763203902347339 0.00070140706726550949 0 0.038607453433989136 0.0010121662025107719 0 0.038971322523833708 0.00094767854259306963 0 0.038567057960817497 0.00058081251022410125 0 0.038763203902347339 0.00070140706726550949 0 0.038607453433989136 0.0010121662025107719 0 0.038607453433989136 0.0010121662025107719 0 0.039021586654734187 0.0011946411887393121 0 0.038971322523833708 0.00094767854259306963 0 0.039097099561096978 0.00078743564330609119 0 0.038763203902347339 0.00070140706726550949 0 0.038971322523833708 0.00094767854259306963 0 0.039097099561096978 0.00078743564330609119 0 0.038971322523833708 0.00094767854259306963 0 0.039277718899310483 0.0010816614511867943 0 0.039021586654734187 0.0011946411887393121 0 0.038971322523833708 0.00094767854259306963 0 0.039277718899310483 0.0010816614511867943 0 0.039021586654734187 0.0011946411887393121 0 0.039277718899310483 0.0010816614511867943 0 0.039697452752447349 0.0011498602139267736 0 0.041599636447776034 0.00073835844754225612 0 0.040716197141821481 0.00094201682467059239 0 0.04549662524130664 0.00094481615303118756 0 0.039697452752447349 0.0011498602139267736 0 0.042478331206649178 -0.0012931185946646578 0 0.038432042131194825 0.0018638251253688929 0 0.039021586654734187 0.0011946411887393121 0 0.039697452752447349 0.0011498602139267736 0 0.039697452752447349 0.0011498602139267736 0 0.039367978411427057 0.0012303976009039274 0 0.038151285795208975 0.0005970538088568598 0 0.037571928478966711 -0.0013345914557844757 0 0.03654651104388501 -0.0031193644030667643 0 0.039277718899310483 0.0010816614511867943 0 0.039697452752447349 0.0011498602139267736 0 0.039367978411427057 0.0012303976009039274 0 0.039097099561096978 0.00078743564330609119 0 0.039277718899310483 0.0010816614511867943 0 0.039367978411427057 0.0012303976009039274 0 0.036319702633841731 -0.00061049347183683657 0 0.036846678684582863 -0.0035291845516485856 0 0.033896730216133736 -0.0027921669880383777 0 0.036846678684582863 -0.0035291845516485856 0 0.033896730216133736 -0.0027921669880383777 0 0.03430312974769844 -0.0048043567814824622 0 0.032754002972639008 -0.0046791330394948313 0 0.033896730216133736 -0.0027921669880383777 0 0.03430312974769844 -0.0048043567814824622 0 0.036846678684582863 -0.0035291845516485856 0 0.03430312974769844 -0.0048043567814824622 0 0.034756664812981321 -0.006847233507068117 0 0.03430312974769844 -0.0048043567814824622 0 0.034756664812981321 -0.006847233507068117 0 0.033511413071361969 -0.0061758650938942431 0 0.032754002972639008 -0.0046791330394948313 0 0.03430312974769844 -0.0048043567814824622 0 0.033511413071361969 -0.0061758650938942431 0 0.033646918288675241 -0.007327203048964049 0 0.034756664812981321 -0.006847233507068117 0 0.033511413071361969 -0.0061758650938942431 0 0.033646918288675241 -0.007327203048964049 0 0.034756664812981321 -0.006847233507068117 0 0.033478821279428639 -0.0078353702958840286 0 0.038151285795208975 0.0005970538088568598 0 0.036263794000810527 -0.0028367581191173752 0 0.039385542229719454 -0.0015872702634092731 0 0.03654651104388501 -0.0031193644030667643 0 0.035608152547011857 -0.0047813972350386098 0 0.036263794000810527 -0.0028367581191173752 0 0.038368859488822342 -0.0039215861912037086 0 0.039385542229719454 -0.0015872702634092731 0 0.036263794000810527 -0.0028367581191173752 0 0.038368859488822342 -0.0039215861912037086 0 0.036764617904682162 -0.0050521879271815725 0 0.038368859488822342 -0.0039215861912037086 0 0.039385542229719454 -0.0015872702634092731 0 0.04204409058706568 -0.0046110207878467492 0 0.039697452752447349 0.0011498602139267736 0 0.038151285795208975 0.0005970538088568598 0 0.039385542229719454 -0.0015872702634092731 0 0.039697452752447349 0.0011498602139267736 0 0.039385542229719454 -0.0015872702634092731 0 0.042478331206649178 -0.0012931185946646578 0 0.039385542229719454 -0.0015872702634092731 0 0.042478331206649178 -0.0012931185946646578 0 0.04204409058706568 -0.0046110207878467492 0 0.042478331206649178 -0.0012931185946646578 0 0.04204409058706568 -0.0046110207878467492 0 0.046110596574220654 -0.0024746466707724919 0 0.045307278829922297 -0.0031426309700932566 0 0.046110596574220654 -0.0024746466707724919 0 0.046578691769854984 -0.0043105127820281799 0 0.043164832455780136 -0.0037337458285711363 0 0.044333279041751522 -0.0031466916943184175 0 0.04549662524130664 0.00094481615303118756 0 0.042478331206649178 -0.0012931185946646578 0 0.046110596574220654 -0.0024746466707724919 0 0.047234780133613041 -0.0015706303568468693 0 0.04549662524130664 0.00094481615303118756 0 0.046110596574220654 -0.0024746466707724919 0 0.047682819008405819 -0.005785307252175069 0 0.046578691769854984 -0.0043105127820281799 0 0.045338819616116077 -0.0054390579627662406 0 0.047206157776394149 -0.003808170845300067 0 0.046110596574220654 -0.0024746466707724919 0 0.046578691769854984 -0.0043105127820281799 0 0.045307278829922297 -0.0031426309700932566 0 0.046578691769854984 -0.0043105127820281799 0 0.045338819616116077 -0.0054390579627662406 0 0.045338819616116077 -0.0054390579627662406 0 0.04348944771283305 -0.0036916703409050986 0 0.043004035886365276 -0.0053595506092654422 0 0.043164832455780136 -0.0037337458285711363 0 0.041002684620962744 -0.0047229632682745295 0 0.038368859488822342 -0.0039215861912037086 0 0.04204409058706568 -0.0046110207878467492 0 0.038530755968389681 -0.0061049100665598538 0 0.045307278829922297 -0.0031426309700932566 0 0.045338819616116077 -0.0054390579627662406 0 0.04348944771283305 -0.0036916703409050986 0 0.038530755968389681 -0.0061049100665598538 0 0.036764617904682162 -0.0050521879271815725 0 0.035635116101168429 -0.0067178675914194219 0 0.038368859488822342 -0.0039215861912037086 0 0.038530755968389681 -0.0061049100665598538 0 0.036764617904682162 -0.0050521879271815725 0 0.043004035886365276 -0.0053595506092654422 0 0.040677836621455514 -0.0044084863635808101 0 0.040278841735021047 -0.0071263759888474014 0 0.04348944771283305 -0.0036916703409050986 0 0.043004035886365276 -0.0053595506092654422 0 0.040677836621455514 -0.0044084863635808101 0 0.041002684620962744 -0.0047229632682745295 0 0.038945765255735468 -0.0056026700404950922 0 0.043004035886365276 -0.0053595506092654422 0 0.043387793709828336 -0.007513680514120445 0 0.040278841735021047 -0.0071263759888474014 0 0.041657764398929632 -0.0086038046905630283 0 0.043137761451710097 -0.010192747394006201 0 0.039782586662836933 -0.0096291863274827281 0 0.041657764398929632 -0.0086038046905630283 0 0.043387793709828336 -0.007513680514120445 0 0.043137761451710097 -0.010192747394006201 0 0.041657764398929632 -0.0086038046905630283 0 0.043387793709828336 -0.007513680514120445 0 0.040278841735021047 -0.0071263759888474014 0 0.043387793709828336 -0.007513680514120445 0 0.046718599946186323 -0.0080199495122499579 0 0.046136309762161987 -0.010112936822335454 0 0.043387793709828336 -0.007513680514120445 0 0.046136309762161987 -0.010112936822335454 0 0.043137761451710097 -0.010192747394006201 0 0.045338819616116077 -0.0054390579627662406 0 0.043004035886365276 -0.0053595506092654422 0 0.043387793709828336 -0.007513680514120445 0 0.045338819616116077 -0.0054390579627662406 0 0.043387793709828336 -0.007513680514120445 0 0.046718599946186323 -0.0080199495122499579 0 0.048921115128412428 -0.0088773473343465234 0 0.046718599946186323 -0.0080199495122499579 0 0.04803117566214804 -0.010262992861011139 0 0.048921115128412428 -0.0088773473343465234 0 0.048699577928142418 -0.006765327008303971 0 0.046718599946186323 -0.0080199495122499579 0 0.047682819008405819 -0.005785307252175069 0 0.045338819616116077 -0.0054390579627662406 0 0.046718599946186323 -0.0080199495122499579 0 0.046564069248194742 -0.0051107012739281124 0 0.046230829225692001 -0.0061926512233151819 0 0.035848579449996837 -0.0060942424240024492 0 0.035964555703959449 -0.0064601704440335707 0 0.036079191664984453 -0.0060967903915228041 0 0.036079191664984453 -0.0060967903915228041 0 0.036801558220350632 -0.0061141638401315517 0 0.035662282321383722 -0.0061871182095898421 0 0.035848579449996837 -0.0060942424240024492 0 0.036079191664984453 -0.0060967903915228041 0 0.035662282321383722 -0.0061871182095898421 0 0.033309750572782577 -0.0061549051496639683 0 0.033331494660564356 -0.0061559958868467931 0 0.033412976976297734 -0.0057123145348630285 0 0.033549485865533288 -0.007203649087943638 0 0.032584171256263998 -0.0063413533260705179 0 0.0344748528820564 -0.0065740270626016466 0 0.033412976976297734 -0.0057123145348630285 0 0.033549485865533288 -0.007203649087943638 0 0.03433843058376234 -0.0047553981118376417 0 0.033412976976297734 -0.0057123145348630285 0 0.03276033960748799 -0.0046475303622626231 0 0.033309750572782577 -0.0061549051496639683 0 0.033117555290891242 -0.0058217736600733915 0 0.032378922990397935 -0.0055581813617636682 0 0.032382271135662902 -0.0057054159415443886 0 0.032422701845783664 -0.0055737862556454309 0 0.032390745023542479 -0.0051985783936892606 0 0.033309750572782577 -0.0061549051496639683 0 0.03433843058376234 -0.0047553981118376417 0 0.0344748528820564 -0.0065740270626016466 0 0.033412976976297734 -0.0057123145348630285 0 0.034456391770464244 -0.0073273509284810983 0 0.035964555703959449 -0.0064601704440335707 0 0.035118691444698404 -0.0060859660587784985 0 0.035964555703959449 -0.0064601704440335707 0 0.035118691444698404 -0.0060859660587784985 0 0.035817268342472099 -0.006204549982767588 0 0.035964555703959449 -0.0064601704440335707 0 0.035817268342472099 -0.006204549982767588 0 0.036079191664984453 -0.0060967903915228041 0 0.036764617904682162 -0.0050521879271815725 0 0.035118691444698404 -0.0060859660587784985 0 0.035635116101168429 -0.0067178675914194219 0 0.036263794000810527 -0.0028367581191173752 0 0.036764617904682162 -0.0050521879271815725 0 0.035118691444698404 -0.0060859660587784985 0 0.038945765255735468 -0.0056026700404950922 0 0.038036836908697705 -0.0059999466623092638 0 0.035635116101168429 -0.0067178675914194219 0 0.035817268342472099 -0.006204549982767588 0 0.036801558220350632 -0.0061141638401315517 0 0.035118691444698404 -0.0060859660587784985 0 0.035635116101168429 -0.0067178675914194219 0 0.035817268342472099 -0.006204549982767588 0 0.035817268342472099 -0.006204549982767588 0 0.036079191664984453 -0.0060967903915228041 0 0.036801558220350632 -0.0061141638401315517 0 0.036801558220350632 -0.0061141638401315517 0 0.037916979767690664 -0.0084120463483627304 0 0.036255610071102007 -0.0076011571911210008 0 0.036801558220350632 -0.0061141638401315517 0 0.040278841735021047 -0.0071263759888474014 0 0.037916979767690664 -0.0084120463483627304 0 0.040677836621455514 -0.0044084863635808101 0 0.036801558220350632 -0.0061141638401315517 0 0.040278841735021047 -0.0071263759888474014 0 0.040278841735021047 -0.0071263759888474014 0 0.037916979767690664 -0.0084120463483627304 0 0.039782586662836933 -0.0096291863274827281 0 0.041657764398929632 -0.0086038046905630283 0 0.040278841735021047 -0.0071263759888474014 0 0.039782586662836933 -0.0096291863274827281 0 0.037916979767690664 -0.0084120463483627304 0 0.039782586662836933 -0.0096291863274827281 0 0.038112935418119276 -0.010607033431227113 0 0.037916979767690664 -0.0084120463483627304 0 0.036507835765093796 -0.0093981339385750123 0 0.038112935418119276 -0.010607033431227113 0 0.037916979767690664 -0.0084120463483627304 0 0.036507835765093796 -0.0093981339385750123 0 0.036255610071102007 -0.0076011571911210008 0 0.036507835765093796 -0.0093981339385750123 0 0.034215286510457125 -0.008497692620271927 0 0.03566188854164614 -0.010368180893677109 0 0.036507835765093796 -0.0093981339385750123 0 0.036255610071102007 -0.0076011571911210008 0 0.034215286510457125 -0.008497692620271927 0 0.035744938682847872 -0.0056321095177405177 0 0.035662282321383722 -0.0061871182095898421 0 0.034215286510457125 -0.008497692620271927 0 0.036801558220350632 -0.0061141638401315517 0 0.036255610071102007 -0.0076011571911210008 0 0.035662282321383722 -0.0061871182095898421 0 0.033309750572782577 -0.0061549051496639683 0 0.033404634353895249 -0.0070385540764518551 0 0.036255610071102007 -0.0076011571911210008 0 0.035662282321383722 -0.0061871182095898421 0 0.034215286510457125 -0.008497692620271927 0 0.0344748528820564 -0.0065740270626016466 0 0.033549485865533288 -0.007203649087943638 0 0.034215286510457125 -0.008497692620271927 0 0.033549485865533288 -0.007203649087943638 0 0.034215286510457125 -0.008497692620271927 0 0.032502716745874793 -0.0081802751373773845 0 0.034215286510457125 -0.008497692620271927 0 0.032502716745874793 -0.0081802751373773845 0 0.033369129644070968 -0.009673109362366674 0 0.032475450381857687 -0.0073403247779044072 0 0.03197677132977584 -0.0078441486629574064 0 0.032471862341903725 -0.0082646826249002572 0 0.035670593140943875 -0.0080939809440993531 0 0.037814107754555008 -0.0095920105104341929 0 0.032502716745874793 -0.0081802751373773845 0 0.032423882852234548 -0.010726310185022158 0 0.033369129644070968 -0.009673109362366674 0 0.032475450381857687 -0.0073403247779044072 0 0.03197677132977584 -0.0078441486629574064 0 0.031909281828337466 -0.0073568638479220641 0 0.031435508045994529 -0.0074703880327782564 0 0.031909281828337466 -0.0073568638479220641 0 0.03177319409898121 -0.0068547192406192047 0 0.03197677132977584 -0.0078441486629574064 0 0.031435508045994529 -0.0074703880327782564 0 0.031475311086859713 -0.0081175967550639674 0 0.03197677132977584 -0.0078441486629574064 0 0.031435508045994529 -0.0074703880327782564 0 0.031909281828337466 -0.0073568638479220641 0 0.03177319409898121 -0.0068547192406192047 0 0.03106178333537556 -0.0069100525389406489 0 0.031150976179561588 -0.0061494436368582 0 0.031435508045994529 -0.0074703880327782564 0 0.03177319409898121 -0.0068547192406192047 0 0.03106178333537556 -0.0069100525389406489 0 0.033549485865533288 -0.007203649087943638 0 0.032502716745874793 -0.0081802751373773845 0 0.032584171256263998 -0.0063413533260705179 0 0.035670593140943875 -0.0080939809440993531 0 0.035060240570051783 -0.0073624147003429601 0 0.032475450381857687 -0.0073403247779044072 0 0.031909281828337466 -0.0073568638479220641 0 0.03177319409898121 -0.0068547192406192047 0 0.032475450381857687 -0.0073403247779044072 0 0.03177319409898121 -0.0068547192406192047 0 0.032584171256263998 -0.0063413533260705179 0 0.030335330847466487 -0.0076464248171694144 0 0.030433136658720491 -0.0069775978389108569 0 0.029875137990072038 -0.0073185876381558291 0 0.030335330847466487 -0.0076464248171694144 0 0.030864818692618388 -0.0073287429094497569 0 0.030951740420692368 -0.0078632264065727729 0 0.030335330847466487 -0.0076464248171694144 0 0.030864818692618388 -0.0073287429094497569 0 0.030433136658720491 -0.0069775978389108569 0 0.031435508045994529 -0.0074703880327782564 0 0.030951740420692368 -0.0078632264065727729 0 0.031475311086859713 -0.0081175967550639674 0 0.031435508045994529 -0.0074703880327782564 0 0.030864818692618388 -0.0073287429094497569 0 0.030951740420692368 -0.0078632264065727729 0 0.031435508045994529 -0.0074703880327782564 0 0.030864818692618388 -0.0073287429094497569 0 0.03106178333537556 -0.0069100525389406489 0 0.030759191827269914 -0.0066026593002258037 0 0.03106178333537556 -0.0069100525389406489 0 0.030433136658720491 -0.0069775978389108569 0 0.030864818692618388 -0.0073287429094497569 0 0.03106178333537556 -0.0069100525389406489 0 0.030433136658720491 -0.0069775978389108569 0 0.030759191827269914 -0.0066026593002258037 0 0.03106178333537556 -0.0069100525389406489 0 0.031150976179561588 -0.0061494436368582 0 0.030433136658720491 -0.0069775978389108569 0 0.030394633661316776 -0.0063704316095780375 0 0.029597258354624227 -0.0065345886362573385 0 0.030759191827269914 -0.0066026593002258037 0 0.030433136658720491 -0.0069775978389108569 0 0.030394633661316776 -0.0063704316095780375 0 0.030433136658720491 -0.0069775978389108569 0 0.029733695706626005 -0.0068868004926939666 0 0.029875137990072038 -0.0073185876381558291 0 0.029166593530079131 -0.0058498293745812679 0 0.029605848911772269 -0.0065027318341881191 0 0.02999021995192222 -0.0057723083290671801 0 0.029605848911772269 -0.0065027318341881191 0 0.031150976179561588 -0.0061494436368582 0 0.02999021995192222 -0.0057723083290671801 0 0.029763246824329178 -0.006230311834041412 0 0.030309665410726841 -0.0061595250159232088 0 0.030759191827269914 -0.0066026593002258037 0 0.030394633661316776 -0.0063704316095780375 0 0.031150976179561588 -0.0061494436368582 0 0.031150976179561588 -0.0061494436368582 0 0.030131188175683589 -0.004966556701246046 0 0.02999021995192222 -0.0057723083290671801 0 0.031150976179561588 -0.0061494436368582 0 0.030131188175683589 -0.004966556701246046 0 0.031322727823362116 -0.0047030799840035086 0 0.029166593530079131 -0.0058498293745812679 0 0.030131188175683589 -0.004966556701246046 0 0.02999021995192222 -0.0057723083290671801 0 0.029098800463018912 -0.0058911200954267114 0 0.02946768555273676 -0.005559980664857034 0 0.028968723474414659 -0.0058615957827052928 0 0.030131188175683589 -0.004966556701246046 0 0.028792377544771014 -0.0047342456513169776 0 0.03177319409898121 -0.0068547192406192047 0 0.032584171256263998 -0.0063413533260705179 0 0.031939840557018401 -0.005597654000112689 0 0.033412976976297734 -0.0057123145348630285 0 0.032584171256263998 -0.0063413533260705179 0 0.031939840557018401 -0.005597654000112689 0 0.03177319409898121 -0.0068547192406192047 0 0.031150976179561588 -0.0061494436368582 0 0.031939840557018401 -0.005597654000112689 0 0.031150976179561588 -0.0061494436368582 0 0.031939840557018401 -0.005597654000112689 0 0.031322727823362116 -0.0047030799840035086 0 0.033412976976297734 -0.0057123145348630285 0 0.031939840557018401 -0.005597654000112689 0 0.03276033960748799 -0.0046475303622626231 0 0.031939840557018401 -0.005597654000112689 0 0.03276033960748799 -0.0046475303622626231 0 0.031322727823362116 -0.0047030799840035086 0 0.033224029418121963 -0.0035709008773136723 0 0.03276033960748799 -0.0046475303622626231 0 0.032029272036652935 -0.0036055276761694567 0 0.03276033960748799 -0.0046475303622626231 0 0.032029272036652935 -0.0036055276761694567 0 0.031322727823362116 -0.0047030799840035086 0 0.033224029418121963 -0.0035709008773136723 0 0.032029272036652935 -0.0036055276761694567 0 0.032677423537600621 -0.0024267854037303789 0 0.032029272036652935 -0.0036055276761694567 0 0.031011284062138045 -0.0035423316261440538 0 0.031163567333324375 -0.0027177811905437512 0 0.032029272036652935 -0.0036055276761694567 0 0.031011284062138045 -0.0035423316261440538 0 0.031322727823362116 -0.0047030799840035086 0 0.031011284062138045 -0.0035423316261440538 0 0.031322727823362116 -0.0047030799840035086 0 0.02992961678665939 -0.003961640597578712 0 0.030131188175683589 -0.004966556701246046 0 0.031322727823362116 -0.0047030799840035086 0 0.02992961678665939 -0.003961640597578712 0 0.030131188175683589 -0.004966556701246046 0 0.02992961678665939 -0.003961640597578712 0 0.028792377544771014 -0.0047342456513169776 0 0.02992961678665939 -0.003961640597578712 0 0.028417616472185315 -0.0037372040784985783 0 0.028792377544771014 -0.0047342456513169776 0 0.02992961678665939 -0.003961640597578712 0 0.029231893788408594 -0.0030126102400285402 0 0.028417616472185315 -0.0037372040784985783 0 0.02992961678665939 -0.003961640597578712 0 0.030321506135299277 -0.0029080620572548253 0 0.029231893788408594 -0.0030126102400285402 0 0.031011284062138045 -0.0035423316261440538 0 0.02992961678665939 -0.003961640597578712 0 0.030321506135299277 -0.0029080620572548253 0 0.031011284062138045 -0.0035423316261440538 0 0.030321506135299277 -0.0029080620572548253 0 0.031163567333324375 -0.0027177811905437512 0 0.030321506135299277 -0.0029080620572548253 0 0.029752463201227684 -0.0022493111689071959 0 0.030720097716890434 -0.0019473441409386669 0 0.030321506135299277 -0.0029080620572548253 0 0.030720097716890434 -0.0019473441409386669 0 0.031163567333324375 -0.0027177811905437512 0 0.030938764735954624 -0.0018596702495092677 0 0.030720097716890434 -0.0019473441409386669 0 0.031163567333324375 -0.0027177811905437512 0 0.030321506135299277 -0.0029080620572548253 0 0.029231893788408594 -0.0030126102400285402 0 0.029752463201227684 -0.0022493111689071959 0 0.029231893788408594 -0.0030126102400285402 0 0.029752463201227684 -0.0022493111689071959 0 0.028643880480808466 -0.002078106121493028 0 0.029752463201227684 -0.0022493111689071959 0 0.029505083172134818 -0.0013814364408714958 0 0.028643880480808466 -0.002078106121493028 0 0.023654402854959091 -0.00070350482179429524 0 0.025665662733493112 -0.0017649589996484353 0 0.029505083172134818 -0.0013814364408714958 0 0.030917255608478182 -0.001872648250481584 0 0.030720097716890434 -0.0019473441409386669 0 0.019090442985611231 0.0012081672026575615 0 0.018168594286029918 0.00067034314112453372 0 0.019490995885287514 8.5913260071440378e-05 0 0.029752463201227684 -0.0022493111689071959 0 0.029505083172134818 -0.0013814364408714958 0 0.030720097716890434 -0.0019473441409386669 0 0.025665662733493112 -0.0017649589996484353 0 0.02576012512055165 -0.0017402171880666895 0 0.020120567782576419 0.0011618215695006185 0 0.019490995885287514 8.5913260071440378e-05 0 0.02119347409884818 0.00051424090074684604 0 0.025665662733493112 -0.0017649589996484353 0 0.025201089739534915 -0.0015310215598439939 0 0.020120567782576419 0.0011618215695006185 0 0.019090442985611231 0.0012081672026575615 0 0.019490995885287514 8.5913260071440378e-05 0 0.026597603582358638 -0.0023507944583548738 0 0.027429842062728204 -0.0020456317779679383 0 0.027417562964017927 -0.0026446350311323322 0 0.032029272036652935 -0.0036055276761694567 0 0.032677423537600621 -0.0024267854037303789 0 0.031163567333324375 -0.0027177811905437512 0 0.030938764735954624 -0.0018596702495092677 0 0.032677423537600621 -0.0024267854037303789 0 0.031163567333324375 -0.0027177811905437512 0 0.025665662733493112 -0.0017649589996484353 0 0.029333840612981166 -0.0031667750599002464 0 0.026662307250822682 -0.0027104004516844628 0 0.025651148170984246 -0.0031552835831232598 0 0.026302683896521347 -0.0034245985501185836 0 0.025898263629893864 -0.0029747645360054522 0 0.025361258652921152 -0.0030987160010828227 0 0.026662307250822682 -0.0027104004516844628 0 0.026496465810271014 -0.0019156493758311704 0 0.027056461016346692 -0.0019259670324251808 0 0.025242522434383591 -0.002985627155304454 0 0.025775453794050766 -0.0018003693833457397 0 0.024973276161178809 -0.002080946271828742 0 0.026662307250822682 -0.0027104004516844628 0 0.025242522434383591 -0.002985627155304454 0 0.025775453794050766 -0.0018003693833457397 0 0.024947751130008296 -0.0012286086579298924 0 0.026453788375430783 -0.0012614753492439586 0 0.025775453794050766 -0.0018003693833457397 0 0.024982258833285188 -0.0013418437020826892 0 0.025775453794050766 -0.0018003693833457397 0 0.024973276161178809 -0.002080946271828742 0 0.022240265584073961 -0.0010879605292511869 0 0.023142049935692719 -0.0015421317931811214 0 0.026453788375430783 -0.0012614753492439586 0 0.025775453794050766 -0.0018003693833457397 0 0.026496465810271014 -0.0019156493758311704 0 0.026662307250822682 -0.0027104004516844628 0 0.025775453794050766 -0.0018003693833457397 0 0.026496465810271014 -0.0019156493758311704 0 0.026453788375430783 -0.0012614753492439586 0 0.026496465810271014 -0.0019156493758311704 0 0.027056461016346692 -0.0019259670324251808 0 0.027522100207766062 -0.001116881086918911 0 0.026453788375430783 -0.0012614753492439586 0 0.027162145737874809 -0.0015159826688215909 0 0.026453788375430783 -0.0012614753492439586 0 0.027162145737874809 -0.0015159826688215909 0 0.027056461016346692 -0.0019259670324251808 0 0.027522100207766062 -0.001116881086918911 0 0.027162145737874809 -0.0015159826688215909 0 0.027708447011420164 -0.0018357058840543158 0 0.027162145737874809 -0.0015159826688215909 0 0.027056461016346692 -0.0019259670324251808 0 0.027708447011420164 -0.0018357058840543158 0 0.027056461016346692 -0.0019259670324251808 0 0.027708447011420164 -0.0018357058840543158 0 0.027941159785023564 -0.0025710168866181146 0 0.027522100207766062 -0.001116881086918911 0 0.029505083172134818 -0.0013814364408714958 0 0.028643880480808466 -0.002078106121493028 0 0.021545872404547074 0.00016413126048910037 0 0.023654402854959091 -0.00070350482179429524 0 0.027522100207766062 -0.001116881086918911 0 0.027708447011420164 -0.0018357058840543158 0 0.028643880480808466 -0.002078106121493028 0 0.029231893788408594 -0.0030126102400285402 0 0.028643880480808466 -0.002078106121493028 0 0.027941159785023564 -0.0025710168866181146 0 0.027708447011420164 -0.0018357058840543158 0 0.028643880480808466 -0.002078106121493028 0 0.027941159785023564 -0.0025710168866181146 0 0.026662307250822682 -0.0027104004516844628 0 0.027941159785023564 -0.0025710168866181146 0 0.027192176261939337 -0.003504456289697323 0 0.026662307250822682 -0.0027104004516844628 0 0.027056461016346692 -0.0019259670324251808 0 0.027941159785023564 -0.0025710168866181146 0 0.027941159785023564 -0.0025710168866181146 0 0.027192176261939337 -0.003504456289697323 0 0.028417616472185315 -0.0037372040784985783 0 0.027192176261939337 -0.003504456289697323 0 0.028417616472185315 -0.0037372040784985783 0 0.027618726557892378 -0.0043956360188908113 0 0.029231893788408594 -0.0030126102400285402 0 0.027941159785023564 -0.0025710168866181146 0 0.028417616472185315 -0.0037372040784985783 0 0.028417616472185315 -0.0037372040784985783 0 0.028792377544771014 -0.0047342456513169776 0 0.027618726557892378 -0.0043956360188908113 0 0.028792377544771014 -0.0047342456513169776 0 0.027618726557892378 -0.0043956360188908113 0 0.027783507686104204 -0.0053809106927047486 0 0.027192176261939337 -0.003504456289697323 0 0.027618726557892378 -0.0043956360188908113 0 0.026468852708245807 -0.0041179183128188142 0 0.027618726557892378 -0.0043956360188908113 0 0.026468852708245807 -0.0041179183128188142 0 0.026913965616477555 -0.0049152648947670624 0 0.026468852708245807 -0.0041179183128188142 0 0.026159751587011972 -0.0048393205686538222 0 0.026913965616477555 -0.0049152648947670624 0 0.026662307250822682 -0.0027104004516844628 0 0.027192176261939337 -0.003504456289697323 0 0.026302683896521347 -0.0034245985501185836 0 0.027192176261939337 -0.003504456289697323 0 0.026468852708245807 -0.0041179183128188142 0 0.026302683896521347 -0.0034245985501185836 0 0.026468852708245807 -0.0041179183128188142 0 0.026302683896521347 -0.0034245985501185836 0 0.025789973373938842 -0.0037104878355830066 0 0.025651148170984246 -0.0031552835831232598 0 0.025789973373938842 -0.0037104878355830066 0 0.025242356898353822 -0.0037486298667467337 0 0.025651148170984246 -0.0031552835831232598 0 0.026302683896521347 -0.0034245985501185836 0 0.025789973373938842 -0.0037104878355830066 0 0.025789973373938842 -0.0037104878355830066 0 0.025752417852824266 -0.0042882195137088569 0 0.025242356898353822 -0.0037486298667467337 0 0.026468852708245807 -0.0041179183128188142 0 0.025789973373938842 -0.0037104878355830066 0 0.025752417852824266 -0.0042882195137088569 0 0.026468852708245807 -0.0041179183128188142 0 0.025752417852824266 -0.0042882195137088569 0 0.026159751587011972 -0.0048393205686538222 0 0.025752417852824266 -0.0042882195137088569 0 0.026159751587011972 -0.0048393205686538222 0 0.025340690493673303 -0.005061763945245705 0 0.027367671558387551 -0.005623669150393109 0 0.026887302752575979 -0.0057316435235576554 0 0.026782377466734175 -0.0053121873949733304 0 0.026159751587011972 -0.0048393205686538222 0 0.026576858540875315 -0.005873311258610972 0 0.025340690493673303 -0.005061763945245705 0 0.02721306250449813 -0.0055570941164486357 0 0.02618705455305257 -0.0048580326512514087 0 0.026536085224312139 -0.0055273652593809319 0 0.02618705455305257 -0.0048580326512514087 0 0.026159751587011972 -0.0048393205686538222 0 0.026913965616477555 -0.0049152648947670624 0 0.026576858540875315 -0.005873311258610972 0 0.027367671558387551 -0.005623669150393109 0 0.027176477437418887 -0.0058898268524996134 0 0.027459482465305798 -0.0060537065604683547 0 0.026181259405646386 -0.0051066287049614679 0 0.026383591385074741 -0.0058410715180695332 0 0.025679555407126239 -0.0053541933887997972 0 0.026887302752575979 -0.0057316435235576554 0 0.027176477437418887 -0.0058898268524996134 0 0.026991550004117307 -0.0061503082661583603 0 0.027367671558387551 -0.005623669150393109 0 0.026887302752575979 -0.0057316435235576554 0 0.027176477437418887 -0.0058898268524996134 0 0.026536085224312139 -0.0055273652593809319 0 0.02690617742267112 -0.0063041225179317944 0 0.028968723474414659 -0.0058615957827052928 0 0.028792377544771014 -0.0047342456513169776 0 0.027783507686104204 -0.0053809106927047486 0 0.027618726557892378 -0.0043956360188908113 0 0.026913965616477555 -0.0049152648947670624 0 0.027783507686104204 -0.0053809106927047486 0 0.026913965616477555 -0.0049152648947670624 0 0.026576858540875315 -0.005873311258610972 0 0.027783507686104204 -0.0053809106927047486 0 0.02721306250449813 -0.0055570941164486357 0 0.028691854249571217 -0.0062928545493987839 0 0.027367671558387551 -0.005623669150393109 0 0.027977549960262672 -0.0059473893604258133 0 0.027929087825291757 -0.0059573502370973428 0 0.026576858540875315 -0.005873311258610972 0 0.027783507686104204 -0.0053809106927047486 0 0.028005692460903096 -0.0067170272487336018 0 0.027367671558387551 -0.005623669150393109 0 0.027929087825291757 -0.0059573502370973428 0 0.027459482465305798 -0.0060537065604683547 0 0.029763246824329178 -0.006230311834041412 0 0.028691854249571217 -0.0062928545493987839 0 0.029166593530079131 -0.0058498293745812679 0 0.029605848911772269 -0.0065027318341881191 0 0.028196058161178095 -0.0067886790866270507 0 0.028968723474414659 -0.0058615957827052928 0 0.027783507686104204 -0.0053809106927047486 0 0.028005692460903096 -0.0067170272487336018 0 0.029098800463018912 -0.0058911200954267114 0 0.028691854249571217 -0.0062928545493987839 0 0.030433136658720491 -0.0069775978389108569 0 0.029256741456849741 -0.0062428986247188966 0 0.029733695706626005 -0.0068868004926939666 0 0.029574067593131335 -0.0066965100483193339 0 0.028691854249571217 -0.0062928545493987839 0 0.029256741456849741 -0.0062428986247188966 0 0.029733695706626005 -0.0068868004926939666 0 0.029229758504264132 -0.0065453336370151424 0 0.029733695706626005 -0.0068868004926939666 0 0.029372054932275057 -0.006914145166882559 0 0.029419503697836566 -0.0072394667932264081 0 0.029733695706626005 -0.0068868004926939666 0 0.029229758504264132 -0.0065453336370151424 0 0.029372054932275057 -0.006914145166882559 0 0.028994082092392997 -0.0063510212183043504 0 0.028435561228372128 -0.00684558081432474 0 0.028193426812616964 -0.0065166344874039986 0 0.028599947182493587 -0.0063097303255768003 0 0.027784068979934816 -0.0062995523407785598 0 0.029229758504264132 -0.0065453336370151424 0 0.029372054932275057 -0.006914145166882559 0 0.028943485324396698 -0.0070502409820454789 0 0.029229758504264132 -0.0065453336370151424 0 0.028510217082968373 -0.0068200412294894385 0 0.028943485324396698 -0.0070502409820454789 0 0.029229758504264132 -0.0065453336370151424 0 0.029157973030626172 -0.0062666748313516775 0 0.028510217082968373 -0.0068200412294894385 0 0.029256741456849741 -0.0062428986247188966 0 0.029229758504264132 -0.0065453336370151424 0 0.029157973030626172 -0.0062666748313516775 0 0.028691854249571217 -0.0062928545493987839 0 0.028599947182493587 -0.0063097303255768003 0 0.028599947182493587 -0.0063097303255768003 0 0.028392037883587497 -0.0066042856356429563 0 0.028510217082968373 -0.0068200412294894385 0 0.028943485324396698 -0.0070502409820454789 0 0.02840056843565595 -0.0073203954797097697 0 0.028678128368230908 -0.0076206424789009401 0 0.028943485324396698 -0.0070502409820454789 0 0.02840056843565595 -0.0073203954797097697 0 0.028678128368230908 -0.0076206424789009401 0 0.029101065924902615 -0.0074372218446565165 0 0.028943485324396698 -0.0070502409820454789 0 0.028678128368230908 -0.0076206424789009401 0 0.029101065924902615 -0.0074372218446565165 0 0.029433106774152645 -0.0078566530479327878 0 0.029101065924902615 -0.0074372218446565165 0 0.028943485324396698 -0.0070502409820454789 0 0.029419503697836566 -0.0072394667932264081 0 0.030335330847466487 -0.0076464248171694144 0 0.029875137990072038 -0.0073185876381558291 0 0.029433106774152645 -0.0078566530479327878 0 0.029372054932275057 -0.006914145166882559 0 0.028943485324396698 -0.0070502409820454789 0 0.029419503697836566 -0.0072394667932264081 0 0.029419503697836566 -0.0072394667932264081 0 0.029875137990072038 -0.0073185876381558291 0 0.029433106774152645 -0.0078566530479327878 0 0.029101065924902615 -0.0074372218446565165 0 0.029419503697836566 -0.0072394667932264081 0 0.029433106774152645 -0.0078566530479327878 0 0.029733695706626005 -0.0068868004926939666 0 0.029419503697836566 -0.0072394667932264081 0 0.029875137990072038 -0.0073185876381558291 0 0.027176477437418887 -0.0058898268524996134 0 0.026991550004117307 -0.0061503082661583603 0 0.027459482465305798 -0.0060537065604683547 0 0.027380026883386289 -0.0066811655044293665 0 0.028193426812616964 -0.0065166344874039986 0 0.027995140082987455 -0.0069170305361058535 0 0.02690617742267112 -0.0063041225179317944 0 0.027784068979934816 -0.0062995523407785598 0 0.028435561228372128 -0.00684558081432474 0 0.028193426812616964 -0.0065166344874039986 0 0.027995140082987455 -0.0069170305361058535 0 0.027380026883386289 -0.0066811655044293665 0 0.027995140082987455 -0.0069170305361058535 0 0.02787267364718728 -0.0073499756495799219 0 0.028510217082968373 -0.0068200412294894385 0 0.02840056843565595 -0.0073203954797097697 0 0.02787267364718728 -0.0073499756495799219 0 0.028435561228372128 -0.00684558081432474 0 0.027995140082987455 -0.0069170305361058535 0 0.02787267364718728 -0.0073499756495799219 0 0.028392037883587497 -0.0066042856356429563 0 0.028232720412473867 -0.006778457050439635 0 0.028678128368230908 -0.0076206424789009401 0 0.02840056843565595 -0.0073203954797097697 0 0.028101527460802002 -0.0078606818502062626 0 0.02840056843565595 -0.0073203954797097697 0 0.02787267364718728 -0.0073499756495799219 0 0.028101527460802002 -0.0078606818502062626 0 0.02787267364718728 -0.0073499756495799219 0 0.027604220489975104 -0.0076113651630102114 0 0.028101527460802002 -0.0078606818502062626 0 0.026909270511224433 -0.0057266906792982552 0 0.027297332208002897 -0.0070808756445694589 0 0.026182764527450979 -0.0069481753848173516 0 0.027380026883386289 -0.0066811655044293665 0 0.02787267364718728 -0.0073499756495799219 0 0.027604220489975104 -0.0076113651630102114 0 0.02690617742267112 -0.0063041225179317944 0 0.027236672555205874 -0.0072221245628652413 0 0.027297332208002897 -0.0070808756445694589 0 0.026715599303971896 -0.0078398610074255966 0 0.026182764527450979 -0.0069481753848173516 0 0.027297332208002897 -0.0070808756445694589 0 0.026715599303971896 -0.0078398610074255966 0 0.027726659379752286 -0.0085312165180189067 0 0.027236672555205874 -0.0072221245628652413 0 0.027391674979551191 -0.0077285613870998124 0 0.028101527460802002 -0.0078606818502062626 0 0.027726659379752286 -0.0085312165180189067 0 0.028776236968440495 -0.0082419173963857416 0 0.027604220489975104 -0.0076113651630102114 0 0.028101527460802002 -0.0078606818502062626 0 0.027726659379752286 -0.0085312165180189067 0 0.027726659379752286 -0.0085312165180189067 0 0.028605573113866467 -0.00966447741663253 0 0.028819339332755985 -0.0089083883412655815 0 0.026715599303971896 -0.0078398610074255966 0 0.027726659379752286 -0.0085312165180189067 0 0.026559869118264735 -0.0087276456747726449 0 0.027726659379752286 -0.0085312165180189067 0 0.026559869118264735 -0.0087276456747726449 0 0.026985475460391761 -0.0094636858584168249 0 0.026985475460391761 -0.0094636858584168249 0 0.027844913579944033 -0.010060646530771079 0 0.026721503765171434 -0.010428680001952611 0 0.026985475460391761 -0.0094636858584168249 0 0.026721503765171434 -0.010428680001952611 0 0.026046358950471873 -0.009563287807388238 0 0.026559869118264735 -0.0087276456747726449 0 0.026985475460391761 -0.0094636858584168249 0 0.026046358950471873 -0.009563287807388238 0 0.027726659379752286 -0.0085312165180189067 0 0.026985475460391761 -0.0094636858584168249 0 0.027844913579944033 -0.010060646530771079 0 0.027726659379752286 -0.0085312165180189067 0 0.027844913579944033 -0.010060646530771079 0 0.028605573113866467 -0.00966447741663253 0 0.027844913579944033 -0.010060646530771079 0 0.028605573113866467 -0.00966447741663253 0 0.028920287520470416 -0.011229555167107124 0 0.027844913579944033 -0.010060646530771079 0 0.027508535769978935 -0.011134908086927077 0 0.028920287520470416 -0.011229555167107124 0 0.027844913579944033 -0.010060646530771079 0 0.026721503765171434 -0.010428680001952611 0 0.027508535769978935 -0.011134908086927077 0 0.030136788397308326 -0.010145168080284867 0 0.030057912839588447 -0.0098436089616713261 0 0.031891156924419656 -0.010679808066209176 0 0.030136788397308326 -0.010145168080284867 0 0.02965683895197805 -0.0095682674498317535 0 0.029823892682488751 -0.010952260243240697 0 0.030136788397308326 -0.010145168080284867 0 0.030057912839588447 -0.0098436089616713261 0 0.02965683895197805 -0.0095682674498317535 0 0.042365071845395841 -0.006379018554477236 0 0.043378151491751907 -0.0058528050043687501 0 0.030136788397308326 -0.010145168080284867 0 0.030943717838330165 -0.011000378600120451 0 0.030551748057105539 -0.011409590463184745 0 0.030136788397308326 -0.010145168080284867 0 0.029823892682488751 -0.010952260243240697 0 0.030471438703813546 -0.011124127786828345 0 0.029507726554387347 -0.0097269147200365821 0 0.029241727901658271 -0.010358032210797627 0 0.02965683895197805 -0.0095682674498317535 0 0.028920287520470416 -0.011229555167107124 0 0.029823892682488751 -0.010952260243240697 0 0.028605573113866467 -0.00966447741663253 0 0.029375974696588151 -0.0098868047048722776 0 0.028920287520470416 -0.011229555167107124 0 0.028605573113866467 -0.00966447741663253 0 0.029375974696588151 -0.0098868047048722776 0 0.028819339332755985 -0.0089083883412655815 0 0.029507726554387347 -0.0097269147200365821 0 0.029899869783474513 -0.0087918016252044231 0 0.02965683895197805 -0.0095682674498317535 0 0.030229244969633029 -0.0093131825003473813 0 0.030059958897443128 -0.0086573216313954281 0 0.030057912839588447 -0.0098436089616713261 0 0.030229244969633029 -0.0093131825003473813 0 0.030540390214822213 -0.0096848195002162095 0 0.030057912839588447 -0.0098436089616713261 0 0.02965683895197805 -0.0095682674498317535 0 0.030229244969633029 -0.0093131825003473813 0 0.029375974696588151 -0.0098868047048722776 0 0.029826063794817979 -0.0086790047627928017 0 0.028819339332755985 -0.0089083883412655815 0 0.027726659379752286 -0.0085312165180189067 0 0.028819339332755985 -0.0089083883412655815 0 0.028776236968440495 -0.0082419173963857416 0 0.029826063794817979 -0.0086790047627928017 0 0.028819339332755985 -0.0089083883412655815 0 0.028776236968440495 -0.0082419173963857416 0 0.028678128368230908 -0.0076206424789009401 0 0.028776236968440495 -0.0082419173963857416 0 0.029433106774152645 -0.0078566530479327878 0 0.028678128368230908 -0.0076206424789009401 0 0.028101527460802002 -0.0078606818502062626 0 0.028776236968440495 -0.0082419173963857416 0 0.029826063794817979 -0.0086790047627928017 0 0.028776236968440495 -0.0082419173963857416 0 0.029433106774152645 -0.0078566530479327878 0 0.030335330847466487 -0.0076464248171694144 0 0.029826063794817979 -0.0086790047627928017 0 0.029433106774152645 -0.0078566530479327878 0 0.030335330847466487 -0.0076464248171694144 0 0.030059958897443128 -0.0086573216313954281 0 0.03058944171698795 -0.0082764019949133159 0 0.03011753413138225 -0.0082719136318891648 0 0.029899869783474513 -0.0087918016252044231 0 0.030335330847466487 -0.0076464248171694144 0 0.03058944171698795 -0.0082764019949133159 0 0.030951740420692368 -0.0078632264065727729 0 0.030951740420692368 -0.0078632264065727729 0 0.031024559527996608 -0.0084181501900963546 0 0.031475311086859713 -0.0081175967550639674 0 0.031024559527996608 -0.0084181501900963546 0 0.031475311086859713 -0.0081175967550639674 0 0.031465024272209666 -0.0086203258164493646 0 0.03058944171698795 -0.0082764019949133159 0 0.030951740420692368 -0.0078632264065727729 0 0.031024559527996608 -0.0084181501900963546 0 0.031024559527996608 -0.0084181501900963546 0 0.031120509953487488 -0.0089041818127083179 0 0.030625358440204961 -0.0088168221909949007 0 0.031024559527996608 -0.0084181501900963546 0 0.031120509953487488 -0.0089041818127083179 0 0.031465024272209666 -0.0086203258164493646 0 0.031120509953487488 -0.0089041818127083179 0 0.031465024272209666 -0.0086203258164493646 0 0.031677837342138429 -0.0091424551258795228 0 0.031120509953487488 -0.0089041818127083179 0 0.030625358440204961 -0.0088168221909949007 0 0.03075744298640996 -0.0093090017025015508 0 0.030229244969633029 -0.0093131825003473813 0 0.030059958897443128 -0.0086573216313954281 0 0.030625358440204961 -0.0088168221909949007 0 0.030059958897443128 -0.0086573216313954281 0 0.03058944171698795 -0.0082764019949133159 0 0.030625358440204961 -0.0088168221909949007 0 0.03058944171698795 -0.0082764019949133159 0 0.031024559527996608 -0.0084181501900963546 0 0.030625358440204961 -0.0088168221909949007 0 0.03197677132977584 -0.0078441486629574064 0 0.032471862341903725 -0.0082646826249002572 0 0.031976680124409539 -0.0084496009714276551 0 0.03197677132977584 -0.0078441486629574064 0 0.031976680124409539 -0.0084496009714276551 0 0.031475311086859713 -0.0081175967550639674 0 0.031976680124409539 -0.0084496009714276551 0 0.031475311086859713 -0.0081175967550639674 0 0.031465024272209666 -0.0086203258164493646 0 0.031976680124409539 -0.0084496009714276551 0 0.032132051423261372 -0.0088465451188582487 0 0.031805116896136909 -0.0090214463406344137 0 0.031976680124409539 -0.0084496009714276551 0 0.031465024272209666 -0.0086203258164493646 0 0.031677837342138429 -0.0091424551258795228 0 0.037054394821867752 -0.010421123610582689 0 0.037879498696966114 -0.010477411702930733 0 0.032423882852234548 -0.010726310185022158 0 0.032493948636429341 -0.013317525199802454 0 0.033543520749935142 -0.01150743181575432 0 0.032471862341903725 -0.0082646826249002572 0 0.032132051423261372 -0.0088465451188582487 0 0.032476178671534399 -0.0090771382327243938 0 0.037814107754555008 -0.0095920105104341929 0 0.042535363130507535 -0.011468771922451803 0 0.032471862341903725 -0.0082646826249002572 0 0.031976680124409539 -0.0084496009714276551 0 0.032132051423261372 -0.0088465451188582487 0 0.042535363130507535 -0.011468771922451803 0 0.048916323122147984 -0.013272419118533968 0 0.046766164370911571 -0.010632750063189251 0 0.046490744885350301 -0.010780456874140885 0 0.046789735003329821 -0.011111323878621791 0 0.032132051423261372 -0.0088465451188582487 0 0.032476178671534399 -0.0090771382327243938 0 0.032017072315438232 -0.0093010819555419885 0 0.042535363130507535 -0.011468771922451803 0 0.041117587109270555 -0.010800845584363979 0 0.032017072315438232 -0.0093010819555419885 0 0.031805116896136909 -0.0090214463406344137 0 0.031622797721180367 -0.009518430475565243 0 0.037879498696966114 -0.010477411702930733 0 0.04094081557807841 -0.009842257895712336 0 0.032132051423261372 -0.0088465451188582487 0 0.032017072315438232 -0.0093010819555419885 0 0.031805116896136909 -0.0090214463406344137 0 0.041117587109270555 -0.010800845584363979 0 0.04094081557807841 -0.009842257895712336 0 0.04645180508138716 -0.011086664395210276 0 0.046207050264110469 -0.010928300387161907 0 0.046078694819621666 -0.011226574007519599 0 0.046490744885350301 -0.010780456874140885 0 0.04645180508138716 -0.011086664395210276 0 0.046207050264110469 -0.010928300387161907 0 0.055176771885723785 -0.015605399635557224 0 0.055225589202737971 -0.016869386938967366 0 0.055647520591188417 -0.016525059442460271 0 0.046490744885350301 -0.010780456874140885 0 0.04645180508138716 -0.011086664395210276 0 0.046789735003329821 -0.011111323878621791 0 0.030540390214822213 -0.0096848195002162095 0 0.03075744298640996 -0.0093090017025015508 0 0.030925764886277234 -0.009659291967961189 0 0.030229244969633029 -0.0093131825003473813 0 0.030540390214822213 -0.0096848195002162095 0 0.03075744298640996 -0.0093090017025015508 0 0.030229244969633029 -0.0093131825003473813 0 0.030625358440204961 -0.0088168221909949007 0 0.03075744298640996 -0.0093090017025015508 0 0.031120509953487488 -0.0089041818127083179 0 0.03075744298640996 -0.0093090017025015508 0 0.031204919493780171 -0.0093316998320455511 0 0.031677837342138429 -0.0091424551258795228 0 0.031204919493780171 -0.0093316998320455511 0 0.031395181824261278 -0.009801688880132017 0 0.031120509953487488 -0.0089041818127083179 0 0.031677837342138429 -0.0091424551258795228 0 0.031204919493780171 -0.0093316998320455511 0 0.031204919493780171 -0.0093316998320455511 0 0.030925764886277234 -0.009659291967961189 0 0.031395181824261278 -0.009801688880132017 0 0.03075744298640996 -0.0093090017025015508 0 0.031204919493780171 -0.0093316998320455511 0 0.030925764886277234 -0.009659291967961189 0 0.030925764886277234 -0.009659291967961189 0 0.031395181824261278 -0.009801688880132017 0 0.030742483202088368 -0.010143926580001449 0 0.04094081557807841 -0.009842257895712336 0 0.04154730815802727 -0.0080094937791471473 0 0.042641899618477079 -0.0088278148938281745 0 0.044974096209292463 -0.0075577076991408679 0 0.043519435945732654 -0.0068068526378267285 0 0.04094081557807841 -0.009842257895712336 0 0.046049871458406909 -0.0088583251535258086 0 0.04154730815802727 -0.0080094937791471473 0 0.046049871458406909 -0.0088583251535258086 0 0.030136788397308326 -0.010145168080284867 0 0.031891156924419656 -0.010679808066209176 0 0.030943717838330165 -0.011000378600120451 0 0.030057912839588447 -0.0098436089616713261 0 0.030540390214822213 -0.0096848195002162095 0 0.030742483202088368 -0.010143926580001449 0 0.04154730815802727 -0.0080094937791471473 0 0.043712324665541182 -0.006465177865742135 0 0.03703874895940211 -0.0069827795663273181 0 0.04154730815802727 -0.0080094937791471473 0 0.030540390214822213 -0.0096848195002162095 0 0.030925764886277234 -0.009659291967961189 0 0.030742483202088368 -0.010143926580001449 0 0.031891156924419656 -0.010679808066209176 0 0.030943717838330165 -0.011000378600120451 0 0.031141523521471481 -0.011099367580654624 0 0.043629845204313018 -0.0064474722229226804 0 0.043712324665541182 -0.006465177865742135 0 0.043712324665541182 -0.006465177865742135 0 0.049500784831259935 -0.0068704398429172021 0 0.049188773003463311 -0.007346600448228836 0 0.048133728763044628 -0.0068032935653828596 0 0.04948230318304081 -0.0066349514405351015 0 0.030943717838330165 -0.011000378600120451 0 0.031137244290853943 -0.011097181497789023 0 0.030551748057105539 -0.011409590463184745 0 0.045453253335217506 -0.0053940327583004242 0 0.043708006311212182 -0.0063358824482832362 0 0.047167153338361759 -0.0081119718617749578 0 0.043712324665541182 -0.006465177865742135 0 0.043378151491751907 -0.0058528050043687501 0 0.049188773003463311 -0.007346600448228836 0 0.049618867944918071 -0.0071164218070380834 0 0.04948230318304081 -0.0066349514405351015 0 0.049500784831259935 -0.0068704398429172021 0 0.054447416515718654 -0.0088106818695477887 0 0.045453253335217506 -0.0053940327583004242 0 0.047814823416779048 -0.0066155629692199354 0 0.047167153338361759 -0.0081119718617749578 0 0.047909916219696605 -0.0071682834007951125 0 0.047281821548691746 -0.0086196444397685403 0 0.051647440476588494 -0.0091001959224805296 0 0.046049871458406909 -0.0088583251535258086 0 0.049500784831259935 -0.0068704398429172021 0 0.064137928600952174 -9.0155864306824387e-05 0 0.064229092015813005 -0.00023570827808665784 0 0.064335454826028843 -0.00020633505771684715 0 0.064137928600952174 -9.0155864306824387e-05 0 0.064229092015813005 -0.00023570827808665784 0 0.064028709315451002 -0.00033370819655134751 0 0.048133728763044628 -0.0068032935653828596 0 0.048846510679911852 -0.0051760084350524664 0 0.04948230318304081 -0.0066349514405351015 0 0.049080276843031304 -0.005215684143237761 0 0.048846510679911852 -0.0051760084350524664 0 0.04948230318304081 -0.0066349514405351015 0 0.052097003711261032 -0.0049467878452127438 0 0.045219910662201497 -0.0060999202510137168 0 0.049500784831259935 -0.0068704398429172021 0 0.053851235229365087 -0.0044454966927037105 0 0.046789735003329821 -0.011111323878621791 0 0.046444404829723951 -0.01141557751209683 0 0.046816810712909523 -0.011605802529567111 0 0.048916323122147984 -0.013272419118533968 0 0.054194617510358686 -0.013031585678795685 0 0.055225589202737971 -0.016869386938967366 0 0.055451867799796467 -0.017473168494209105 0 0.055275611769677033 -0.018086048953224829 0 0.04645180508138716 -0.011086664395210276 0 0.046789735003329821 -0.011111323878621791 0 0.046444404829723951 -0.01141557751209683 0 0.049623249581506566 -0.010668198490572038 0 0.054194617510358686 -0.013031585678795685 0 0.055610075607335288 -0.014818180090830579 0 0.055622808951446744 -0.013749022716304323 0 0.04645180508138716 -0.011086664395210276 0 0.046078694819621666 -0.011226574007519599 0 0.046444404829723951 -0.01141557751209683 0 0.047281821548691746 -0.0086196444397685403 0 0.051647440476588494 -0.0091001959224805296 0 0.051345896239573169 -0.010704245078694741 0 0.046049871458406909 -0.0088583251535258086 0 0.049623249581506566 -0.010668198490572038 0 0.051647440476588494 -0.0091001959224805296 0 0.051345896239573169 -0.010704245078694741 0 0.055379246916530456 -0.011028148107024892 0 0.064229092015813005 -0.00023570827808665784 0 0.064335454826028843 -0.00020633505771684715 0 0.064382442428957923 -0.00030131070997304514 0 0.064335454826028843 -0.00020633505771684715 0 0.064386659894869996 -0.00029368473513556977 0 0.064382442428957923 -0.00030131070997304514 0 0.054447416515718654 -0.0088106818695477887 0 0.05593200616395784 -0.011023894002555436 0 0.051345896239573169 -0.010704245078694741 0 0.055403441100620704 -0.012783466445529855 0 0.055379246916530456 -0.011028148107024892 0 0.064335454826028843 -0.00020633505771684715 0 0.064397343255418613 -0.00028570694187943181 0 0.064386659894869996 -0.00029368473513556977 0 0.054759225919950423 -0.011058501157371878 0 0.055851084478612027 -0.011619656576424183 0 0.054756232783251563 -0.013542625545485401 0 0.05593200616395784 -0.011023894002555436 0 0.054194617510358686 -0.013031585678795685 0 0.057016004246154967 -0.012160275348127641 0 0.055622808951446744 -0.013749022716304323 0 0.057016004246154967 -0.012160275348127641 0 0.05593200616395784 -0.011023894002555436 0 0.055451867799796467 -0.017473168494209105 0 0.055461789031674119 -0.018179718864125397 0 0.055275611769677033 -0.018086048953224829 0 0.055851084478612027 -0.011619656576424183 0 0.054756232783251563 -0.013542625545485401 0 0.055878881959501643 -0.014123891685333902 0 0.055622808951446744 -0.013749022716304323 0 0.054194617510358686 -0.013031585678795685 0 0.064306498954102231 -0.00040712699308412351 0 0.064369823882708038 -0.00029221948123432195 0 0.064382746536088248 -0.00016938663100099819 0 0.057016004246154967 -0.012160275348127641 0 0.061803945533343056 -0.0091146746533308006 0 0.05593200616395784 -0.011023894002555436 0 0.05649457178696287 -0.0084239003491808941 0 0.064397343255418613 -0.00028570694187943181 0 0.064369823882708038 -0.00029221948123432195 0 0.064386659894869996 -0.00029368473513556977 0 0.064306498954102231 -0.00040712699308412351 0 0.064338913516915064 -0.00043052357748587757 0 0.064369823882708038 -0.00029221948123432195 0 0.064369823882708038 -0.00029221948123432195 0 0.064386659894869996 -0.00029368473513556977 0 0.064411174210019129 -0.00021914667522195922 0 0.064386659894869996 -0.00029368473513556977 0 0.064382442428957923 -0.00030131070997304514 0 0.064411174210019129 -0.00021914667522195922 0 0.064469922848854375 -0.00011353551301066204 0 0.064411174210019129 -0.00021914667522195922 0 0.064467734635852952 -0.00011591176008834816 0 0.064382442428957923 -0.00030131070997304514 0 0.064469922848854375 -0.00011353551301066204 0 0.064509820264903109 -0.00014674051791500246 0 0.064382442428957923 -0.00030131070997304514 0 0.064469922848854375 -0.00011353551301066204 0 0.064411174210019129 -0.00021914667522195922 0 0.064411174210019129 -0.00021914667522195922 0 0.064382746536088248 -0.00016938663100099819 0 0.064467734635852952 -0.00011591176008834816 0 0.064369823882708038 -0.00029221948123432195 0 0.064411174210019129 -0.00021914667522195922 0 0.064382746536088248 -0.00016938663100099819 0 0.064638649537729631 -0.00030681293740295528 0 0.064552057866446688 -0.00024624770203205039 0 0.06461004775538326 -0.00013720378526640894 0 0.065281909602392246 0.0027668548572417069 0 0.064778926774313753 0.001606364519736577 0 0.064703205013219925 0.0024152974335322009 0 0.054191032216877419 -0.0034352040487251566 0 0.0573245559344766 -0.0021393228391170015 0 0.054191032216877419 -0.0034352040487251566 0 0.058065621738729617 0.0002924865249495638 0 0.065281909602392246 0.0027668548572417069 0 0.065172221423749288 0.0031330532859216022 0 0.064703205013219925 0.0024152974335322009 0 0.054191032216877419 -0.0034352040487251566 0 0.052097003711261032 -0.0049467878452127438 0 0.053224260263360343 -0.0051858225576857627 0 0.053924329498723812 -0.0075828124304229711 0 0.052304373365045752 -0.00730801156646639 0 0.054191032216877419 -0.0034352040487251566 0 0.053851235229365087 -0.0044454966927037105 0 0.064638649537729631 -0.00030681293740295528 0 0.064620243797059856 -0.00034649713615804857 0 0.064552057866446688 -0.00024624770203205039 0 0.052097003711261032 -0.0049467878452127438 0 0.053851235229365087 -0.0044454966927037105 0 0.064382442428957923 -0.00030131070997304514 0 0.064552057866446688 -0.00024624770203205039 0 0.064509820264903109 -0.00014674051791500246 0 0.064382442428957923 -0.00030131070997304514 0 0.064620243797059856 -0.00034649713615804857 0 0.064552057866446688 -0.00024624770203205039 0 0.064229092015813005 -0.00023570827808665784 0 0.064382442428957923 -0.00030131070997304514 0 0.064028709315451002 -0.00033370819655134751 0 0.061154462393548485 -0.0039571182475721259 0 0.053851235229365087 -0.0044454966927037105 0 0.064509820264903109 -0.00014674051791500246 0 0.06461004775538326 -0.00013720378526640894 0 0.064524738779032059 7.4458972807283998e-05 0 0.064552057866446688 -0.00024624770203205039 0 0.064509820264903109 -0.00014674051791500246 0 0.06461004775538326 -0.00013720378526640894 0 0.064298263794781693 0.00077673240606172854 0 0.064410748196275111 0.00052639862891880166 0 0.064219188868568755 0.00055174521638923398 0 0.064410748196275111 0.00052639862891880166 0 0.064219188868568755 0.00055174521638923398 0 0.064296701812225548 0.00034390416619576621 0 0.064778926774313753 0.001606364519736577 0 0.063864026415342445 0.0012547629102521178 0 0.064138734758991553 0.00042667470101908256 0 0.058065621738729617 0.0002924865249495638 0 0.059063895779526039 0.0010030096271352472 0 0.063864026415342445 0.0012547629102521178 0 0.064188068096818124 0.0019222183009774806 0 0.063247101564349192 0.00180990137131895 0 0.064778926774313753 0.001606364519736577 0 0.064188068096818124 0.0019222183009774806 0 0.064703205013219925 0.0024152974335322009 0 0.064778926774313753 0.001606364519736577 0 0.063864026415342445 0.0012547629102521178 0 0.064188068096818124 0.0019222183009774806 0 0.064188068096818124 0.0019222183009774806 0 0.064703205013219925 0.0024152974335322009 0 0.064086652385728068 0.0026301447187294003 0 0.065172221423749288 0.0031330532859216022 0 0.064086652385728068 0.0026301447187294003 0 0.063228217203426404 0.0035678503860861266 0 0.064188068096818124 0.0019222183009774806 0 0.064086652385728068 0.0026301447187294003 0 0.063247101564349192 0.00180990137131895 0 0.065172221423749288 0.0031330532859216022 0 0.064703205013219925 0.0024152974335322009 0 0.064086652385728068 0.0026301447187294003 0 0.064086652385728068 0.0026301447187294003 0 0.062727194240305956 0.0026431939553902746 0 0.063247101564349192 0.00180990137131895 0 0.064086652385728068 0.0026301447187294003 0 0.062727194240305956 0.0026431939553902746 0 0.063228217203426404 0.0035678503860861266 0 0.062727194240305956 0.0026431939553902746 0 0.061716729449255214 0.0031225654779336726 0 0.063228217203426404 0.0035678503860861266 0 0.062727194240305956 0.0026431939553902746 0 0.063247101564349192 0.00180990137131895 0 0.062425553182040343 0.0019769990446232822 0 0.063247101564349192 0.00180990137131895 0 0.062528685857811059 0.0013366616337804585 0 0.062425553182040343 0.0019769990446232822 0 0.063864026415342445 0.0012547629102521178 0 0.063247101564349192 0.00180990137131895 0 0.063157829139482924 0.00103770004611979 0 0.063247101564349192 0.00180990137131895 0 0.063157829139482924 0.00103770004611979 0 0.062528685857811059 0.0013366616337804585 0 0.063157829139482924 0.00103770004611979 0 0.062528685857811059 0.0013366616337804585 0 0.062561582131254873 0.00076196860953106767 0 0.062528685857811059 0.0013366616337804585 0 0.062109117295098874 0.0010727251278049635 0 0.062561582131254873 0.00076196860953106767 0 0.062528685857811059 0.0013366616337804585 0 0.062109117295098874 0.0010727251278049635 0 0.061911059062763701 0.0016066399236427532 0 0.062109117295098874 0.0010727251278049635 0 0.061589569217656327 0.0010469211300379274 0 0.061911059062763701 0.0016066399236427532 0 0.061589569217656327 0.0010469211300379274 0 0.061911059062763701 0.0016066399236427532 0 0.061388003390623516 0.0021140112555258985 0 0.061911059062763701 0.0016066399236427532 0 0.061388003390623516 0.0021140112555258985 0 0.061807524692483393 0.002344135074039229 0 0.061911059062763701 0.0016066399236427532 0 0.062425553182040343 0.0019769990446232822 0 0.061807524692483393 0.002344135074039229 0 0.062528685857811059 0.0013366616337804585 0 0.061911059062763701 0.0016066399236427532 0 0.062425553182040343 0.0019769990446232822 0 0.061589569217656327 0.0010469211300379274 0 0.061388003390623516 0.0021140112555258985 0 0.060369961152524985 0.0029171570368444421 0 0.061057237412718214 0.00040279601575958214 0 0.060092475677398838 0.0018283944326999721 0 0.060369961152524985 0.0029171570368444421 0 0.061173690583491369 0.00046859216966302196 0 0.06077446558357423 0.0017113400470245687 0 0.059567236212552124 0.00073261381111582372 0 0.06015745915168496 0.00097638920811806318 0 0.059625752137829766 0.0013305812519783947 0 0.059567236212552124 0.00073261381111582372 0 0.060206237501662395 0.00041219547690247332 0 0.059598232525892483 0.00012472312634904671 0 0.059567236212552124 0.00073261381111582372 0 0.060206237501662395 0.00041219547690247332 0 0.06015745915168496 0.00097638920811806318 0 0.061057237412718214 0.00040279601575958214 0 0.06015745915168496 0.00097638920811806318 0 0.060092475677398838 0.0018283944326999721 0 0.061057237412718214 0.00040279601575958214 0 0.060206237501662395 0.00041219547690247332 0 0.06015745915168496 0.00097638920811806318 0 0.06015745915168496 0.00097638920811806318 0 0.060092475677398838 0.0018283944326999721 0 0.059625752137829766 0.0013305812519783947 0 0.060092475677398838 0.0018283944326999721 0 0.059625752137829766 0.0013305812519783947 0 0.059313590414388884 0.0018976106970180835 0 0.060092475677398838 0.0018283944326999721 0 0.060042089202120369 0.0025560378020093276 0 0.060369961152524985 0.0029171570368444421 0 0.060092475677398838 0.0018283944326999721 0 0.059568320938003794 0.0022733292499288278 0 0.059313590414388884 0.0018976106970180835 0 0.060092475677398838 0.0018283944326999721 0 0.059568320938003794 0.0022733292499288278 0 0.060042089202120369 0.0025560378020093276 0 0.061388003390623516 0.0021140112555258985 0 0.060369961152524985 0.0029171570368444421 0 0.061245985245883865 0.0026921502800512009 0 0.060369961152524985 0.0029171570368444421 0 0.061044696907635594 0.0031739490277758685 0 0.061245985245883865 0.0026921502800512009 0 0.062727194240305956 0.0026431939553902746 0 0.062425553182040343 0.0019769990446232822 0 0.061807524692483393 0.002344135074039229 0 0.062727194240305956 0.0026431939553902746 0 0.061807524692483393 0.002344135074039229 0 0.061716729449255214 0.0031225654779336726 0 0.061807524692483393 0.002344135074039229 0 0.061245985245883865 0.0026921502800512009 0 0.061716729449255214 0.0031225654779336726 0 0.061388003390623516 0.0021140112555258985 0 0.061807524692483393 0.002344135074039229 0 0.061245985245883865 0.0026921502800512009 0 0.061044696907635594 0.0031739490277758685 0 0.061245985245883865 0.0026921502800512009 0 0.061716729449255214 0.0031225654779336726 0 0.027402500157706518 -0.012423749048744498 0 0.028920287520470416 -0.011229555167107124 0 0.02916705589381343 -0.01273233444994433 0 0.043977318656725446 -0.0043206874418250125 0 0.046765346400390144 -0.00448316079727852 0 0.061716729449255214 0.0031225654779336726 0 0.06092150910000773 0.0041765153690578906 0 0.063228217203426404 0.0035678503860861266 0 0.061044696907635594 0.0031739490277758685 0 0.061716729449255214 0.0031225654779336726 0 0.06092150910000773 0.0041765153690578906 0 0.027402500157706518 -0.012423749048744498 0 0.02664574277180224 -0.011514407491778147 0 0.025689371065246821 -0.01216622632560665 0 0.060369961152524985 0.0029171570368444421 0 0.06092150910000773 0.0041765153690578906 0 0.058082213636519504 0.0046661706552748299 0 0.060369961152524985 0.0029171570368444421 0 0.061044696907635594 0.0031739490277758685 0 0.06092150910000773 0.0041765153690578906 0 0.026721503765171434 -0.010428680001952611 0 0.027508535769978935 -0.011134908086927077 0 0.02664574277180224 -0.011514407491778147 0 0.027402500157706518 -0.012423749048744498 0 0.027508535769978935 -0.011134908086927077 0 0.02664574277180224 -0.011514407491778147 0 0.027402500157706518 -0.012423749048744498 0 0.027508535769978935 -0.011134908086927077 0 0.028920287520470416 -0.011229555167107124 0 0.028920287520470416 -0.011229555167107124 0 0.029780401086522815 -0.011856314079503997 0 0.02916705589381343 -0.01273233444994433 0 0.028920287520470416 -0.011229555167107124 0 0.029823892682488751 -0.010952260243240697 0 0.029780401086522815 -0.011856314079503997 0 0.029823892682488751 -0.010952260243240697 0 0.030471438703813546 -0.011124127786828345 0 0.030631566106648186 -0.011616385295172671 0 0.043378151491751907 -0.0058528050043687501 0 0.045219910662201497 -0.0060999202510137168 0 0.030631566106648186 -0.011616385295172671 0 0.029780401086522815 -0.011856314079503997 0 0.030167112031567671 -0.012320220504752661 0 0.029823892682488751 -0.010952260243240697 0 0.030631566106648186 -0.011616385295172671 0 0.029780401086522815 -0.011856314079503997 0 0.031099983836747318 -0.013068219153007066 0 0.030631566106648186 -0.011616385295172671 0 0.030167112031567671 -0.012320220504752661 0 0.031099983836747318 -0.013068219153007066 0 0.030167112031567671 -0.012320220504752661 0 0.02916705589381343 -0.01273233444994433 0 0.029780401086522815 -0.011856314079503997 0 0.030167112031567671 -0.012320220504752661 0 0.02916705589381343 -0.01273233444994433 0 0.052097003711261032 -0.0049467878452127438 0 0.046765346400390144 -0.00448316079727852 0 0.049476226632422904 -0.012152059186544809 0 0.049147920071116249 -0.012888351161016392 0 0.048519887567472463 -0.012322713340584711 0 0.049147920071116249 -0.012888351161016392 0 0.048505178651802455 -0.012902328513719179 0 0.048519887567472463 -0.012322713340584711 0 0.048505178651802455 -0.012902328513719179 0 0.047597913914598652 -0.012414870330453343 0 0.04794562223301703 -0.012929777803547888 0 0.048505178651802455 -0.012902328513719179 0 0.047597913914598652 -0.012414870330453343 0 0.048519887567472463 -0.012322713340584711 0 0.047597913914598652 -0.012414870330453343 0 0.048519887567472463 -0.012322713340584711 0 0.047812980730229798 -0.01182425404245341 0 0.047597913914598652 -0.012414870330453343 0 0.047812980730229798 -0.01182425404245341 0 0.046519018450016318 -0.012055085113212474 0 0.049476226632422904 -0.012152059186544809 0 0.048519887567472463 -0.012322713340584711 0 0.048861755307973945 -0.011489284203904349 0 0.048519887567472463 -0.012322713340584711 0 0.048861755307973945 -0.011489284203904349 0 0.047812980730229798 -0.01182425404245341 0 0.048861755307973945 -0.011489284203904349 0 0.04803117566214804 -0.010262992861011139 0 0.047812980730229798 -0.01182425404245341 0 0.049235413232500448 -0.010465653353170391 0 0.048861755307973945 -0.011489284203904349 0 0.04803117566214804 -0.010262992861011139 0 0.04803117566214804 -0.010262992861011139 0 0.046136309762161987 -0.010112936822335454 0 0.047812980730229798 -0.01182425404245341 0 0.046718599946186323 -0.0080199495122499579 0 0.04803117566214804 -0.010262992861011139 0 0.046136309762161987 -0.010112936822335454 0 0.046136309762161987 -0.010112936822335454 0 0.047812980730229798 -0.01182425404245341 0 0.046519018450016318 -0.012055085113212474 0 0.046519018450016318 -0.012055085113212474 0 0.043137761451710097 -0.010192747394006201 0 0.042432987322507464 -0.013382993530821589 0 0.04541680614646592 -0.012798628132339358 0 0.044812138338705169 -0.01298686831009108 0 0.046136309762161987 -0.010112936822335454 0 0.046519018450016318 -0.012055085113212474 0 0.043137761451710097 -0.010192747394006201 0 0.043137761451710097 -0.010192747394006201 0 0.042432987322507464 -0.013382993530821589 0 0.040178334645594192 -0.011748712961356102 0 0.047208148847345831 -0.012305204074753931 0 0.04731637259898578 -0.012374843438091126 0 0.047119474305940157 -0.01246810070111711 0 0.046519018450016318 -0.012055085113212474 0 0.047208148847345831 -0.012305204074753931 0 0.04731637259898578 -0.012374843438091126 0 0.047597913914598652 -0.012414870330453343 0 0.046519018450016318 -0.012055085113212474 0 0.04731637259898578 -0.012374843438091126 0 0.047597913914598652 -0.012414870330453343 0 0.04731637259898578 -0.012374843438091126 0 0.04794562223301703 -0.012929777803547888 0 0.04731637259898578 -0.012374843438091126 0 0.047304922423003534 -0.012729296407264959 0 0.047119474305940157 -0.01246810070111711 0 0.04731637259898578 -0.012374843438091126 0 0.047304922423003534 -0.012729296407264959 0 0.04794562223301703 -0.012929777803547888 0 0.047032154203542759 -0.012713171519638395 0 0.046801091767707081 -0.012547029021747416 0 0.047119474305940157 -0.01246810070111711 0 0.047304922423003534 -0.012729296407264959 0 0.047032154203542759 -0.012713171519638395 0 0.047119474305940157 -0.01246810070111711 0 0.047304922423003534 -0.012729296407264959 0 0.047032154203542759 -0.012713171519638395 0 0.047150763641160297 -0.012957094941581745 0 0.047032154203542759 -0.012713171519638395 0 0.04677780460080995 -0.012863761785964925 0 0.046801091767707081 -0.012547029021747416 0 0.047032154203542759 -0.012713171519638395 0 0.04677780460080995 -0.012863761785964925 0 0.047150763641160297 -0.012957094941581745 0 0.051145929912133549 -0.01593683821817941 0 0.051498325937639235 -0.016296112913593501 0 0.051339437251792158 -0.015872933596569907 0 0.049157307108760082 -0.014442973998725463 0 0.049458443339402899 -0.014653037854065866 0 0.04677780460080995 -0.012863761785964925 0 0.046801091767707081 -0.012547029021747416 0 0.046523100267365336 -0.012516317077866275 0 0.044341538907779914 -0.013258464635070988 0 0.047199494889020081 -0.013152302008951412 0 0.046801091767707081 -0.012547029021747416 0 0.046892898920696625 -0.012287661219220454 0 0.046523100267365336 -0.012516317077866275 0 0.046892898920696625 -0.012287661219220454 0 0.046459841743084096 -0.012341894775038923 0 0.046523100267365336 -0.012516317077866275 0 0.047208148847345831 -0.012305204074753931 0 0.046892898920696625 -0.012287661219220454 0 0.047119474305940157 -0.01246810070111711 0 0.046801091767707081 -0.012547029021747416 0 0.046892898920696625 -0.012287661219220454 0 0.047119474305940157 -0.01246810070111711 0 0.044812138338705169 -0.01298686831009108 0 0.044341538907779914 -0.013258464635070988 0 0.042432987322507464 -0.013382993530821589 0 0.038928991357680735 -0.014011268319038938 0 0.040178334645594192 -0.011748712961356102 0 0.040178334645594192 -0.011748712961356102 0 0.039782586662836933 -0.0096291863274827281 0 0.038112935418119276 -0.010607033431227113 0 0.043137761451710097 -0.010192747394006201 0 0.040178334645594192 -0.011748712961356102 0 0.039782586662836933 -0.0096291863274827281 0 0.040178334645594192 -0.011748712961356102 0 0.038112935418119276 -0.010607033431227113 0 0.037644569074092533 -0.012207642603751737 0 0.036507835765093796 -0.0093981339385750123 0 0.038112935418119276 -0.010607033431227113 0 0.036794637951992754 -0.011062074374985817 0 0.038112935418119276 -0.010607033431227113 0 0.036794637951992754 -0.011062074374985817 0 0.037644569074092533 -0.012207642603751737 0 0.038928991357680735 -0.014011268319038938 0 0.036301933703932643 -0.013138179207441878 0 0.035688932801764571 -0.014494715830739854 0 0.038928991357680735 -0.014011268319038938 0 0.040178334645594192 -0.011748712961356102 0 0.037644569074092533 -0.012207642603751737 0 0.036794637951992754 -0.011062074374985817 0 0.037644569074092533 -0.012207642603751737 0 0.035961462094051599 -0.011877851199804473 0 0.038928991357680735 -0.014011268319038938 0 0.037644569074092533 -0.012207642603751737 0 0.036301933703932643 -0.013138179207441878 0 0.036301933703932643 -0.013138179207441878 0 0.034931853564753174 -0.012448090009095823 0 0.035688932801764571 -0.014494715830739854 0 0.056345900902991554 -0.014974230557607975 0 0.056284739808467973 -0.015754546209615503 0 0.056615022992226781 -0.01569689597889844 0 0.04527902063695996 -0.01317140368793863 0 0.047199494889020081 -0.013152302008951412 0 0.035030224040062126 -0.012371222061612766 0 0.035961462094051599 -0.011877851199804473 0 0.034470074578676818 -0.010680577964975636 0 0.04527902063695996 -0.01317140368793863 0 0.0445050088468869 -0.013422380877570535 0 0.036301933703932643 -0.013138179207441878 0 0.034931853564753174 -0.012448090009095823 0 0.035961462094051599 -0.011877851199804473 0 0.037644569074092533 -0.012207642603751737 0 0.036301933703932643 -0.013138179207441878 0 0.035961462094051599 -0.011877851199804473 0 0.034215286510457125 -0.008497692620271927 0 0.03566188854164614 -0.010368180893677109 0 0.034470074578676818 -0.010680577964975636 0 0.036794637951992754 -0.011062074374985817 0 0.035961462094051599 -0.011877851199804473 0 0.03566188854164614 -0.010368180893677109 0 0.04527902063695996 -0.01317140368793863 0 0.044265855622110023 -0.012183590620651183 0 0.035961462094051599 -0.011877851199804473 0 0.03566188854164614 -0.010368180893677109 0 0.034470074578676818 -0.010680577964975636 0 0.036507835765093796 -0.0093981339385750123 0 0.036794637951992754 -0.011062074374985817 0 0.03566188854164614 -0.010368180893677109 0 0.032423882852234548 -0.010726310185022158 0 0.033369129644070968 -0.009673109362366674 0 0.033543520749935142 -0.01150743181575432 0 0.033369129644070968 -0.009673109362366674 0 0.034470074578676818 -0.010680577964975636 0 0.033543520749935142 -0.01150743181575432 0 0.034215286510457125 -0.008497692620271927 0 0.033369129644070968 -0.009673109362366674 0 0.034470074578676818 -0.010680577964975636 0 0.032493948636429341 -0.013317525199802454 0 0.034969937316367765 -0.011962089838514227 0 0.033543520749935142 -0.01150743181575432 0 0.055176771885723785 -0.015605399635557224 0 0.056345900902991554 -0.014974230557607975 0 0.055898776096860753 -0.01568252815818624 0 0.042535363130507535 -0.011468771922451803 0 0.04527902063695996 -0.01317140368793863 0 0.034969937316367765 -0.011962089838514227 0 0.034470074578676818 -0.010680577964975636 0 0.033543520749935142 -0.01150743181575432 0 0.056345900902991554 -0.014974230557607975 0 0.055898776096860753 -0.01568252815818624 0 0.056284739808467973 -0.015754546209615503 0 0.055176771885723785 -0.015605399635557224 0 0.055909542030189809 -0.016189121039931847 0 0.055898776096860753 -0.01568252815818624 0 0.055176771885723785 -0.015605399635557224 0 0.055909542030189809 -0.016189121039931847 0 0.055647520591188417 -0.016525059442460271 0 0.055909542030189809 -0.016189121039931847 0 0.056131571539410785 -0.015998456435371351 0 0.055898776096860753 -0.01568252815818624 0 0.056194164123667963 -0.01627663380080235 0 0.055909542030189809 -0.016189121039931847 0 0.056131571539410785 -0.015998456435371351 0 0.056131571539410785 -0.015998456435371351 0 0.055898776096860753 -0.01568252815818624 0 0.056284739808467973 -0.015754546209615503 0 0.047829375122399577 -0.013126954084094594 0 0.047199494889020081 -0.013152302008951412 0 0.056284739808467973 -0.015754546209615503 0 0.056648164997762318 -0.015694875387246829 0 0.056505995134329697 -0.015897669370016927 0 0.056648164997762318 -0.015694875387246829 0 0.056704596932279853 -0.016046064082366435 0 0.056505995134329697 -0.015897669370016927 0 0.056648164997762318 -0.015694875387246829 0 0.056704596932279853 -0.016046064082366435 0 0.056833369515092817 -0.016186616701645097 0 0.047199494889020081 -0.013152302008951412 0 0.049458443339402899 -0.014653037854065866 0 0.056704596932279853 -0.016046064082366435 0 0.056848629054417163 -0.016191054204757107 0 0.05661075622356098 -0.016256219800684046 0 0.049563513347668606 -0.014731548005596449 0 0.049458443339402899 -0.014653037854065866 0 0.056131571539410785 -0.015998456435371351 0 0.056284739808467973 -0.015754546209615503 0 0.056375348367852934 -0.01609434075798951 0 0.056284739808467973 -0.015754546209615503 0 0.056505995134329697 -0.015897669370016927 0 0.056375348367852934 -0.01609434075798951 0 0.056704596932279853 -0.016046064082366435 0 0.056505995134329697 -0.015897669370016927 0 0.056375348367852934 -0.01609434075798951 0 0.05661075622356098 -0.016256219800684046 0 0.056375348367852934 -0.01609434075798951 0 0.056443395843374725 -0.016435091055527547 0 0.056704596932279853 -0.016046064082366435 0 0.05661075622356098 -0.016256219800684046 0 0.056375348367852934 -0.01609434075798951 0 0.056194164123667963 -0.01627663380080235 0 0.056131571539410785 -0.015998456435371351 0 0.056375348367852934 -0.01609434075798951 0 0.056194164123667963 -0.01627663380080235 0 0.056375348367852934 -0.01609434075798951 0 0.056443395843374725 -0.016435091055527547 0 0.056443395843374725 -0.016435091055527547 0 0.056567519586378477 -0.016752848030935037 0 0.05614921442952199 -0.01669400524691917 0 0.056848629054417163 -0.016191054204757107 0 0.056875914322791613 -0.016792885268387618 0 0.057241077978909115 -0.017265607855139496 0 0.049458443339402899 -0.014653037854065866 0 0.052517887668583216 -0.016666325750491762 0 0.056194164123667963 -0.01627663380080235 0 0.056443395843374725 -0.016435091055527547 0 0.05614921442952199 -0.01669400524691917 0 0.05661075622356098 -0.016256219800684046 0 0.056443395843374725 -0.016435091055527547 0 0.056673227581068325 -0.016488616729848148 0 0.056443395843374725 -0.016435091055527547 0 0.056673227581068325 -0.016488616729848148 0 0.056567519586378477 -0.016752848030935037 0 0.056848629054417163 -0.016191054204757107 0 0.056673227581068325 -0.016488616729848148 0 0.056875914322791613 -0.016792885268387618 0 0.056848629054417163 -0.016191054204757107 0 0.05661075622356098 -0.016256219800684046 0 0.056673227581068325 -0.016488616729848148 0 0.056673227581068325 -0.016488616729848148 0 0.056875914322791613 -0.016792885268387618 0 0.056567519586378477 -0.016752848030935037 0 0.056875914322791613 -0.016792885268387618 0 0.056936137693004055 -0.017108380401102137 0 0.057241077978909115 -0.017265607855139496 0 0.056875914322791613 -0.016792885268387618 0 0.056746434428994158 -0.017029152475938805 0 0.056567519586378477 -0.016752848030935037 0 0.056875914322791613 -0.016792885268387618 0 0.056746434428994158 -0.017029152475938805 0 0.056936137693004055 -0.017108380401102137 0 0.056478800955996548 -0.017114793169971311 0 0.056156532386157088 -0.0171056691298609 0 0.05614921442952199 -0.01669400524691917 0 0.056567519586378477 -0.016752848030935037 0 0.056478800955996548 -0.017114793169971311 0 0.05614921442952199 -0.01669400524691917 0 0.056746434428994158 -0.017029152475938805 0 0.056567519586378477 -0.016752848030935037 0 0.056478800955996548 -0.017114793169971311 0 0.055647520591188417 -0.016525059442460271 0 0.05614921442952199 -0.01669400524691917 0 0.055797871442560189 -0.017114478007492277 0 0.056156532386157088 -0.0171056691298609 0 0.05614921442952199 -0.01669400524691917 0 0.055797871442560189 -0.017114478007492277 0 0.055225589202737971 -0.016869386938967366 0 0.055647520591188417 -0.016525059442460271 0 0.055797871442560189 -0.017114478007492277 0 0.056194164123667963 -0.01627663380080235 0 0.055909542030189809 -0.016189121039931847 0 0.05614921442952199 -0.01669400524691917 0 0.055909542030189809 -0.016189121039931847 0 0.055647520591188417 -0.016525059442460271 0 0.05614921442952199 -0.01669400524691917 0 0.055933600594983868 -0.017624681797343875 0 0.056202145008891161 -0.01742142844825903 0 0.056286145947384458 -0.017757690981734336 0 0.055933600594983868 -0.017624681797343875 0 0.056286145947384458 -0.017757690981734336 0 0.056112830679319145 -0.018026627859880802 0 0.055933600594983868 -0.017624681797343875 0 0.055731626709911115 -0.017897447359682066 0 0.056112830679319145 -0.018026627859880802 0 0.055451867799796467 -0.017473168494209105 0 0.055474880265316787 -0.018231960850099566 0 0.055731626709911115 -0.017897447359682066 0 0.055451867799796467 -0.017473168494209105 0 0.055933600594983868 -0.017624681797343875 0 0.055731626709911115 -0.017897447359682066 0 0.055451867799796467 -0.017473168494209105 0 0.055933600594983868 -0.017624681797343875 0 0.055797871442560189 -0.017114478007492277 0 0.055225589202737971 -0.016869386938967366 0 0.055451867799796467 -0.017473168494209105 0 0.055797871442560189 -0.017114478007492277 0 0.055933600594983868 -0.017624681797343875 0 0.055797871442560189 -0.017114478007492277 0 0.056202145008891161 -0.01742142844825903 0 0.056156532386157088 -0.0171056691298609 0 0.055797871442560189 -0.017114478007492277 0 0.056202145008891161 -0.01742142844825903 0 0.056478800955996548 -0.017114793169971311 0 0.056156532386157088 -0.0171056691298609 0 0.056202145008891161 -0.01742142844825903 0 0.056478800955996548 -0.017114793169971311 0 0.056202145008891161 -0.01742142844825903 0 0.056501407944808957 -0.017556654308536594 0 0.056478800955996548 -0.017114793169971311 0 0.056876212064019424 -0.017381890819123003 0 0.056501407944808957 -0.017556654308536594 0 0.056936137693004055 -0.017108380401102137 0 0.056876212064019424 -0.017381890819123003 0 0.057241077978909115 -0.017265607855139496 0 0.056746434428994158 -0.017029152475938805 0 0.056478800955996548 -0.017114793169971311 0 0.056876212064019424 -0.017381890819123003 0 0.056746434428994158 -0.017029152475938805 0 0.056936137693004055 -0.017108380401102137 0 0.056876212064019424 -0.017381890819123003 0 0.056501407944808957 -0.017556654308536594 0 0.056286145947384458 -0.017757690981734336 0 0.056647683951077998 -0.018037259089939927 0 0.056876212064019424 -0.017381890819123003 0 0.056501407944808957 -0.017556654308536594 0 0.056647683951077998 -0.018037259089939927 0 0.056202145008891161 -0.01742142844825903 0 0.056501407944808957 -0.017556654308536594 0 0.056286145947384458 -0.017757690981734336 0 0.056647683951077998 -0.018037259089939927 0 0.057079739126329 -0.018433294008334825 0 0.056298568502192878 -0.01859137073385296 0 0.056286145947384458 -0.017757690981734336 0 0.056647683951077998 -0.018037259089939927 0 0.056112830679319145 -0.018026627859880802 0 0.056876212064019424 -0.017381890819123003 0 0.056647683951077998 -0.018037259089939927 0 0.057079739126329 -0.018433294008334825 0 0.056647683951077998 -0.018037259089939927 0 0.056298568502192878 -0.01859137073385296 0 0.056112830679319145 -0.018026627859880802 0 0.057079739126329 -0.018433294008334825 0 0.056298568502192878 -0.01859137073385296 0 0.057113881712506649 -0.018805069629239921 0 0.056298568502192878 -0.01859137073385296 0 0.055905472102522634 -0.018188163728388464 0 0.056112830679319145 -0.018026627859880802 0 0.055731626709911115 -0.017897447359682066 0 0.055905472102522634 -0.018188163728388464 0 0.056112830679319145 -0.018026627859880802 0 0.055474880265316787 -0.018231960850099566 0 0.055731626709911115 -0.017897447359682066 0 0.055905472102522634 -0.018188163728388464 0 0.055622808951446744 -0.013749022716304323 0 0.056767340047391548 -0.015411477742936965 0 0.05648553754534022 -0.018629112144540164 0 0.056482878872198196 -0.018423714961515417 0 0.056837863685423748 -0.018623542096555049 0 0.055474880265316787 -0.018231960850099566 0 0.056298568502192878 -0.01859137073385296 0 0.055905472102522634 -0.018188163728388464 0 0.057016004246154967 -0.012160275348127641 0 0.059916664817366232 -0.016368318960884618 0 0.067734394698351838 -0.02371744349863749 0 0.06594707816850974 -0.02078076724290338 0 0.062789383941144389 -0.021232958293962496 0 0.05648553754534022 -0.018629112144540164 0 0.056837863685423748 -0.018623542096555049 0 0.057015645220790771 -0.018915271283962792 0 0.067734394698351838 -0.02371744349863749 0 0.067769018637364634 -0.017887486926494379 0 0.06594707816850974 -0.02078076724290338 0 0.06594707816850974 -0.02078076724290338 0 0.064059948405723557 -0.018815978777102279 0 0.062789383941144389 -0.021232958293962496 0 0.067769018637364634 -0.017887486926494379 0 0.06594707816850974 -0.02078076724290338 0 0.064059948405723557 -0.018815978777102279 0 0.067769018637364634 -0.017887486926494379 0 0.064059948405723557 -0.018815978777102279 0 0.06240481003355778 -0.015983313632356541 0 0.061207780494403695 -0.01810298452185604 0 0.059679864879055015 -0.016251472434329825 0 0.06240481003355778 -0.015983313632356541 0 0.061207780494403695 -0.01810298452185604 0 0.064059948405723557 -0.018815978777102279 0 0.06240481003355778 -0.015983313632356541 0 0.061207780494403695 -0.01810298452185604 0 0.064059948405723557 -0.018815978777102279 0 0.062789383941144389 -0.021232958293962496 0 0.057015645220790771 -0.018915271283962792 0 0.057113881712506649 -0.018805069629239921 0 0.057333252382489541 -0.018781239902045672 0 0.056767340047391548 -0.015411477742936965 0 0.057109839651070395 -0.015917253582294899 0 0.056837863685423748 -0.018623542096555049 0 0.057015645220790771 -0.018915271283962792 0 0.057113881712506649 -0.018805069629239921 0 0.057079739126329 -0.018433294008334825 0 0.057113881712506649 -0.018805069629239921 0 0.057289595314422882 -0.018716650462012385 0 0.057289595314422882 -0.018716650462012385 0 0.057030826195438727 -0.019057918223108344 0 0.057498220304738154 -0.018375307530348779 0 0.057113881712506649 -0.018805069629239921 0 0.057289595314422882 -0.018716650462012385 0 0.057333252382489541 -0.018781239902045672 0 0.057015645220790771 -0.018915271283962792 0 0.057333252382489541 -0.018781239902045672 0 0.057637177610856974 -0.01848748802449425 0 0.055455374446543464 -0.019066055443768107 0 0.05461903396256363 -0.0179902173938047 0 0.057289595314422882 -0.018716650462012385 0 0.057333252382489541 -0.018781239902045672 0 0.057030826195438727 -0.019057918223108344 0 0.057333252382489541 -0.018781239902045672 0 0.057637177610856974 -0.01848748802449425 0 0.057030826195438727 -0.019057918223108344 0 0.059916664817366232 -0.016368318960884618 0 0.059462605419293428 -0.016870826831205971 0 0.061207780494403695 -0.01810298452185604 0 0.062789383941144389 -0.021232958293962496 0 0.057637177610856974 -0.01848748802449425 0 0.061207780494403695 -0.01810298452185604 0 0.057637177610856974 -0.01848748802449425 0 0.059679864879055015 -0.016251472434329825 0 0.055907391256636511 -0.017466489927871934 0 0.055864203192849668 -0.019743069378657822 0 0.05326575361159535 -0.017117925623859099 0 0.057637177610856974 -0.01848748802449425 0 0.055907391256636511 -0.017466489927871934 0 0.057319569534387611 -0.014970934850029526 0 0.055907391256636511 -0.017466489927871934 0 0.055864203192849668 -0.019743069378657822 0 0.057030826195438727 -0.019057918223108344 0 0.057637177610856974 -0.01848748802449425 0 0.055907391256636511 -0.017466489927871934 0 0.057030826195438727 -0.019057918223108344 0 0.053457246407146081 -0.017059440565287593 0 0.05461903396256363 -0.0179902173938047 0 0.055864203192849668 -0.019743069378657822 0 0.057030826195438727 -0.019057918223108344 0 0.058371385751488147 -0.022724920951967265 0 0.050795787465744403 -0.014932800429955822 0 0.05075476270455985 -0.015544149514852867 0 0.05117753224954371 -0.015408844625939982 0 0.056876212064019424 -0.017381890819123003 0 0.057079739126329 -0.018433294008334825 0 0.057498220304738154 -0.018375307530348779 0 0.057079739126329 -0.018433294008334825 0 0.057289595314422882 -0.018716650462012385 0 0.057498220304738154 -0.018375307530348779 0 0.055380833700424063 -0.018290504463035331 0 0.05461903396256363 -0.0179902173938047 0 0.056876212064019424 -0.017381890819123003 0 0.057580464922758159 -0.01824342454563992 0 0.057241077978909115 -0.017265607855139496 0 0.051145929912133549 -0.01593683821817941 0 0.05117753224954371 -0.015408844625939982 0 0.051339437251792158 -0.015872933596569907 0 0.05461903396256363 -0.0179902173938047 0 0.052517887668583216 -0.016666325750491762 0 0.04677780460080995 -0.012863761785964925 0 0.0471956140552066 -0.013444063924778702 0 0.047150763641160297 -0.012957094941581745 0 0.049157307108760082 -0.014442973998725463 0 0.049121982526188594 -0.014436309849964428 0 0.051145929912133549 -0.01593683821817941 0 0.05075476270455985 -0.015544149514852867 0 0.05117753224954371 -0.015408844625939982 0 0.0471956140552066 -0.013444063924778702 0 0.047150763641160297 -0.012957094941581745 0 0.047454281325804717 -0.013118433061308951 0 0.047304922423003534 -0.012729296407264959 0 0.047454281325804717 -0.013118433061308951 0 0.04794562223301703 -0.012929777803547888 0 0.0471956140552066 -0.013444063924778702 0 0.047454281325804717 -0.013118433061308951 0 0.047933733500709952 -0.013328881786895591 0 0.047454281325804717 -0.013118433061308951 0 0.04794562223301703 -0.012929777803547888 0 0.047933733500709952 -0.013328881786895591 0 0.047304922423003534 -0.012729296407264959 0 0.047150763641160297 -0.012957094941581745 0 0.047454281325804717 -0.013118433061308951 0 0.04794562223301703 -0.012929777803547888 0 0.047933733500709952 -0.013328881786895591 0 0.048727225461739694 -0.013599066130308934 0 0.048727225461739694 -0.013599066130308934 0 0.048167841101227633 -0.01415182308861722 0 0.049474138335340034 -0.014206991916590644 0 0.047933733500709952 -0.013328881786895591 0 0.048727225461739694 -0.013599066130308934 0 0.048167841101227633 -0.01415182308861722 0 0.050795787465744403 -0.014932800429955822 0 0.05075476270455985 -0.015544149514852867 0 0.050333691960634329 -0.015120835296105523 0 0.0471956140552066 -0.013444063924778702 0 0.047933733500709952 -0.013328881786895591 0 0.048167841101227633 -0.01415182308861722 0 0.049121982526188594 -0.014436309849964428 0 0.049207819271917336 -0.014475495711977995 0 0.050795787465744403 -0.014932800429955822 0 0.050356867719851206 -0.014772561238171491 0 0.050333691960634329 -0.015120835296105523 0 0.053457246407146081 -0.017059440565287593 0 0.052232554094327976 -0.015812172707784972 0 0.050795787465744403 -0.014932800429955822 0 0.050356867719851206 -0.014772561238171491 0 0.050400605594299125 -0.014441884079311702 0 0.050400605594299125 -0.014441884079311702 0 0.049840177764160783 -0.014587479223106563 0 0.050366917995468316 -0.014447356374138709 0 0.050356867719851206 -0.014772561238171491 0 0.050400605594299125 -0.014441884079311702 0 0.049840177764160783 -0.014587479223106563 0 0.048167841101227633 -0.01415182308861722 0 0.049840177764160783 -0.014587479223106563 0 0.049474138335340034 -0.014206991916590644 0 0.049207819271917336 -0.014475495711977995 0 0.049295312922884423 -0.014503844529365959 0 0.050356867719851206 -0.014772561238171491 0 0.050333691960634329 -0.015120835296105523 0 0.049840177764160783 -0.014587479223106563 0 0.049474138335340034 -0.014206991916590644 0 0.050115016264513847 -0.014500332844858878 0 0.050027229338513564 -0.014274746759006566 0 0.049840177764160783 -0.014587479223106563 0 0.050115016264513847 -0.014500332844858878 0 0.050366917995468316 -0.014447356374138709 0 0.049840177764160783 -0.014587479223106563 0 0.049474138335340034 -0.014206991916590644 0 0.050115016264513847 -0.014500332844858878 0 0.050558267305854852 -0.014596965958155503 0 0.050115016264513847 -0.014500332844858878 0 0.050027229338513564 -0.014274746759006566 0 0.049474138335340034 -0.014206991916590644 0 0.050027229338513564 -0.014274746759006566 0 0.049429391879456039 -0.013810811550422868 0 0.049970587528350846 -0.013858440317894226 0 0.049429391879456039 -0.013810811550422868 0 0.049388978121575604 -0.013393278364597959 0 0.049970587528350846 -0.013858440317894226 0 0.050027229338513564 -0.014274746759006566 0 0.049429391879456039 -0.013810811550422868 0 0.048727225461739694 -0.013599066130308934 0 0.049429391879456039 -0.013810811550422868 0 0.048813573487903252 -0.013328448538364374 0 0.048727225461739694 -0.013599066130308934 0 0.049474138335340034 -0.014206991916590644 0 0.049429391879456039 -0.013810811550422868 0 0.048505178651802455 -0.012902328513719179 0 0.04794562223301703 -0.012929777803547888 0 0.048813573487903252 -0.013328448538364374 0 0.04794562223301703 -0.012929777803547888 0 0.048727225461739694 -0.013599066130308934 0 0.048813573487903252 -0.013328448538364374 0 0.049147920071116249 -0.012888351161016392 0 0.048505178651802455 -0.012902328513719179 0 0.049388978121575604 -0.013393278364597959 0 0.048505178651802455 -0.012902328513719179 0 0.048813573487903252 -0.013328448538364374 0 0.049388978121575604 -0.013393278364597959 0 0.04989277522619974 -0.01332166997319824 0 0.049147920071116249 -0.012888351161016392 0 0.049388978121575604 -0.013393278364597959 0 0.049429391879456039 -0.013810811550422868 0 0.048813573487903252 -0.013328448538364374 0 0.049388978121575604 -0.013393278364597959 0 0.055149918220457672 -0.0064978091363473928 0 0.058633063036479798 -0.0091270965204699114 0 0.054376476194888376 -0.010584529817260342 0 0.055149918220457672 -0.0064978091363473928 0 0.058633063036479798 -0.0091270965204699114 0 0.059536263525592416 -0.005984574233413152 0 0.058633063036479798 -0.0091270965204699114 0 0.063066656332643467 -0.010905940728527309 0 0.061314202096105018 -0.0078114564238888412 0 0.058633063036479798 -0.0091270965204699114 0 0.061314202096105018 -0.0078114564238888412 0 0.059536263525592416 -0.005984574233413152 0 0.061314202096105018 -0.0078114564238888412 0 0.061759274542173143 -0.0059091922480540007 0 0.059536263525592416 -0.005984574233413152 0 0.054824496485593024 -0.011788836730177396 0 0.057218506014677012 -0.010110198365933097 0 0.058633063036479798 -0.0091270965204699114 0 0.05820020008873187 -0.012916125170888344 0 0.063066656332643467 -0.010905940728527309 0 0.051451531051609281 -0.014212996201175398 0 0.054376476194888376 -0.010584529817260342 0 0.05820020008873187 -0.012916125170888344 0 0.058633063036479798 -0.0091270965204699114 0 0.054376476194888376 -0.010584529817260342 0 0.05820020008873187 -0.012916125170888344 0 0.051451531051609281 -0.014212996201175398 0 0.050480784412344222 -0.014282054216951674 0 0.050384245600865789 -0.013736649606784345 0 0.053580547329928174 -0.012477342769581864 0 0.054824496485593024 -0.011788836730177396 0 0.050558267305854852 -0.014596965958155503 0 0.050115016264513847 -0.014500332844858878 0 0.050480784412344222 -0.014282054216951674 0 0.050558267305854852 -0.014596965958155503 0 0.051451531051609281 -0.014212996201175398 0 0.050480784412344222 -0.014282054216951674 0 0.050115016264513847 -0.014500332844858878 0 0.050480784412344222 -0.014282054216951674 0 0.050366917995468316 -0.014447356374138709 0 0.050480784412344222 -0.014282054216951674 0 0.050366917995468316 -0.014447356374138709 0 0.050917198958146587 -0.014334925896921541 0 0.050480784412344222 -0.014282054216951674 0 0.050384245600865789 -0.013736649606784345 0 0.050917198958146587 -0.014334925896921541 0 0.050917198958146587 -0.014334925896921541 0 0.053516188305747635 -0.012940324205307451 0 0.051805357319939689 -0.012051271066889569 0 0.050384245600865789 -0.013736649606784345 0 0.050917198958146587 -0.014334925896921541 0 0.051805357319939689 -0.012051271066889569 0 0.052232554094327976 -0.015812172707784972 0 0.051640814295536741 -0.015145816981756778 0 0.050400605594299125 -0.014441884079311702 0 0.050366917995468316 -0.014447356374138709 0 0.050917198958146587 -0.014334925896921541 0 0.055907391256636511 -0.017466489927871934 0 0.05326575361159535 -0.017117925623859099 0 0.054568100758398436 -0.014860036503189842 0 0.05326575361159535 -0.017117925623859099 0 0.050917198958146587 -0.014334925896921541 0 0.054568100758398436 -0.014860036503189842 0 0.054568100758398436 -0.014860036503189842 0 0.053516188305747635 -0.012940324205307451 0 0.055774672832910689 -0.012856953471707918 0 0.050917198958146587 -0.014334925896921541 0 0.054568100758398436 -0.014860036503189842 0 0.053516188305747635 -0.012940324205307451 0 0.057218506014677012 -0.010110198365933097 0 0.059584728208619618 -0.0077117529287364425 0 0.053516188305747635 -0.012940324205307451 0 0.051805357319939689 -0.012051271066889569 0 0.05464984136229542 -0.010639919606225562 0 0.063066656332643467 -0.010905940728527309 0 0.061314202096105018 -0.0078114564238888412 0 0.063606086847669149 -0.0074252813805367971 0 0.061314202096105018 -0.0078114564238888412 0 0.063606086847669149 -0.0074252813805367971 0 0.061759274542173143 -0.0059091922480540007 0 0.059584728208619618 -0.0077117529287364425 0 0.061249117384348288 -0.0054560964703764241 0 0.063066656332643467 -0.010905940728527309 0 0.063606086847669149 -0.0074252813805367971 0 0.067160101008695475 -0.0092332942158812794 0 0.063606086847669149 -0.0074252813805367971 0 0.067160101008695475 -0.0092332942158812794 0 0.065247377314792673 -0.004962208763939064 0 0.063164970583467428 -0.0031082682740594591 0 0.063266889671361098 -0.0027351990962895391 0 0.063126619553923305 -0.0026439733974080114 0 0.059584728208619618 -0.0077117529287364425 0 0.061238309335782497 -0.0060863124415149635 0 0.063164970583467428 -0.0031082682740594591 0 0.063523198379181744 -0.0030695874606518352 0 0.063266889671361098 -0.0027351990962895391 0 0.063523198379181744 -0.0030695874606518352 0 0.063691370926126187 -0.0034403310953202257 0 0.063655354973450332 -0.0026504073751152991 0 0.061238309335782497 -0.0060863124415149635 0 0.062137950044927809 -0.0054819902109030762 0 0.058730051982296097 -0.0046709621540685113 0 0.059193947048575432 -0.0084070931813478803 0 0.062828726796655618 -0.0065199038351564757 0 0.054284196613673376 -0.0061987937279093467 0 0.058730051982296097 -0.0046709621540685113 0 0.059193947048575432 -0.0084070931813478803 0 0.053516188305747635 -0.012940324205307451 0 0.05464984136229542 -0.010639919606225562 0 0.055774672832910689 -0.012856953471707918 0 0.059584728208619618 -0.0077117529287364425 0 0.058837580250683814 -0.010248754741090037 0 0.054284196613673376 -0.0061987937279093467 0 0.059193947048575432 -0.0084070931813478803 0 0.055905694658299095 -0.01050272986560247 0 0.054568100758398436 -0.014860036503189842 0 0.055774672832910689 -0.012856953471707918 0 0.057319569534387611 -0.014970934850029526 0 0.058837580250683814 -0.010248754741090037 0 0.058890255980268119 -0.011674664612611891 0 0.055907391256636511 -0.017466489927871934 0 0.054568100758398436 -0.014860036503189842 0 0.057319569534387611 -0.014970934850029526 0 0.057637177610856974 -0.01848748802449425 0 0.057319569534387611 -0.014970934850029526 0 0.059679864879055015 -0.016251472434329825 0 0.057319569534387611 -0.014970934850029526 0 0.059679864879055015 -0.016251472434329825 0 0.060503909076149408 -0.012877208668261133 0 0.055905694658299095 -0.01050272986560247 0 0.057319569534387611 -0.014970934850029526 0 0.060503909076149408 -0.012877208668261133 0 0.059193947048575432 -0.0084070931813478803 0 0.060503909076149408 -0.012877208668261133 0 0.063634770184355677 -0.0096888687720575444 0 0.059193947048575432 -0.0084070931813478803 0 0.055905694658299095 -0.01050272986560247 0 0.060503909076149408 -0.012877208668261133 0 0.060503909076149408 -0.012877208668261133 0 0.064313640206978245 -0.012868281949841102 0 0.063634770184355677 -0.0096888687720575444 0 0.060503909076149408 -0.012877208668261133 0 0.064313640206978245 -0.012868281949841102 0 0.06240481003355778 -0.015983313632356541 0 0.059679864879055015 -0.016251472434329825 0 0.060503909076149408 -0.012877208668261133 0 0.06240481003355778 -0.015983313632356541 0 0.067769018637364634 -0.017887486926494379 0 0.064313640206978245 -0.012868281949841102 0 0.06240481003355778 -0.015983313632356541 0 0.067769018637364634 -0.017887486926494379 0 0.064313640206978245 -0.012868281949841102 0 0.067787813911771591 -0.012029625333492137 0 0.064313640206978245 -0.012868281949841102 0 0.063634770184355677 -0.0096888687720575444 0 0.067787813911771591 -0.012029625333492137 0 0.063634770184355677 -0.0096888687720575444 0 0.067787813911771591 -0.012029625333492137 0 0.067456672057592287 -0.0062355456473459055 0 0.063634770184355677 -0.0096888687720575444 0 0.062828726796655618 -0.0065199038351564757 0 0.067456672057592287 -0.0062355456473459055 0 0.059193947048575432 -0.0084070931813478803 0 0.063634770184355677 -0.0096888687720575444 0 0.062828726796655618 -0.0065199038351564757 0 0.062828726796655618 -0.0065199038351564757 0 0.063691370926126187 -0.0034403310953202257 0 0.067456672057592287 -0.0062355456473459055 0 0.058730051982296097 -0.0046709621540685113 0 0.062828726796655618 -0.0065199038351564757 0 0.063691370926126187 -0.0034403310953202257 0 0.063691370926126187 -0.0034403310953202257 0 0.067456672057592287 -0.0062355456473459055 0 0.066535786354617987 -0.0024370852707212023 0 0.063691370926126187 -0.0034403310953202257 0 0.064711679522482329 -0.001894289596676396 0 0.066535786354617987 -0.0024370852707212023 0 0.063691370926126187 -0.0034403310953202257 0 0.064711679522482329 -0.001894289596676396 0 0.063655354973450332 -0.0026504073751152991 0 0.064711679522482329 -0.001894289596676396 0 0.064049273808952908 -0.0016600904586591258 0 0.063655354973450332 -0.0026504073751152991 0 0.064711679522482329 -0.001894289596676396 0 0.064773978002995725 -0.00068408964310524823 0 0.064049273808952908 -0.0016600904586591258 0 0.064711679522482329 -0.001894289596676396 0 0.066535786354617987 -0.0024370852707212023 0 0.065813157701050881 -0.00077455777292737438 0 0.065165902564145867 -0.00030181039753841566 0 0.064773978002995725 -0.00068408964310524823 0 0.065813157701050881 -0.00077455777292737438 0 0.064711679522482329 -0.001894289596676396 0 0.064773978002995725 -0.00068408964310524823 0 0.065813157701050881 -0.00077455777292737438 0 0.065165902564145867 -0.00030181039753841566 0 0.065000528980618269 -3.0586213615479488e-07 0 0.065000721130126365 1.3093051235171038e-08 0 0.065165902564145867 -0.00030181039753841566 0 0.065813157701050881 -0.00077455777292737438 0 0.065000721130126365 1.3093051235171038e-08 0 0.065000528980618269 -3.0586213615479488e-07 0 0.064773978002995725 -0.00068408964310524823 0 0.064997506247311237 2.9877735690480274e-07 0 0.065165902564145867 -0.00030181039753841566 0 0.065000528980618269 -3.0586213615479488e-07 0 0.064773978002995725 -0.00068408964310524823 0 0.064773978002995725 -0.00068408964310524823 0 0.064011341477233252 -0.00097670405433877079 0 0.064049273808952908 -0.0016600904586591258 0 0.064011341477233252 -0.00097670405433877079 0 0.064997506247311237 2.9877735690480274e-07 0 0.06340309409015786 -0.00042471455029055187 0 0.064999252539889002 -5.9039958235374273e-07 0 0.064428704258662928 -0.00043307176488476651 0 0.064773978002995725 -0.00068408964310524823 0 0.064011341477233252 -0.00097670405433877079 0 0.064997506247311237 2.9877735690480274e-07 0 0.064999999581125512 9.1545371155266874e-10 0 0.064999998658000352 -1.1138326429842903e-09 0 0.064999474822230716 -5.1523338560126818e-07 0 0.064999998658000352 -1.1138326429842903e-09 0 0.064999474822230716 -5.1523338560126818e-07 0 0.064999308512708714 -7.1420127208415064e-07 0 0.064011341477233252 -0.00097670405433877079 0 0.06340309409015786 -0.00042471455029055187 0 0.063130763228742712 -0.0012300416016282733 0 0.064011341477233252 -0.00097670405433877079 0 0.063130763228742712 -0.0012300416016282733 0 0.063444685116565064 -0.0019889410416887125 0 0.063130763228742712 -0.0012300416016282733 0 0.063444685116565064 -0.0019889410416887125 0 0.062799762028853429 -0.0019556281224398383 0 0.064011341477233252 -0.00097670405433877079 0 0.063444685116565064 -0.0019889410416887125 0 0.064049273808952908 -0.0016600904586591258 0 0.063444685116565064 -0.0019889410416887125 0 0.064049273808952908 -0.0016600904586591258 0 0.063655354973450332 -0.0026504073751152991 0 0.063523198379181744 -0.0030695874606518352 0 0.063655354973450332 -0.0026504073751152991 0 0.063266889671361098 -0.0027351990962895391 0 0.063444685116565064 -0.0019889410416887125 0 0.063655354973450332 -0.0026504073751152991 0 0.063266889671361098 -0.0027351990962895391 0 0.063444685116565064 -0.0019889410416887125 0 0.063266889671361098 -0.0027351990962895391 0 0.062799762028853429 -0.0019556281224398383 0 0.063857477008327987 -0.0017119101116073634 0 0.063885229754053502 -0.0014176392519949976 0 0.063266889671361098 -0.0027351990962895391 0 0.063126619553923305 -0.0026439733974080114 0 0.063386677780726638 -0.0022604783357866305 0 0.063606086847669149 -0.0074252813805367971 0 0.065247377314792673 -0.004962208763939064 0 0.063343897056400048 -0.005259171452603178 0 0.063606086847669149 -0.0074252813805367971 0 0.063343897056400048 -0.005259171452603178 0 0.061759274542173143 -0.0059091922480540007 0 0.063343897056400048 -0.005259171452603178 0 0.061759274542173143 -0.0059091922480540007 0 0.062372743909466261 -0.0042189338842540973 0 0.062372743909466261 -0.0042189338842540973 0 0.061816362657076462 -0.0031342450025885612 0 0.06094322016882979 -0.0042291863790384718 0 0.061759274542173143 -0.0059091922480540007 0 0.062372743909466261 -0.0042189338842540973 0 0.06094322016882979 -0.0042291863790384718 0 0.065247377314792673 -0.004962208763939064 0 0.063343897056400048 -0.005259171452603178 0 0.063374318405532634 -0.0038112984758458517 0 0.063343897056400048 -0.005259171452603178 0 0.062372743909466261 -0.0042189338842540973 0 0.063374318405532634 -0.0038112984758458517 0 0.063374318405532634 -0.0038112984758458517 0 0.062682951504309192 -0.0029851310721236641 0 0.063130083995128122 -0.0019365490975812917 0 0.062372743909466261 -0.0042189338842540973 0 0.063374318405532634 -0.0038112984758458517 0 0.062682951504309192 -0.0029851310721236641 0 0.062372743909466261 -0.0042189338842540973 0 0.062682951504309192 -0.0029851310721236641 0 0.061816362657076462 -0.0031342450025885612 0 0.062682951504309192 -0.0029851310721236641 0 0.061816362657076462 -0.0031342450025885612 0 0.062346297625769133 -0.0019655156464034756 0 0.062682951504309192 -0.0029851310721236641 0 0.062346297625769133 -0.0019655156464034756 0 0.063130083995128122 -0.0019365490975812917 0 0.063126619553923305 -0.0026439733974080114 0 0.063130083995128122 -0.0019365490975812917 0 0.063386677780726638 -0.0022604783357866305 0 0.065247377314792673 -0.004962208763939064 0 0.063374318405532634 -0.0038112984758458517 0 0.063130083995128122 -0.0019365490975812917 0 0.063885229754053502 -0.0014176392519949976 0 0.064137212680433306 -0.0008273786425752206 0 0.061249117384348288 -0.0054560964703764241 0 0.061512658725796164 -0.0043512798970373242 0 0.063130083995128122 -0.0019365490975812917 0 0.063386677780726638 -0.0022604783357866305 0 0.063448305393842899 -0.0014882174966427018 0 0.063130763228742712 -0.0012300416016282733 0 0.062799762028853429 -0.0019556281224398383 0 0.062333197090282642 -0.0010440393391625603 0 0.06340309409015786 -0.00042471455029055187 0 0.063130763228742712 -0.0012300416016282733 0 0.062333197090282642 -0.0010440393391625603 0 0.064428704258662928 -0.00043307176488476651 0 0.064137212680433306 -0.0008273786425752206 0 0.064998264912562193 -1.9459427237493988e-06 0 0.064999308512708714 -7.1420127208415064e-07 0 0.064999998050408361 -2.7135242967003105e-10 0 0.064999474822230716 -5.1523338560126818e-07 0 0.064998264912562193 -1.9459427237493988e-06 0 0.064999308512708714 -7.1420127208415064e-07 0 0.064999998658000352 -1.1138326429842903e-09 0 0.064999308512708714 -7.1420127208415064e-07 0 0.064999998050408361 -2.7135242967003105e-10 0 0.064998955955397453 5.9094704783131553e-07 0 0.064745136540427684 -0.00021403556583339973 0 0.063973227293404836 8.4820480366757312e-06 0 0.064137212680433306 -0.0008273786425752206 0 0.064998336946945637 -1.1454123159965827e-06 0 0.065159886136948036 -0.00034879083412690608 0 0.064998955955397453 5.9094704783131553e-07 0 0.064745136540427684 -0.00021403556583339973 0 0.06467479530327537 -0.0010970280399362979 0 0.065159886136948036 -0.00034879083412690608 0 0.064745136540427684 -0.00021403556583339973 0 0.06332294899140066 -0.0013750143325273565 0 0.064137212680433306 -0.0008273786425752206 0 0.062346297625769133 -0.0019655156464034756 0 0.063130083995128122 -0.0019365490975812917 0 0.063448305393842899 -0.0014882174966427018 0 0.06467479530327537 -0.0010970280399362979 0 0.064745136540427684 -0.00021403556583339973 0 0.063973227293404836 8.4820480366757312e-06 0 0.06467479530327537 -0.0010970280399362979 0 0.063973227293404836 8.4820480366757312e-06 0 0.062316255060725384 -0.0015969183485649121 0 0.063973227293404836 8.4820480366757312e-06 0 0.064631355665243209 4.3078882685152357e-05 0 0.064652001533897885 0.00018757734245916305 0 0.064998955955397453 5.9094704783131553e-07 0 0.063973227293404836 8.4820480366757312e-06 0 0.064642617350852874 -7.5461432073150548e-05 0 0.064998955955397453 5.9094704783131553e-07 0 0.064999355821068236 -3.8428266377606611e-07 0 0.064642617350852874 -7.5461432073150548e-05 0 0.0648678302259839 -4.0305042413590822e-05 0 0.064999355821068236 -3.8428266377606611e-07 0 0.064642617350852874 -7.5461432073150548e-05 0 0.0648678302259839 -4.0305042413590822e-05 0 0.064631355665243209 4.3078882685152357e-05 0 0.064752691003111457 8.371809081646279e-05 0 0.0648678302259839 -4.0305042413590822e-05 0 0.064642617350852874 -7.5461432073150548e-05 0 0.064631355665243209 4.3078882685152357e-05 0 0.063973227293404836 8.4820480366757312e-06 0 0.064642617350852874 -7.5461432073150548e-05 0 0.064631355665243209 4.3078882685152357e-05 0 0.064631355665243209 4.3078882685152357e-05 0 0.064752691003111457 8.371809081646279e-05 0 0.064652001533897885 0.00018757734245916305 0 0.064752691003111457 8.371809081646279e-05 0 0.064652001533897885 0.00018757734245916305 0 0.064746247104077656 0.00010537785221198503 0 0.063973227293404836 8.4820480366757312e-06 0 0.058864221172399998 -0.0028409783526665657 0 0.062316255060725384 -0.0015969183485649121 0 0.061529384634174879 -0.0014758287099872582 0 0.060891158814144336 -0.0021647164640063209 0 0.06332294899140066 -0.0013750143325273565 0 0.062762975472574867 -0.0017191276384043686 0 0.061816362657076462 -0.0031342450025885612 0 0.062346297625769133 -0.0019655156464034756 0 0.060756582033080583 -0.0028155010839945455 0 0.06467479530327537 -0.0010970280399362979 0 0.062316255060725384 -0.0015969183485649121 0 0.060756582033080583 -0.0028155010839945455 0 0.061816362657076462 -0.0031342450025885612 0 0.060756582033080583 -0.0028155010839945455 0 0.06094322016882979 -0.0042291863790384718 0 0.058864221172399998 -0.0028409783526665657 0 0.062316255060725384 -0.0015969183485649121 0 0.060756582033080583 -0.0028155010839945455 0 0.058864221172399998 -0.0028409783526665657 0 0.060756582033080583 -0.0028155010839945455 0 0.05910921355664709 -0.0044408079876743049 0 0.060756582033080583 -0.0028155010839945455 0 0.05910921355664709 -0.0044408079876743049 0 0.06094322016882979 -0.0042291863790384718 0 0.05910921355664709 -0.0044408079876743049 0 0.06094322016882979 -0.0042291863790384718 0 0.059536263525592416 -0.005984574233413152 0 0.061759274542173143 -0.0059091922480540007 0 0.06094322016882979 -0.0042291863790384718 0 0.059536263525592416 -0.005984574233413152 0 0.055149918220457672 -0.0064978091363473928 0 0.05910921355664709 -0.0044408079876743049 0 0.059536263525592416 -0.005984574233413152 0 0.06479025739582589 4.4252852017019087e-05 0 0.064652001533897885 0.00018757734245916305 0 0.064746247104077656 0.00010537785221198503 0 0.055149918220457672 -0.0064978091363473928 0 0.058864221172399998 -0.0028409783526665657 0 0.05910921355664709 -0.0044408079876743049 0 0.059624366246263522 -0.0035535952716617201 0 0.060891158814144336 -0.0021647164640063209 0 0.062992676189022531 -0.0029010074253866241 0 0.062975591788243912 -0.0041167172422828316 0 0.062301789449721021 -0.0013933181382104005 0 0.062992676189022531 -0.0029010074253866241 0 0.063623138918632055 -0.0039052134265956224 0 0.062757025345299131 -0.0015628953850689521 0 0.063690793272775492 -0.0018701838290040541 0 0.063024333352599757 -0.00077121178200011868 0 0.063684236610179606 -0.00028529398616591433 0 0.063934494435418737 -0.00041831919892456953 0 0.063165327279252267 -0.0002427240187193911 0 0.06393561551272986 -0.00033806904685783752 0 0.063684236610179606 -0.00028529398616591433 0 0.063934494435418737 -0.00041831919892456953 0 0.062992676189022531 -0.0029010074253866241 0 0.063623138918632055 -0.0039052134265956224 0 0.063259721757610798 -0.0038677074578276332 0 0.063684236610179606 -0.00028529398616591433 0 0.063773460521565351 -0.00017449106248649033 0 0.063497191980094556 -0.00017465271814553376 0 0.06393561551272986 -0.00033806904685783752 0 0.063684236610179606 -0.00028529398616591433 0 0.06390230545504734 -0.00026156639058116303 0 0.063684236610179606 -0.00028529398616591433 0 0.06390230545504734 -0.00026156639058116303 0 0.063773460521565351 -0.00017449106248649033 0 0.06390230545504734 -0.00026156639058116303 0 0.063773460521565351 -0.00017449106248649033 0 0.064050871734154496 -0.00015197591530053127 0 0.06390230545504734 -0.00026156639058116303 0 0.064108221058487902 -0.00031284505507817359 0 0.064050871734154496 -0.00015197591530053127 0 0.064108221058487902 -0.00031284505507817359 0 0.064050871734154496 -0.00015197591530053127 0 0.064267067659960736 -0.00021139440595250219 0 0.064108221058487902 -0.00031284505507817359 0 0.064267067659960736 -0.00021139440595250219 0 0.064367257401319392 -0.0003050283896839741 0 0.06393561551272986 -0.00033806904685783752 0 0.06390230545504734 -0.00026156639058116303 0 0.064108221058487902 -0.00031284505507817359 0 0.06393561551272986 -0.00033806904685783752 0 0.064108221058487902 -0.00031284505507817359 0 0.064042993373124399 -0.00036554481786375473 0 0.064042993373124399 -0.00036554481786375473 0 0.064198254737834984 -0.0003754983903268778 0 0.063934494435418737 -0.00041831919892456953 0 0.064108221058487902 -0.00031284505507817359 0 0.064042993373124399 -0.00036554481786375473 0 0.064198254737834984 -0.0003754983903268778 0 0.064198254737834984 -0.0003754983903268778 0 0.063934494435418737 -0.00041831919892456953 0 0.064361764552718748 -0.00038293744794504154 0 0.064108221058487902 -0.00031284505507817359 0 0.064198254737834984 -0.0003754983903268778 0 0.064367257401319392 -0.0003050283896839741 0 0.064198254737834984 -0.0003754983903268778 0 0.064367257401319392 -0.0003050283896839741 0 0.064411790540448405 -0.00034655008325770861 0 0.063338929458171822 -0.004269376257928963 0 0.06302070921917978 -0.0050930977462281309 0 0.064589071010490995 -0.006140136256323237 0 0.063623138918632055 -0.0039052134265956224 0 0.063338929458171822 -0.004269376257928963 0 0.064589071010490995 -0.006140136256323237 0 0.063690793272775492 -0.0018701838290040541 0 0.064256553293538743 -0.0026902981524005946 0 0.06393561551272986 -0.00033806904685783752 0 0.064042993373124399 -0.00036554481786375473 0 0.063934494435418737 -0.00041831919892456953 0 0.062992676189022531 -0.0029010074253866241 0 0.063259721757610798 -0.0038677074578276332 0 0.062975591788243912 -0.0041167172422828316 0 0.063623138918632055 -0.0039052134265956224 0 0.063259721757610798 -0.0038677074578276332 0 0.063338929458171822 -0.004269376257928963 0 0.062014708448309211 -0.0034304130087862137 0 0.061981169358457711 -0.0034157161188188311 0 0.063259721757610798 -0.0038677074578276332 0 0.063338929458171822 -0.004269376257928963 0 0.062975591788243912 -0.0041167172422828316 0 0.063338929458171822 -0.004269376257928963 0 0.062948939595077136 -0.0041438613454718009 0 0.06277634685002878 -0.004463477497254233 0 0.063338929458171822 -0.004269376257928963 0 0.06277634685002878 -0.004463477497254233 0 0.06302070921917978 -0.0050930977462281309 0 0.06277634685002878 -0.004463477497254233 0 0.06302070921917978 -0.0050930977462281309 0 0.062393203968531132 -0.004755841273816448 0 0.062948939595077136 -0.0041438613454718009 0 0.06200858320428948 -0.0043419139254423462 0 0.06056861316363471 -0.0033541000602230792 0 0.061981169358457711 -0.0034157161188188311 0 0.060498830472049972 -0.0031885659075584888 0 0.06302070921917978 -0.0050930977462281309 0 0.062393203968531132 -0.004755841273816448 0 0.062151051711968025 -0.0051872662177883718 0 0.06277634685002878 -0.004463477497254233 0 0.062393203968531132 -0.004755841273816448 0 0.06200858320428948 -0.0043419139254423462 0 0.062013586605405346 -0.0046968292430634648 0 0.062151051711968025 -0.0051872662177883718 0 0.06143169035614602 -0.0046085265756286124 0 0.062393203968531132 -0.004755841273816448 0 0.062013586605405346 -0.0046968292430634648 0 0.06200858320428948 -0.0043419139254423462 0 0.062393203968531132 -0.004755841273816448 0 0.062013586605405346 -0.0046968292430634648 0 0.062151051711968025 -0.0051872662177883718 0 0.06143169035614602 -0.0046085265756286124 0 0.060911337045838759 -0.0049010693111917018 0 0.061255071973322188 -0.0054136538775509651 0 0.062151051711968025 -0.0051872662177883718 0 0.06143169035614602 -0.0046085265756286124 0 0.061255071973322188 -0.0054136538775509651 0 0.062013586605405346 -0.0046968292430634648 0 0.06143169035614602 -0.0046085265756286124 0 0.06200858320428948 -0.0043419139254423462 0 0.06143169035614602 -0.0046085265756286124 0 0.06200858320428948 -0.0043419139254423462 0 0.06056861316363471 -0.0033541000602230792 0 0.062948939595077136 -0.0041438613454718009 0 0.06277634685002878 -0.004463477497254233 0 0.06200858320428948 -0.0043419139254423462 0 0.060299224829706143 -0.005100098246990056 0 0.06055200973660705 -0.0044320005342653639 0 0.059452765618983071 -0.0041426011635376037 0 0.06143169035614602 -0.0046085265756286124 0 0.060911337045838759 -0.0049010693111917018 0 0.06055200973660705 -0.0044320005342653639 0 0.060299224829706143 -0.005100098246990056 0 0.060911337045838759 -0.0049010693111917018 0 0.061255071973322188 -0.0054136538775509651 0 0.060299224829706143 -0.005100098246990056 0 0.060911337045838759 -0.0049010693111917018 0 0.06055200973660705 -0.0044320005342653639 0 0.06143169035614602 -0.0046085265756286124 0 0.06055200973660705 -0.0044320005342653639 0 0.06056861316363471 -0.0033541000602230792 0 0.06055200973660705 -0.0044320005342653639 0 0.06056861316363471 -0.0033541000602230792 0 0.059452765618983071 -0.0041426011635376037 0 0.060491195830704975 -0.0036377266548494602 0 0.061275642371731692 -0.0029135482015328206 0 0.060764771252571646 -0.0019788124004000152 0 0.060491195830704975 -0.0036377266548494602 0 0.05955608635044321 -0.0022883593410106592 0 0.060764771252571646 -0.0019788124004000152 0 0.06269479160179578 -0.0044556632522948711 0 0.060491195830704975 -0.0036377266548494602 0 0.061275642371731692 -0.0029135482015328206 0 0.06269479160179578 -0.0044556632522948711 0 0.061275642371731692 -0.0029135482015328206 0 0.061867189736229865 -0.0020275710942055545 0 0.061981169358457711 -0.0034157161188188311 0 0.061768862630714634 -0.0017259005941059669 0 0.062992676189022531 -0.0029010074253866241 0 0.062301789449721021 -0.0013933181382104005 0 0.062757025345299131 -0.0015628953850689521 0 0.062301789449721021 -0.0013933181382104005 0 0.062757025345299131 -0.0015628953850689521 0 0.061910779396888237 0.00055450371042827429 0 0.063024333352599757 -0.00077121178200011868 0 0.06263382961790169 -9.8531110992456134e-05 0 0.061275642371731692 -0.0029135482015328206 0 0.061867189736229865 -0.0020275710942055545 0 0.060764771252571646 -0.0019788124004000152 0 0.061867189736229865 -0.0020275710942055545 0 0.060764771252571646 -0.0019788124004000152 0 0.06086511655780704 -0.0007879528505220938 0 0.05955608635044321 -0.0022883593410106592 0 0.060764771252571646 -0.0019788124004000152 0 0.059648891565330549 -0.0014038936247074301 0 0.060764771252571646 -0.0019788124004000152 0 0.059648891565330549 -0.0014038936247074301 0 0.06027151399896391 -0.0010294315610294899 0 0.060764771252571646 -0.0019788124004000152 0 0.06027151399896391 -0.0010294315610294899 0 0.06086511655780704 -0.0007879528505220938 0 0.059648891565330549 -0.0014038936247074301 0 0.059724738238348909 -0.00053805975397488233 0 0.06027151399896391 -0.0010294315610294899 0 0.059724738238348909 -0.00053805975397488233 0 0.060352363683953913 -0.00043832679410719965 0 0.06027151399896391 -0.0010294315610294899 0 0.060352363683953913 -0.00043832679410719965 0 0.06086511655780704 -0.0007879528505220938 0 0.060548003110307946 -8.8386181467113628e-06 0 0.060352363683953913 -0.00043832679410719965 0 0.06027151399896391 -0.0010294315610294899 0 0.06086511655780704 -0.0007879528505220938 0 0.061057237412718214 0.00040279601575958214 0 0.060206237501662395 0.00041219547690247332 0 0.060548003110307946 -8.8386181467113628e-06 0 0.061057237412718214 0.00040279601575958214 0 0.06086511655780704 -0.0007879528505220938 0 0.060548003110307946 -8.8386181467113628e-06 0 0.060206237501662395 0.00041219547690247332 0 0.060548003110307946 -8.8386181467113628e-06 0 0.060084057045342601 -5.2330178945727928e-05 0 0.060352363683953913 -0.00043832679410719965 0 0.060548003110307946 -8.8386181467113628e-06 0 0.060084057045342601 -5.2330178945727928e-05 0 0.059724738238348909 -0.00053805975397488233 0 0.060352363683953913 -0.00043832679410719965 0 0.060084057045342601 -5.2330178945727928e-05 0 0.060206237501662395 0.00041219547690247332 0 0.060084057045342601 -5.2330178945727928e-05 0 0.059598232525892483 0.00012472312634904671 0 0.059724738238348909 -0.00053805975397488233 0 0.060084057045342601 -5.2330178945727928e-05 0 0.059598232525892483 0.00012472312634904671 0 0.061057237412718214 0.00040279601575958214 0 0.061867189736229865 -0.0020275710942055545 0 0.06086511655780704 -0.0007879528505220938 0 0.063165327279252267 -0.0002427240187193911 0 0.062757918653377737 0.00029877271492322088 0 0.061910779396888237 0.00055450371042827429 0 0.061589569217656327 0.0010469211300379274 0 0.062301789449721021 -0.0013933181382104005 0 0.061910779396888237 0.00055450371042827429 0 0.061173690583491369 0.00046859216966302196 0 0.061768862630714634 -0.0017259005941059669 0 0.062109117295098874 0.0010727251278049635 0 0.061589569217656327 0.0010469211300379274 0 0.061910779396888237 0.00055450371042827429 0 0.062109117295098874 0.0010727251278049635 0 0.061910779396888237 0.00055450371042827429 0 0.062561582131254873 0.00076196860953106767 0 0.062757918653377737 0.00029877271492322088 0 0.061910779396888237 0.00055450371042827429 0 0.062561582131254873 0.00076196860953106767 0 0.063157829139482924 0.00103770004611979 0 0.062561582131254873 0.00076196860953106767 0 0.063109361536600336 0.00048670400490670186 0 0.063157829139482924 0.00103770004611979 0 0.063584394874738104 0.00067337054700266892 0 0.063109361536600336 0.00048670400490670186 0 0.063864026415342445 0.0012547629102521178 0 0.063157829139482924 0.00103770004611979 0 0.063584394874738104 0.00067337054700266892 0 0.063584394874738104 0.00067337054700266892 0 0.063634973447777785 0.0002570676280908759 0 0.063109361536600336 0.00048670400490670186 0 0.063634973447777785 0.0002570676280908759 0 0.063109361536600336 0.00048670400490670186 0 0.063148686533512507 6.8268550589272665e-05 0 0.062757918653377737 0.00029877271492322088 0 0.063109361536600336 0.00048670400490670186 0 0.063148686533512507 6.8268550589272665e-05 0 0.062757918653377737 0.00029877271492322088 0 0.062561582131254873 0.00076196860953106767 0 0.063109361536600336 0.00048670400490670186 0 0.063165327279252267 -0.0002427240187193911 0 0.062757918653377737 0.00029877271492322088 0 0.063148686533512507 6.8268550589272665e-05 0 0.063148686533512507 6.8268550589272665e-05 0 0.063572150673782177 -2.3446736148651855e-05 0 0.063315568820378004 -0.00010353829641632471 0 0.063634973447777785 0.0002570676280908759 0 0.063148686533512507 6.8268550589272665e-05 0 0.063572150673782177 -2.3446736148651855e-05 0 0.063572150673782177 -2.3446736148651855e-05 0 0.063773460521565351 -0.00017449106248649033 0 0.063497191980094556 -0.00017465271814553376 0 0.063572150673782177 -2.3446736148651855e-05 0 0.063497191980094556 -0.00017465271814553376 0 0.063315568820378004 -0.00010353829641632471 0 0.063165327279252267 -0.0002427240187193911 0 0.063148686533512507 6.8268550589272665e-05 0 0.063315568820378004 -0.00010353829641632471 0 0.063684236610179606 -0.00028529398616591433 0 0.063165327279252267 -0.0002427240187193911 0 0.063497191980094556 -0.00017465271814553376 0 0.063165327279252267 -0.0002427240187193911 0 0.063497191980094556 -0.00017465271814553376 0 0.063315568820378004 -0.00010353829641632471 0 0.064050871734154496 -0.00015197591530053127 0 0.064264242854130016 5.0941568034479119e-05 0 0.064267067659960736 -0.00021139440595250219 0 0.064050871734154496 -0.00015197591530053127 0 0.063971261950948488 7.6756287759056365e-05 0 0.064264242854130016 5.0941568034479119e-05 0 0.063773460521565351 -0.00017449106248649033 0 0.064050871734154496 -0.00015197591530053127 0 0.063971261950948488 7.6756287759056365e-05 0 0.063572150673782177 -2.3446736148651855e-05 0 0.063773460521565351 -0.00017449106248649033 0 0.063971261950948488 7.6756287759056365e-05 0 0.063634973447777785 0.0002570676280908759 0 0.063572150673782177 -2.3446736148651855e-05 0 0.063971261950948488 7.6756287759056365e-05 0 0.063971261950948488 7.6756287759056365e-05 0 0.064138734758991553 0.00042667470101908256 0 0.064264242854130016 5.0941568034479119e-05 0 0.064219188868568755 0.00055174521638923398 0 0.064138734758991553 0.00042667470101908256 0 0.064296701812225548 0.00034390416619576621 0 0.063634973447777785 0.0002570676280908759 0 0.063971261950948488 7.6756287759056365e-05 0 0.064138734758991553 0.00042667470101908256 0 0.063584394874738104 0.00067337054700266892 0 0.063634973447777785 0.0002570676280908759 0 0.064138734758991553 0.00042667470101908256 0 0.063864026415342445 0.0012547629102521178 0 0.063584394874738104 0.00067337054700266892 0 0.064138734758991553 0.00042667470101908256 0 0.064410748196275111 0.00052639862891880166 0 0.064296701812225548 0.00034390416619576621 0 0.064524738779032059 7.4458972807283998e-05 0 0.064296701812225548 0.00034390416619576621 0 0.064524738779032059 7.4458972807283998e-05 0 0.064264242854130016 5.0941568034479119e-05 0 0.064138734758991553 0.00042667470101908256 0 0.064296701812225548 0.00034390416619576621 0 0.064264242854130016 5.0941568034479119e-05 0 0.064469922848854375 -0.00011353551301066204 0 0.064509820264903109 -0.00014674051791500246 0 0.064524738779032059 7.4458972807283998e-05 0 0.0573245559344766 -0.0021393228391170015 0 0.058284343543367194 -0.0017965299041279969 0 0.064522695511606165 -5.6411861078211378e-05 0 0.064535424965907598 -5.8434261976452762e-05 0 0.064552794851982342 -0.00015094024581220456 0 0.064524738779032059 7.4458972807283998e-05 0 0.064522695511606165 -5.6411861078211378e-05 0 0.064419477723898361 -0.00012339880005029271 0 0.064524738779032059 7.4458972807283998e-05 0 0.064522695511606165 -5.6411861078211378e-05 0 0.064535424965907598 -5.8434261976452762e-05 0 0.064524738779032059 7.4458972807283998e-05 0 0.064264242854130016 5.0941568034479119e-05 0 0.064419477723898361 -0.00012339880005029271 0 0.064264242854130016 5.0941568034479119e-05 0 0.064267067659960736 -0.00021139440595250219 0 0.064419477723898361 -0.00012339880005029271 0 0.064382746536088248 -0.00016938663100099819 0 0.064467734635852952 -0.00011591176008834816 0 0.064539042723897475 -9.6096106464800242e-05 0 0.061803945533343056 -0.0091146746533308006 0 0.064003547862520854 -0.0062531126286876175 0 0.064467734635852952 -0.00011591176008834816 0 0.064535424965907598 -5.8434261976452762e-05 0 0.064539042723897475 -9.6096106464800242e-05 0 0.064469922848854375 -0.00011353551301066204 0 0.064524738779032059 7.4458972807283998e-05 0 0.064535424965907598 -5.8434261976452762e-05 0 0.064469922848854375 -0.00011353551301066204 0 0.064467734635852952 -0.00011591176008834816 0 0.064535424965907598 -5.8434261976452762e-05 0 0.064535424965907598 -5.8434261976452762e-05 0 0.064539042723897475 -9.6096106464800242e-05 0 0.064593721001798859 -0.00013864669688606811 0 0.064660358365147191 -0.00018317126167299421 0 0.064593721001798859 -0.00013864669688606811 0 0.064648748136920536 -0.000228791579962083 0 0.064003547862520854 -0.0062531126286876175 0 0.064915579818173391 -0.0037426486620600607 0 0.064539042723897475 -9.6096106464800242e-05 0 0.064660358365147191 -0.00018317126167299421 0 0.064593721001798859 -0.00013864669688606811 0 0.064535424965907598 -5.8434261976452762e-05 0 0.064593721001798859 -0.00013864669688606811 0 0.064552794851982342 -0.00015094024581220456 0 0.064593721001798859 -0.00013864669688606811 0 0.064648748136920536 -0.000228791579962083 0 0.064552794851982342 -0.00015094024581220456 0 0.064660358365147191 -0.00018317126167299421 0 0.064648748136920536 -0.000228791579962083 0 0.064714840070498103 -0.00023833200655324846 0 0.064915579818173391 -0.0037426486620600607 0 0.065169186272158092 -0.0019245466583683321 0 0.064454442365167619 -0.00022380788872448937 0 0.064267067659960736 -0.00021139440595250219 0 0.064367257401319392 -0.0003050283896839741 0 0.064454442365167619 -0.00022380788872448937 0 0.064267067659960736 -0.00021139440595250219 0 0.064419477723898361 -0.00012339880005029271 0 0.064454442365167619 -0.00022380788872448937 0 0.064419477723898361 -0.00012339880005029271 0 0.064552794851982342 -0.00015094024581220456 0 0.064522695511606165 -5.6411861078211378e-05 0 0.064419477723898361 -0.00012339880005029271 0 0.064552794851982342 -0.00015094024581220456 0 0.064454442365167619 -0.00022380788872448937 0 0.064552794851982342 -0.00015094024581220456 0 0.064551574810130019 -0.00025753662667917697 0 0.064648748136920536 -0.000228791579962083 0 0.064552794851982342 -0.00015094024581220456 0 0.064551574810130019 -0.00025753662667917697 0 0.064648748136920536 -0.000228791579962083 0 0.064551574810130019 -0.00025753662667917697 0 0.064662836483690533 -0.0002718807940118161 0 0.064551574810130019 -0.00025753662667917697 0 0.064367257401319392 -0.0003050283896839741 0 0.064521967710559999 -0.00030615977544558564 0 0.064454442365167619 -0.00022380788872448937 0 0.064551574810130019 -0.00025753662667917697 0 0.064367257401319392 -0.0003050283896839741 0 0.064367257401319392 -0.0003050283896839741 0 0.064411790540448405 -0.00034655008325770861 0 0.064521967710559999 -0.00030615977544558564 0 0.064411790540448405 -0.00034655008325770861 0 0.06457441230934069 -0.00031476630715530262 0 0.064521967710559999 -0.00030615977544558564 0 0.064551574810130019 -0.00025753662667917697 0 0.064521967710559999 -0.00030615977544558564 0 0.064662836483690533 -0.0002718807940118161 0 0.06457441230934069 -0.00031476630715530262 0 0.064521967710559999 -0.00030615977544558564 0 0.064662836483690533 -0.0002718807940118161 0 0.06457441230934069 -0.00031476630715530262 0 0.064662836483690533 -0.0002718807940118161 0 0.06472190715902669 -0.00026310343297811239 0 0.064662836483690533 -0.0002718807940118161 0 0.06472190715902669 -0.00026310343297811239 0 0.06481802408472627 -0.00018693006704565082 0 0.06472190715902669 -0.00026310343297811239 0 0.064655055718303836 -0.00030006859848558679 0 0.064765773421258097 -0.00026366562053071975 0 0.06457441230934069 -0.00031476630715530262 0 0.064655055718303836 -0.00030006859848558679 0 0.064361764552718748 -0.00038293744794504154 0 0.064655055718303836 -0.00030006859848558679 0 0.064765773421258097 -0.00026366562053071975 0 0.064643889302494012 -0.00031384346641948692 0 0.06457441230934069 -0.00031476630715530262 0 0.06472190715902669 -0.00026310343297811239 0 0.064655055718303836 -0.00030006859848558679 0 0.064648748136920536 -0.000228791579962083 0 0.064714840070498103 -0.00023833200655324846 0 0.064756733016011411 -0.00022704687466092594 0 0.064648748136920536 -0.000228791579962083 0 0.064662836483690533 -0.0002718807940118161 0 0.064756733016011411 -0.00022704687466092594 0 0.064662836483690533 -0.0002718807940118161 0 0.064756733016011411 -0.00022704687466092594 0 0.06481802408472627 -0.00018693006704565082 0 0.065169186272158092 -0.0019245466583683321 0 0.065135885132158858 -0.00082964575180270023 0 0.064714840070498103 -0.00023833200655324846 0 0.064756733016011411 -0.00022704687466092594 0 0.06478897693259443 -0.00016463819929250718 0 0.064756733016011411 -0.00022704687466092594 0 0.06478897693259443 -0.00016463819929250718 0 0.064885064232048553 -0.0001098312739870695 0 0.064756733016011411 -0.00022704687466092594 0 0.064885064232048553 -0.0001098312739870695 0 0.06481802408472627 -0.00018693006704565082 0 0.064885064232048553 -0.0001098312739870695 0 0.06481802408472627 -0.00018693006704565082 0 0.064910952683762485 -9.3960700593106168e-05 0 0.064885064232048553 -0.0001098312739870695 0 0.064999860750283231 -8.035424839422428e-08 0 0.064910952683762485 -9.3960700593106168e-05 0 0.06478897693259443 -0.00016463819929250718 0 0.064885064232048553 -0.0001098312739870695 0 0.064999667824426871 -7.3810860204812653e-08 0 0.064885064232048553 -0.0001098312739870695 0 0.064999860750283231 -8.035424839422428e-08 0 0.064999667824426871 -7.3810860204812653e-08 0 0.065135885132158858 -0.00082964575180270023 0 0.065000287347465435 -9.2016484448476357e-07 0 0.064765773421258097 -0.00026366562053071975 0 0.06483328491210745 -0.00017605191726359634 0 0.064871304722444026 -0.00014908939369857115 0 0.06483328491210745 -0.00017605191726359634 0 0.064904143187768784 -0.00010482806863914551 0 0.064871304722444026 -0.00014908939369857115 0 0.064565633088491711 -0.00080273971681429825 0 0.06424583921658894 -0.0022137644085833915 0 0.064992578921209021 -1.0896648507161981e-05 0 0.064994774113048187 -1.4363587461048097e-05 0 0.064989563108571818 -2.5631587570842803e-05 0 0.064765773421258097 -0.00026366562053071975 0 0.064871304722444026 -0.00014908939369857115 0 0.064815108311905581 -0.00029808751601787681 0 0.064231390791496798 -0.0021471362484653434 0 0.06424583921658894 -0.0022137644085833915 0 0.06472190715902669 -0.00026310343297811239 0 0.064765773421258097 -0.00026366562053071975 0 0.06483328491210745 -0.00017605191726359634 0 0.06472190715902669 -0.00026310343297811239 0 0.06481802408472627 -0.00018693006704565082 0 0.06483328491210745 -0.00017605191726359634 0 0.06481802408472627 -0.00018693006704565082 0 0.06483328491210745 -0.00017605191726359634 0 0.064910952683762485 -9.3960700593106168e-05 0 0.064999860750283231 -8.035424839422428e-08 0 0.064910952683762485 -9.3960700593106168e-05 0 0.064999786234717208 -1.6988923586691183e-07 0 0.064904143187768784 -0.00010482806863914551 0 0.064910952683762485 -9.3960700593106168e-05 0 0.064999786234717208 -1.6988923586691183e-07 0 0.06483328491210745 -0.00017605191726359634 0 0.064904143187768784 -0.00010482806863914551 0 0.064910952683762485 -9.3960700593106168e-05 0 0.06499839158873863 -1.4577769510072072e-06 0 0.064565633088491711 -0.00080273971681429825 0 0.064999988671062214 -4.2906312973909566e-09 0 0.064992578921209021 -1.0896648507161981e-05 0 0.064999987689607797 -6.2874597396399057e-09 0 0.064904143187768784 -0.00010482806863914551 0 0.064999786234717208 -1.6988923586691183e-07 0 0.064871304722444026 -0.00014908939369857115 0 0.064992578921209021 -1.0896648507161981e-05 0 0.064999987689607797 -6.2874597396399057e-09 0 0.064994774113048187 -1.4363587461048097e-05 0 0.064999987689607797 -6.2874597396399057e-09 0 0.064998352334457554 -1.6408884037630625e-05 0 0.064994774113048187 -1.4363587461048097e-05 0 0.064999987689607797 -6.2874597396399057e-09 0 0.06500002269459644 -1.1426361128686103e-08 0 0.064998352334457554 -1.6408884037630625e-05 0 0.06500002269459644 -1.1426361128686103e-08 0 0.064998352334457554 -1.6408884037630625e-05 0 0.065006176013658559 -1.9449896995683632e-05 0 0.064998352334457554 -1.6408884037630625e-05 0 0.064999285616754263 -4.4188518977866762e-05 0 0.065006176013658559 -1.9449896995683632e-05 0 0.064998352334457554 -1.6408884037630625e-05 0 0.064989563108571818 -2.5631587570842803e-05 0 0.064999285616754263 -4.4188518977866762e-05 0 0.064998352334457554 -1.6408884037630625e-05 0 0.064994774113048187 -1.4363587461048097e-05 0 0.064989563108571818 -2.5631587570842803e-05 0 0.065578721703981657 -0.008270319929093219 0 0.063070993868831041 -0.0071929086693169816 0 0.064589071010490995 -0.006140136256323237 0 0.06424583921658894 -0.0022137644085833915 0 0.063991799907180555 -0.0029574692160454267 0 0.064655055718303836 -0.00030006859848558679 0 0.064643889302494012 -0.00031384346641948692 0 0.064361764552718748 -0.00038293744794504154 0 0.06424583921658894 -0.0022137644085833915 0 0.064256553293538743 -0.0026902981524005946 0 0.06302070921917978 -0.0050930977462281309 0 0.062926050205960454 -0.0058140962466709991 0 0.064589071010490995 -0.006140136256323237 0 0.063070993868831041 -0.0071929086693169816 0 0.062926050205960454 -0.0058140962466709991 0 0.064589071010490995 -0.006140136256323237 0 0.063070993868831041 -0.0071929086693169816 0 0.062926050205960454 -0.0058140962466709991 0 0.06198033193897564 -0.0057806508615659688 0 0.06302070921917978 -0.0050930977462281309 0 0.062151051711968025 -0.0051872662177883718 0 0.062926050205960454 -0.0058140962466709991 0 0.064411790540448405 -0.00034655008325770861 0 0.06457441230934069 -0.00031476630715530262 0 0.064361764552718748 -0.00038293744794504154 0 0.064198254737834984 -0.0003754983903268778 0 0.064411790540448405 -0.00034655008325770861 0 0.064361764552718748 -0.00038293744794504154 0 0.060299224829706143 -0.005100098246990056 0 0.060484200212916742 -0.0061048304030028025 0 0.058522338074489803 -0.0052636096618073544 0 0.060299224829706143 -0.005100098246990056 0 0.060494234575704568 -0.0060972668036884227 0 0.061255071973322188 -0.0054136538775509651 0 0.062633531221013408 -0.0031363112978457989 0 0.062688169156937479 -0.0027750505726003671 0 0.062151051711968025 -0.0051872662177883718 0 0.061255071973322188 -0.0054136538775509651 0 0.06198033193897564 -0.0057806508615659688 0 0.063070993868831041 -0.0071929086693169816 0 0.060494234575704568 -0.0060972668036884227 0 0.06198033193897564 -0.0057806508615659688 0 0.063991799907180555 -0.0029574692160454267 0 0.062688169156937479 -0.0027750505726003671 0 0.060494234575704568 -0.0060972668036884227 0 0.061255071973322188 -0.0054136538775509651 0 0.06198033193897564 -0.0057806508615659688 0 0.062151051711968025 -0.0051872662177883718 0 0.062926050205960454 -0.0058140962466709991 0 0.06198033193897564 -0.0057806508615659688 0 0.064999285616754263 -4.4188518977866762e-05 0 0.06501817419759176 -6.5261916489479696e-05 0 0.065018215209303287 -3.2707967805393162e-05 0 0.062688169156937479 -0.0027750505726003671 0 0.06360028177504555 -0.0013983137848652271 0 0.061760396210891924 -0.0020672289851769391 0 0.061855514027117704 -0.0025666372141485341 0 0.061475064827351829 -0.0023506979051643203 0 0.061855514027117704 -0.0025666372141485341 0 0.061602365758692837 -0.0027141176092477428 0 0.061475064827351829 -0.0023506979051643203 0 0.061855514027117704 -0.0025666372141485341 0 0.061602365758692837 -0.0027141176092477428 0 0.061952776411822154 -0.0030653281422451432 0 0.06360028177504555 -0.0013983137848652271 0 0.06466577067821723 -0.00040602324492971999 0 0.065018215209303287 -3.2707967805393162e-05 0 0.065006176013658559 -1.9449896995683632e-05 0 0.065015232952915808 -4.8381469249344127e-06 0 0.064999285616754263 -4.4188518977866762e-05 0 0.065018215209303287 -3.2707967805393162e-05 0 0.065006176013658559 -1.9449896995683632e-05 0 0.06500002269459644 -1.1426361128686103e-08 0 0.065006176013658559 -1.9449896995683632e-05 0 0.065015232952915808 -4.8381469249344127e-06 0 0.06466577067821723 -0.00040602324492971999 0 0.064994670706140095 -3.4971666689652702e-06 0 0.064999352874791708 -1.3646875769843974e-06 0 0.06466577067821723 -0.00040602324492971999 0 0.065000000381723766 4.8810339366841579e-11 0 0.064999851067666661 -2.3266868336010901e-07 0 0.06499999846422802 -9.536017853521652e-10 0 0.061602365758692837 -0.0027141176092477428 0 0.061952776411822154 -0.0030653281422451432 0 0.061486977047273572 -0.0029692360555201654 0 0.06466577067821723 -0.00040602324492971999 0 0.063539413818485449 -0.00099345458920121446 0 0.064999802917814389 -2.6644356589041396e-07 0 0.065000009147516705 4.0918064800903788e-09 0 0.064999465357034242 2.2918997189942189e-07 0 0.065000009147516705 4.0918064800903788e-09 0 0.064999465357034242 2.2918997189942189e-07 0 0.064999978416103832 -1.164162558982985e-08 0 0.063539413818485449 -0.00099345458920121446 0 0.062927219109909185 -0.0014269818122198531 0 0.064999465357034242 2.2918997189942189e-07 0 0.064999978416103832 -1.164162558982985e-08 0 0.064986819201414997 -1.4316369392254554e-06 0 0.065000003078828417 9.1727829795192752e-10 0 0.064999994602557121 -1.61019795881656e-09 0 0.065000205218390797 2.7604112438434806e-07 0 0.064999993114168306 -8.9186615060496894e-10 0 0.064996269159184591 -1.09103376954528e-07 0 0.064999978416103832 -1.164162558982985e-08 0 0.064986819201414997 -1.4316369392254554e-06 0 0.064986614194114251 -1.9739956503657884e-06 0 0.061019413083885643 -0.0028698768720869391 0 0.061240177367602948 -0.0026178177886683374 0 0.060925668712576445 -0.002506245773465018 0 0.061486977047273572 -0.0029692360555201654 0 0.061019413083885643 -0.0028698768720869391 0 0.061240177367602948 -0.0026178177886683374 0 0.061602365758692837 -0.0027141176092477428 0 0.061486977047273572 -0.0029692360555201654 0 0.061240177367602948 -0.0026178177886683374 0 0.061602365758692837 -0.0027141176092477428 0 0.061240177367602948 -0.0026178177886683374 0 0.061475064827351829 -0.0023506979051643203 0 0.064997492230285184 -1.3085100921087195e-06 0 0.064999994602557121 -1.61019795881656e-09 0 0.064999995211159928 -3.4690929399598076e-09 0 0.064997492230285184 -1.3085100921087195e-06 0 0.064993180685404356 -3.3609781348043575e-06 0 0.064999995211159928 -3.4690929399598076e-09 0 0.064986614194114251 -1.9739956503657884e-06 0 0.064991685087525425 -4.4502865963372001e-06 0 0.064993180685404356 -3.3609781348043575e-06 0 0.064986819201414997 -1.4316369392254554e-06 0 0.064986614194114251 -1.9739956503657884e-06 0 0.064991685087525425 -4.4502865963372001e-06 0 0.064996269159184591 -1.09103376954528e-07 0 0.064995960597072452 -6.7935942193507332e-07 0 0.064997492230285184 -1.3085100921087195e-06 0 0.065000205218390797 2.7604112438434806e-07 0 0.064993180685404356 -3.3609781348043575e-06 0 0.064997492230285184 -1.3085100921087195e-06 0 0.064999994602557121 -1.61019795881656e-09 0 0.065000205218390797 2.7604112438434806e-07 0 0.060560617044170151 -0.002766081619483109 0 0.060689113366378618 -0.0024265704526679308 0 0.060925668712576445 -0.002506245773465018 0 0.062927219109909185 -0.0014269818122198531 0 0.062119710243359431 -0.0018216461282520974 0 0.061019413083885643 -0.0028698768720869391 0 0.060560617044170151 -0.002766081619483109 0 0.060925668712576445 -0.002506245773465018 0 0.060560617044170151 -0.002766081619483109 0 0.060448728286050066 -0.0022946844252691649 0 0.060110530476167399 -0.0026651662986278903 0 0.064991685087525425 -4.4502865963372001e-06 0 0.064993180685404356 -3.3609781348043575e-06 0 0.064991211141376112 -5.3449286912720503e-06 0 0.062119710243359431 -0.0018216461282520974 0 0.059899710988179498 -0.0021838373082477486 0 0.060560617044170151 -0.002766081619483109 0 0.060448728286050066 -0.0022946844252691649 0 0.060689113366378618 -0.0024265704526679308 0 0.060448728286050066 -0.0022946844252691649 0 0.060689113366378618 -0.0024265704526679308 0 0.060848644451489881 -0.0022174485803223747 0 0.060689113366378618 -0.0024265704526679308 0 0.060925668712576445 -0.002506245773465018 0 0.060848644451489881 -0.0022174485803223747 0 0.059133392173693525 -0.0028188452493122223 0 0.058956952404593067 -0.0028610855156477261 0 0.060448728286050066 -0.0022946844252691649 0 0.060848644451489881 -0.0022174485803223747 0 0.060779334151448483 -0.001932346047288345 0 0.058956952404593067 -0.0028610855156477261 0 0.058433630966618418 -0.0031742658260382685 0 0.060855527675611906 -0.0022037618430335872 0 0.060784495895482453 -0.0019026609696661662 0 0.061012174914863437 -0.0020039767824763422 0 0.053998107421129912 -0.0062397320320261183 0 0.055391067849643864 -0.0047008298181516663 0 0.054020512491814894 -0.0042275398101387918 0 0.05806123350420983 -0.003776598064294678 0 0.058433630966618418 -0.0031742658260382685 0 0.053998107421129912 -0.0062397320320261183 0 0.054020512491814894 -0.0042275398101387918 0 0.052659372783454964 -0.0046810763599516988 0 0.061240177367602948 -0.0026178177886683374 0 0.061475064827351829 -0.0023506979051643203 0 0.061144127537964811 -0.0022622232672639044 0 0.061240177367602948 -0.0026178177886683374 0 0.060925668712576445 -0.002506245773465018 0 0.061144127537964811 -0.0022622232672639044 0 0.060925668712576445 -0.002506245773465018 0 0.060855527675611906 -0.0022037618430335872 0 0.061144127537964811 -0.0022622232672639044 0 0.061144127537964811 -0.0022622232672639044 0 0.061012174914863437 -0.0020039767824763422 0 0.06135536396286255 -0.001892236725366119 0 0.060855527675611906 -0.0022037618430335872 0 0.061144127537964811 -0.0022622232672639044 0 0.061012174914863437 -0.0020039767824763422 0 0.061475064827351829 -0.0023506979051643203 0 0.061144127537964811 -0.0022622232672639044 0 0.06135536396286255 -0.001892236725366119 0 0.061760396210891924 -0.0020672289851769391 0 0.061475064827351829 -0.0023506979051643203 0 0.06135536396286255 -0.001892236725366119 0 0.062688169156937479 -0.0027750505726003671 0 0.060443990246528627 -0.0029281577904685932 0 0.060299224829706143 -0.005100098246990056 0 0.058522338074489803 -0.0052636096618073544 0 0.059452765618983071 -0.0041426011635376037 0 0.058522338074489803 -0.0052636096618073544 0 0.058184764443121005 -0.0038953342189128465 0 0.059452765618983071 -0.0041426011635376037 0 0.060498830472049972 -0.0031885659075584888 0 0.0586043646496009 -0.0026409998781193197 0 0.060491195830704975 -0.0036377266548494602 0 0.05955608635044321 -0.0022883593410106592 0 0.058247590432353634 -0.0028149408338562633 0 0.058184764443121005 -0.0038953342189128465 0 0.059452765618983071 -0.0041426011635376037 0 0.058242660411853206 -0.0025959470920911007 0 0.06056861316363471 -0.0033541000602230792 0 0.059452765618983071 -0.0041426011635376037 0 0.058242660411853206 -0.0025959470920911007 0 0.058242660411853206 -0.0025959470920911007 0 0.057248696095080404 -0.0031744361641205593 0 0.055999073582794871 -0.0019185341239633736 0 0.057248696095080404 -0.0031744361641205593 0 0.05628052722362261 -0.003152593953759802 0 0.055999073582794871 -0.0019185341239633736 0 0.058184764443121005 -0.0038953342189128465 0 0.057248696095080404 -0.0031744361641205593 0 0.056920941819933922 -0.004102587012870077 0 0.058184764443121005 -0.0038953342189128465 0 0.058242660411853206 -0.0025959470920911007 0 0.057248696095080404 -0.0031744361641205593 0 0.057248696095080404 -0.0031744361641205593 0 0.056699070388108265 -0.0035560363383834257 0 0.05628052722362261 -0.003152593953759802 0 0.057248696095080404 -0.0031744361641205593 0 0.056699070388108265 -0.0035560363383834257 0 0.056920941819933922 -0.004102587012870077 0 0.056699070388108265 -0.0035560363383834257 0 0.056920941819933922 -0.004102587012870077 0 0.056352189253585053 -0.0037969743926576467 0 0.056920941819933922 -0.004102587012870077 0 0.056618843691016614 -0.0044327650094327714 0 0.056352189253585053 -0.0037969743926576467 0 0.061012174914863437 -0.0020039767824763422 0 0.06135536396286255 -0.001892236725366119 0 0.060950386759191497 -0.0017179756419332985 0 0.058522338074489803 -0.0052636096618073544 0 0.058184764443121005 -0.0038953342189128465 0 0.056920941819933922 -0.004102587012870077 0 0.060443990246528627 -0.0029281577904685932 0 0.058705855951969234 -0.0029491086154001048 0 0.058522338074489803 -0.0052636096618073544 0 0.056920941819933922 -0.004102587012870077 0 0.056613566759045574 -0.0044440885643331337 0 0.058647733728768192 -0.00300585904514646 0 0.058705855951969234 -0.0029491086154001048 0 0.060784495895482453 -0.0019026609696661662 0 0.061012174914863437 -0.0020039767824763422 0 0.060950386759191497 -0.0017179756419332985 0 0.058233239056306597 -0.0026519855169139382 0 0.057680061489339872 -0.0032661534222897842 0 0.058449534823968564 -0.003606143732156068 0 0.055391067849643864 -0.0047008298181516663 0 0.055128773779904883 -0.0035601593753828292 0 0.054020512491814894 -0.0042275398101387918 0 0.058433630966618418 -0.0031742658260382685 0 0.058705855951969234 -0.0029491086154001048 0 0.058433630966618418 -0.0031742658260382685 0 0.057476937182798504 -0.0026466360576322453 0 0.056618843691016614 -0.0044327650094327714 0 0.055565725087312959 -0.0039662759941923647 0 0.056352189253585053 -0.0037969743926576467 0 0.058705855951969234 -0.0029491086154001048 0 0.057476937182798504 -0.0026466360576322453 0 0.055128773779904883 -0.0035601593753828292 0 0.054020512491814894 -0.0042275398101387918 0 0.054114450998100513 -0.003116183683073568 0 0.054020512491814894 -0.0042275398101387918 0 0.054114450998100513 -0.003116183683073568 0 0.053090101544749357 -0.0030953483107497887 0 0.055160836647184297 -0.0035767940430127721 0 0.054114450998100513 -0.003116183683073568 0 0.054799034381657057 -0.0019205541148746461 0 0.054114450998100513 -0.003116183683073568 0 0.053897597083480846 -0.0022985596436250351 0 0.053090101544749357 -0.0030953483107497887 0 0.057476937182798504 -0.0026466360576322453 0 0.056819725867325893 -0.0025038671766364684 0 0.054114450998100513 -0.003116183683073568 0 0.053897597083480846 -0.0022985596436250351 0 0.054799034381657057 -0.0019205541148746461 0 0.057476937182798504 -0.0026466360576322453 0 0.05644712944678925 -0.0018200773079009296 0 0.055565725087312959 -0.0039662759941923647 0 0.055736020552888982 -0.0027959470395424479 0 0.055096740463729123 -0.0021497776920885716 0 0.055565725087312959 -0.0039662759941923647 0 0.05628052722362261 -0.003152593953759802 0 0.056352189253585053 -0.0037969743926576467 0 0.055565725087312959 -0.0039662759941923647 0 0.05628052722362261 -0.003152593953759802 0 0.055736020552888982 -0.0027959470395424479 0 0.056699070388108265 -0.0035560363383834257 0 0.05628052722362261 -0.003152593953759802 0 0.056352189253585053 -0.0037969743926576467 0 0.05628052722362261 -0.003152593953759802 0 0.055736020552888982 -0.0027959470395424479 0 0.055999073582794871 -0.0019185341239633736 0 0.055096740463729123 -0.0021497776920885716 0 0.054534092347416213 -0.000232022701657376 0 0.055648227230400513 -0.00077288171441559754 0 0.055736020552888982 -0.0027959470395424479 0 0.055999073582794871 -0.0019185341239633736 0 0.055096740463729123 -0.0021497776920885716 0 0.055999073582794871 -0.0019185341239633736 0 0.055096740463729123 -0.0021497776920885716 0 0.055648227230400513 -0.00077288171441559754 0 0.055999073582794871 -0.0019185341239633736 0 0.055648227230400513 -0.00077288171441559754 0 0.056513904224185257 -0.00092425257259115599 0 0.05644712944678925 -0.0018200773079009296 0 0.056055914428082249 -0.0011968574087158769 0 0.054799034381657057 -0.0019205541148746461 0 0.053918894416905741 -0.0014492765520560907 0 0.054534092347416213 -0.000232022701657376 0 0.053897597083480846 -0.0022985596436250351 0 0.053918894416905741 -0.0014492765520560907 0 0.053183501273942814 -0.0018669670749079407 0 0.053897597083480846 -0.0022985596436250351 0 0.054799034381657057 -0.0019205541148746461 0 0.053918894416905741 -0.0014492765520560907 0 0.054534092347416213 -0.000232022701657376 0 0.053225147493088869 -0.00075489597777922716 0 0.053698470168739042 0.00096013903831284025 0 0.053918894416905741 -0.0014492765520560907 0 0.054534092347416213 -0.000232022701657376 0 0.053225147493088869 -0.00075489597777922716 0 0.055648227230400513 -0.00077288171441559754 0 0.056449038221947946 -6.5819094842044946e-06 0 0.056513904224185257 -0.00092425257259115599 0 0.054534092347416213 -0.000232022701657376 0 0.055648227230400513 -0.00077288171441559754 0 0.055303393052614933 0.00063287820465431608 0 0.055648227230400513 -0.00077288171441559754 0 0.056449038221947946 -6.5819094842044946e-06 0 0.055303393052614933 0.00063287820465431608 0 0.056449038221947946 -6.5819094842044946e-06 0 0.057269135373962311 -0.00043657465503428003 0 0.057299966423751368 0.00041583045602527105 0 0.056449038221947946 -6.5819094842044946e-06 0 0.056513904224185257 -0.00092425257259115599 0 0.057269135373962311 -0.00043657465503428003 0 0.056513904224185257 -0.00092425257259115599 0 0.057269135373962311 -0.00043657465503428003 0 0.057399808166764828 -0.001433670187089058 0 0.057269135373962311 -0.00043657465503428003 0 0.058137779926820433 -0.0007012144942841296 0 0.057399808166764828 -0.001433670187089058 0 0.057269135373962311 -0.00043657465503428003 0 0.058049533173880778 0.00012429463867709502 0 0.058137779926820433 -0.0007012144942841296 0 0.057269135373962311 -0.00043657465503428003 0 0.058049533173880778 0.00012429463867709502 0 0.057299966423751368 0.00041583045602527105 0 0.058049533173880778 0.00012429463867709502 0 0.058925818671692824 -0.00023849935762097218 0 0.058137779926820433 -0.0007012144942841296 0 0.058049533173880778 0.00012429463867709502 0 0.058925818671692824 -0.00023849935762097218 0 0.058837594499538265 0.00041889662219934438 0 0.059598232525892483 0.00012472312634904671 0 0.058925818671692824 -0.00023849935762097218 0 0.058837594499538265 0.00041889662219934438 0 0.059724738238348909 -0.00053805975397488233 0 0.059598232525892483 0.00012472312634904671 0 0.058925818671692824 -0.00023849935762097218 0 0.059724738238348909 -0.00053805975397488233 0 0.058925818671692824 -0.00023849935762097218 0 0.058912055083227589 -0.00087451870556585858 0 0.059648891565330549 -0.0014038936247074301 0 0.059724738238348909 -0.00053805975397488233 0 0.058912055083227589 -0.00087451870556585858 0 0.058912055083227589 -0.00087451870556585858 0 0.058137779926820433 -0.0007012144942841296 0 0.058616928598629499 -0.0016044709985040791 0 0.058925818671692824 -0.00023849935762097218 0 0.058912055083227589 -0.00087451870556585858 0 0.058137779926820433 -0.0007012144942841296 0 0.058137779926820433 -0.0007012144942841296 0 0.058616928598629499 -0.0016044709985040791 0 0.057399808166764828 -0.001433670187089058 0 0.059648891565330549 -0.0014038936247074301 0 0.058912055083227589 -0.00087451870556585858 0 0.058616928598629499 -0.0016044709985040791 0 0.05955608635044321 -0.0022883593410106592 0 0.059648891565330549 -0.0014038936247074301 0 0.058616928598629499 -0.0016044709985040791 0 0.05955608635044321 -0.0022883593410106592 0 0.058247590432353634 -0.0028149408338562633 0 0.058616928598629499 -0.0016044709985040791 0 0.058247590432353634 -0.0028149408338562633 0 0.058616928598629499 -0.0016044709985040791 0 0.057399808166764828 -0.001433670187089058 0 0.058247590432353634 -0.0028149408338562633 0 0.055999073582794871 -0.0019185341239633736 0 0.057399808166764828 -0.001433670187089058 0 0.0586043646496009 -0.0026409998781193197 0 0.057534324508985074 -0.0022918289334530003 0 0.055999073582794871 -0.0019185341239633736 0 0.056513904224185257 -0.00092425257259115599 0 0.057399808166764828 -0.001433670187089058 0 0.050154815310858643 -0.00054105377342831575 0 0.051757705549174651 -0.0017486650403229073 0 0.049356925819259531 -0.0023171439990902539 0 0.048616174430724655 -0.00058148046932888825 0 0.049356925819259531 -0.0023171439990902539 0 0.04722533398834812 -0.0011083132439192601 0 0.048616174430724655 -0.00058148046932888825 0 0.050154815310858643 -0.00054105377342831575 0 0.049356925819259531 -0.0023171439990902539 0 0.048616174430724655 -0.00058148046932888825 0 0.050154815310858643 -0.00054105377342831575 0 0.048632534525618776 0.0009112551021851588 0 0.050154815310858643 -0.00054105377342831575 0 0.050285673486353002 0.00080081881985205453 0 0.048632534525618776 0.0009112551021851588 0 0.052086942216405405 -0.00020163214272522873 0 0.051840704130679753 -0.0017615268656680446 0 0.050154815310858643 -0.00054105377342831575 0 0.052059392468816697 9.8049640881618671e-05 0 0.051757705549174651 -0.0017486650403229073 0 0.050154815310858643 -0.00054105377342831575 0 0.052059392468816697 9.8049640881618671e-05 0 0.050285673486353002 0.00080081881985205453 0 0.052173570388843307 3.569670781196566e-05 0 0.053225147493088869 -0.00075489597777922716 0 0.053698470168739042 0.00096013903831284025 0 0.052173570388843307 3.569670781196566e-05 0 0.053225147493088869 -0.00075489597777922716 0 0.051932571651878139 -0.0018324082513206453 0 0.053225147493088869 -0.00075489597777922716 0 0.053183501273942814 -0.0018669670749079407 0 0.051932571651878139 -0.0018324082513206453 0 0.053918894416905741 -0.0014492765520560907 0 0.053225147493088869 -0.00075489597777922716 0 0.053183501273942814 -0.0018669670749079407 0 0.051840704130679753 -0.0017615268656680446 0 0.051597289745791752 -0.0032876612661336085 0 0.051757705549174651 -0.0017486650403229073 0 0.051499654665351745 -0.0035656016809597294 0 0.049356925819259531 -0.0023171439990902539 0 0.053183501273942814 -0.0018669670749079407 0 0.051932571651878139 -0.0018324082513206453 0 0.053090101544749357 -0.0030953483107497887 0 0.051932571651878139 -0.0018324082513206453 0 0.053090101544749357 -0.0030953483107497887 0 0.051635669649769865 -0.0035985235734328595 0 0.053897597083480846 -0.0022985596436250351 0 0.053183501273942814 -0.0018669670749079407 0 0.053090101544749357 -0.0030953483107497887 0 0.053090101544749357 -0.0030953483107497887 0 0.051635669649769865 -0.0035985235734328595 0 0.052659372783454964 -0.0046810763599516988 0 0.054020512491814894 -0.0042275398101387918 0 0.053090101544749357 -0.0030953483107497887 0 0.052659372783454964 -0.0046810763599516988 0 0.051597289745791752 -0.0032876612661336085 0 0.051466495209069069 -0.0040960334658621681 0 0.051635669649769865 -0.0035985235734328595 0 0.052659372783454964 -0.0046810763599516988 0 0.051277570813581877 -0.0053718775569613336 0 0.051499654665351745 -0.0035656016809597294 0 0.049882175809440522 -0.0039727745832860602 0 0.051277570813581877 -0.0053718775569613336 0 0.051499654665351745 -0.0035656016809597294 0 0.049882175809440522 -0.0039727745832860602 0 0.049356925819259531 -0.0023171439990902539 0 0.050003969329583488 -0.0033892723347261735 0 0.050543287563254539 -0.0032666641391589759 0 0.049882175809440522 -0.0039727745832860602 0 0.049356925819259531 -0.0023171439990902539 0 0.048243596799450568 -0.0042646397120240168 0 0.049882175809440522 -0.0039727745832860602 0 0.049472896873181661 -0.0055828763150279305 0 0.048243596799450568 -0.0042646397120240168 0 0.049472896873181661 -0.0055828763150279305 0 0.048511786214493965 -0.0058876885040662396 0 0.04840805252397052 -0.0043891340263696489 0 0.050393824908607963 -0.0036945778582279567 0 0.050543287563254539 -0.0032666641391589759 0 0.049882175809440522 -0.0039727745832860602 0 0.049472896873181661 -0.0055828763150279305 0 0.051277570813581877 -0.0053718775569613336 0 0.049472896873181661 -0.0055828763150279305 0 0.051277570813581877 -0.0053718775569613336 0 0.050677810406576922 -0.0073595603703011658 0 0.057546989549465993 -0.0021172242834132777 0 0.058354669421999378 -0.0024129706257535579 0 0.049472896873181661 -0.0055828763150279305 0 0.048839082072750242 -0.0068942628910779631 0 0.050677810406576922 -0.0073595603703011658 0 0.049472896873181661 -0.0055828763150279305 0 0.048511786214493965 -0.0058876885040662396 0 0.048839082072750242 -0.0068942628910779631 0 0.053998107421129912 -0.0062397320320261183 0 0.052659372783454964 -0.0046810763599516988 0 0.052550146904350628 -0.0061075998683936946 0 0.052659372783454964 -0.0046810763599516988 0 0.051277570813581877 -0.0053718775569613336 0 0.052550146904350628 -0.0061075998683936946 0 0.051277570813581877 -0.0053718775569613336 0 0.052550146904350628 -0.0061075998683936946 0 0.050677810406576922 -0.0073595603703011658 0 0.052550146904350628 -0.0061075998683936946 0 0.052592905249979061 -0.0077909480805404795 0 0.050677810406576922 -0.0073595603703011658 0 0.05806123350420983 -0.003776598064294678 0 0.059899710988179498 -0.0021838373082477486 0 0.053998107421129912 -0.0062397320320261183 0 0.052550146904350628 -0.0061075998683936946 0 0.052592905249979061 -0.0077909480805404795 0 0.064993180685404356 -3.3609781348043575e-06 0 0.064991211141376112 -5.3449286912720503e-06 0 0.064996676346879528 -1.8804082626845245e-06 0 0.064938548707728638 -2.9053299289839752e-05 0 0.064979544068324915 -1.4305198882946478e-05 0 0.064978805276331708 -2.3158748710260518e-05 0 0.059899710988179498 -0.0021838373082477486 0 0.058354669421999378 -0.0024129706257535579 0 0.059899710988179498 -0.0021838373082477486 0 0.062638129878266668 -4.1768232538865731e-05 0 0.064999961440479509 -1.0302330868173068e-09 0 0.064996196155042138 1.4206654954010859e-08 0 0.064996676346879528 -1.8804082626845245e-06 0 0.064938548707728638 -2.9053299289839752e-05 0 0.064979544068324915 -1.4305198882946478e-05 0 0.064996196155042138 1.4206654954010859e-08 0 0.064991211141376112 -5.3449286912720503e-06 0 0.064996196155042138 1.4206654954010859e-08 0 0.064996676346879528 -1.8804082626845245e-06 0 0.064999961440479509 -1.0302330868173068e-09 0 0.064999995211159928 -3.4690929399598076e-09 0 0.064996676346879528 -1.8804082626845245e-06 0 0.064993180685404356 -3.3609781348043575e-06 0 0.064999995211159928 -3.4690929399598076e-09 0 0.064996676346879528 -1.8804082626845245e-06 0 0.064980895495625426 -1.0602092886116731e-05 0 0.064991086497349568 -8.0194877294883754e-06 0 0.064990926782810529 -5.7087047979569147e-06 0 0.064980895495625426 -1.0602092886116731e-05 0 0.064978805276331708 -2.3158748710260518e-05 0 0.064991086497349568 -8.0194877294883754e-06 0 0.064979544068324915 -1.4305198882946478e-05 0 0.064978805276331708 -2.3158748710260518e-05 0 0.064991086497349568 -8.0194877294883754e-06 0 0.064999961440479509 -1.0302330868173068e-09 0 0.064996196155042138 1.4206654954010859e-08 0 0.064999990991566142 -5.7360001462988036e-09 0 0.064996196155042138 1.4206654954010859e-08 0 0.064991086497349568 -8.0194877294883754e-06 0 0.064999990991566142 -5.7360001462988036e-09 0 0.064979544068324915 -1.4305198882946478e-05 0 0.064996196155042138 1.4206654954010859e-08 0 0.064991086497349568 -8.0194877294883754e-06 0 0.064991086497349568 -8.0194877294883754e-06 0 0.064999990991566142 -5.7360001462988036e-09 0 0.064990926782810529 -5.7087047979569147e-06 0 0.064999990991566142 -5.7360001462988036e-09 0 0.064990926782810529 -5.7087047979569147e-06 0 0.064999976491805903 -7.4863827065922568e-09 0 0.064990926782810529 -5.7087047979569147e-06 0 0.064987025099193962 -4.9870010515885392e-06 0 0.064999976491805903 -7.4863827065922568e-09 0 0.064980895495625426 -1.0602092886116731e-05 0 0.064990926782810529 -5.7087047979569147e-06 0 0.064987025099193962 -4.9870010515885392e-06 0 0.064980895495625426 -1.0602092886116731e-05 0 0.064987025099193962 -4.9870010515885392e-06 0 0.064973865308445469 -5.4447708393227133e-06 0 0.064981911428158151 -3.1409200338031295e-06 0 0.064975889156115477 -1.3118538184997719e-05 0 0.064933669302791555 -2.5772934562058126e-05 0 0.060666298754681998 0.00080131485387680479 0 0.057694434270429813 -0.001301544401837349 0 0.064987025099193962 -4.9870010515885392e-06 0 0.064981911428158151 -3.1409200338031295e-06 0 0.064973865308445469 -5.4447708393227133e-06 0 0.064987025099193962 -4.9870010515885392e-06 0 0.064999976491805903 -7.4863827065922568e-09 0 0.064981911428158151 -3.1409200338031295e-06 0 0.064981911428158151 -3.1409200338031295e-06 0 0.064999972371345305 9.5801579185132123e-10 0 0.064994324196707712 -2.1641786698971951e-06 0 0.064999976491805903 -7.4863827065922568e-09 0 0.064981911428158151 -3.1409200338031295e-06 0 0.064999972371345305 9.5801579185132123e-10 0 0.064981911428158151 -3.1409200338031295e-06 0 0.064994324196707712 -2.1641786698971951e-06 0 0.064986503609277629 -8.6646565426571209e-06 0 0.064999972371345305 9.5801579185132123e-10 0 0.064994324196707712 -2.1641786698971951e-06 0 0.064999999411591236 -1.5695003609651326e-09 0 0.064994324196707712 -2.1641786698971951e-06 0 0.064986503609277629 -8.6646565426571209e-06 0 0.064996556790996099 -3.230763018525445e-06 0 0.064254864705096976 4.8203549590297939e-05 0 0.063899249906781017 0.00015574888458200616 0 0.064986503609277629 -8.6646565426571209e-06 0 0.0649775267841049 -1.0794684834142434e-05 0 0.064974418536093606 -1.1542998337149207e-05 0 0.064986503609277629 -8.6646565426571209e-06 0 0.064978561031697732 -1.2885340036189677e-05 0 0.064975889156115477 -1.3118538184997719e-05 0 0.064986503609277629 -8.6646565426571209e-06 0 0.064978561031697732 -1.2885340036189677e-05 0 0.064976881601403302 -1.3095489269985213e-05 0 0.064986503609277629 -8.6646565426571209e-06 0 0.0649775267841049 -1.0794684834142434e-05 0 0.064976881601403302 -1.3095489269985213e-05 0 0.064981911428158151 -3.1409200338031295e-06 0 0.064986503609277629 -8.6646565426571209e-06 0 0.064975889156115477 -1.3118538184997719e-05 0 0.058538732027037105 -0.0011390490695634109 0 0.059104235103802791 -0.0010154891253959359 0 0.064975889156115477 -1.3118538184997719e-05 0 0.064957309833668112 -2.708486058532825e-05 0 0.064933669302791555 -2.5772934562058126e-05 0 0.064957309833668112 -2.708486058532825e-05 0 0.064974011551181335 -1.6937215622569008e-05 0 0.064970844747516465 -2.2442277630933088e-05 0 0.064978561031697732 -1.2885340036189677e-05 0 0.064975889156115477 -1.3118538184997719e-05 0 0.064974011551181335 -1.6937215622569008e-05 0 0.064975889156115477 -1.3118538184997719e-05 0 0.064957309833668112 -2.708486058532825e-05 0 0.064974011551181335 -1.6937215622569008e-05 0 0.064977105900220225 -1.111089970067677e-05 0 0.064976881601403302 -1.3095489269985213e-05 0 0.064970844747516465 -2.2442277630933088e-05 0 0.062921512660133058 7.6137115851933874e-05 0 0.06304133531158107 7.9687122469024272e-05 0 0.064978561031697732 -1.2885340036189677e-05 0 0.064976881601403302 -1.3095489269985213e-05 0 0.064974011551181335 -1.6937215622569008e-05 0 0.064976881601403302 -1.3095489269985213e-05 0 0.064974011551181335 -1.6937215622569008e-05 0 0.064970844747516465 -2.2442277630933088e-05 0 0.062921512660133058 7.6137115851933874e-05 0 0.059104235103802791 -0.0010154891253959359 0 0.052339156943644563 -0.0013731123195166732 0 0.052071463373001677 -0.00096203808088957381 0 0.051562690345557077 -0.0011724116303372684 0 0.052339156943644563 -0.0013731123195166732 0 0.052071463373001677 -0.00096203808088957381 0 0.052741734744067487 -0.001013198792817504 0 0.052838902894215611 -0.0014878276322470073 0 0.052741734744067487 -0.001013198792817504 0 0.053119893677859131 -0.0011501332762860995 0 0.052838902894215611 -0.0014878276322470073 0 0.052378667467275208 -0.0013781276045451362 0 0.052741734744067487 -0.001013198792817504 0 0.059104235103802791 -0.0010154891253959359 0 0.05742754841658556 -0.0018906472544920107 0 0.052741734744067487 -0.001013198792817504 0 0.053119893677859131 -0.0011501332762860995 0 0.052870514580798104 -0.00071169955684402769 0 0.053119893677859131 -0.0011501332762860995 0 0.053330984200641571 -0.00087186316707948876 0 0.052870514580798104 -0.00071169955684402769 0 0.053119893677859131 -0.0011501332762860995 0 0.053582428193649521 -0.0011724387237830682 0 0.053321617291188984 -0.0015997213432473723 0 0.053119893677859131 -0.0011501332762860995 0 0.053582428193649521 -0.0011724387237830682 0 0.053330984200641571 -0.00087186316707948876 0 0.048511786214493965 -0.0058876885040662396 0 0.047765115335161534 -0.005433758728971198 0 0.04840805252397052 -0.0043891340263696489 0 0.053582428193649521 -0.0011724387237830682 0 0.053845643844777288 -0.00074355689143468511 0 0.053330984200641571 -0.00087186316707948876 0 0.053429344861584009 -0.0029310537599230796 0 0.050543287563254539 -0.0032666641391589759 0 0.048511786214493965 -0.0058876885040662396 0 0.047765115335161534 -0.005433758728971198 0 0.047128699087864399 -0.0064700868837527202 0 0.057546989549465993 -0.0021172242834132777 0 0.057694434270429813 -0.001301544401837349 0 0.048511786214493965 -0.0058876885040662396 0 0.048839082072750242 -0.0068942628910779631 0 0.047128699087864399 -0.0064700868837527202 0 0.053429344861584009 -0.0029310537599230796 0 0.057694434270429813 -0.001301544401837349 0 0.058538732027037105 -0.0011390490695634109 0 0.057694434270429813 -0.001301544401837349 0 0.052838902894215611 -0.0014878276322470073 0 0.053119893677859131 -0.0011501332762860995 0 0.053321617291188984 -0.0015997213432473723 0 0.064824379350505792 9.2729894452225068e-05 0 0.064910500486510772 7.8768148996958084e-05 0 0.064989160982097102 4.9330805038566421e-06 0 0.064997179590366869 1.6854292286698867e-05 0 0.064958262321841861 1.4034137551074111e-05 0 0.064989160982097102 4.9330805038566421e-06 0 0.065000042638624786 6.4558354992653011e-06 0 0.064997179590366869 1.6854292286698867e-05 0 0.064989160982097102 4.9330805038566421e-06 0 0.06499997050368253 -7.4684421756768316e-09 0 0.065000042638624786 6.4558354992653011e-06 0 0.06499964025764389 2.9665959566914001e-07 0 0.064755853417998624 0.00011565160781753386 0 0.064999981525235423 2.7863275380055634e-09 0 0.064999420724694723 -5.4403302869049389e-06 0 0.064985325188109788 -4.2121308540317445e-06 0 0.065000012838699273 -2.1869882906869666e-09 0 0.064999981525235423 2.7863275380055634e-09 0 0.064999420724694723 -5.4403302869049389e-06 0 0.06500274452007393 1.3880478668216867e-05 0 0.065006681969802402 1.6208561664700746e-05 0 0.064997179590366869 1.6854292286698867e-05 0 0.065000042638624786 6.4558354992653011e-06 0 0.06500274452007393 1.3880478668216867e-05 0 0.065007296632329639 1.6380602051005084e-05 0 0.065000042638624786 6.4558354992653011e-06 0 0.06500274452007393 1.3880478668216867e-05 0 0.064997179590366869 1.6854292286698867e-05 0 0.064755853417998624 0.00011565160781753386 0 0.064165019113601285 0.0001213731442125775 0 0.064985325188109788 -4.2121308540317445e-06 0 0.064969481706153118 -1.5331617962522827e-05 0 0.064982573822998213 -2.0158887485083587e-05 0 0.064999420724694723 -5.4403302869049389e-06 0 0.064985325188109788 -4.2121308540317445e-06 0 0.064982573822998213 -2.0158887485083587e-05 0 0.065000001853176753 -2.9451466776970633e-10 0 0.065000404022807254 -1.9091610904609091e-06 0 0.064999999411591236 -1.5695003609651326e-09 0 0.064999247705759239 5.0827347976239488e-07 0 0.06460079978868781 0.00013583731815769762 0 0.065000404022807254 -1.9091610904609091e-06 0 0.064999999411591236 -1.5695003609651326e-09 0 0.064996556790996099 -3.230763018525445e-06 0 0.064994324196707712 -2.1641786698971951e-06 0 0.064999999411591236 -1.5695003609651326e-09 0 0.064996556790996099 -3.230763018525445e-06 0 0.065000404022807254 -1.9091610904609091e-06 0 0.064996556790996099 -3.230763018525445e-06 0 0.064996345147115053 -9.260422972313183e-06 0 0.064986503609277629 -8.6646565426571209e-06 0 0.064996556790996099 -3.230763018525445e-06 0 0.064996345147115053 -9.260422972313183e-06 0 0.06460079978868781 0.00013583731815769762 0 0.063899249906781017 0.00015574888458200616 0 0.063899249906781017 0.00015574888458200616 0 0.064165019113601285 0.0001213731442125775 0 0.062921512660133058 7.6137115851933874e-05 0 0.063899249906781017 0.00015574888458200616 0 0.062515446128150839 0.00074440758862420037 0 0.063008150697242235 0.00054151402434877505 0 0.063293620387121788 0.00078908318857895236 0 0.062515446128150839 0.00074440758862420037 0 0.062037492645038508 0.00029751497986929722 0 0.063005679534984427 0.00010091476552942066 0 0.062515446128150839 0.00074440758862420037 0 0.063008150697242235 0.00054151402434877505 0 0.063005679534984427 0.00010091476552942066 0 0.063769730465911639 0.00025946903304212575 0 0.063776318116012282 0.00026523534677692055 0 0.063788020859084429 0.00026151707256214153 0 0.062921512660133058 7.6137115851933874e-05 0 0.064165019113601285 0.0001213731442125775 0 0.059104235103802791 -0.0010154891253959359 0 0.057626014754858408 -0.00061486641964159051 0 0.063005679534984427 0.00010091476552942066 0 0.063435298501222218 0.00032892033393542035 0 0.063927277783457331 -4.2154114611104458e-05 0 0.057626014754858408 -0.00061486641964159051 0 0.057401768420301549 -0.00049515504821368874 0 0.051562690345557077 -0.0011724116303372684 0 0.050845821526937188 -0.00099148090570999234 0 0.051127110393625462 -0.00046208833255835427 0 0.063642508568918593 0.00048583680714680579 0 0.063435298501222218 0.00032892033393542035 0 0.063343836206496681 0.00059612872905922382 0 0.063642508568918593 0.00048583680714680579 0 0.063435298501222218 0.00032892033393542035 0 0.06381556271965183 0.000309856534047763 0 0.063008150697242235 0.00054151402434877505 0 0.063435298501222218 0.00032892033393542035 0 0.063343836206496681 0.00059612872905922382 0 0.063008150697242235 0.00054151402434877505 0 0.063005679534984427 0.00010091476552942066 0 0.063435298501222218 0.00032892033393542035 0 0.063008150697242235 0.00054151402434877505 0 0.063343836206496681 0.00059612872905922382 0 0.063289284581532421 0.00077927111802629252 0 0.064082757188299894 0.00010752294024551769 0 0.064165019113601285 0.0001213731442125775 0 0.063343836206496681 0.00059612872905922382 0 0.063289284581532421 0.00077927111802629252 0 0.063346448716741846 0.0007815367337405709 0 0.064165019113601285 0.0001213731442125775 0 0.064229684021033365 0.00012536415873781083 0 0.06500274452007393 1.3880478668216867e-05 0 0.065007296632329639 1.6380602051005084e-05 0 0.065006681969802402 1.6208561664700746e-05 0 0.063642508568918593 0.00048583680714680579 0 0.063343836206496681 0.00059612872905922382 0 0.063346448716741846 0.0007815367337405709 0 0.064229684021033365 0.00012536415873781083 0 0.064526082433379289 0.0001303745913509175 0 0.065003969289865807 2.6237497404653002e-05 0 0.064987483019083941 3.7520741152092796e-05 0 0.064987955076060339 2.5209553433216734e-05 0 0.063642508568918593 0.00048583680714680579 0 0.063346448716741846 0.0007815367337405709 0 0.064258783332205763 0.00040443525975478802 0 0.063642508568918593 0.00048583680714680579 0 0.06381556271965183 0.000309856534047763 0 0.064258783332205763 0.00040443525975478802 0 0.064229684021033365 0.00012536415873781083 0 0.064824379350505792 9.2729894452225068e-05 0 0.063435298501222218 0.00032892033393542035 0 0.06381556271965183 0.000309856534047763 0 0.063927277783457331 -4.2154114611104458e-05 0 0.06381556271965183 0.000309856534047763 0 0.063927277783457331 -4.2154114611104458e-05 0 0.064258783332205763 0.00040443525975478802 0 0.057401768420301549 -0.00049515504821368874 0 0.057307442437911242 -0.00038973601565055546 0 0.063927277783457331 -4.2154114611104458e-05 0 0.064258783332205763 0.00040443525975478802 0 0.064705210120594561 -0.0001199293483074492 0 0.064987483019083941 3.7520741152092796e-05 0 0.064987955076060339 2.5209553433216734e-05 0 0.064958262321841861 1.4034137551074111e-05 0 0.050544980758898628 -0.00034877564018495562 0 0.050432664513991782 7.9259889254516141e-05 0 0.050064483234475758 -0.00013872154586168207 0 0.050544980758898628 -0.00034877564018495562 0 0.050797738873601471 -3.786025241196744e-05 0 0.050432664513991782 7.9259889254516141e-05 0 0.050544980758898628 -0.00034877564018495562 0 0.050137110320963595 -0.00082164609421873393 0 0.050064483234475758 -0.00013872154586168207 0 0.050845821526937188 -0.00099148090570999234 0 0.050544980758898628 -0.00034877564018495562 0 0.050137110320963595 -0.00082164609421873393 0 0.050845821526937188 -0.00099148090570999234 0 0.050544980758898628 -0.00034877564018495562 0 0.051127110393625462 -0.00046208833255835427 0 0.050544980758898628 -0.00034877564018495562 0 0.050797738873601471 -3.786025241196744e-05 0 0.051127110393625462 -0.00046208833255835427 0 0.050797738873601471 -3.786025241196744e-05 0 0.051127110393625462 -0.00046208833255835427 0 0.051224366287853193 3.0225522391533537e-05 0 0.051127110393625462 -0.00046208833255835427 0 0.051782644378319129 -0.00038248316922641931 0 0.051224366287853193 3.0225522391533537e-05 0 0.051562690345557077 -0.0011724116303372684 0 0.051127110393625462 -0.00046208833255835427 0 0.051782644378319129 -0.00038248316922641931 0 0.052071463373001677 -0.00096203808088957381 0 0.051562690345557077 -0.0011724116303372684 0 0.051782644378319129 -0.00038248316922641931 0 0.050524901424450375 -0.00075496756249084031 0 0.049705656631741604 -0.00050886057862426827 0 0.051782644378319129 -0.00038248316922641931 0 0.051581708449921396 0.00022235466347187208 0 0.051982242538932549 0.00019878151458246413 0 0.051782644378319129 -0.00038248316922641931 0 0.051581708449921396 0.00022235466347187208 0 0.05104546806228321 0.00010796975429184335 0 0.051581708449921396 0.00022235466347187208 0 0.051744045428865494 0.00053728278194895593 0 0.051982242538932549 0.00019878151458246413 0 0.051581708449921396 0.00022235466347187208 0 0.051744045428865494 0.00053728278194895593 0 0.051249816319226538 0.00051230171960974815 0 0.047489238868353177 0.0006515910344228517 0 0.047773715638389322 0.00047417480652086399 0 0.045396696241788125 0.0005550648088175164 0 0.04622277406227214 0.00070291488171633158 0 0.045566722198408995 0.0012829860982024812 0 0.045396696241788125 0.0005550648088175164 0 0.045016531112461046 0.0010288855745918762 0 0.045566722198408995 0.0012829860982024812 0 0.051744045428865494 0.00053728278194895593 0 0.051443530703492127 0.00083567537259337382 0 0.052056183958075083 0.00092890972670227941 0 0.051744045428865494 0.00053728278194895593 0 0.051443530703492127 0.00083567537259337382 0 0.051249816319226538 0.00051230171960974815 0 0.047489238868353177 0.0006515910344228517 0 0.045973560453034461 0.0006407272297189149 0 0.044574770855263929 0.00040680755503560669 0 0.044465526078214725 0.0012846740680082212 0 0.045016531112461046 0.0010288855745918762 0 0.051443530703492127 0.00083567537259337382 0 0.051249816319226538 0.00051230171960974815 0 0.050794915707427446 0.00073710413325441784 0 0.045396696241788125 0.0005550648088175164 0 0.044574770855263929 0.00040680755503560669 0 0.045016531112461046 0.0010288855745918762 0 0.050810895139632183 0.00060243931829363187 0 0.051249816319226538 0.00051230171960974815 0 0.050794915707427446 0.00073710413325441784 0 0.050810895139632183 0.00060243931829363187 0 0.051249816319226538 0.00051230171960974815 0 0.05104546806228321 0.00010796975429184335 0 0.051581708449921396 0.00022235466347187208 0 0.051249816319226538 0.00051230171960974815 0 0.05104546806228321 0.00010796975429184335 0 0.050797738873601471 -3.786025241196744e-05 0 0.050662212753221685 0.00044953417165592653 0 0.050432664513991782 7.9259889254516141e-05 0 0.050810895139632183 0.00060243931829363187 0 0.05104546806228321 0.00010796975429184335 0 0.050294799383880949 0.00065058363873569133 0 0.050797738873601471 -3.786025241196744e-05 0 0.051224366287853193 3.0225522391533537e-05 0 0.050662212753221685 0.00044953417165592653 0 0.049705656631741604 -0.00050886057862426827 0 0.046453247125983026 0.00062931713568434072 0 0.045973560453034461 0.0006407272297189149 0 0.046453247125983026 0.00062931713568434072 0 0.045973560453034461 0.0006407272297189149 0 0.043858099777557578 0.0015903995444372446 0 0.050810895139632183 0.00060243931829363187 0 0.050792508069593366 0.00074331436402441599 0 0.050294799383880949 0.00065058363873569133 0 0.042832019612568398 0.0013269019211473239 0 0.042727654056888338 0.0014901583241479811 0 0.042784210567755734 0.0017393966705639401 0 0.042832019612568398 0.0013269019211473239 0 0.042727654056888338 0.0014901583241479811 0 0.042592815168459398 0.0013095600890891687 0 0.046003543827007234 0.0006308438163019031 0 0.045973560453034461 0.0006407272297189149 0 0.042674100459580221 0.0016910245367242505 0 0.042958694073330105 0.0017199767414788234 0 0.044373745889449839 0.00069969948007931563 0 0.043376182809546672 0.0005222105222005912 0 0.043395495474109043 0.001432023968567871 0 0.042727654056888338 0.0014901583241479811 0 0.042592815168459398 0.0013095600890891687 0 0.042274243972652274 0.0015619622991890096 0 0.046453247125983026 0.00062931713568434072 0 0.042958694073330105 0.0017199767414788234 0 0.050432664513991782 7.9259889254516141e-05 0 0.050064483234475758 -0.00013872154586168207 0 0.05009942986794385 0.00034734673322176082 0 0.046453247125983026 0.00062931713568434072 0 0.046519532489745517 0.00055597572488528841 0 0.050662212753221685 0.00044953417165592653 0 0.050432664513991782 7.9259889254516141e-05 0 0.05009942986794385 0.00034734673322176082 0 0.053363319766312138 -0.00019139668586055277 0 0.052986850886491244 -0.00020328143770899371 0 0.053217391226621162 -0.00052609846128481494 0 0.052986850886491244 -0.00020328143770899371 0 0.053217391226621162 -0.00052609846128481494 0 0.052850510089481079 -0.00038120703408538225 0 0.053363319766312138 -0.00019139668586055277 0 0.052986850886491244 -0.00020328143770899371 0 0.052881976533852341 0.00015849474156457571 0 0.049356925819259531 -0.0023171439990902539 0 0.046796605105966477 -0.0028223880292942275 0 0.048125708978899048 -0.004303035847454278 0 0.053363319766312138 -0.00019139668586055277 0 0.053845643844777288 -0.00074355689143468511 0 0.053217391226621162 -0.00052609846128481494 0 0.053845643844777288 -0.00074355689143468511 0 0.053330984200641571 -0.00087186316707948876 0 0.053217391226621162 -0.00052609846128481494 0 0.049613833294080138 -0.0019444682633969442 0 0.050543287563254539 -0.0032666641391589759 0 0.053217391226621162 -0.00052609846128481494 0 0.052870514580798104 -0.00071169955684402769 0 0.052850510089481079 -0.00038120703408538225 0 0.053330984200641571 -0.00087186316707948876 0 0.053217391226621162 -0.00052609846128481494 0 0.052870514580798104 -0.00071169955684402769 0 0.052870514580798104 -0.00071169955684402769 0 0.052318071204296338 -0.00063443578720510756 0 0.052573302743556372 -0.00039047129850432969 0 0.052741734744067487 -0.001013198792817504 0 0.052870514580798104 -0.00071169955684402769 0 0.052318071204296338 -0.00063443578720510756 0 0.052870514580798104 -0.00071169955684402769 0 0.052850510089481079 -0.00038120703408538225 0 0.052573302743556372 -0.00039047129850432969 0 0.052071463373001677 -0.00096203808088957381 0 0.052741734744067487 -0.001013198792817504 0 0.052318071204296338 -0.00063443578720510756 0 0.052071463373001677 -0.00096203808088957381 0 0.051782644378319129 -0.00038248316922641931 0 0.052318071204296338 -0.00063443578720510756 0 0.051782644378319129 -0.00038248316922641931 0 0.052318071204296338 -0.00063443578720510756 0 0.05229469620652185 -0.00010212129166578215 0 0.051782644378319129 -0.00038248316922641931 0 0.05229469620652185 -0.00010212129166578215 0 0.051982242538932549 0.00019878151458246413 0 0.052318071204296338 -0.00063443578720510756 0 0.05229469620652185 -0.00010212129166578215 0 0.052573302743556372 -0.00039047129850432969 0 0.052986850886491244 -0.00020328143770899371 0 0.052850510089481079 -0.00038120703408538225 0 0.05267609037679561 -0.00011802378181654979 0 0.052850510089481079 -0.00038120703408538225 0 0.052573302743556372 -0.00039047129850432969 0 0.05267609037679561 -0.00011802378181654979 0 0.05229469620652185 -0.00010212129166578215 0 0.052573302743556372 -0.00039047129850432969 0 0.05267609037679561 -0.00011802378181654979 0 0.05229469620652185 -0.00010212129166578215 0 0.05267609037679561 -0.00011802378181654979 0 0.052524267075856335 0.00015345988679097452 0 0.05267609037679561 -0.00011802378181654979 0 0.052524267075856335 0.00015345988679097452 0 0.052881976533852341 0.00015849474156457571 0 0.052986850886491244 -0.00020328143770899371 0 0.05267609037679561 -0.00011802378181654979 0 0.052881976533852341 0.00015849474156457571 0 0.049945024174112909 -0.00029542510231369385 0 0.050591740804632468 -0.00051387659892870266 0 0.052524267075856335 0.00015345988679097452 0 0.052485976507166937 0.0005279619564481535 0 0.052281096160430029 0.00027082053639636999 0 0.052524267075856335 0.00015345988679097452 0 0.052485976507166937 0.0005279619564481535 0 0.052881976533852341 0.00015849474156457571 0 0.052312766584840506 0.00060301310463741289 0 0.052817657473592655 0.00042622227248976938 0 0.052881976533852341 0.00015849474156457571 0 0.051982242538932549 0.00019878151458246413 0 0.052281096160430029 0.00027082053639636999 0 0.052126575512972818 0.00052560475621509894 0 0.05229469620652185 -0.00010212129166578215 0 0.051982242538932549 0.00019878151458246413 0 0.052281096160430029 0.00027082053639636999 0 0.05229469620652185 -0.00010212129166578215 0 0.052524267075856335 0.00015345988679097452 0 0.052281096160430029 0.00027082053639636999 0 0.052485976507166937 0.0005279619564481535 0 0.052281096160430029 0.00027082053639636999 0 0.052126575512972818 0.00052560475621509894 0 0.051744045428865494 0.00053728278194895593 0 0.051982242538932549 0.00019878151458246413 0 0.052126575512972818 0.00052560475621509894 0 0.051744045428865494 0.00053728278194895593 0 0.052126575512972818 0.00052560475621509894 0 0.052056183958075083 0.00092890972670227941 0 0.049945024174112909 -0.00029542510231369385 0 0.047773715638389322 0.00047417480652086399 0 0.052485976507166937 0.0005279619564481535 0 0.052126575512972818 0.00052560475621509894 0 0.052056183958075083 0.00092890972670227941 0 0.052312766584840506 0.00060301310463741289 0 0.052121614325948563 0.0011795281789401019 0 0.051722733247389172 0.0011084286819230934 0 0.046813454358489159 0.00022247017468383866 0 0.047773715638389322 0.00047417480652086399 0 0.046981458676896994 0.00015175961577185878 0 0.04618998550901033 8.1225516469775735e-06 0 0.046483437873540853 0.00070991301167643115 0 0.046150864260261028 0.00030734196978818388 0 0.045659928547823775 0.00074819364789092838 0 0.046524428319781957 5.1064651309006603e-05 0 0.046817661205484751 0.00010378177601872049 0 0.046149818702858413 0.00047196973998396937 0 0.046813454358489159 0.00022247017468383866 0 0.045659928547823775 0.00074819364789092838 0 0.045507757024727535 -0.0013523195225426934 0 0.044249506897345053 8.0078050347403589e-05 0 0.045114736753057369 -0.00013965719580266974 0 0.044601058156194612 0.00013978753488435108 0 0.045114736753057369 -0.00013965719580266974 0 0.046638593718923226 0.00052269088328697202 0 0.048482241993995472 -0.00087226438227963577 0 0.046813454358489159 0.00022247017468383866 0 0.052312766584840506 0.00060301310463741289 0 0.052817657473592655 0.00042622227248976938 0 0.052121614325948563 0.0011795281789401019 0 0.045507757024727535 -0.0013523195225426934 0 0.045114736753057369 -0.00013965719580266974 0 0.04615612274959411 -0.00046218350408606593 0 0.044249506897345053 8.0078050347403589e-05 0 0.044603939934947032 0.00014334963021324097 0 0.045114736753057369 -0.00013965719580266974 0 0.046150864260261028 0.00030734196978818388 0 0.046077511783196252 0.00032578804753588412 0 0.046813454358489159 0.00022247017468383866 0 0.046150864260261028 0.00030734196978818388 0 0.04615612274959411 -0.00046218350408606593 0 0.04722533398834812 -0.0011083132439192601 0 0.046638593718923226 0.00052269088328697202 0 0.045114736753057369 -0.00013965719580266974 0 0.04615612274959411 -0.00046218350408606593 0 0.046638593718923226 0.00052269088328697202 0 0.046150864260261028 0.00030734196978818388 0 0.046564705299483027 0.0004388620242683473 0 0.045507757024727535 -0.0013523195225426934 0 0.04615612274959411 -0.00046218350408606593 0 0.04722533398834812 -0.0011083132439192601 0 0.046796605105966477 -0.0028223880292942275 0 0.045507757024727535 -0.0013523195225426934 0 0.04722533398834812 -0.0011083132439192601 0 0.053363319766312138 -0.00019139668586055277 0 0.052817657473592655 0.00042622227248976938 0 0.052881976533852341 0.00015849474156457571 0 0.049613833294080138 -0.0019444682633969442 0 0.048482241993995472 -0.00087226438227963577 0 0.049356925819259531 -0.0023171439990902539 0 0.046796605105966477 -0.0028223880292942275 0 0.04722533398834812 -0.0011083132439192601 0 0.048616174430724655 -0.00058148046932888825 0 0.046638593718923226 0.00052269088328697202 0 0.048632534525618776 0.0009112551021851588 0 0.048616174430724655 -0.00058148046932888825 0 0.04722533398834812 -0.0011083132439192601 0 0.046638593718923226 0.00052269088328697202 0 0.046925441041187524 0.0018540960233147659 0 0.046218295474779438 0.0004183056667253409 0 0.048632534525618776 0.0009112551021851588 0 0.046564705299483027 0.0004388620242683473 0 0.047405137253634634 0.00061122645720865525 0 0.046925441041187524 0.0018540960233147659 0 0.047151610402149949 0.0030795805658680908 0 0.048627325745976391 0.0024643603979570146 0 0.046925441041187524 0.0018540960233147659 0 0.047151610402149949 0.0030795805658680908 0 0.045574921675664896 0.00269328001501886 0 0.046925441041187524 0.0018540960233147659 0 0.045574921675664896 0.00269328001501886 0 0.045341708146842553 0.0015077636893814593 0 0.045574921675664896 0.00269328001501886 0 0.044535396707955983 0.0028221713854734037 0 0.045775094274878379 0.0037928367521943432 0 0.045574921675664896 0.00269328001501886 0 0.045341708146842553 0.0015077636893814593 0 0.044680230029412162 0.0020721826573972904 0 0.046925441041187524 0.0018540960233147659 0 0.045341708146842553 0.0015077636893814593 0 0.046218295474779438 0.0004183056667253409 0 0.04388296392356885 -4.503406894254595e-06 0 0.045341708146842553 0.0015077636893814593 0 0.046218295474779438 0.0004183056667253409 0 0.04388296392356885 -4.503406894254595e-06 0 0.045341708146842553 0.0015077636893814593 0 0.044054049871661588 0.0014110522178581134 0 0.04388296392356885 -4.503406894254595e-06 0 0.044054049871661588 0.0014110522178581134 0 0.043446668967055992 0.00079484238921733081 0 0.045341708146842553 0.0015077636893814593 0 0.044054049871661588 0.0014110522178581134 0 0.044680230029412162 0.0020721826573972904 0 0.04618998550901033 8.1225516469775735e-06 0 0.046483437873540853 0.00070991301167643115 0 0.044923681887893079 0.0011340665426377633 0 0.045659928547823775 0.00074819364789092838 0 0.044016179579685684 0.0015650465172542432 0 0.045659928547823775 0.00074819364789092838 0 0.045137725905969941 0.0010985868818858299 0 0.04388296392356885 -4.503406894254595e-06 0 0.043446668967055992 0.00079484238921733081 0 0.04296230644966291 0.00050303203762796611 0 0.043446668967055992 0.00079484238921733081 0 0.04296230644966291 0.00050303203762796611 0 0.042943925985093945 0.001291395175688821 0 0.044054049871661588 0.0014110522178581134 0 0.043446668967055992 0.00079484238921733081 0 0.042943925985093945 0.001291395175688821 0 0.044054049871661588 0.0014110522178581134 0 0.042943925985093945 0.001291395175688821 0 0.043097306076687825 0.002009444291629036 0 0.042943925985093945 0.001291395175688821 0 0.042511773261183487 0.0018427244277340504 0 0.043097306076687825 0.002009444291629036 0 0.042943925985093945 0.001291395175688821 0 0.042511773261183487 0.0018427244277340504 0 0.042140365500675632 0.001424008508935086 0 0.04296230644966291 0.00050303203762796611 0 0.042943925985093945 0.001291395175688821 0 0.042140365500675632 0.001424008508935086 0 0.042511773261183487 0.0018427244277340504 0 0.043097306076687825 0.002009444291629036 0 0.042344326797048963 0.0025014342897383812 0 0.042511773261183487 0.0018427244277340504 0 0.042344326797048963 0.0025014342897383812 0 0.041790096826977333 0.0019789574806882552 0 0.043097306076687825 0.002009444291629036 0 0.043388937670728961 0.0027337774073784207 0 0.043938465957727761 0.0021726407541015035 0 0.043097306076687825 0.002009444291629036 0 0.043388937670728961 0.0027337774073784207 0 0.042344326797048963 0.0025014342897383812 0 0.042344326797048963 0.0025014342897383812 0 0.042772722634510388 0.0032551622106561872 0 0.041923340125501508 0.003461513045998951 0 0.043388937670728961 0.0027337774073784207 0 0.042344326797048963 0.0025014342897383812 0 0.042772722634510388 0.0032551622106561872 0 0.044680230029412162 0.0020721826573972904 0 0.043938465957727761 0.0021726407541015035 0 0.044535396707955983 0.0028221713854734037 0 0.044054049871661588 0.0014110522178581134 0 0.043097306076687825 0.002009444291629036 0 0.043938465957727761 0.0021726407541015035 0 0.044054049871661588 0.0014110522178581134 0 0.044680230029412162 0.0020721826573972904 0 0.043938465957727761 0.0021726407541015035 0 0.043388937670728961 0.0027337774073784207 0 0.044535396707955983 0.0028221713854734037 0 0.04365142703940976 0.0036416857729724321 0 0.043388937670728961 0.0027337774073784207 0 0.043938465957727761 0.0021726407541015035 0 0.044535396707955983 0.0028221713854734037 0 0.045574921675664896 0.00269328001501886 0 0.044680230029412162 0.0020721826573972904 0 0.044535396707955983 0.0028221713854734037 0 0.044535396707955983 0.0028221713854734037 0 0.04365142703940976 0.0036416857729724321 0 0.044591194106071465 0.0042833278580076128 0 0.044535396707955983 0.0028221713854734037 0 0.044591194106071465 0.0042833278580076128 0 0.045775094274878379 0.0037928367521943432 0 0.04365142703940976 0.0036416857729724321 0 0.044591194106071465 0.0042833278580076128 0 0.043586746276317992 0.0046664778499066976 0 0.042772722634510388 0.0032551622106561872 0 0.042583102090977924 0.0041898980507219259 0 0.041923340125501508 0.003461513045998951 0 0.043388937670728961 0.0027337774073784207 0 0.04365142703940976 0.0036416857729724321 0 0.042772722634510388 0.0032551622106561872 0 0.04365142703940976 0.0036416857729724321 0 0.042772722634510388 0.0032551622106561872 0 0.042583102090977924 0.0041898980507219259 0 0.04365142703940976 0.0036416857729724321 0 0.042583102090977924 0.0041898980507219259 0 0.043586746276317992 0.0046664778499066976 0 0.043586746276317992 0.0046664778499066976 0 0.042342184497020811 0.0055762420151783416 0 0.044339081379079701 0.0055475419843614487 0 0.042583102090977924 0.0041898980507219259 0 0.043586746276317992 0.0046664778499066976 0 0.042342184497020811 0.0055762420151783416 0 0.044591194106071465 0.0042833278580076128 0 0.044339081379079701 0.0055475419843614487 0 0.045658949712886476 0.0052197441225837896 0 0.044591194106071465 0.0042833278580076128 0 0.043586746276317992 0.0046664778499066976 0 0.044339081379079701 0.0055475419843614487 0 0.045658949712886476 0.0052197441225837896 0 0.04538478672895066 0.0064042471197632532 0 0.047930511392314683 0.0059750257990460204 0 0.044339081379079701 0.0055475419843614487 0 0.045658949712886476 0.0052197441225837896 0 0.045385234002889054 0.0063872753559093987 0 0.033804317060874452 0.0013733043495652234 0 0.033022597519656943 0.0006638531640989606 0 0.047018817705970967 0.0044468721759597565 0 0.047930511392314683 0.0059750257990460204 0 0.04857070799987908 0.0041720698281925081 0 0.045658949712886476 0.0052197441225837896 0 0.047018817705970967 0.0044468721759597565 0 0.047930511392314683 0.0059750257990460204 0 0.047151610402149949 0.0030795805658680908 0 0.047018817705970967 0.0044468721759597565 0 0.04857070799987908 0.0041720698281925081 0 0.047151610402149949 0.0030795805658680908 0 0.047018817705970967 0.0044468721759597565 0 0.045775094274878379 0.0037928367521943432 0 0.045658949712886476 0.0052197441225837896 0 0.047018817705970967 0.0044468721759597565 0 0.045775094274878379 0.0037928367521943432 0 0.044591194106071465 0.0042833278580076128 0 0.045658949712886476 0.0052197441225837896 0 0.045775094274878379 0.0037928367521943432 0 0.047151610402149949 0.0030795805658680908 0 0.045574921675664896 0.00269328001501886 0 0.045775094274878379 0.0037928367521943432 0 0.042366650577655429 0.0020733998473104007 0 0.042724612489388976 0.0022097288850702118 0 0.042284891446113138 0.0024458251498859929 0 0.042366650577655429 0.0020733998473104007 0 0.042284891446113138 0.0024458251498859929 0 0.041985413431693264 0.0020628487929870648 0 0.042727654056888338 0.0014901583241479811 0 0.042406089190554108 0.0016973858086065229 0 0.042034746419502216 0.0015848729528935063 0 0.042406089190554108 0.0016973858086065229 0 0.041985413431693264 0.0020628487929870648 0 0.042034746419502216 0.0015848729528935063 0 0.042366650577655429 0.0020733998473104007 0 0.042406089190554108 0.0016973858086065229 0 0.041985413431693264 0.0020628487929870648 0 0.042366650577655429 0.0020733998473104007 0 0.042406089190554108 0.0016973858086065229 0 0.04256883143277268 0.001898734093087109 0 0.04256883143277268 0.001898734093087109 0 0.042622315293581375 0.0017049215659192291 0 0.042784210567755734 0.0017393966705639401 0 0.042406089190554108 0.0016973858086065229 0 0.04256883143277268 0.001898734093087109 0 0.042622315293581375 0.0017049215659192291 0 0.042727654056888338 0.0014901583241479811 0 0.042406089190554108 0.0016973858086065229 0 0.042622315293581375 0.0017049215659192291 0 0.042727654056888338 0.0014901583241479811 0 0.042622315293581375 0.0017049215659192291 0 0.042784210567755734 0.0017393966705639401 0 0.044465526078214725 0.0012846740680082212 0 0.044354417630298751 0.0021656594599153284 0 0.044911260914491005 0.0018620796609596078 0 0.04256883143277268 0.001898734093087109 0 0.042784210567755734 0.0017393966705639401 0 0.042724612489388976 0.0022097288850702118 0 0.043858099777557578 0.0015903995444372446 0 0.041813079524989138 0.0026174346865698466 0 0.042366650577655429 0.0020733998473104007 0 0.04256883143277268 0.001898734093087109 0 0.042724612489388976 0.0022097288850702118 0 0.038948506589063188 0.0026960449279360113 0 0.039333734773342649 0.0027318773158208319 0 0.039583479737740165 0.0034650241531645185 0 0.039333734773342649 0.0027318773158208319 0 0.040304181718196698 0.0029310258248952414 0 0.039583479737740165 0.0034650241531645185 0 0.039333734773342649 0.0027318773158208319 0 0.040304181718196698 0.0029310258248952414 0 0.040049488281413026 0.0020958135213589718 0 0.038948506589063188 0.0026960449279360113 0 0.039333734773342649 0.0027318773158208319 0 0.04006815631080226 0.0020844836599077502 0 0.040304181718196698 0.0029310258248952414 0 0.040049488281413026 0.0020958135213589718 0 0.040995759477862818 0.0022083329319332883 0 0.04267545974729417 0.0023969098224957026 0 0.043089827605557282 0.0021525820187753559 0 0.041813079524989138 0.0026174346865698466 0 0.043089827605557282 0.0021525820187753559 0 0.044465526078214725 0.0012846740680082212 0 0.044911260914491005 0.0018620796609596078 0 0.045016531112461046 0.0010288855745918762 0 0.044911260914491005 0.0018620796609596078 0 0.045016531112461046 0.0010288855745918762 0 0.045566722198408995 0.0012829860982024812 0 0.043089827605557282 0.0021525820187753559 0 0.044016179579685684 0.0015650465172542432 0 0.043089827605557282 0.0021525820187753559 0 0.045391273036181429 0.0013124173099094919 0 0.042982294648939157 0.00049177464443926806 0 0.041500523726024793 0.0012994203636381852 0 0.042140365500675632 0.001424008508935086 0 0.046483437873540853 0.00070991301167643115 0 0.04507079669415287 0.0014857455825883622 0 0.044923681887893079 0.0011340665426377633 0 0.04365388408460439 0.0022632354626701059 0 0.04507079669415287 0.0014857455825883622 0 0.044923681887893079 0.0011340665426377633 0 0.047773715638389322 0.00047417480652086399 0 0.045391273036181429 0.0013124173099094919 0 0.041500523726024793 0.0012994203636381852 0 0.042140365500675632 0.001424008508935086 0 0.041790096826977333 0.0019789574806882552 0 0.042511773261183487 0.0018427244277340504 0 0.042140365500675632 0.001424008508935086 0 0.041790096826977333 0.0019789574806882552 0 0.042344326797048963 0.0025014342897383812 0 0.041790096826977333 0.0019789574806882552 0 0.04133819084287374 0.002733698102712213 0 0.040049488281413026 0.0020958135213589718 0 0.041500523726024793 0.0012994203636381852 0 0.040995759477862818 0.0022083329319332883 0 0.041790096826977333 0.0019789574806882552 0 0.040995759477862818 0.0022083329319332883 0 0.04133819084287374 0.002733698102712213 0 0.041500523726024793 0.0012994203636381852 0 0.041790096826977333 0.0019789574806882552 0 0.040995759477862818 0.0022083329319332883 0 0.040304181718196698 0.0029310258248952414 0 0.040995759477862818 0.0022083329319332883 0 0.04133819084287374 0.002733698102712213 0 0.040304181718196698 0.0029310258248952414 0 0.04133819084287374 0.002733698102712213 0 0.041099115537598915 0.0035121799928778509 0 0.042344326797048963 0.0025014342897383812 0 0.04133819084287374 0.002733698102712213 0 0.041923340125501508 0.003461513045998951 0 0.041923340125501508 0.003461513045998951 0 0.041099115537598915 0.0035121799928778509 0 0.041405383558483631 0.0042856771752697509 0 0.04133819084287374 0.002733698102712213 0 0.041923340125501508 0.003461513045998951 0 0.041099115537598915 0.0035121799928778509 0 0.041099115537598915 0.0035121799928778509 0 0.041405383558483631 0.0042856771752697509 0 0.040344875392923273 0.0039667427277606448 0 0.042583102090977924 0.0041898980507219259 0 0.041923340125501508 0.003461513045998951 0 0.041405383558483631 0.0042856771752697509 0 0.042342184497020811 0.0055762420151783416 0 0.041405383558483631 0.0042856771752697509 0 0.040204811501111035 0.005201773904491616 0 0.042583102090977924 0.0041898980507219259 0 0.042342184497020811 0.0055762420151783416 0 0.041405383558483631 0.0042856771752697509 0 0.040204811501111035 0.005201773904491616 0 0.0386806157090894 0.0048228717435451545 0 0.03932065906036733 0.0063167387406110834 0 0.040204811501111035 0.005201773904491616 0 0.039691708114570609 0.0044000096804633132 0 0.0386806157090894 0.0048228717435451545 0 0.040204811501111035 0.005201773904491616 0 0.039691708114570609 0.0044000096804633132 0 0.040344875392923273 0.0039667427277606448 0 0.039691708114570609 0.0044000096804633132 0 0.040344875392923273 0.0039667427277606448 0 0.039583479737740165 0.0034650241531645185 0 0.041405383558483631 0.0042856771752697509 0 0.040204811501111035 0.005201773904491616 0 0.040344875392923273 0.0039667427277606448 0 0.040304181718196698 0.0029310258248952414 0 0.041099115537598915 0.0035121799928778509 0 0.040344875392923273 0.0039667427277606448 0 0.040304181718196698 0.0029310258248952414 0 0.040344875392923273 0.0039667427277606448 0 0.039583479737740165 0.0034650241531645185 0 0.038948506589063188 0.0026960449279360113 0 0.039583479737740165 0.0034650241531645185 0 0.0386806157090894 0.0048228717435451545 0 0.041813079524989138 0.0026174346865698466 0 0.040393482290484145 0.0045332727103171476 0 0.038962360551257971 0.0022204155991962706 0 0.038674868251980105 0.0045752631982026934 0 0.037152574922388236 0.0032061368365349846 0 0.041813079524989138 0.0026174346865698466 0 0.039300844795352487 0.0028663652288324487 0 0.039691708114570609 0.0044000096804633132 0 0.039583479737740165 0.0034650241531645185 0 0.0386806157090894 0.0048228717435451545 0 0.040393482290484145 0.0045332727103171476 0 0.039928704713654395 0.0055607780168720686 0 0.038674868251980105 0.0045752631982026934 0 0.037000958605880992 0.0045793612584851939 0 0.03763284942682326 0.0058975980460950908 0 0.037000958605880992 0.0045793612584851939 0 0.036481908635473223 0.0058607054085980295 0 0.03763284942682326 0.0058975980460950908 0 0.038674868251980105 0.0045752631982026934 0 0.037000958605880992 0.0045793612584851939 0 0.037152574922388236 0.0032061368365349846 0 0.037000958605880992 0.0045793612584851939 0 0.037152574922388236 0.0032061368365349846 0 0.035343708113971348 0.0041920947796383378 0 0.028453167055828288 0.001282483918738033 0 0.02831890351444951 0.0010871382510068805 0 0.026045675638079999 0.0017020895733928978 0 0.015833613566926447 0.002234983673159175 0 0.015263444014113564 0.00083057493143431644 0 0.016205542105395352 0.0014154651801891183 0 0.028063325714528253 0.00083365386625599148 0 0.024046137998448489 0.00096322241526902112 0 0.015833613566926447 0.002234983673159175 0 0.016205542105395352 0.0014154651801891183 0 0.017134100881642526 0.0020378053975241605 0 0.020194574756030804 -0.00023440829902756949 0 0.024046137998448489 0.00096322241526902112 0 0.028063325714528253 0.00083365386625599148 0 0.028976720670775946 0.001389489987796397 0 0.037626196706694162 0.0075208541840871817 0 0.03763284942682326 0.0058975980460950908 0 0.038387422464378262 0.0069380970985642443 0 0.037626196706694162 0.0075208541840871817 0 0.036481908635473223 0.0058607054085980295 0 0.03763284942682326 0.0058975980460950908 0 0.028976720670775946 0.001389489987796397 0 0.033202720668990299 0.0032916981613740283 0 0.031042715366327727 0.0019484467741076258 0 0.031560872007492809 0.002701946995517927 0 0.032196285956126391 0.001978945352061944 0 0.0386806157090894 0.0048228717435451545 0 0.038387422464378262 0.0069380970985642443 0 0.03932065906036733 0.0063167387406110834 0 0.038674868251980105 0.0045752631982026934 0 0.03763284942682326 0.0058975980460950908 0 0.038387422464378262 0.0069380970985642443 0 0.038387422464378262 0.0069380970985642443 0 0.03932065906036733 0.0063167387406110834 0 0.038517357300955027 0.0075161100202131787 0 0.028570595475938088 -0.00062148160600591321 0 0.028502427735627861 -0.00061165847304944332 0 0.0284573277021751 -0.00079673980594686857 0 0.028502427735627861 -0.00061165847304944332 0 0.028390222766380806 -0.00070641300272929533 0 0.0284573277021751 -0.00079673980594686857 0 0.02968230466772161 0.0010667523259186306 0 0.028943177850488198 0.00066001898485937706 0 0.028063325714528253 0.00083365386625599148 0 0.024015920522686446 -0.00060967199983802964 0 0.037626196706694162 0.0075208541840871817 0 0.038387422464378262 0.0069380970985642443 0 0.038517357300955027 0.0075161100202131787 0 0.027223173342077096 0.0011456885690477835 0 0.026873541780755308 0.00063571232617718257 0 0.029859163798942028 0.00069547063750566578 0 0.028976720670775946 0.001389489987796397 0 0.02968230466772161 0.0010667523259186306 0 0.028063325714528253 0.00083365386625599148 0 0.02968230466772161 0.0010667523259186306 0 0.028480207009875184 -0.00059936847378481745 0 0.02833405423737911 -0.0005420613114318324 0 0.028244937809867712 -0.00061223687558152899 0 0.028737508606822823 -0.00056642480789465921 0 0.028480207009875184 -0.00059936847378481745 0 0.02833405423737911 -0.0005420613114318324 0 0.02968230466772161 0.0010667523259186306 0 0.033497274465338546 0.0015743343939172046 0 0.028943177850488198 0.00066001898485937706 0 0.028727708562894052 0.00053364117366304809 0 0.028306661660884025 -0.00069327989336566832 0 0.028367626236145877 -0.00061871776895198376 0 0.028244937809867712 -0.00061223687558152899 0 0.028502427735627861 -0.00061165847304944332 0 0.028390222766380806 -0.00070641300272929533 0 0.028367626236145877 -0.00061871776895198376 0 0.028390222766380806 -0.00070641300272929533 0 0.028306661660884025 -0.00069327989336566832 0 0.028367626236145877 -0.00061871776895198376 0 0.040204811501111035 0.005201773904491616 0 0.03932065906036733 0.0063167387406110834 0 0.040814053441265645 0.0071319708642200138 0 0.03932065906036733 0.0063167387406110834 0 0.038517357300955027 0.0075161100202131787 0 0.040814053441265645 0.0071319708642200138 0 0.02833405423737911 -0.0005420613114318324 0 0.028244937809867712 -0.00061223687558152899 0 0.028056871695754434 -0.00052547089056335515 0 0.042342184497020811 0.0055762420151783416 0 0.040814053441265645 0.0071319708642200138 0 0.043099234267815145 0.0067632156986355422 0 0.042342184497020811 0.0055762420151783416 0 0.040204811501111035 0.005201773904491616 0 0.040814053441265645 0.0071319708642200138 0 0.033497274465338546 0.0015743343939172046 0 0.034552712271779536 0.0014399313979829658 0 0.028306661660884025 -0.00069327989336566832 0 0.028244937809867712 -0.00061223687558152899 0 0.028207918148272688 -0.00073200211857785494 0 0.028244937809867712 -0.00061223687558152899 0 0.028207918148272688 -0.00073200211857785494 0 0.028112763820524557 -0.00067391466993320544 0 0.028207918148272688 -0.00073200211857785494 0 0.028186933460786781 -0.00087545827600426487 0 0.028069554703163874 -0.00079251804595544602 0 0.028306661660884025 -0.00069327989336566832 0 0.028207918148272688 -0.00073200211857785494 0 0.028314635421743541 -0.00079419886785619183 0 0.028207918148272688 -0.00073200211857785494 0 0.028186933460786781 -0.00087545827600426487 0 0.028314635421743541 -0.00079419886785619183 0 0.021759236868956439 -0.0013606066856603895 0 0.023231501179631416 -0.0024644799056126815 0 0.028186933460786781 -0.00087545827600426487 0 0.028336389693812317 -0.00098219587427998407 0 0.02813425632649829 -0.0010341712061117836 0 0.028186933460786781 -0.00087545827600426487 0 0.028336389693812317 -0.00098219587427998407 0 0.028314635421743541 -0.00079419886785619183 0 0.021759236868956439 -0.0013606066856603895 0 0.024015920522686446 -0.00060967199983802964 0 0.01476823318973166 0.0004078431483451547 0 0.014954016376238223 0.00056027522342443081 0 0.014992242955100781 0.00095214064874104415 0 0.01476823318973166 0.0004078431483451547 0 0.014897311041053378 0.00046069856019539024 0 0.014954016376238223 0.00056027522342443081 0 0.014767311326348172 0.0004355690992695872 0 0.014897311041053378 0.00046069856019539024 0 0.014824128436714488 0.00019167054689479381 0 0.021759236868956439 -0.0013606066856603895 0 0.021365500437754655 -0.0013938577954908222 0 0.028336389693812317 -0.00098219587427998407 0 0.028314635421743541 -0.00079419886785619183 0 0.0284573277021751 -0.00079673980594686857 0 0.028390222766380806 -0.00070641300272929533 0 0.028314635421743541 -0.00079419886785619183 0 0.0284573277021751 -0.00079673980594686857 0 0.028390222766380806 -0.00070641300272929533 0 0.028306661660884025 -0.00069327989336566832 0 0.028314635421743541 -0.00079419886785619183 0 0.015833613566926447 0.002234983673159175 0 0.014992242955100781 0.00095214064874104415 0 0.015263444014113564 0.00083057493143431644 0 0.015263444014113564 0.00083057493143431644 0 0.015218052731213166 0.00067376560702772203 0 0.015350992852605799 0.00076108574523297277 0 0.015263444014113564 0.00083057493143431644 0 0.015140324052822833 0.00072715120096172447 0 0.015218052731213166 0.00067376560702772203 0 0.014992242955100781 0.00095214064874104415 0 0.015140324052822833 0.00072715120096172447 0 0.01505497144197027 0.0006571548890939666 0 0.014954016376238223 0.00056027522342443081 0 0.014992242955100781 0.00095214064874104415 0 0.01505497144197027 0.0006571548890939666 0 0.014992242955100781 0.00095214064874104415 0 0.015263444014113564 0.00083057493143431644 0 0.015140324052822833 0.00072715120096172447 0 0.015140324052822833 0.00072715120096172447 0 0.01505497144197027 0.0006571548890939666 0 0.015120633596667732 0.00058457244823149044 0 0.015120633596667732 0.00058457244823149044 0 0.015049339777379826 0.00049224781151811911 0 0.015210981481683802 0.00051273530436113227 0 0.01505497144197027 0.0006571548890939666 0 0.015120633596667732 0.00058457244823149044 0 0.015049339777379826 0.00049224781151811911 0 0.014954016376238223 0.00056027522342443081 0 0.01505497144197027 0.0006571548890939666 0 0.015049339777379826 0.00049224781151811911 0 0.014897311041053378 0.00046069856019539024 0 0.014954016376238223 0.00056027522342443081 0 0.015049339777379826 0.00049224781151811911 0 0.015049339777379826 0.00049224781151811911 0 0.015149492791644611 0.00034291478747819207 0 0.015001425997475819 0.00032140492154641108 0 0.014897311041053378 0.00046069856019539024 0 0.015049339777379826 0.00049224781151811911 0 0.015001425997475819 0.00032140492154641108 0 0.015292308378622338 0.00037717843818811978 0 0.015210981481683802 0.00051273530436113227 0 0.015149492791644611 0.00034291478747819207 0 0.015049339777379826 0.00049224781151811911 0 0.015210981481683802 0.00051273530436113227 0 0.015149492791644611 0.00034291478747819207 0 0.015210981481683802 0.00051273530436113227 0 0.015218052731213166 0.00067376560702772203 0 0.015319483598249001 0.00061910299432994277 0 0.015120633596667732 0.00058457244823149044 0 0.015210981481683802 0.00051273530436113227 0 0.015218052731213166 0.00067376560702772203 0 0.015140324052822833 0.00072715120096172447 0 0.015120633596667732 0.00058457244823149044 0 0.015218052731213166 0.00067376560702772203 0 0.015218052731213166 0.00067376560702772203 0 0.015319483598249001 0.00061910299432994277 0 0.015350992852605799 0.00076108574523297277 0 0.015319483598249001 0.00061910299432994277 0 0.015485758175331198 0.00071025429005703905 0 0.015350992852605799 0.00076108574523297277 0 0.015210981481683802 0.00051273530436113227 0 0.015319483598249001 0.00061910299432994277 0 0.015396383452049795 0.00050978327659754097 0 0.015319483598249001 0.00061910299432994277 0 0.015396383452049795 0.00050978327659754097 0 0.015485758175331198 0.00071025429005703905 0 0.015292308378622338 0.00037717843818811978 0 0.015396383452049795 0.00050978327659754097 0 0.015436239154308026 0.00029374217930280036 0 0.015292308378622338 0.00037717843818811978 0 0.015210981481683802 0.00051273530436113227 0 0.015396383452049795 0.00050978327659754097 0 0.015396383452049795 0.00050978327659754097 0 0.01566267633875101 0.00051063238660686448 0 0.015436239154308026 0.00029374217930280036 0 0.015396383452049795 0.00050978327659754097 0 0.015485758175331198 0.00071025429005703905 0 0.01566267633875101 0.00051063238660686448 0 0.015485758175331198 0.00071025429005703905 0 0.015671181652361216 0.00083771354221433422 0 0.01566267633875101 0.00051063238660686448 0 0.015485758175331198 0.00071025429005703905 0 0.015466743109932417 0.00099621743550029705 0 0.015671181652361216 0.00083771354221433422 0 0.015466743109932417 0.00099621743550029705 0 0.015750763698890401 0.0012136692513959955 0 0.015671181652361216 0.00083771354221433422 0 0.015485758175331198 0.00071025429005703905 0 0.015350992852605799 0.00076108574523297277 0 0.015466743109932417 0.00099621743550029705 0 0.015263444014113564 0.00083057493143431644 0 0.015350992852605799 0.00076108574523297277 0 0.015466743109932417 0.00099621743550029705 0 0.019097790868486182 -0.00053843381706604996 0 0.020194574756030804 -0.00023440829902756949 0 0.020400736643970668 -0.0074643051642746695 0 0.020036155584800274 -0.0073470213850522562 0 0.020197629505989283 -0.007120862283283254 0 0.020400736643970668 -0.0074643051642746695 0 0.020125197684833916 -0.0077043220153256552 0 0.020036155584800274 -0.0073470213850522562 0 0.033022597519656943 0.0006638531640989606 0 0.034296283515917861 -0.00070793268320493738 0 0.020400736643970668 -0.0074643051642746695 0 0.020125197684833916 -0.0077043220153256552 0 0.020638855724469555 -0.0078178102934053813 0 0.033022597519656943 0.0006638531640989606 0 0.028287171676462317 -0.0023331667625656007 0 0.033022597519656943 0.0006638531640989606 0 0.034552712271779536 0.0014399313979829658 0 0.044339081379079701 0.0055475419843614487 0 0.045385234002889054 0.0063872753559093987 0 0.043099234267815145 0.0067632156986355422 0 0.027837973571375726 -0.0004938258967739712 0 0.028056871695754434 -0.00052547089056335515 0 0.027864770702705041 -0.00068352995708922124 0 0.042342184497020811 0.0055762420151783416 0 0.044339081379079701 0.0055475419843614487 0 0.043099234267815145 0.0067632156986355422 0 0.028056871695754434 -0.00052547089056335515 0 0.028112763820524557 -0.00067391466993320544 0 0.027996274669923604 -0.0007083110394376272 0 0.028244937809867712 -0.00061223687558152899 0 0.028056871695754434 -0.00052547089056335515 0 0.028112763820524557 -0.00067391466993320544 0 0.028112763820524557 -0.00067391466993320544 0 0.027996274669923604 -0.0007083110394376272 0 0.028069554703163874 -0.00079251804595544602 0 0.028056871695754434 -0.00052547089056335515 0 0.027864770702705041 -0.00068352995708922124 0 0.027996274669923604 -0.0007083110394376272 0 0.027864770702705041 -0.00068352995708922124 0 0.027996274669923604 -0.0007083110394376272 0 0.027890324525121683 -0.00088346310982452623 0 0.027996274669923604 -0.0007083110394376272 0 0.028069554703163874 -0.00079251804595544602 0 0.027890324525121683 -0.00088346310982452623 0 0.028287171676462317 -0.0023331667625656007 0 0.025001367708719222 -0.0035595164677439855 0 0.028069554703163874 -0.00079251804595544602 0 0.028032698391882088 -0.00092703186910466631 0 0.027890324525121683 -0.00088346310982452623 0 0.028186933460786781 -0.00087545827600426487 0 0.028069554703163874 -0.00079251804595544602 0 0.028032698391882088 -0.00092703186910466631 0 0.028207918148272688 -0.00073200211857785494 0 0.028112763820524557 -0.00067391466993320544 0 0.028069554703163874 -0.00079251804595544602 0 0.028186933460786781 -0.00087545827600426487 0 0.028032698391882088 -0.00092703186910466631 0 0.02813425632649829 -0.0010341712061117836 0 0.028032698391882088 -0.00092703186910466631 0 0.027920542230392482 -0.0010863070970324321 0 0.02813425632649829 -0.0010341712061117836 0 0.025001367708719222 -0.0035595164677439855 0 0.022078380616090059 -0.0043664900255389015 0 0.01995960558283005 -0.0070417419239677164 0 0.020082512917666218 -0.0069078663055704157 0 0.01989142448688945 -0.0067796009135637101 0 0.028032698391882088 -0.00092703186910466631 0 0.027890324525121683 -0.00088346310982452623 0 0.027920542230392482 -0.0010863070970324321 0 0.01995960558283005 -0.0070417419239677164 0 0.020082512917666218 -0.0069078663055704157 0 0.020197629505989283 -0.007120862283283254 0 0.020082512917666218 -0.0069078663055704157 0 0.020197629505989283 -0.007120862283283254 0 0.020223104433784656 -0.0069311452469056657 0 0.020036155584800274 -0.0073470213850522562 0 0.01995960558283005 -0.0070417419239677164 0 0.020197629505989283 -0.007120862283283254 0 0.020400736643970668 -0.0074643051642746695 0 0.020197629505989283 -0.007120862283283254 0 0.020566871551626509 -0.0071623878073776197 0 0.020197629505989283 -0.007120862283283254 0 0.020223104433784656 -0.0069311452469056657 0 0.020566871551626509 -0.0071623878073776197 0 0.023399022495047852 -0.005389880582327926 0 0.024377574264382609 -0.0051422122676926443 0 0.020223104433784656 -0.0069311452469056657 0 0.020426978677639075 -0.0075991239256802531 0 0.020517455232891859 -0.0068488674644452434 0 0.021000330925736443 -0.0070560901051643487 0 0.020426978677639075 -0.0075991239256802531 0 0.020517455232891859 -0.0068488674644452434 0 0.021000330925736443 -0.0070560901051643487 0 0.021475106519897199 -0.0070213086411083873 0 0.021374429592511891 -0.0066866768596121713 0 0.021000330925736443 -0.0070560901051643487 0 0.02144344098028092 -0.0073260068220810078 0 0.021475106519897199 -0.0070213086411083873 0 0.021000330925736443 -0.0070560901051643487 0 0.020981822691997453 -0.0076808933519762913 0 0.02144344098028092 -0.0073260068220810078 0 0.020981822691997453 -0.0076808933519762913 0 0.021497385103334966 -0.0077646580302777671 0 0.02144344098028092 -0.0073260068220810078 0 0.020981822691997453 -0.0076808933519762913 0 0.021308418596164714 -0.0081186902836269895 0 0.021497385103334966 -0.0077646580302777671 0 0.021000330925736443 -0.0070560901051643487 0 0.020981822691997453 -0.0076808933519762913 0 0.020426978677639075 -0.0075991239256802531 0 0.024377574264382609 -0.0051422122676926443 0 0.027715823368082235 -0.0040598360667902268 0 0.020400736643970668 -0.0074643051642746695 0 0.020566871551626509 -0.0071623878073776197 0 0.020907886485104686 -0.0075044479694154871 0 0.020981822691997453 -0.0076808933519762913 0 0.020426978677639075 -0.0075991239256802531 0 0.020822302359675283 -0.0084170306461536313 0 0.020981822691997453 -0.0076808933519762913 0 0.020822302359675283 -0.0084170306461536313 0 0.021308418596164714 -0.0081186902836269895 0 0.020822302359675283 -0.0084170306461536313 0 0.021308418596164714 -0.0081186902836269895 0 0.021581345709382346 -0.0085715463250890505 0 0.020822302359675283 -0.0084170306461536313 0 0.021581345709382346 -0.0085715463250890505 0 0.021348873772610476 -0.0093031339446842283 0 0.027715823368082235 -0.0040598360667902268 0 0.035473848765118957 -0.0019099662901351192 0 0.020907886485104686 -0.0075044479694154871 0 0.020638855724469555 -0.0078178102934053813 0 0.021248961010348708 -0.0079185819350360287 0 0.020400736643970668 -0.0074643051642746695 0 0.020907886485104686 -0.0075044479694154871 0 0.020638855724469555 -0.0078178102934053813 0 0.022106017474172492 -0.0088968770045167369 0 0.022862910008211969 -0.0087054439653363389 0 0.022499035515405871 -0.0095887173594283413 0 0.022106017474172492 -0.0088968770045167369 0 0.022300866184617081 -0.0083157570694866699 0 0.022862910008211969 -0.0087054439653363389 0 0.022106017474172492 -0.0088968770045167369 0 0.021581345709382346 -0.0085715463250890505 0 0.022300866184617081 -0.0083157570694866699 0 0.022106017474172492 -0.0088968770045167369 0 0.021581345709382346 -0.0085715463250890505 0 0.021348873772610476 -0.0093031339446842283 0 0.021581345709382346 -0.0085715463250890505 0 0.021827361822947779 -0.0080447952584708493 0 0.022300866184617081 -0.0083157570694866699 0 0.021308418596164714 -0.0081186902836269895 0 0.021581345709382346 -0.0085715463250890505 0 0.021827361822947779 -0.0080447952584708493 0 0.021308418596164714 -0.0081186902836269895 0 0.021827361822947779 -0.0080447952584708493 0 0.021497385103334966 -0.0077646580302777671 0 0.021827361822947779 -0.0080447952584708493 0 0.022300866184617081 -0.0083157570694866699 0 0.022203242309220002 -0.0078470755649997209 0 0.022300866184617081 -0.0083157570694866699 0 0.022728781897504928 -0.0082402210761385892 0 0.022862910008211969 -0.0087054439653363389 0 0.022300866184617081 -0.0083157570694866699 0 0.022728781897504928 -0.0082402210761385892 0 0.022622420598461233 -0.0079118285173763649 0 0.022300866184617081 -0.0083157570694866699 0 0.022622420598461233 -0.0079118285173763649 0 0.022203242309220002 -0.0078470755649997209 0 0.022622420598461233 -0.0079118285173763649 0 0.022359353036015939 -0.0076986783009144622 0 0.022475333467989272 -0.0075055267305222141 0 0.0221217467569239 -0.0073052386299397856 0 0.022070517852673416 -0.0073687418040044072 0 0.02183821130575192 -0.0071127703772178386 0 0.022622420598461233 -0.0079118285173763649 0 0.022359353036015939 -0.0076986783009144622 0 0.022203242309220002 -0.0078470755649997209 0 0.022359353036015939 -0.0076986783009144622 0 0.022145995282524041 -0.0075372589655180264 0 0.022475333467989272 -0.0075055267305222141 0 0.022359353036015939 -0.0076986783009144622 0 0.022203242309220002 -0.0078470755649997209 0 0.022145995282524041 -0.0075372589655180264 0 0.022203242309220002 -0.0078470755649997209 0 0.022145995282524041 -0.0075372589655180264 0 0.021840805894781153 -0.00758338779476377 0 0.022145995282524041 -0.0075372589655180264 0 0.022475333467989272 -0.0075055267305222141 0 0.02183821130575192 -0.0071127703772178386 0 0.021827361822947779 -0.0080447952584708493 0 0.021497385103334966 -0.0077646580302777671 0 0.021840805894781153 -0.00758338779476377 0 0.021827361822947779 -0.0080447952584708493 0 0.022203242309220002 -0.0078470755649997209 0 0.021840805894781153 -0.00758338779476377 0 0.022145995282524041 -0.0075372589655180264 0 0.021840805894781153 -0.00758338779476377 0 0.02183821130575192 -0.0071127703772178386 0 0.021497385103334966 -0.0077646580302777671 0 0.021840805894781153 -0.00758338779476377 0 0.02144344098028092 -0.0073260068220810078 0 0.02144344098028092 -0.0073260068220810078 0 0.02183821130575192 -0.0071127703772178386 0 0.021475106519897199 -0.0070213086411083873 0 0.021840805894781153 -0.00758338779476377 0 0.02144344098028092 -0.0073260068220810078 0 0.02183821130575192 -0.0071127703772178386 0 0.02183821130575192 -0.0071127703772178386 0 0.021936519605401172 -0.0070169617855852682 0 0.021704773666032812 -0.0068966862142055343 0 0.02183821130575192 -0.0071127703772178386 0 0.021475106519897199 -0.0070213086411083873 0 0.021704773666032812 -0.0068966862142055343 0 0.0221217467569239 -0.0073052386299397856 0 0.02183821130575192 -0.0071127703772178386 0 0.021936519605401172 -0.0070169617855852682 0 0.022316109114190248 -0.0081075927842932521 0 0.021936519605401172 -0.0070169617855852682 0 0.022452208805323511 -0.0073949196144783057 0 0.023547062290334961 -0.0071685593469124984 0 0.023228251709855811 -0.0070231982079417572 0 0.023435095302852225 -0.0069716227015123597 0 0.023104409437397343 -0.0068572778389467048 0 0.021936519605401172 -0.0070169617855852682 0 0.022452208805323511 -0.0073949196144783057 0 0.022307873143768763 -0.0069759064437662742 0 0.022898538093160895 -0.0077535117627430062 0 0.022842170405521191 -0.0071576872934816576 0 0.023830268053368759 -0.0076887271108105433 0 0.022452208805323511 -0.0073949196144783057 0 0.022898538093160895 -0.0077535117627430062 0 0.022842170405521191 -0.0071576872934816576 0 0.022452208805323511 -0.0073949196144783057 0 0.022842170405521191 -0.0071576872934816576 0 0.022307873143768763 -0.0069759064437662742 0 0.022316109114190248 -0.0081075927842932521 0 0.022452208805323511 -0.0073949196144783057 0 0.022898538093160895 -0.0077535117627430062 0 0.022842170405521191 -0.0071576872934816576 0 0.023830268053368759 -0.0076887271108105433 0 0.023117089959105552 -0.0066182047929642298 0 0.022898538093160895 -0.0077535117627430062 0 0.023830268053368759 -0.0076887271108105433 0 0.023155712970244578 -0.0084336137390892563 0 0.023980796750159006 -0.0077443172054783684 0 0.023872411101593514 -0.008501791803254128 0 0.024208231389630228 -0.0078557844446029753 0 0.024563762773174531 -0.0091345111140715279 0 0.02383235312532422 -0.0093996787150828504 0 0.023830268053368759 -0.0076887271108105433 0 0.023155712970244578 -0.0084336137390892563 0 0.02383235312532422 -0.0093996787150828504 0 0.0221217467569239 -0.0073052386299397856 0 0.022070517852673416 -0.0073687418040044072 0 0.022336657898610814 -0.007646602544628461 0 0.023547062290334961 -0.0071685593469124984 0 0.024401460215344232 -0.0072365345933689557 0 0.022316109114190248 -0.0081075927842932521 0 0.023155712970244578 -0.0084336137390892563 0 0.022938439487688152 -0.009332897535200526 0 0.023435095302852225 -0.0069716227015123597 0 0.024401460215344232 -0.0072365345933689557 0 0.022622420598461233 -0.0079118285173763649 0 0.022475333467989272 -0.0075055267305222141 0 0.023144002751325676 -0.0080346679924256457 0 0.022316109114190248 -0.0081075927842932521 0 0.022898538093160895 -0.0077535117627430062 0 0.023155712970244578 -0.0084336137390892563 0 0.025846955912318014 -0.0079128070402492787 0 0.025163490079985768 -0.0070812667271021304 0 0.026182764527450979 -0.0069481753848173516 0 0.026715599303971896 -0.0078398610074255966 0 0.025846955912318014 -0.0079128070402492787 0 0.026182764527450979 -0.0069481753848173516 0 0.026715599303971896 -0.0078398610074255966 0 0.026559869118264735 -0.0087276456747726449 0 0.025846955912318014 -0.0079128070402492787 0 0.024208231389630228 -0.0078557844446029753 0 0.025846955912318014 -0.0079128070402492787 0 0.025163490079985768 -0.0070812667271021304 0 0.024208231389630228 -0.0078557844446029753 0 0.025846955912318014 -0.0079128070402492787 0 0.025389056954104833 -0.0088198012098282159 0 0.024208231389630228 -0.0078557844446029753 0 0.025389056954104833 -0.0088198012098282159 0 0.024563762773174531 -0.0091345111140715279 0 0.026559869118264735 -0.0087276456747726449 0 0.025846955912318014 -0.0079128070402492787 0 0.025389056954104833 -0.0088198012098282159 0 0.026559869118264735 -0.0087276456747726449 0 0.025389056954104833 -0.0088198012098282159 0 0.026046358950471873 -0.009563287807388238 0 0.026046358950471873 -0.009563287807388238 0 0.025115576798426267 -0.00971252258428776 0 0.025813245419655552 -0.010264500274443991 0 0.025389056954104833 -0.0088198012098282159 0 0.025115576798426267 -0.00971252258428776 0 0.024563762773174531 -0.0091345111140715279 0 0.025389056954104833 -0.0088198012098282159 0 0.026046358950471873 -0.009563287807388238 0 0.025115576798426267 -0.00971252258428776 0 0.025115576798426267 -0.00971252258428776 0 0.024563762773174531 -0.0091345111140715279 0 0.024281439800702787 -0.0099601343167123255 0 0.025115576798426267 -0.00971252258428776 0 0.025183509507774066 -0.010642296041033844 0 0.024281439800702787 -0.0099601343167123255 0 0.025183509507774066 -0.010642296041033844 0 0.024281439800702787 -0.0099601343167123255 0 0.024373951052904606 -0.010830010784307875 0 0.025115576798426267 -0.00971252258428776 0 0.025183509507774066 -0.010642296041033844 0 0.025813245419655552 -0.010264500274443991 0 0.026721503765171434 -0.010428680001952611 0 0.02664574277180224 -0.011514407491778147 0 0.025974560983148091 -0.010967689178718111 0 0.025183509507774066 -0.010642296041033844 0 0.025813245419655552 -0.010264500274443991 0 0.025974560983148091 -0.010967689178718111 0 0.026721503765171434 -0.010428680001952611 0 0.025813245419655552 -0.010264500274443991 0 0.025974560983148091 -0.010967689178718111 0 0.026721503765171434 -0.010428680001952611 0 0.026046358950471873 -0.009563287807388238 0 0.025813245419655552 -0.010264500274443991 0 0.024401460215344232 -0.0072365345933689557 0 0.024414482235302709 -0.0080850960525648864 0 0.022728781897504928 -0.0082402210761385892 0 0.023144002751325676 -0.0080346679924256457 0 0.022862910008211969 -0.0087054439653363389 0 0.022728781897504928 -0.0082402210761385892 0 0.022622420598461233 -0.0079118285173763649 0 0.023144002751325676 -0.0080346679924256457 0 0.023155712970244578 -0.0084336137390892563 0 0.022938439487688152 -0.009332897535200526 0 0.02383235312532422 -0.0093996787150828504 0 0.022938439487688152 -0.009332897535200526 0 0.024281439800702787 -0.0099601343167123255 0 0.024373951052904606 -0.010830010784307875 0 0.022938439487688152 -0.009332897535200526 0 0.02383235312532422 -0.0093996787150828504 0 0.024281439800702787 -0.0099601343167123255 0 0.024563762773174531 -0.0091345111140715279 0 0.02383235312532422 -0.0093996787150828504 0 0.024281439800702787 -0.0099601343167123255 0 0.024401460215344232 -0.0072365345933689557 0 0.029549583843998632 -0.0060696608430553106 0 0.023064031251847333 -0.0071875649840594446 0 0.023743182956092703 -0.0084087536274259373 0 0.024420683501085567 -0.0087303824732796569 0 0.023743182956092703 -0.0084087536274259373 0 0.024420683501085567 -0.0087303824732796569 0 0.024420964058643881 -0.009650790611924023 0 0.023709517121000043 -0.0087723420712101253 0 0.023345787943963331 -0.0092619318145265792 0 0.023814518028226594 -0.0093520655003016383 0 0.023144002751325676 -0.0080346679924256457 0 0.023709517121000043 -0.0087723420712101253 0 0.022862910008211969 -0.0087054439653363389 0 0.022862910008211969 -0.0087054439653363389 0 0.023345787943963331 -0.0092619318145265792 0 0.022499035515405871 -0.0095887173594283413 0 0.023709517121000043 -0.0087723420712101253 0 0.022862910008211969 -0.0087054439653363389 0 0.023345787943963331 -0.0092619318145265792 0 0.023345787943963331 -0.0092619318145265792 0 0.023891422206126976 -0.0099438409292331355 0 0.022499035515405871 -0.0095887173594283413 0 0.039488569237984765 -0.0031328271011952192 0 0.037581856214687057 -0.0024146200717925811 0 0.023345787943963331 -0.0092619318145265792 0 0.023814518028226594 -0.0093520655003016383 0 0.023891422206126976 -0.0099438409292331355 0 0.023709517121000043 -0.0087723420712101253 0 0.023814518028226594 -0.0093520655003016383 0 0.024420964058643881 -0.009650790611924023 0 0.024414482235302709 -0.0080850960525648864 0 0.024538051639812139 -0.008540519977554983 0 0.023814518028226594 -0.0093520655003016383 0 0.024420964058643881 -0.009650790611924023 0 0.023891422206126976 -0.0099438409292331355 0 0.055430049607910349 0.0050192120783516076 0 0.056440780250384924 0.0033414071521556243 0 0.054997762209714744 0.0025838377457948485 0 0.055430049607910349 0.0050192120783516076 0 0.05361523049397067 0.003832272072635849 0 0.052798279267414719 0.0054652180627643987 0 0.055430049607910349 0.0050192120783516076 0 0.05361523049397067 0.003832272072635849 0 0.054997762209714744 0.0025838377457948485 0 0.02664574277180224 -0.011514407491778147 0 0.025974560983148091 -0.010967689178718111 0 0.025689371065246821 -0.01216622632560665 0 0.025183509507774066 -0.010642296041033844 0 0.025974560983148091 -0.010967689178718111 0 0.025689371065246821 -0.01216622632560665 0 0.029549583843998632 -0.0060696608430553106 0 0.04080696936363034 -0.0042384525687593454 0 0.025183509507774066 -0.010642296041033844 0 0.024373951052904606 -0.010830010784307875 0 0.025689371065246821 -0.01216622632560665 0 0.024420964058643881 -0.009650790611924023 0 0.023891422206126976 -0.0099438409292331355 0 0.025831448862950072 -0.010302316628809973 0 0.024420683501085567 -0.0087303824732796569 0 0.024420964058643881 -0.009650790611924023 0 0.025831448862950072 -0.010302316628809973 0 0.039488569237984765 -0.0031328271011952192 0 0.04080696936363034 -0.0042384525687593454 0 0.0580571478607316 0.0046232285461947015 0 0.056440780250384924 0.0033414071521556243 0 0.057672640758691412 0.0023971961471397326 0 0.055430049607910349 0.0050192120783516076 0 0.0580571478607316 0.0046232285461947015 0 0.056440780250384924 0.0033414071521556243 0 0.043977318656725446 -0.0043206874418250125 0 0.04080696936363034 -0.0042384525687593454 0 0.047768881059402857 -0.004390554686448167 0 0.04080696936363034 -0.0042384525687593454 0 0.060042089202120369 0.0025560378020093276 0 0.060369961152524985 0.0029171570368444421 0 0.058082213636519504 0.0046661706552748299 0 0.060042089202120369 0.0025560378020093276 0 0.0580571478607316 0.0046232285461947015 0 0.058807608267634447 0.0028218831572270767 0 0.0580571478607316 0.0046232285461947015 0 0.058807608267634447 0.0028218831572270767 0 0.057672640758691412 0.0023971961471397326 0 0.059313590414388884 0.0018976106970180835 0 0.058807608267634447 0.0028218831572270767 0 0.058548079895776775 0.001963814848616996 0 0.059568320938003794 0.0022733292499288278 0 0.059313590414388884 0.0018976106970180835 0 0.058807608267634447 0.0028218831572270767 0 0.059568320938003794 0.0022733292499288278 0 0.060042089202120369 0.0025560378020093276 0 0.058807608267634447 0.0028218831572270767 0 0.058807608267634447 0.0028218831572270767 0 0.058548079895776775 0.001963814848616996 0 0.057672640758691412 0.0023971961471397326 0 0.056440780250384924 0.0033414071521556243 0 0.057672640758691412 0.0023971961471397326 0 0.0567291108905114 0.001290317887833535 0 0.056449038221947946 -6.5819094842044946e-06 0 0.0567291108905114 0.001290317887833535 0 0.057299966423751368 0.00041583045602527105 0 0.0567291108905114 0.001290317887833535 0 0.057299966423751368 0.00041583045602527105 0 0.058006609031343949 0.0011146570569418152 0 0.058049533173880778 0.00012429463867709502 0 0.057299966423751368 0.00041583045602527105 0 0.058006609031343949 0.0011146570569418152 0 0.057672640758691412 0.0023971961471397326 0 0.0567291108905114 0.001290317887833535 0 0.058006609031343949 0.0011146570569418152 0 0.058548079895776775 0.001963814848616996 0 0.058006609031343949 0.0011146570569418152 0 0.058996777569949879 0.001229626469396656 0 0.058548079895776775 0.001963814848616996 0 0.057672640758691412 0.0023971961471397326 0 0.058006609031343949 0.0011146570569418152 0 0.058006609031343949 0.0011146570569418152 0 0.058837594499538265 0.00041889662219934438 0 0.058996777569949879 0.001229626469396656 0 0.058049533173880778 0.00012429463867709502 0 0.058006609031343949 0.0011146570569418152 0 0.058837594499538265 0.00041889662219934438 0 0.059567236212552124 0.00073261381111582372 0 0.059598232525892483 0.00012472312634904671 0 0.058837594499538265 0.00041889662219934438 0 0.059567236212552124 0.00073261381111582372 0 0.058837594499538265 0.00041889662219934438 0 0.058996777569949879 0.001229626469396656 0 0.059567236212552124 0.00073261381111582372 0 0.059625752137829766 0.0013305812519783947 0 0.058996777569949879 0.001229626469396656 0 0.059625752137829766 0.0013305812519783947 0 0.059313590414388884 0.0018976106970180835 0 0.058996777569949879 0.001229626469396656 0 0.059313590414388884 0.0018976106970180835 0 0.058548079895776775 0.001963814848616996 0 0.058996777569949879 0.001229626469396656 0 0.054997762209714744 0.0025838377457948485 0 0.053698470168739042 0.00096013903831284025 0 0.053403317649804861 0.0024254522994189794 0 0.05361523049397067 0.003832272072635849 0 0.054997762209714744 0.0025838377457948485 0 0.053403317649804861 0.0024254522994189794 0 0.056440780250384924 0.0033414071521556243 0 0.0567291108905114 0.001290317887833535 0 0.054997762209714744 0.0025838377457948485 0 0.0567291108905114 0.001290317887833535 0 0.054997762209714744 0.0025838377457948485 0 0.055303393052614933 0.00063287820465431608 0 0.056449038221947946 -6.5819094842044946e-06 0 0.0567291108905114 0.001290317887833535 0 0.055303393052614933 0.00063287820465431608 0 0.054997762209714744 0.0025838377457948485 0 0.055303393052614933 0.00063287820465431608 0 0.053698470168739042 0.00096013903831284025 0 0.054534092347416213 -0.000232022701657376 0 0.055303393052614933 0.00063287820465431608 0 0.053698470168739042 0.00096013903831284025 0 0.052086942216405405 -0.00020163214272522873 0 0.052222309080760497 0.00065440057678545248 0 0.052173570388843307 3.569670781196566e-05 0 0.053698470168739042 0.00096013903831284025 0 0.05240254128816707 0.0020400563161734253 0 0.053698470168739042 0.00096013903831284025 0 0.053403317649804861 0.0024254522994189794 0 0.05240254128816707 0.0020400563161734253 0 0.053403317649804861 0.0024254522994189794 0 0.05240254128816707 0.0020400563161734253 0 0.052320776699272493 0.0027432048444634973 0 0.05240254128816707 0.0020400563161734253 0 0.052320776699272493 0.0027432048444634973 0 0.051350369929990099 0.0023036146051121078 0 0.05361523049397067 0.003832272072635849 0 0.053403317649804861 0.0024254522994189794 0 0.052320776699272493 0.0027432048444634973 0 0.052320776699272493 0.0027432048444634973 0 0.051350369929990099 0.0023036146051121078 0 0.051379099519193158 0.0041086037138749207 0 0.05240254128816707 0.0020400563161734253 0 0.051350369929990099 0.0023036146051121078 0 0.051368356921001966 0.0013795109398688568 0 0.051350369929990099 0.0023036146051121078 0 0.051368356921001966 0.0013795109398688568 0 0.050251883046579827 0.0021128456109292706 0 0.052059392468816697 9.8049640881618671e-05 0 0.05240254128816707 0.0020400563161734253 0 0.051368356921001966 0.0013795109398688568 0 0.052059392468816697 9.8049640881618671e-05 0 0.051368356921001966 0.0013795109398688568 0 0.050285673486353002 0.00080081881985205453 0 0.050285673486353002 0.00080081881985205453 0 0.048632534525618776 0.0009112551021851588 0 0.050251883046579827 0.0021128456109292706 0 0.051368356921001966 0.0013795109398688568 0 0.050285673486353002 0.00080081881985205453 0 0.050251883046579827 0.0021128456109292706 0 0.046925441041187524 0.0018540960233147659 0 0.048632534525618776 0.0009112551021851588 0 0.048627325745976391 0.0024643603979570146 0 0.048632534525618776 0.0009112551021851588 0 0.048627325745976391 0.0024643603979570146 0 0.050251883046579827 0.0021128456109292706 0 0.048627325745976391 0.0024643603979570146 0 0.050251883046579827 0.0021128456109292706 0 0.050160009386903848 0.0034516937250344843 0 0.051350369929990099 0.0023036146051121078 0 0.050251883046579827 0.0021128456109292706 0 0.050160009386903848 0.0034516937250344843 0 0.050160009386903848 0.0034516937250344843 0 0.04857070799987908 0.0041720698281925081 0 0.050414482166099672 0.00553385003569048 0 0.047151610402149949 0.0030795805658680908 0 0.048627325745976391 0.0024643603979570146 0 0.04857070799987908 0.0041720698281925081 0 0.048627325745976391 0.0024643603979570146 0 0.050160009386903848 0.0034516937250344843 0 0.04857070799987908 0.0041720698281925081 0 0.034296283515917861 -0.00070793268320493738 0 0.035473848765118957 -0.0019099662901351192 0 0.047930511392314683 0.0059750257990460204 0 0.04857070799987908 0.0041720698281925081 0 0.050414482166099672 0.00553385003569048 0 0.022106017474172492 -0.0088968770045167369 0 0.021348873772610476 -0.0093031339446842283 0 0.022499035515405871 -0.0095887173594283413 0 0.050020742075214647 0.0059335425849862487 0 0.052798279267414719 0.0054652180627643987 0 0.051151496810465324 0.0043221853619154014 0 0.035473848765118957 -0.0019099662901351192 0 0.037581856214687057 -0.0024146200717925811 0 0.035473848765118957 -0.0019099662901351192 0 0.04124853994558645 -0.0011964520447199918 0 0.05361523049397067 0.003832272072635849 0 0.052798279267414719 0.0054652180627643987 0 0.052454697529835816 0.0040595359523164717 0 0.052798279267414719 0.0054652180627643987 0 0.052454697529835816 0.0040595359523164717 0 0.051151496810465324 0.0043221853619154014 0 0.052320776699272493 0.0027432048444634973 0 0.052454697529835816 0.0040595359523164717 0 0.051151496810465324 0.0043221853619154014 0 0.05361523049397067 0.003832272072635849 0 0.052320776699272493 0.0027432048444634973 0 0.052454697529835816 0.0040595359523164717 0 0.051350369929990099 0.0023036146051121078 0 0.050160009386903848 0.0034516937250344843 0 0.051379099519193158 0.0041086037138749207 0 0.04309964681034615 -0.0011419749118200034 0 0.04124853994558645 -0.0011964520447199918 0 0.050160009386903848 0.0034516937250344843 0 0.050414482166099672 0.00553385003569048 0 0.051379099519193158 0.0041086037138749207 0 0.052762593669082314 9.6194871508745806e-05 0 0.054709440138737631 0.00076617269184103376 0 0.05384330178586242 0.00020599974861932346 0 0.049164222288976427 0.00065275122835263446 0 0.051173317016423317 0.00088422531798663484 0 0.054709440138737631 0.00076617269184103376 0 0.04943563843208168 1.4172641459460946e-05 0 0.050214968503291574 0.00016912901527513268 0 0.049164222288976427 0.00065275122835263446 0 0.051173317016423317 0.00088422531798663484 0 0.048987565765120818 0.00022491302387442751 0 0.052762593669082314 9.6194871508745806e-05 0 0.052035208153599077 1.1909827698926459e-05 0 0.05384330178586242 0.00020599974861932346 0 0.052678256866349644 2.4474104673824288e-07 0 0.052035208153599077 1.1909827698926459e-05 0 0.049127513237010992 1.5937484934370412e-07 0 0.052678256866349644 2.4474104673824288e-07 0 0.052035208153599077 1.1909827698926459e-05 0 0.05384330178586242 0.00020599974861932346 0 0.052762593669082314 9.6194871508745806e-05 0 0.052035208153599077 1.1909827698926459e-05 0 0.050899201771980179 6.7732809904613354e-05 0 0.04943563843208168 1.4172641459460946e-05 0 0.04780707056896065 -0.00029813488271889638 0 0.052035208153599077 1.1909827698926459e-05 0 0.050899201771980179 6.7732809904613354e-05 0 0.049127513237010992 1.5937484934370412e-07 0 0.052762593669082314 9.6194871508745806e-05 0 0.050899201771980179 6.7732809904613354e-05 0 0.049512135412217689 0.00022179100147068216 0 0.050899201771980179 6.7732809904613354e-05 0 0.049127513237010992 1.5937484934370412e-07 0 0.049512135412217689 0.00022179100147068216 0 0.049164222288976427 0.00065275122835263446 0 0.047920112357405571 -6.6153329065763667e-05 0 0.048468400083509174 0.00015627008372249071 0 0.049164222288976427 0.00065275122835263446 0 0.047920112357405571 -6.6153329065763667e-05 0 0.047124838077705192 -0.00032580403164488459 0 0.048468400083509174 0.00015627008372249071 0 0.048028213730141774 -8.6704665424251252e-05 0 0.048987565765120818 0.00022491302387442751 0 0.049164222288976427 0.00065275122835263446 0 0.048468400083509174 0.00015627008372249071 0 0.048987565765120818 0.00022491302387442751 0 0.047920112357405571 -6.6153329065763667e-05 0 0.048468400083509174 0.00015627008372249071 0 0.048028213730141774 -8.6704665424251252e-05 0 0.048028213730141774 -8.6704665424251252e-05 0 0.048287038293256312 0.00013884670181404398 0 0.047671908605938507 -0.00013135011190858287 0 0.048028213730141774 -8.6704665424251252e-05 0 0.048287038293256312 0.00013884670181404398 0 0.048987565765120818 0.00022491302387442751 0 0.047635739548044884 0.00019614066675293254 0 0.047215777783721637 -0.00016082632900033301 0 0.047671908605938507 -0.00013135011190858287 0 0.048287038293256312 0.00013884670181404398 0 0.047635739548044884 0.00019614066675293254 0 0.047671908605938507 -0.00013135011190858287 0 0.048287038293256312 0.00013884670181404398 0 0.047635739548044884 0.00019614066675293254 0 0.048234742514154674 0.00074893501478162042 0 0.048234742514154674 0.00074893501478162042 0 0.047835325778772711 0.0013732552261550332 0 0.047437331741852273 0.00088420386507538098 0 0.047635739548044884 0.00019614066675293254 0 0.048234742514154674 0.00074893501478162042 0 0.047437331741852273 0.00088420386507538098 0 0.048234742514154674 0.00074893501478162042 0 0.049114760611523617 0.0006479059597306367 0 0.048304629381941799 0.0021316784481142134 0 0.051173317016423317 0.00088422531798663484 0 0.049114760611523617 0.0006479059597306367 0 0.048304629381941799 0.0021316784481142134 0 0.048287038293256312 0.00013884670181404398 0 0.048987565765120818 0.00022491302387442751 0 0.049114760611523617 0.0006479059597306367 0 0.051173317016423317 0.00088422531798663484 0 0.048987565765120818 0.00022491302387442751 0 0.049114760611523617 0.0006479059597306367 0 0.048287038293256312 0.00013884670181404398 0 0.048234742514154674 0.00074893501478162042 0 0.049114760611523617 0.0006479059597306367 0 0.051173317016423317 0.00088422531798663484 0 0.058035168835443428 0.0016261965026721325 0 0.054709440138737631 0.00076617269184103376 0 0.05385774114603626 0.0011244956622725925 0 0.054172155652412832 0.0012877323784546951 0 0.058035168835443428 0.0016261965026721325 0 0.05705423918704805 0.00054062343844968623 0 0.054709440138737631 0.00076617269184103376 0 0.048304629381941799 0.0021316784481142134 0 0.047441182364685516 0.0023584554506936588 0 0.047482026536918569 0.0017424251671441368 0 0.048234742514154674 0.00074893501478162042 0 0.048304629381941799 0.0021316784481142134 0 0.047835325778772711 0.0013732552261550332 0 0.047835325778772711 0.0013732552261550332 0 0.047482026536918569 0.0017424251671441368 0 0.047437331741852273 0.00088420386507538098 0 0.048304629381941799 0.0021316784481142134 0 0.047835325778772711 0.0013732552261550332 0 0.047482026536918569 0.0017424251671441368 0 0.058035168835443428 0.0016261965026721325 0 0.059052632262555402 0.0006331305965425187 0 0.061265242506023818 0.001109817913150482 0 0.054172155652412832 0.0012877323784546951 0 0.054875652491520092 0.0014202535382716037 0 0.059052632262555402 0.0006331305965425187 0 0.060521799675924526 0.00024045824088687306 0 0.061265242506023818 0.001109817913150482 0 0.059052632262555402 0.0006331305965425187 0 0.05705423918704805 0.00054062343844968623 0 0.058527626056104086 4.3213607400067425e-05 0 0.05705423918704805 0.00054062343844968623 0 0.056178111878594388 0.00027025535654327831 0 0.058527626056104086 4.3213607400067425e-05 0 0.058035168835443428 0.0016261965026721325 0 0.059052632262555402 0.0006331305965425187 0 0.05705423918704805 0.00054062343844968623 0 0.05705423918704805 0.00054062343844968623 0 0.056178111878594388 0.00027025535654327831 0 0.054709440138737631 0.00076617269184103376 0 0.056178111878594388 0.00027025535654327831 0 0.054709440138737631 0.00076617269184103376 0 0.05384330178586242 0.00020599974861932346 0 0.052678256866349644 2.4474104673824288e-07 0 0.05384330178586242 0.00020599974861932346 0 0.056230913705249422 -1.8995719511694095e-07 0 0.056178111878594388 0.00027025535654327831 0 0.05384330178586242 0.00020599974861932346 0 0.056230913705249422 -1.8995719511694095e-07 0 0.056178111878594388 0.00027025535654327831 0 0.056230913705249422 -1.8995719511694095e-07 0 0.057937985135727607 -0.00026301542170089281 0 0.056230913705249422 -1.8995719511694095e-07 0 0.057937985135727607 -0.00026301542170089281 0 0.059774014519566092 -2.517794515139542e-07 0 0.056178111878594388 0.00027025535654327831 0 0.057937985135727607 -0.00026301542170089281 0 0.058527626056104086 4.3213607400067425e-05 0 0.057937985135727607 -0.00026301542170089281 0 0.05880049018152203 -0.00086062489846740003 0 0.059379921856878709 -0.00033726531937068696 0 0.059783011440621238 -6.2591698663503458e-07 0 0.061278251396271667 -0.00052120639637209701 0 0.057937985135727607 -0.00026301542170089281 0 0.059774014519566092 -2.517794515139542e-07 0 0.05880049018152203 -0.00086062489846740003 0 0.06499683192420104 -1.4591081910025101e-06 0 0.063961027016398234 -0.00029235420751215258 0 0.06499314650277517 -8.3278970911397923e-07 0 0.059789515406651034 2.1096451188993691e-06 0 0.06499683192420104 -1.4591081910025101e-06 0 0.063961027016398234 -0.00029235420751215258 0 0.063601271005115131 -0.00083255293540717898 0 0.06499314650277517 -8.3278970911397923e-07 0 0.062325071378225419 -0.001261179349474227 0 0.064998610573508891 -7.8648435477694733e-07 0 0.064275689086012139 -0.00051848466052894972 0 0.063961027016398234 -0.00029235420751215258 0 0.063601271005115131 -0.00083255293540717898 0 0.06499314650277517 -8.3278970911397923e-07 0 0.061278251396271667 -0.00052120639637209701 0 0.061919695615927521 -0.00068641773059289384 0 0.05880049018152203 -0.00086062489846740003 0 0.063601271005115131 -0.00083255293540717898 0 0.061627380912855377 -0.00080035071472531086 0 0.061627380912855377 -0.00080035071472531086 0 0.062030844008330817 -0.00067176199157263053 0 0.062325071378225419 -0.001261179349474227 0 0.063601271005115131 -0.00083255293540717898 0 0.061627380912855377 -0.00080035071472531086 0 0.062325071378225419 -0.001261179349474227 0 0.061627380912855377 -0.00080035071472531086 0 0.061044199345338404 -0.00041213701155858116 0 0.062030844008330817 -0.00067176199157263053 0 0.061627380912855377 -0.00080035071472531086 0 0.061044199345338404 -0.00041213701155858116 0 0.059379921856878709 -0.00033726531937068696 0 0.061044199345338404 -0.00041213701155858116 0 0.062016279805418448 -3.0076658762313001e-05 0 0.062030844008330817 -0.00067176199157263053 0 0.05880049018152203 -0.00086062489846740003 0 0.061627380912855377 -0.00080035071472531086 0 0.059379921856878709 -0.00033726531937068696 0 0.061044199345338404 -0.00041213701155858116 0 0.059379921856878709 -0.00033726531937068696 0 0.058527626056104086 4.3213607400067425e-05 0 0.057937985135727607 -0.00026301542170089281 0 0.059379921856878709 -0.00033726531937068696 0 0.058527626056104086 4.3213607400067425e-05 0 0.059052632262555402 0.0006331305965425187 0 0.058527626056104086 4.3213607400067425e-05 0 0.060521799675924526 0.00024045824088687306 0 0.061044199345338404 -0.00041213701155858116 0 0.058527626056104086 4.3213607400067425e-05 0 0.060521799675924526 0.00024045824088687306 0 0.060521799675924526 0.00024045824088687306 0 0.062016279805418448 -3.0076658762313001e-05 0 0.061265242506023818 0.001109817913150482 0 0.061044199345338404 -0.00041213701155858116 0 0.060521799675924526 0.00024045824088687306 0 0.062016279805418448 -3.0076658762313001e-05 0 0.056122740061885112 0.0011914114299899554 0 0.054875652491520092 0.0014202535382716037 0 0.062016279805418448 -3.0076658762313001e-05 0 0.063723158922712853 0.00013479447043838707 0 0.061265242506023818 0.001109817913150482 0 0.062016279805418448 -3.0076658762313001e-05 0 0.063723158922712853 0.00013479447043838707 0 0.063550828693956021 -0.00037587595207418356 0 0.046899759752017475 0.0026908689031698136 0 0.046735784610969951 0.0023724321586087557 0 0.047441182364685516 0.0023584554506936588 0 0.046899759752017475 0.0026908689031698136 0 0.046655037977482584 0.0026788432496316072 0 0.046735784610969951 0.0023724321586087557 0 0.063723158922712853 0.00013479447043838707 0 0.064042414434072339 -0.00033780084622859368 0 0.064474736572759067 -0.00031079267321641469 0 0.056122740061885112 0.0011914114299899554 0 0.059147616441509607 -0.0002682507928427978 0 0.046899759752017475 0.0026908689031698136 0 0.046655037977482584 0.0026788432496316072 0 0.046492664928231842 0.0030159176162236644 0 0.063723158922712853 0.00013479447043838707 0 0.063550828693956021 -0.00037587595207418356 0 0.064042414434072339 -0.00033780084622859368 0 0.063550828693956021 -0.00037587595207418356 0 0.064042414434072339 -0.00033780084622859368 0 0.064167131036230896 -0.00033212830374770391 0 0.064042414434072339 -0.00033780084622859368 0 0.06439561982928764 -0.00029039594322454777 0 0.064474736572759067 -0.00031079267321641469 0 0.063550828693956021 -0.00037587595207418356 0 0.064804286623484433 -0.00021862516992921717 0 0.064167131036230896 -0.00033212830374770391 0 0.063550828693956021 -0.00037587595207418356 0 0.062030844008330817 -0.00067176199157263053 0 0.062325071378225419 -0.001261179349474227 0 0.064171622957960139 -0.0004344226676963353 0 0.064275689086012139 -0.00051848466052894972 0 0.062016279805418448 -3.0076658762313001e-05 0 0.063550828693956021 -0.00037587595207418356 0 0.062030844008330817 -0.00067176199157263053 0 0.064804286623484433 -0.00021862516992921717 0 0.06439561982928764 -0.00029039594322454777 0 0.064797311833185253 -0.0001074065292516574 0 0.064804286623484433 -0.00021862516992921717 0 0.064167131036230896 -0.00033212830374770391 0 0.06439561982928764 -0.00029039594322454777 0 0.064042414434072339 -0.00033780084622859368 0 0.064167131036230896 -0.00033212830374770391 0 0.06439561982928764 -0.00029039594322454777 0 0.06439561982928764 -0.00029039594322454777 0 0.064742656233178639 -0.00012080723987201228 0 0.064614892962342865 -0.00021951960547174592 0 0.06439561982928764 -0.00029039594322454777 0 0.064742656233178639 -0.00012080723987201228 0 0.064797311833185253 -0.0001074065292516574 0 0.064742656233178639 -0.00012080723987201228 0 0.064999427700887041 -1.0924688338167106e-07 0 0.064999307998312231 -1.5853302773228637e-07 0 0.064742656233178639 -0.00012080723987201228 0 0.064999427700887041 -1.0924688338167106e-07 0 0.064797311833185253 -0.0001074065292516574 0 0.065000264537699096 1.8992563532556176e-08 0 0.064804286623484433 -0.00021862516992921717 0 0.064797311833185253 -0.0001074065292516574 0 0.065000264537699096 1.8992563532556176e-08 0 0.064999427700887041 -1.0924688338167106e-07 0 0.064797311833185253 -0.0001074065292516574 0 0.064966967273858992 8.2074279879024437e-06 0 0.064999983288793098 7.9089109006318627e-08 0 0.064999841090490409 -9.5857800992993783e-08 0 0.064966967273858992 8.2074279879024437e-06 0 0.064967004086780689 -2.6110693007138822e-05 0 0.064919273897689533 2.1990337141690031e-05 0 0.064992831767399395 -6.0573957365775047e-07 0 0.062385652770655387 -0.00020081375491576604 0 0.064742656233178639 -0.00012080723987201228 0 0.064999307998312231 -1.5853302773228637e-07 0 0.064614892962342865 -0.00021951960547174592 0 0.064966967273858992 8.2074279879024437e-06 0 0.064999983288793098 7.9089109006318627e-08 0 0.064987561905896565 -1.3360585844971063e-05 0 0.062385652770655387 -0.00020081375491576604 0 0.059147616441509607 -0.0002682507928427978 0 0.06439561982928764 -0.00029039594322454777 0 0.064614892962342865 -0.00021951960547174592 0 0.064474736572759067 -0.00031079267321641469 0 0.064987561905896565 -1.3360585844971063e-05 0 0.064967004086780689 -2.6110693007138822e-05 0 0.064975834619874093 -4.1781017857403692e-05 0 0.06159881774946728 -0.0010331393000607067 0 0.059147616441509607 -0.0002682507928427978 0 0.064966967273858992 8.2074279879024437e-06 0 0.064987561905896565 -1.3360585844971063e-05 0 0.064967004086780689 -2.6110693007138822e-05 0 0.064468870583883828 0.0002041997780195245 0 0.064767395739554076 0.0002696534816700867 0 0.064919273897689533 2.1990337141690031e-05 0 0.06159881774946728 -0.0010331393000607067 0 0.062265824742889143 -0.0011886669813632139 0 0.064631650654227102 0.00040789949524295681 0 0.064797816003529504 0.00053767815982520004 0 0.064767395739554076 0.0002696534816700867 0 0.064468870583883828 0.0002041997780195245 0 0.064631650654227102 0.00040789949524295681 0 0.064767395739554076 0.0002696534816700867 0 0.064631650654227102 0.00040789949524295681 0 0.064481802995680557 0.00061188584296906559 0 0.064797816003529504 0.00053767815982520004 0 0.064468870583883828 0.0002041997780195245 0 0.064631650654227102 0.00040789949524295681 0 0.064481802995680557 0.00061188584296906559 0 0.064468870583883828 0.0002041997780195245 0 0.064481802995680557 0.00061188584296906559 0 0.064060103636697591 0.00050067703247971178 0 0.064481802995680557 0.00061188584296906559 0 0.064258044506930012 0.00081230132420102321 0 0.064449672332333452 0.00089011934287157389 0 0.064481802995680557 0.00061188584296906559 0 0.064449672332333452 0.00089011934287157389 0 0.064731140268542875 0.00096607358415814093 0 0.064481802995680557 0.00061188584296906559 0 0.064731140268542875 0.00096607358415814093 0 0.064797816003529504 0.00053767815982520004 0 0.046655037977482584 0.0026788432496316072 0 0.046492664928231842 0.0030159176162236644 0 0.04649205558156299 0.0026095724618192219 0 0.064060103636697591 0.00050067703247971178 0 0.064258044506930012 0.00081230132420102321 0 0.063998823845984154 0.0010294517351462059 0 0.059147616441509607 -0.0002682507928427978 0 0.056175761396643258 0.0015736328252464557 0 0.064481802995680557 0.00061188584296906559 0 0.064060103636697591 0.00050067703247971178 0 0.064258044506930012 0.00081230132420102321 0 0.064258044506930012 0.00081230132420102321 0 0.063998823845984154 0.0010294517351462059 0 0.064319467983129805 0.001059689515856806 0 0.063998823845984154 0.0010294517351462059 0 0.064319467983129805 0.001059689515856806 0 0.064152988905953126 0.0012922532138901401 0 0.046655037977482584 0.0026788432496316072 0 0.04649205558156299 0.0026095724618192219 0 0.046735784610969951 0.0023724321586087557 0 0.064449672332333452 0.00089011934287157389 0 0.064495542445574622 0.0010586393474310185 0 0.064731140268542875 0.00096607358415814093 0 0.064258044506930012 0.00081230132420102321 0 0.064449672332333452 0.00089011934287157389 0 0.064319467983129805 0.001059689515856806 0 0.064449672332333452 0.00089011934287157389 0 0.064319467983129805 0.001059689515856806 0 0.064495542445574622 0.0010586393474310185 0 0.064319467983129805 0.001059689515856806 0 0.064399585984417612 0.0012018001704745837 0 0.064353403792779665 0.0014032138477983575 0 0.056048949428114496 0.0015705083085684663 0 0.055224843304850224 0.001395766889058141 0 0.064319467983129805 0.001059689515856806 0 0.064399585984417612 0.0012018001704745837 0 0.064495542445574622 0.0010586393474310185 0 0.064495542445574622 0.0010586393474310185 0 0.064604113697522128 0.0012010077079770815 0 0.064731140268542875 0.00096607358415814093 0 0.064399585984417612 0.0012018001704745837 0 0.064495542445574622 0.0010586393474310185 0 0.064604113697522128 0.0012010077079770815 0 0.057949080914241419 0.0014544582770681708 0 0.057058239674325169 0.00095854004414741871 0 0.064399585984417612 0.0012018001704745837 0 0.064555005983501959 0.0013597201627680228 0 0.064353403792779665 0.0014032138477983575 0 0.064399585984417612 0.0012018001704745837 0 0.064604113697522128 0.0012010077079770815 0 0.064625957474844745 0.0014070176940566008 0 0.064604113697522128 0.0012010077079770815 0 0.064625957474844745 0.0014070176940566008 0 0.064751882396659022 0.0013840177847321813 0 0.057058239674325169 0.00095854004414741871 0 0.055224843304850224 0.001395766889058141 0 0.064319467983129805 0.001059689515856806 0 0.064354854782831691 0.0015041410581927833 0 0.064152988905953126 0.0012922532138901401 0 0.045697820021997904 0.0021107063419130269 0 0.045618579401189373 0.0015746085119261509 0 0.045897731830381046 0.0018058238472429371 0 0.055224843304850224 0.001395766889058141 0 0.053207382077639642 0.0012744139886339619 0 0.054147254024914458 0.0013782536049145417 0 0.054098772362411285 0.0013270887011973076 0 0.054128225937938527 0.001263138282431478 0 0.054074261432439243 0.0013903798730617971 0 0.054147254024914458 0.0013782536049145417 0 0.054098772362411285 0.0013270887011973076 0 0.054074261432439243 0.0013903798730617971 0 0.054098772362411285 0.0013270887011973076 0 0.054033679284995799 0.0013533945253695349 0 0.053478568024332498 0.0012170350971345285 0 0.056299597083403534 0.0007152099637847011 0 0.054098772362411285 0.0013270887011973076 0 0.054086824317069307 0.0012192219654202302 0 0.054033679284995799 0.0013533945253695349 0 0.054098772362411285 0.0013270887011973076 0 0.054128225937938527 0.001263138282431478 0 0.054086824317069307 0.0012192219654202302 0 0.045618579401189373 0.0015746085119261509 0 0.045948358453021407 0.0013073501281300045 0 0.045897731830381046 0.0018058238472429371 0 0.054128225937938527 0.001263138282431478 0 0.054104254336631165 0.0012154359529653156 0 0.054107185816901743 0.0011501500485555623 0 0.045618579401189373 0.0015746085119261509 0 0.045948358453021407 0.0013073501281300045 0 0.04555701727703803 0.0010337475327800642 0 0.053207382077639642 0.0012744139886339619 0 0.051867047724162181 0.0013048542889864841 0 0.050636416533127934 0.0011312321299113215 0 0.050789386966095924 0.00070406577111008402 0 0.050192125618513619 0.0012297453869023248 0 0.053484813519620963 0.0012160149890154291 0 0.053478568024332498 0.0012170350971345285 0 0.054128225937938527 0.001263138282431478 0 0.054104254336631165 0.0012154359529653156 0 0.054086824317069307 0.0012192219654202302 0 0.045948358453021407 0.0013073501281300045 0 0.04618354091236309 0.0016304530505892798 0 0.046384986724486515 0.0010795539970013856 0 0.045897731830381046 0.0018058238472429371 0 0.04618354091236309 0.0016304530505892798 0 0.046173295260889265 0.0020245826125865479 0 0.045948358453021407 0.0013073501281300045 0 0.045897731830381046 0.0018058238472429371 0 0.04618354091236309 0.0016304530505892798 0 0.053109741455218379 0.0028393510242973284 0 0.053499242659348994 0.0030165882215417018 0 0.056175761396643258 0.0015736328252464557 0 0.053499242659348994 0.0030165882215417018 0 0.063998823845984154 0.0010294517351462059 0 0.063940040482080254 0.0015758488485837655 0 0.064152988905953126 0.0012922532138901401 0 0.04649205558156299 0.0026095724618192219 0 0.046487685459282037 0.0021597370578300612 0 0.046735784610969951 0.0023724321586087557 0 0.045697820021997904 0.0021107063419130269 0 0.045897731830381046 0.0018058238472429371 0 0.046173295260889265 0.0020245826125865479 0 0.055224843304850224 0.001395766889058141 0 0.053499242659348994 0.0030165882215417018 0 0.064354854782831691 0.0015041410581927833 0 0.063940040482080254 0.0015758488485837655 0 0.064152988905953126 0.0012922532138901401 0 0.046735784610969951 0.0023724321586087557 0 0.046887044350256153 0.0020373992493519944 0 0.047441182364685516 0.0023584554506936588 0 0.046487685459282037 0.0021597370578300612 0 0.046735784610969951 0.0023724321586087557 0 0.046887044350256153 0.0020373992493519944 0 0.04618354091236309 0.0016304530505892798 0 0.046156439762403433 0.0021384289589999536 0 0.046887044350256153 0.0020373992493519944 0 0.053499242659348994 0.0030165882215417018 0 0.050950998721594629 0.0032004200611808744 0 0.046887044350256153 0.0020373992493519944 0 0.047441182364685516 0.0023584554506936588 0 0.047482026536918569 0.0017424251671441368 0 0.046887044350256153 0.0020373992493519944 0 0.047482026536918569 0.0017424251671441368 0 0.046950012289296204 0.0013281864660588331 0 0.047482026536918569 0.0017424251671441368 0 0.046950012289296204 0.0013281864660588331 0 0.047437331741852273 0.00088420386507538098 0 0.046887044350256153 0.0020373992493519944 0 0.046950012289296204 0.0013281864660588331 0 0.046600639961982541 0.0015123245567951074 0 0.04618354091236309 0.0016304530505892798 0 0.046887044350256153 0.0020373992493519944 0 0.046600639961982541 0.0015123245567951074 0 0.04618354091236309 0.0016304530505892798 0 0.046600639961982541 0.0015123245567951074 0 0.046384986724486515 0.0010795539970013856 0 0.046950012289296204 0.0013281864660588331 0 0.046600639961982541 0.0015123245567951074 0 0.046384986724486515 0.0010795539970013856 0 0.046950012289296204 0.0013281864660588331 0 0.046384986724486515 0.0010795539970013856 0 0.046917590632095808 0.00068417051093480705 0 0.046950012289296204 0.0013281864660588331 0 0.046917590632095808 0.00068417051093480705 0 0.047437331741852273 0.00088420386507538098 0 0.046917590632095808 0.00068417051093480705 0 0.047437331741852273 0.00088420386507538098 0 0.047211485339194906 0.00027518879459650626 0 0.047211485339194906 0.00027518879459650626 0 0.046697897567859005 7.3372951210352267e-05 0 0.047215777783721637 -0.00016082632900033301 0 0.047635739548044884 0.00019614066675293254 0 0.047211485339194906 0.00027518879459650626 0 0.047215777783721637 -0.00016082632900033301 0 0.047635739548044884 0.00019614066675293254 0 0.047437331741852273 0.00088420386507538098 0 0.047211485339194906 0.00027518879459650626 0 0.046384986724486515 0.0010795539970013856 0 0.046917590632095808 0.00068417051093480705 0 0.046697897567859005 7.3372951210352267e-05 0 0.046917590632095808 0.00068417051093480705 0 0.047211485339194906 0.00027518879459650626 0 0.046697897567859005 7.3372951210352267e-05 0 0.046841565677301883 0.00071268539674281114 0 0.046992388537788088 0.00047624902474429384 0 0.04654146513445491 0.00027275433025580138 0 0.04583478731614829 0.00032676107528649954 0 0.046071777040504289 0.00073241729564417718 0 0.046384986724486515 0.0010795539970013856 0 0.04654146513445491 0.00027275433025580138 0 0.046071777040504289 0.00073241729564417718 0 0.04981229840937762 0.0011392305965465688 0 0.051867047724162181 0.0013048542889864841 0 0.049433079134096128 0.0014351668283058168 0 0.051867047724162181 0.0013048542889864841 0 0.049635872236466462 0.0014217554343699517 0 0.049404894620621115 0.0014902428534676764 0 0.049591252701810709 0.0010073797105752842 0 0.04583478731614829 0.00032676107528649954 0 0.04555701727703803 0.0010337475327800642 0 0.046071777040504289 0.00073241729564417718 0 0.050676886991212484 -0.00011718079852287219 0 0.050789386966095924 0.00070406577111008402 0 0.050083044501619954 0.00033240281971084774 0 0.054104254336631165 0.0012154359529653156 0 0.054085570078879278 0.0012194860661460466 0 0.054107185816901743 0.0011501500485555623 0 0.053478568024332498 0.0012170350971345285 0 0.051867047724162181 0.0013048542889864841 0 0.045948358453021407 0.0013073501281300045 0 0.046384986724486515 0.0010795539970013856 0 0.046071777040504289 0.00073241729564417718 0 0.045948358453021407 0.0013073501281300045 0 0.04555701727703803 0.0010337475327800642 0 0.046071777040504289 0.00073241729564417718 0 0.049294002907443325 0.00027056430429578041 0 0.049585640230992066 0.00057130981298026599 0 0.049598264847895777 0.00015968099051815392 0 0.049294002907443325 0.00027056430429578041 0 0.049585640230992066 0.00057130981298026599 0 0.049010328180663462 0.00058100345736169015 0 0.049585640230992066 0.00057130981298026599 0 0.049010328180663462 0.00058100345736169015 0 0.049635950315886759 0.0011377589707794182 0 0.049585640230992066 0.00057130981298026599 0 0.049863027557414466 0.00073324218273475219 0 0.049634036085471359 0.001129778826361212 0 0.052856959646354444 0.00022414066307919876 0 0.054251184032089582 0.00085062930065712332 0 0.049863027557414466 0.00073324218273475219 0 0.05005000010815238 0.00022659989438883268 0 0.050148679034452789 0.0010144979228544797 0 0.050789386966095924 0.00070406577111008402 0 0.050083044501619954 0.00033240281971084774 0 0.050192125618513619 0.0012297453869023248 0 0.049585640230992066 0.00057130981298026599 0 0.05005000010815238 0.00022659989438883268 0 0.049598264847895777 0.00015968099051815392 0 0.049585640230992066 0.00057130981298026599 0 0.049863027557414466 0.00073324218273475219 0 0.05005000010815238 0.00022659989438883268 0 0.05005000010815238 0.00022659989438883268 0 0.049739675211501327 -0.00019753281958505831 0 0.049598264847895777 0.00015968099051815392 0 0.05005000010815238 0.00022659989438883268 0 0.049739675211501327 -0.00019753281958505831 0 0.049974133493743626 -0.00056693851852930826 0 0.052856959646354444 0.00022414066307919876 0 0.052423578778966362 -9.6855266643267938e-05 0 0.050676886991212484 -0.00011718079852287219 0 0.050083044501619954 0.00033240281971084774 0 0.049974133493743626 -0.00056693851852930826 0 0.049739675211501327 -0.00019753281958505831 0 0.049329064815403979 -0.00012024672022154117 0 0.04963842208340373 -0.00065356382175388165 0 0.049329064815403979 -0.00012024672022154117 0 0.048774719869490793 -0.00036713162983940245 0 0.04963842208340373 -0.00065356382175388165 0 0.049739675211501327 -0.00019753281958505831 0 0.049598264847895777 0.00015968099051815392 0 0.049329064815403979 -0.00012024672022154117 0 0.049294002907443325 0.00027056430429578041 0 0.049598264847895777 0.00015968099051815392 0 0.049329064815403979 -0.00012024672022154117 0 0.049294002907443325 0.00027056430429578041 0 0.049329064815403979 -0.00012024672022154117 0 0.048964131218014392 7.8245095983337998e-05 0 0.049329064815403979 -0.00012024672022154117 0 0.048774719869490793 -0.00036713162983940245 0 0.048964131218014392 7.8245095983337998e-05 0 0.048774719869490793 -0.00036713162983940245 0 0.048964131218014392 7.8245095983337998e-05 0 0.048456335905066192 7.180256788828123e-06 0 0.047958343373082642 0.0004959312482594434 0 0.048078049663528605 0.00037819945807992644 0 0.048234472815857084 -2.6183222252073238e-05 0 0.048485612852499541 -8.9185956735025087e-05 0 0.047641319673914571 0.00095583444706561871 0 0.048774719869490793 -0.00036713162983940245 0 0.048234472815857084 -2.6183222252073238e-05 0 0.048456335905066192 7.180256788828123e-06 0 0.048234472815857084 -2.6183222252073238e-05 0 0.048436524487805666 -6.9916544730522801e-05 0 0.048485612852499541 -8.9185956735025087e-05 0 0.048234472815857084 -2.6183222252073238e-05 0 0.048456335905066192 7.180256788828123e-06 0 0.048436524487805666 -6.9916544730522801e-05 0 0.048456335905066192 7.180256788828123e-06 0 0.048436524487805666 -6.9916544730522801e-05 0 0.048434409050123306 -6.3344721148230211e-05 0 0.048436524487805666 -6.9916544730522801e-05 0 0.048434409050123306 -6.3344721148230211e-05 0 0.048482802920072295 -7.9069631466712034e-05 0 0.048434409050123306 -6.3344721148230211e-05 0 0.048482802920072295 -7.9069631466712034e-05 0 0.048365253057605036 -0.00013729881069442183 0 0.048964131218014392 7.8245095983337998e-05 0 0.048456335905066192 7.180256788828123e-06 0 0.049010328180663462 0.00058100345736169015 0 0.049294002907443325 0.00027056430429578041 0 0.048964131218014392 7.8245095983337998e-05 0 0.049010328180663462 0.00058100345736169015 0 0.048456335905066192 7.180256788828123e-06 0 0.048434409050123306 -6.3344721148230211e-05 0 0.048323897967932385 -7.6828577029785733e-05 0 0.05085369681648122 -0.00097212583869367018 0 0.051735943271774144 -0.00071493092153127535 0 0.048434409050123306 -6.3344721148230211e-05 0 0.048323897967932385 -7.6828577029785733e-05 0 0.048365253057605036 -0.00013729881069442183 0 0.048365253057605036 -0.00013729881069442183 0 0.048385455688904191 -0.00025610553167239336 0 0.048224471375665108 -0.00016956128414964046 0 0.055889838404472224 0.00029949301378256554 0 0.055224766587652206 0.00062067762647061793 0 0.048482802920072295 -7.9069631466712034e-05 0 0.048365253057605036 -0.00013729881069442183 0 0.048385455688904191 -0.00025610553167239336 0 0.048482802920072295 -7.9069631466712034e-05 0 0.048385455688904191 -0.00025610553167239336 0 0.048801236523887591 -0.00045029584456140516 0 0.055889838404472224 0.00029949301378256554 0 0.056539186284248491 1.9553900601593397e-05 0 0.063330875169409009 0.00076425642780908899 0 0.063954084502529263 -0.00010146228462864518 0 0.064452162981493505 0.00045062994616440998 0 0.063330875169409009 0.00076425642780908899 0 0.062537604971614633 0.00057557059025506192 0 0.063025404302317817 -4.1211021588678838e-05 0 0.063330875169409009 0.00076425642780908899 0 0.063025404302317817 -4.1211021588678838e-05 0 0.063954084502529263 -0.00010146228462864518 0 0.062537604971614633 0.00057557059025506192 0 0.06201586834199091 0.00011228607875040529 0 0.063025404302317817 -4.1211021588678838e-05 0 0.062537604971614633 0.00057557059025506192 0 0.062171792334163443 0.0010413679706410366 0 0.06201586834199091 0.00011228607875040529 0 0.055224766587652206 0.00062067762647061793 0 0.058644533933634779 0.00026751342142336283 0 0.058644533933634779 0.00026751342142336283 0 0.060758275053020588 -1.8316104380168095e-05 0 0.048323897967932385 -7.6828577029785733e-05 0 0.048365253057605036 -0.00013729881069442183 0 0.048224471375665108 -0.00016956128414964046 0 0.063330875169409009 0.00076425642780908899 0 0.062537604971614633 0.00057557059025506192 0 0.062171792334163443 0.0010413679706410366 0 0.054811106507843585 0.00058500291178388629 0 0.055224766587652206 0.00062067762647061793 0 0.051735943271774144 -0.00071493092153127535 0 0.055224766587652206 0.00062067762647061793 0 0.055094200448838046 8.2532322981285016e-05 0 0.055579508490943098 -2.4166908408319367e-05 0 0.055648227623118093 0.00057837564710747872 0 0.054251184032089582 0.00085062930065712332 0 0.056299597083403534 0.0007152099637847011 0 0.055265595540828875 0.00085154520287017193 0 0.055190230130852523 0.00086802053723613389 0 0.055207211619158092 0.00099183031182068664 0 0.053478568024332498 0.0012170350971345285 0 0.054251184032089582 0.00085062930065712332 0 0.049863027557414466 0.00073324218273475219 0 0.049634036085471359 0.001129778826361212 0 0.050148679034452789 0.0010144979228544797 0 0.055224766587652206 0.00062067762647061793 0 0.054251184032089582 0.00085062930065712332 0 0.055224766587652206 0.00062067762647061793 0 0.056299597083403534 0.0007152099637847011 0 0.056471916054500186 0.00043293625713417265 0 0.056809098908169167 0.0010478604957875157 0 0.056617295854058045 0.0012701008748939109 0 0.057063131778954938 0.00096020335213212215 0 0.056809098908169167 0.0010478604957875157 0 0.057076486626952375 0.0010774162878929162 0 0.057058239674325169 0.00095854004414741871 0 0.056299597083403534 0.0007152099637847011 0 0.056922759754804243 0.0019898834800534692 0 0.056321184830926331 0.0014510076045740469 0 0.056357510197683008 0.0017743493909699267 0 0.056299597083403534 0.0007152099637847011 0 0.056962972393671214 0.00069400871311757093 0 0.056471916054500186 0.00043293625713417265 0 0.057063131778954938 0.00096020335213212215 0 0.056809098908169167 0.0010478604957875157 0 0.058644533933634779 0.00026751342142336283 0 0.057592716339192232 0.00065602632725123933 0 0.056809098908169167 0.0010478604957875157 0 0.056617295854058045 0.0012701008748939109 0 0.057089127318297975 0.0011888446236045286 0 0.057058239674325169 0.00095854004414741871 0 0.057592716339192232 0.00065602632725123933 0 0.056922759754804243 0.0019898834800534692 0 0.056392026193779893 0.0020812808184428174 0 0.056357510197683008 0.0017743493909699267 0 0.057592716339192232 0.00065602632725123933 0 0.056962972393671214 0.00069400871311757093 0 0.056809098908169167 0.0010478604957875157 0 0.057089127318297975 0.0011888446236045286 0 0.057076486626952375 0.0010774162878929162 0 0.064604113697522128 0.0012010077079770815 0 0.064751882396659022 0.0013840177847321813 0 0.064731140268542875 0.00096607358415814093 0 0.057592716339192232 0.00065602632725123933 0 0.05828137830636964 0.00096739494799581423 0 0.064760757825788384 0.0014026317798968649 0 0.064731140268542875 0.00096607358415814093 0 0.065047063555592852 0.00079973105421861531 0 0.058644533933634779 0.00026751342142336283 0 0.060104435237358936 -0.00031233684138837084 0 0.059095645997602649 3.8974955129068342e-05 0 0.059197124467804951 2.1766501055705022e-05 0 0.059120688740451802 0.00020815652111814416 0 0.057592716339192232 0.00065602632725123933 0 0.060104435237358936 -0.00031233684138837084 0 0.062139946865441498 0.00011047667279843432 0 0.062425112854795226 -0.00032330722614940443 0 0.062043237425844215 -0.00066461728662190486 0 0.062425112854795226 -0.00032330722614940443 0 0.06264517173174039 -0.00073378078187352497 0 0.063025404302317817 -4.1211021588678838e-05 0 0.062139946865441498 0.00011047667279843432 0 0.062425112854795226 -0.00032330722614940443 0 0.063025404302317817 -4.1211021588678838e-05 0 0.062425112854795226 -0.00032330722614940443 0 0.06264517173174039 -0.00073378078187352497 0 0.062043237425844215 -0.00066461728662190486 0 0.06264517173174039 -0.00073378078187352497 0 0.062234681202315831 -0.0011732614355505289 0 0.062043237425844215 -0.00066461728662190486 0 0.06264517173174039 -0.00073378078187352497 0 0.062234681202315831 -0.0011732614355505289 0 0.062729969736748104 -0.0012791548525194138 0 0.060104435237358936 -0.00031233684138837084 0 0.062463648871836926 -0.00038992780598788671 0 0.062234681202315831 -0.0011732614355505289 0 0.062042253824545639 -0.00066160809055766916 0 0.06194488267309569 -0.0014807202304212706 0 0.065047063555592852 0.00079973105421861531 0 0.064797816003529504 0.00053767815982520004 0 0.06499201752779038 0.00023759540206112526 0 0.064731140268542875 0.00096607358415814093 0 0.065047063555592852 0.00079973105421861531 0 0.064797816003529504 0.00053767815982520004 0 0.060330784256386424 -0.00058429199333576674 0 0.060104435237358936 -0.00031233684138837084 0 0.064797816003529504 0.00053767815982520004 0 0.064767395739554076 0.0002696534816700867 0 0.06499201752779038 0.00023759540206112526 0 0.06194488267309569 -0.0014807202304212706 0 0.062489874711817356 -0.0017296594301149514 0 0.061844974337022567 -0.0022953613750981198 0 0.064767395739554076 0.0002696534816700867 0 0.06499201752779038 0.00023759540206112526 0 0.064919273897689533 2.1990337141690031e-05 0 0.062234681202315831 -0.0011732614355505289 0 0.06194488267309569 -0.0014807202304212706 0 0.062489874711817356 -0.0017296594301149514 0 0.062234681202315831 -0.0011732614355505289 0 0.062729969736748104 -0.0012791548525194138 0 0.062489874711817356 -0.0017296594301149514 0 0.062729969736748104 -0.0012791548525194138 0 0.062489874711817356 -0.0017296594301149514 0 0.063084102592284572 -0.0017562464111043504 0 0.062489874711817356 -0.0017296594301149514 0 0.062656764733540884 -0.0023891277440649698 0 0.063084102592284572 -0.0017562464111043504 0 0.064998106615826626 -6.8889147689945315e-06 0 0.064999988827662003 5.5052407112369386e-10 0 0.065000501408889813 -6.2148439551567412e-07 0 0.062489874711817356 -0.0017296594301149514 0 0.062656764733540884 -0.0023891277440649698 0 0.061844974337022567 -0.0022953613750981198 0 0.064074998529253122 -0.00098126760497599321 0 0.06447669429403341 -0.00028588134629513383 0 0.064999988827662003 5.5052407112369386e-10 0 0.065000008267475387 -2.0170671776928595e-09 0 0.065000501408889813 -6.2148439551567412e-07 0 0.06499201752779038 0.00023759540206112526 0 0.064969860215293523 -2.9345384699487128e-05 0 0.064919273897689533 2.1990337141690031e-05 0 0.062463648871836926 -0.00038992780598788671 0 0.06447669429403341 -0.00028588134629513383 0 0.064966967273858992 8.2074279879024437e-06 0 0.064999841090490409 -9.5857800992993783e-08 0 0.064969860215293523 -2.9345384699487128e-05 0 0.064995308123510606 -1.0460515120538197e-06 0 0.06447669429403341 -0.00028588134629513383 0 0.064966967273858992 8.2074279879024437e-06 0 0.064969860215293523 -2.9345384699487128e-05 0 0.064919273897689533 2.1990337141690031e-05 0 0.064073843398315761 -0.0016352297781031054 0 0.064409892118881013 -0.00093824045521672522 0 0.063472623448321011 -0.0024818806988196442 0 0.063084102592284572 -0.0017562464111043504 0 0.063917243051422074 -0.001664689442201033 0 0.064999969491503107 3.9573036615755939e-09 0 0.064976730283921716 -1.3262195208965107e-06 0 0.064984078426097547 1.5518271476200034e-06 0 0.064999969491503107 3.9573036615755939e-09 0 0.065002067251387116 -1.0639518744167392e-06 0 0.064976730283921716 -1.3262195208965107e-06 0 0.064996135258956436 -1.2966301793280124e-05 0 0.064073843398315761 -0.0016352297781031054 0 0.064074998529253122 -0.00098126760497599321 0 0.064073843398315761 -0.0016352297781031054 0 0.062656764733540884 -0.0023891277440649698 0 0.063472623448321011 -0.0024818806988196442 0 0.063084102592284572 -0.0017562464111043504 0 0.064998106615826626 -6.8889147689945315e-06 0 0.064999988827662003 5.5052407112369386e-10 0 0.064907707447842786 -1.5378715262528435e-09 0 0.062729969736748104 -0.0012791548525194138 0 0.063084102592284572 -0.0017562464111043504 0 0.063197172864441403 -0.0010012925362939253 0 0.063084102592284572 -0.0017562464111043504 0 0.063917243051422074 -0.001664689442201033 0 0.063197172864441403 -0.0010012925362939253 0 0.063917243051422074 -0.001664689442201033 0 0.063764971606286733 -0.0007589407474263252 0 0.064366122591569028 -0.00083756547267143202 0 0.063917243051422074 -0.001664689442201033 0 0.063764971606286733 -0.0007589407474263252 0 0.063197172864441403 -0.0010012925362939253 0 0.06264517173174039 -0.00073378078187352497 0 0.062729969736748104 -0.0012791548525194138 0 0.063197172864441403 -0.0010012925362939253 0 0.06264517173174039 -0.00073378078187352497 0 0.063197172864441403 -0.0010012925362939253 0 0.063025404302317817 -4.1211021588678838e-05 0 0.063764971606286733 -0.0007589407474263252 0 0.063197172864441403 -0.0010012925362939253 0 0.063025404302317817 -4.1211021588678838e-05 0 0.063764971606286733 -0.0007589407474263252 0 0.063025404302317817 -4.1211021588678838e-05 0 0.063954084502529263 -0.00010146228462864518 0 0.063764971606286733 -0.0007589407474263252 0 0.063954084502529263 -0.00010146228462864518 0 0.064366122591569028 -0.00083756547267143202 0 0.064711329252838179 -0.0002978859626093656 0 0.064615858893252567 -0.0005026076724543554 0 0.063954084502529263 -0.00010146228462864518 0 0.064789084544249489 1.8299405126374578e-05 0 0.064366122591569028 -0.00083756547267143202 0 0.064789084544249489 1.8299405126374578e-05 0 0.064941944339266963 3.3235693453328373e-05 0 0.065004543907491802 6.1543308224715475e-05 0 0.064789084544249489 1.8299405126374578e-05 0 0.064921834832894806 1.029321349332339e-05 0 0.064941944339266963 3.3235693453328373e-05 0 0.064789084544249489 1.8299405126374578e-05 0 0.064921834832894806 1.029321349332339e-05 0 0.064918147776703766 3.8609281085001209e-06 0 0.064921834832894806 1.029321349332339e-05 0 0.064918147776703766 3.8609281085001209e-06 0 0.064959223281527284 1.6737173014520693e-06 0 0.064409892118881013 -0.00093824045521672522 0 0.064615858893252567 -0.0005026076724543554 0 0.064976730283921716 -1.3262195208965107e-06 0 0.064959223281527284 1.6737173014520693e-06 0 0.064984078426097547 1.5518271476200034e-06 0 0.064976730283921716 -1.3262195208965107e-06 0 0.064918147776703766 3.8609281085001209e-06 0 0.064959223281527284 1.6737173014520693e-06 0 0.064921834832894806 1.029321349332339e-05 0 0.064959223281527284 1.6737173014520693e-06 0 0.064966533303039892 3.2647677057550237e-06 0 0.064999953492916374 2.2911288702187904e-09 0 0.064999961777620768 1.5317418184780675e-09 0 0.064966533303039892 3.2647677057550237e-06 0 0.064959223281527284 1.6737173014520693e-06 0 0.064999953492916374 2.2911288702187904e-09 0 0.064966533303039892 3.2647677057550237e-06 0 0.064959223281527284 1.6737173014520693e-06 0 0.064999953492916374 2.2911288702187904e-09 0 0.064984078426097547 1.5518271476200034e-06 0 0.064999969491503107 3.9573036615755939e-09 0 0.064999953492916374 2.2911288702187904e-09 0 0.064984078426097547 1.5518271476200034e-06 0 0.064989160982097102 4.9330805038566421e-06 0 0.06499997050368253 -7.4684421756768316e-09 0 0.064982797430679098 2.127822209989873e-06 0 0.06499997050368253 -7.4684421756768316e-09 0 0.064982797430679098 2.127822209989873e-06 0 0.064999961777620768 1.5317418184780675e-09 0 0.064982797430679098 2.127822209989873e-06 0 0.064999961777620768 1.5317418184780675e-09 0 0.064966533303039892 3.2647677057550237e-06 0 0.064982797430679098 2.127822209989873e-06 0 0.064966533303039892 3.2647677057550237e-06 0 0.064958262321841861 1.4034137551074111e-05 0 0.064921834832894806 1.029321349332339e-05 0 0.064966533303039892 3.2647677057550237e-06 0 0.064958262321841861 1.4034137551074111e-05 0 0.064989160982097102 4.9330805038566421e-06 0 0.064982797430679098 2.127822209989873e-06 0 0.064958262321841861 1.4034137551074111e-05 0 0.064987483019083941 3.7520741152092796e-05 0 0.064958262321841861 1.4034137551074111e-05 0 0.064917855719049511 6.3715139785753281e-05 0 0.064921834832894806 1.029321349332339e-05 0 0.064958262321841861 1.4034137551074111e-05 0 0.064917855719049511 6.3715139785753281e-05 0 0.064921834832894806 1.029321349332339e-05 0 0.064941944339266963 3.3235693453328373e-05 0 0.064917855719049511 6.3715139785753281e-05 0 0.064941944339266963 3.3235693453328373e-05 0 0.064917855719049511 6.3715139785753281e-05 0 0.065004543907491802 6.1543308224715475e-05 0 0.064526082433379289 0.0001303745913509175 0 0.06470569185069229 8.9078171365593539e-05 0 0.064917855719049511 6.3715139785753281e-05 0 0.064705210120594561 -0.0001199293483074492 0 0.065004543907491802 6.1543308224715475e-05 0 0.064258783332205763 0.00040443525975478802 0 0.064917855719049511 6.3715139785753281e-05 0 0.064705210120594561 -0.0001199293483074492 0 0.050137110320963595 -0.00082164609421873393 0 0.050064483234475758 -0.00013872154586168207 0 0.049696600013885664 -0.00032881530509729881 0 0.050064483234475758 -0.00013872154586168207 0 0.049696600013885664 -0.00032881530509729881 0 0.049536846016363427 0.000247501172828093 0 0.049696600013885664 -0.00032881530509729881 0 0.0493271126398451 -0.00028429076218524605 0 0.049536846016363427 0.000247501172828093 0 0.049696600013885664 -0.00032881530509729881 0 0.049427966320265929 -0.00064317808257246091 0 0.0493271126398451 -0.00028429076218524605 0 0.057307442437911242 -0.00038973601565055546 0 0.057042442069650166 -0.00022012395070402274 0 0.050137110320963595 -0.00082164609421873393 0 0.049696600013885664 -0.00032881530509729881 0 0.049427966320265929 -0.00064317808257246091 0 0.064789084544249489 1.8299405126374578e-05 0 0.065004543907491802 6.1543308224715475e-05 0 0.064452162981493505 0.00045062994616440998 0 0.049427966320265929 -0.00064317808257246091 0 0.048801236523887591 -0.00045029584456140516 0 0.0493271126398451 -0.00028429076218524605 0 0.057042442069650166 -0.00022012395070402274 0 0.056539186284248491 1.9553900601593397e-05 0 0.063954084502529263 -0.00010146228462864518 0 0.064789084544249489 1.8299405126374578e-05 0 0.064452162981493505 0.00045062994616440998 0 0.048482802920072295 -7.9069631466712034e-05 0 0.048801236523887591 -0.00045029584456140516 0 0.049016265458149043 5.3964220932213097e-05 0 0.047277773920695217 -0.00012291935931257953 0 0.04640754003945103 0.00053402507515988465 0 0.048801236523887591 -0.00045029584456140516 0 0.0493271126398451 -0.00028429076218524605 0 0.049016265458149043 5.3964220932213097e-05 0 0.0493271126398451 -0.00028429076218524605 0 0.048964153218238611 0.00014724025639507206 0 0.049536846016363427 0.000247501172828093 0 0.04142408341127457 0.00019447211172773338 0 0.041552158953164595 0.0010041330225033455 0 0.042389175882065061 0.00035518960835185723 0 0.04640754003945103 0.00053402507515988465 0 0.04621529862007652 0.00047548934432901322 0 0.048436524487805666 -6.9916544730522801e-05 0 0.048482802920072295 -7.9069631466712034e-05 0 0.048436654032929474 -7.1801357413845576e-05 0 0.04640754003945103 0.00053402507515988465 0 0.04519915207829512 0.0010439228162012406 0 0.047671637339369737 0.00054578088189077768 0 0.04640754003945103 0.00053402507515988465 0 0.048436524487805666 -6.9916544730522801e-05 0 0.048436654032929474 -7.1801357413845576e-05 0 0.048485612852499541 -8.9185956735025087e-05 0 0.04075496035299081 0.0010508166174050581 0 0.041552158953164595 0.0010041330225033455 0 0.040810393202916538 0.0017654304220626115 0 0.04142408341127457 0.00019447211172773338 0 0.04075496035299081 0.0010508166174050581 0 0.041552158953164595 0.0010041330225033455 0 0.041552158953164595 0.0010041330225033455 0 0.042173486398106509 0.00099782245320440433 0 0.042389175882065061 0.00035518960835185723 0 0.041552158953164595 0.0010041330225033455 0 0.042173486398106509 0.00099782245320440433 0 0.042085870586969221 0.0016257039342650503 0 0.042173486398106509 0.00099782245320440433 0 0.042668432712798382 0.0010027171751647644 0 0.042085870586969221 0.0016257039342650503 0 0.042668432712798382 0.0010027171751647644 0 0.043395495474109043 0.001432023968567871 0 0.042085870586969221 0.0016257039342650503 0 0.042173486398106509 0.00099782245320440433 0 0.042668432712798382 0.0010027171751647644 0 0.042389175882065061 0.00035518960835185723 0 0.042668432712798382 0.0010027171751647644 0 0.043376182809546672 0.0005222105222005912 0 0.043395495474109043 0.001432023968567871 0 0.046519532489745517 0.00055597572488528841 0 0.04621529862007652 0.00047548934432901322 0 0.050064483234475758 -0.00013872154586168207 0 0.05009942986794385 0.00034734673322176082 0 0.049536846016363427 0.000247501172828093 0 0.042668432712798382 0.0010027171751647644 0 0.043376182809546672 0.0005222105222005912 0 0.042389175882065061 0.00035518960835185723 0 0.041520962327092716 0.0019774827557642719 0 0.041421218524150191 0.0022913956432415272 0 0.041251718796464998 0.0021584631935718315 0 0.041520962327092716 0.0019774827557642719 0 0.041421218524150191 0.0022913956432415272 0 0.041718150360964025 0.0022368254794614801 0 0.041718150360964025 0.0022368254794614801 0 0.041985413431693264 0.0020628487929870648 0 0.041903574369828583 0.0023729247363875714 0 0.042284891446113138 0.0024458251498859929 0 0.041985413431693264 0.0020628487929870648 0 0.041903574369828583 0.0023729247363875714 0 0.041520962327092716 0.0019774827557642719 0 0.041718150360964025 0.0022368254794614801 0 0.041985413431693264 0.0020628487929870648 0 0.042281692331809367 0.0020248982841198915 0 0.042958694073330105 0.0017199767414788234 0 0.041520962327092716 0.0019774827557642719 0 0.041985413431693264 0.0020628487929870648 0 0.042034746419502216 0.0015848729528935063 0 0.042958694073330105 0.0017199767414788234 0 0.041898337637619375 0.0017626491991980062 0 0.041520962327092716 0.0019774827557642719 0 0.042017668941970607 0.0016091336069237302 0 0.041395054121323577 0.0017094349533467949 0 0.041898337637619375 0.0017626491991980062 0 0.041385547026381447 0.0018053330953587468 0 0.041552158953164595 0.0010041330225033455 0 0.042085870586969221 0.0016257039342650503 0 0.040810393202916538 0.0017654304220626115 0 0.041520962327092716 0.0019774827557642719 0 0.041395054121323577 0.0017094349533467949 0 0.041167752939114337 0.0019480099185285294 0 0.041395054121323577 0.0017094349533467949 0 0.040810393202916538 0.0017654304220626115 0 0.041167752939114337 0.0019480099185285294 0 0.040810393202916538 0.0017654304220626115 0 0.040927891561411252 0.002009232934822365 0 0.041167752939114337 0.0019480099185285294 0 0.040810393202916538 0.0017654304220626115 0 0.040927891561411252 0.002009232934822365 0 0.040611050341533853 0.0019815583173614882 0 0.040927891561411252 0.002009232934822365 0 0.040687471060492121 0.0021713508266437264 0 0.040611050341533853 0.0019815583173614882 0 0.040927891561411252 0.002009232934822365 0 0.040877765979580684 0.0022257219469409692 0 0.041079715499019391 0.0020989003339841991 0 0.040877765979580684 0.0022257219469409692 0 0.041087185214349196 0.0022605866644717057 0 0.040998634036016994 0.0024286731098877821 0 0.040877765979580684 0.0022257219469409692 0 0.041079715499019391 0.0020989003339841991 0 0.041087185214349196 0.0022605866644717057 0 0.040877765979580684 0.0022257219469409692 0 0.040757357889763368 0.0022935751499729043 0 0.040822606742706657 0.0024183955218218763 0 0.040927891561411252 0.002009232934822365 0 0.040877765979580684 0.0022257219469409692 0 0.040687471060492121 0.0021713508266437264 0 0.040877765979580684 0.0022257219469409692 0 0.040757357889763368 0.0022935751499729043 0 0.040687471060492121 0.0021713508266437264 0 0.040757357889763368 0.0022935751499729043 0 0.040687471060492121 0.0021713508266437264 0 0.040640795201309796 0.0023577223345423149 0 0.041520962327092716 0.0019774827557642719 0 0.041167752939114337 0.0019480099185285294 0 0.041251718796464998 0.0021584631935718315 0 0.040927891561411252 0.002009232934822365 0 0.041167752939114337 0.0019480099185285294 0 0.041079715499019391 0.0020989003339841991 0 0.041167752939114337 0.0019480099185285294 0 0.041079715499019391 0.0020989003339841991 0 0.041251718796464998 0.0021584631935718315 0 0.041079715499019391 0.0020989003339841991 0 0.041087185214349196 0.0022605866644717057 0 0.041251718796464998 0.0021584631935718315 0 0.041087185214349196 0.0022605866644717057 0 0.041251718796464998 0.0021584631935718315 0 0.041217593820151867 0.0023875326864893601 0 0.041421218524150191 0.0022913956432415272 0 0.041251718796464998 0.0021584631935718315 0 0.041217593820151867 0.0023875326864893601 0 0.041421218524150191 0.0022913956432415272 0 0.041217593820151867 0.0023875326864893601 0 0.041432952084150439 0.0025813461317188077 0 0.041217593820151867 0.0023875326864893601 0 0.041102095866165513 0.0025940700319673974 0 0.040998634036016994 0.0024286731098877821 0 0.041087185214349196 0.0022605866644717057 0 0.041217593820151867 0.0023875326864893601 0 0.040998634036016994 0.0024286731098877821 0 0.041102095866165513 0.0025940700319673974 0 0.041267052679960038 0.0027850543588205808 0 0.041432952084150439 0.0025813461317188077 0 0.041217593820151867 0.0023875326864893601 0 0.041102095866165513 0.0025940700319673974 0 0.041432952084150439 0.0025813461317188077 0 0.04072008416843257 0.0024890697841223001 0 0.040640795201309796 0.0023577223345423149 0 0.040561182609522572 0.0025545579864401538 0 0.04072008416843257 0.0024890697841223001 0 0.040640795201309796 0.0023577223345423149 0 0.040822606742706657 0.0024183955218218763 0 0.040757357889763368 0.0022935751499729043 0 0.040640795201309796 0.0023577223345423149 0 0.040822606742706657 0.0024183955218218763 0 0.04072008416843257 0.0024890697841223001 0 0.040822606742706657 0.0024183955218218763 0 0.040797827362122514 0.0025626650991245766 0 0.040822606742706657 0.0024183955218218763 0 0.040998634036016994 0.0024286731098877821 0 0.040797827362122514 0.0025626650991245766 0 0.040877765979580684 0.0022257219469409692 0 0.040822606742706657 0.0024183955218218763 0 0.040998634036016994 0.0024286731098877821 0 0.041102095866165513 0.0025940700319673974 0 0.040797827362122514 0.0025626650991245766 0 0.040849995557760553 0.0028263803796927077 0 0.041102095866165513 0.0025940700319673974 0 0.040998634036016994 0.0024286731098877821 0 0.040797827362122514 0.0025626650991245766 0 0.04072008416843257 0.0024890697841223001 0 0.040797827362122514 0.0025626650991245766 0 0.040561182609522572 0.0025545579864401538 0 0.040797827362122514 0.0025626650991245766 0 0.040849995557760553 0.0028263803796927077 0 0.040511611152078519 0.002614502500045589 0 0.029235531508920814 0.0024312759251460415 0 0.029629678842035378 0.0021951498037454074 0 0.02966913225366925 0.0027267018655732236 0 0.029235531508920814 0.0024312759251460415 0 0.028824756528752844 0.0021428254950861545 0 0.029276040330808446 0.0018788322903165479 0 0.029235531508920814 0.0024312759251460415 0 0.029276040330808446 0.0018788322903165479 0 0.029629678842035378 0.0021951498037454074 0 0.035303862844174201 0.0028361662834946182 0 0.037165546060464939 0.0029370072527946183 0 0.041102095866165513 0.0025940700319673974 0 0.040849995557760553 0.0028263803796927077 0 0.041267052679960038 0.0027850543588205808 0 0.040849995557760553 0.0028263803796927077 0 0.041267052679960038 0.0027850543588205808 0 0.041173420583252178 0.0030445917036354599 0 0.035303862844174201 0.0028361662834946182 0 0.033746685310547954 0.0029504087319941318 0 0.033746685310547954 0.0029504087319941318 0 0.03556696629457079 0.0029331987400731526 0 0.041267052679960038 0.0027850543588205808 0 0.041173420583252178 0.0030445917036354599 0 0.041509779963909407 0.0028603688496151667 0 0.032707781851015763 0.0031050841371911666 0 0.032079024774256601 0.0034500949606490043 0 0.032262634446105089 0.0027220654568717866 0 0.041509779963909407 0.0028603688496151667 0 0.041432952084150439 0.0025813461317188077 0 0.041839198198785163 0.0026771545778387627 0 0.033337043940913698 0.002762944082421768 0 0.032707781851015763 0.0031050841371911666 0 0.032767536072691957 0.0023721355085374604 0 0.03556696629457079 0.0029331987400731526 0 0.036147508975852623 0.0033963876245595649 0 0.041267052679960038 0.0027850543588205808 0 0.041509779963909407 0.0028603688496151667 0 0.041432952084150439 0.0025813461317188077 0 0.041432952084150439 0.0025813461317188077 0 0.041685936977722153 0.0024391019557539837 0 0.041839198198785163 0.0026771545778387627 0 0.041421218524150191 0.0022913956432415272 0 0.041718150360964025 0.0022368254794614801 0 0.041685936977722153 0.0024391019557539837 0 0.041421218524150191 0.0022913956432415272 0 0.041432952084150439 0.0025813461317188077 0 0.041685936977722153 0.0024391019557539837 0 0.042284891446113138 0.0024458251498859929 0 0.041903574369828583 0.0023729247363875714 0 0.041845655359450541 0.0026812658111218563 0 0.039300844795352487 0.0028663652288324487 0 0.036147508975852623 0.0033963876245595649 0 0.041718150360964025 0.0022368254794614801 0 0.041685936977722153 0.0024391019557539837 0 0.041903574369828583 0.0023729247363875714 0 0.041685936977722153 0.0024391019557539837 0 0.041903574369828583 0.0023729247363875714 0 0.041845655359450541 0.0026812658111218563 0 0.036685893968741591 0.00364969129057837 0 0.036147508975852623 0.0033963876245595649 0 0.033202720668990299 0.0032916981613740283 0 0.036147508975852623 0.0033963876245595649 0 0.031560872007492809 0.002701946995517927 0 0.032079024774256601 0.0034500949606490043 0 0.032262634446105089 0.0027220654568717866 0 0.037000958605880992 0.0045793612584851939 0 0.036481908635473223 0.0058607054085980295 0 0.035343708113971348 0.0041920947796383378 0 0.031560872007492809 0.002701946995517927 0 0.032262634446105089 0.0027220654568717866 0 0.032196285956126391 0.001978945352061944 0 0.028323414176805294 0.0018746005003126536 0 0.027920585967611478 0.0015970866355967007 0 0.028654810367545521 0.0016100615323012028 0 0.032262634446105089 0.0027220654568717866 0 0.032767536072691957 0.0023721355085374604 0 0.032196285956126391 0.001978945352061944 0 0.032707781851015763 0.0031050841371911666 0 0.032262634446105089 0.0027220654568717866 0 0.032767536072691957 0.0023721355085374604 0 0.030636632945227751 0.0023159140093886432 0 0.027648216851486142 0.0017906549350508508 0 0.015750763698890401 0.0012136692513959955 0 0.016008090075028358 0.00076218671945986255 0 0.016338346684470748 0.0011426443334246889 0 0.027648216851486142 0.0017906549350508508 0 0.028056873172816511 0.001760855846644617 0 0.027787731320709587 0.0015972218726750264 0 0.028654810367545521 0.0016100615323012028 0 0.028480668748595218 0.0012460295124353564 0 0.02749244394313605 0.0013926977924287002 0 0.027787731320709587 0.0015972218726750264 0 0.028480668748595218 0.0012460295124353564 0 0.024046137998448489 0.00096322241526902112 0 0.022778970730430087 0.0012664953321072832 0 0.028976720670775946 0.001389489987796397 0 0.027648216851486142 0.0017906549350508508 0 0.02831890351444951 0.0010871382510068805 0 0.026045675638079999 0.0017020895733928978 0 0.025060580588558513 0.0010342536158411779 0 0.024046137998448489 0.00096322241526902112 0 0.027648216851486142 0.0017906549350508508 0 0.015750763698890401 0.0012136692513959955 0 0.015671181652361216 0.00083771354221433422 0 0.016008090075028358 0.00076218671945986255 0 0.015671181652361216 0.00083771354221433422 0 0.016008090075028358 0.00076218671945986255 0 0.01566267633875101 0.00051063238660686448 0 0.016008090075028358 0.00076218671945986255 0 0.016521893365846505 0.0006283667335093753 0 0.016338346684470748 0.0011426443334246889 0 0.018381893100604205 -0.00010627365671519297 0 0.01690164787574264 -0.00031078258480505037 0 0.016008090075028358 0.00076218671945986255 0 0.016521893365846505 0.0006283667335093753 0 0.016067674349154785 0.00023868197734127719 0 0.016008090075028358 0.00076218671945986255 0 0.01566267633875101 0.00051063238660686448 0 0.016067674349154785 0.00023868197734127719 0 0.016080034567635869 0.0006702547986003458 0 0.016620278985887207 0.00058348379219695223 0 0.016254577481039551 0.0001779808006960852 0 0.016521893365846505 0.0006283667335093753 0 0.016973042944764795 0.0010496635888137414 0 0.016338346684470748 0.0011426443334246889 0 0.018381893100604205 -0.00010627365671519297 0 0.022867324881509672 0.0014271248372132439 0 0.016080034567635869 0.0006702547986003458 0 0.016450474200386606 0.0010471817260516581 0 0.016620278985887207 0.00058348379219695223 0 0.029373992859839371 0.0011262060073670389 0 0.028654810367545521 0.0016100615323012028 0 0.029276040330808446 0.0018788322903165479 0 0.029373992859839371 0.0011262060073670389 0 0.028654810367545521 0.0016100615323012028 0 0.028480668748595218 0.0012460295124353564 0 0.022867324881509672 0.0014271248372132439 0 0.022778970730430087 0.0012664953321072832 0 0.028740474034342284 0.0021674728259207226 0 0.028654810367545521 0.0016100615323012028 0 0.029276040330808446 0.0018788322903165479 0 0.028740474034342284 0.0021674728259207226 0 0.028323414176805294 0.0018746005003126536 0 0.028654810367545521 0.0016100615323012028 0 0.033746685310547954 0.0029504087319941318 0 0.030636632945227751 0.0023159140093886432 0 0.033746685310547954 0.0029504087319941318 0 0.032312646796756599 0.0032990893985041349 0 0.029276040330808446 0.0018788322903165479 0 0.029959591444300757 0.0017309094827403038 0 0.029629678842035378 0.0021951498037454074 0 0.029959591444300757 0.0017309094827403038 0 0.030101944943160274 0.0021784446427152711 0 0.029629678842035378 0.0021951498037454074 0 0.045968678274288757 0.0046947167561991049 0 0.045928651399515533 0.0037919398398640141 0 0.046725695196653101 0.0037603153465267099 0 0.036166557729913222 0.0021233249121530903 0 0.037161647032076521 0.0024049721609127389 0 0.029959591444300757 0.0017309094827403038 0 0.030544724855405426 0.0016237026560784399 0 0.030101944943160274 0.0021784446427152711 0 0.029959591444300757 0.0017309094827403038 0 0.030122830141805567 0.001031135723552354 0 0.030544724855405426 0.0016237026560784399 0 0.030122830141805567 0.001031135723552354 0 0.030544724855405426 0.0016237026560784399 0 0.030612680086217509 0.0011954817950198774 0 0.029373992859839371 0.0011262060073670389 0 0.029276040330808446 0.0018788322903165479 0 0.029959591444300757 0.0017309094827403038 0 0.022867324881509672 0.0014271248372132439 0 0.025914751416992149 0.0028610119257083226 0 0.029340960112599287 0.0011539653543680473 0 0.029959591444300757 0.0017309094827403038 0 0.030122830141805567 0.001031135723552354 0 0.016450474200386606 0.0010471817260516581 0 0.0169468456845197 0.00097826348022063284 0 0.016620278985887207 0.00058348379219695223 0 0.022867324881509672 0.0014271248372132439 0 0.024813970215048376 0.0014442883089030632 0 0.0169468456845197 0.00097826348022063284 0 0.016620278985887207 0.00058348379219695223 0 0.017168894018075011 0.00050791375085591653 0 0.019267290945671145 0.0031225724133419424 0 0.01991639218926675 0.0027791339619545395 0 0.019663662089378111 0.0033984026612514252 0 0.019267290945671145 0.0031225724133419424 0 0.01991639218926675 0.0027791339619545395 0 0.019269509537640412 0.0024592665603848491 0 0.023078090194963444 -0.00028786200490953784 0 0.03019763227191205 0.0012272790948006016 0 0.019267290945671145 0.0031225724133419424 0 0.018342619714241639 0.0027314878593484764 0 0.019269509537640412 0.0024592665603848491 0 0.019267290945671145 0.0031225724133419424 0 0.018342619714241639 0.0027314878593484764 0 0.019047323765741257 0.0036924279037281772 0 0.024813970215048376 0.0014442883089030632 0 0.03019763227191205 0.0012272790948006016 0 0.030122830141805567 0.001031135723552354 0 0.030877398709229079 0.00091492491807512743 0 0.030612680086217509 0.0011954817950198774 0 0.0169468456845197 0.00097826348022063284 0 0.017168894018075011 0.00050791375085591653 0 0.017477802094712839 0.00090231595843108764 0 0.030877398709229079 0.00091492491807512743 0 0.030985074288993924 0.0010688449940982365 0 0.030612680086217509 0.0011954817950198774 0 0.03019763227191205 0.0012272790948006016 0 0.033588544452686969 0.0021248962167314529 0 0.03494211987507654 0.0021369016252147698 0 0.034926415224831538 0.0021535795390738486 0 0.034924987941045885 0.0021079577047964427 0 0.033148388790927401 0.0014352425403150678 0 0.03692235480776368 0.0033043626207127441 0 0.045460208013421384 0.00060470799364200235 0 0.04555157977477952 0.0011402515494146907 0 0.045744845843846513 0.00088686343965577272 0 0.036996285238270345 0.0031027767113775955 0 0.03460268687215258 -0.00036455918058020734 0 0.031036411175280443 0.0041143575320649658 0 0.033588544452686969 0.0021248962167314529 0 0.033148388790927401 0.0014352425403150678 0 0.019267290945671145 0.0031225724133419424 0 0.019047323765741257 0.0036924279037281772 0 0.019493199259112651 0.0036146341975344079 0 0.019267290945671145 0.0031225724133419424 0 0.019493199259112651 0.0036146341975344079 0 0.019663662089378111 0.0033984026612514252 0 0.03019763227191205 0.0012272790948006016 0 0.033148388790927401 0.0014352425403150678 0 0.033148388790927401 0.0014352425403150678 0 0.032783380001855447 0.0017212501063407842 0 0.045460208013421384 0.00060470799364200235 0 0.045744845843846513 0.00088686343965577272 0 0.045855438648611906 0.00076604395494039531 0 0.04555157977477952 0.0011402515494146907 0 0.045775478960173893 0.0010624416970194759 0 0.045744845843846513 0.00088686343965577272 0 0.033588544452686969 0.0021248962167314529 0 0.03692235480776368 0.0033043626207127441 0 0.045684239887817162 0.0013263645609679657 0 0.04555157977477952 0.0011402515494146907 0 0.045775478960173893 0.0010624416970194759 0 0.037223454552510062 0.0034249843669211856 0 0.03692235480776368 0.0033043626207127441 0 0.033588544452686969 0.0021248962167314529 0 0.036166557729913222 0.0021233249121530903 0 0.030985074288993924 0.0010688449940982365 0 0.030544724855405426 0.0016237026560784399 0 0.030612680086217509 0.0011954817950198774 0 0.044807428092394519 0.0050156816854566993 0 0.045968678274288757 0.0046947167561991049 0 0.045248235502272846 0.0043309642784388177 0 0.045208827115643696 0.0056120650012278861 0 0.044807428092394519 0.0050156816854566993 0 0.045968678274288757 0.0046947167561991049 0 0.045968678274288757 0.0046947167561991049 0 0.045248235502272846 0.0043309642784388177 0 0.045928651399515533 0.0037919398398640141 0 0.03692235480776368 0.0033043626207127441 0 0.041820496075429051 0.0030665569444423123 0 0.044807428092394519 0.0050156816854566993 0 0.045248235502272846 0.0043309642784388177 0 0.044670844245490449 0.0037724322600422504 0 0.045684239887817162 0.0013263645609679657 0 0.045538393615251603 0.001130595150673979 0 0.045666763313851728 0.0019264195549859439 0 0.045248235502272846 0.0043309642784388177 0 0.044670844245490449 0.0037724322600422504 0 0.045410209115796719 0.0032293422627865443 0 0.044670844245490449 0.0037724322600422504 0 0.045410209115796719 0.0032293422627865443 0 0.044499026686610217 0.0025060336343676356 0 0.041820496075429051 0.0030665569444423123 0 0.044862058339628891 0.0024908574043179749 0 0.045260204506727318 0.0024698219840107133 0 0.045410209115796719 0.0032293422627865443 0 0.044499026686610217 0.0025060336343676356 0 0.045260204506727318 0.0024698219840107133 0 0.045017553504685767 0.0019001122037031275 0 0.044499026686610217 0.0025060336343676356 0 0.045800714604482075 0.002543531053582051 0 0.045410209115796719 0.0032293422627865443 0 0.046290354016647509 0.0029450725423276034 0 0.045800714604482075 0.002543531053582051 0 0.046290354016647509 0.0029450725423276034 0 0.046210110971629512 0.0023296448764006674 0 0.045800714604482075 0.002543531053582051 0 0.045586619576121507 0.0021195309338229006 0 0.045953038809702494 0.0021628952879423776 0 0.045800714604482075 0.002543531053582051 0 0.046210110971629512 0.0023296448764006674 0 0.045953038809702494 0.0021628952879423776 0 0.045260204506727318 0.0024698219840107133 0 0.045800714604482075 0.002543531053582051 0 0.045586619576121507 0.0021195309338229006 0 0.045260204506727318 0.0024698219840107133 0 0.045800714604482075 0.002543531053582051 0 0.045410209115796719 0.0032293422627865443 0 0.045928651399515533 0.0037919398398640141 0 0.045410209115796719 0.0032293422627865443 0 0.046290354016647509 0.0029450725423276034 0 0.045248235502272846 0.0043309642784388177 0 0.045928651399515533 0.0037919398398640141 0 0.045410209115796719 0.0032293422627865443 0 0.046725695196653101 0.0037603153465267099 0 0.047434639047719794 0.00284767018411698 0 0.046290354016647509 0.0029450725423276034 0 0.045928651399515533 0.0037919398398640141 0 0.046725695196653101 0.0037603153465267099 0 0.046290354016647509 0.0029450725423276034 0 0.037161647032076521 0.0024049721609127389 0 0.037165546060464939 0.0029370072527946183 0 0.030101944943160274 0.0021784446427152711 0 0.029629678842035378 0.0021951498037454074 0 0.02966913225366925 0.0027267018655732236 0 0.040561182609522572 0.0025545579864401538 0 0.040507128890868098 0.002621767512111938 0 0.040411280739960261 0.0022315593289896039 0 0.040507128890868098 0.002621767512111938 0 0.039938353455758815 0.0022527645427325043 0 0.040411280739960261 0.0022315593289896039 0 0.040797827362122514 0.0025626650991245766 0 0.040561182609522572 0.0025545579864401538 0 0.040511611152078519 0.002614502500045589 0 0.037199317634058024 0.0029114421088718245 0 0.037165546060464939 0.0029370072527946183 0 0.040640795201309796 0.0023577223345423149 0 0.040561182609522572 0.0025545579864401538 0 0.040411280739960261 0.0022315593289896039 0 0.037165546060464939 0.0029370072527946183 0 0.043425475338797599 0.0028585281907634527 0 0.047434639047719794 0.00284767018411698 0 0.046290354016647509 0.0029450725423276034 0 0.046386009407173023 0.0020994042159195761 0 0.046290354016647509 0.0029450725423276034 0 0.046210110971629512 0.0023296448764006674 0 0.046386009407173023 0.0020994042159195761 0 0.039938353455758815 0.0022527645427325043 0 0.040411280739960261 0.0022315593289896039 0 0.040286647975532892 0.0017741014814356883 0 0.046210110971629512 0.0023296448764006674 0 0.046273921334666783 0.0019379406448262317 0 0.046454775571382424 0.0020829260215073976 0 0.046564819840496222 0.0021406752762787042 0 0.046616704097427804 0.0013998288527625339 0 0.047641319673914571 0.00095583444706561871 0 0.043425475338797599 0.0028585281907634527 0 0.044307175515998082 0.0017611722157399449 0 0.043531385013131425 0.0027719764314795693 0 0.043425475338797599 0.0028585281907634527 0 0.043497702944449948 0.002880424312870286 0 0.043425475338797599 0.0028585281907634527 0 0.046273921334666783 0.0019379406448262317 0 0.046616704097427804 0.0013998288527625339 0 0.046061915486066946 0.0014887941549482223 0 0.046273921334666783 0.0019379406448262317 0 0.046564819840496222 0.0021406752762787042 0 0.046616704097427804 0.0013998288527625339 0 0.040411280739960261 0.0022315593289896039 0 0.040611050341533853 0.0019815583173614882 0 0.040286647975532892 0.0017741014814356883 0 0.040687471060492121 0.0021713508266437264 0 0.040640795201309796 0.0023577223345423149 0 0.040411280739960261 0.0022315593289896039 0 0.040687471060492121 0.0021713508266437264 0 0.040411280739960261 0.0022315593289896039 0 0.040611050341533853 0.0019815583173614882 0 0.04075496035299081 0.0010508166174050581 0 0.040810393202916538 0.0017654304220626115 0 0.040286647975532892 0.0017741014814356883 0 0.040810393202916538 0.0017654304220626115 0 0.040611050341533853 0.0019815583173614882 0 0.040286647975532892 0.0017741014814356883 0 0.046827435826179431 0.00027878237842894247 0 0.048234472815857084 -2.6183222252073238e-05 0 0.047641319673914571 0.00095583444706561871 0 0.04519915207829512 0.0010439228162012406 0 0.044307175515998082 0.0017611722157399449 0 0.046616704097427804 0.0013998288527625339 0 0.046918235745350048 0.00089648769406110661 0 0.046277519788185131 0.00099582664570351627 0 0.046616704097427804 0.0013998288527625339 0 0.046277519788185131 0.00099582664570351627 0 0.046061915486066946 0.0014887941549482223 0 0.046616704097427804 0.0013998288527625339 0 0.047641319673914571 0.00095583444706561871 0 0.046918235745350048 0.00089648769406110661 0 0.046827435826179431 0.00027878237842894247 0 0.047641319673914571 0.00095583444706561871 0 0.046918235745350048 0.00089648769406110661 0 0.046827435826179431 0.00027878237842894247 0 0.046918235745350048 0.00089648769406110661 0 0.046277519788185131 0.00099582664570351627 0 0.046827435826179431 0.00027878237842894247 0 0.046277519788185131 0.00099582664570351627 0 0.045463477476150975 0.00072666905013815545 0 0.047958343373082642 0.0004959312482594434 0 0.047809827750045351 0.00084874922382781109 0 0.046277519788185131 0.00099582664570351627 0 0.04573532090256955 0.0011874022641822593 0 0.046061915486066946 0.0014887941549482223 0 0.046277519788185131 0.00099582664570351627 0 0.04573532090256955 0.0011874022641822593 0 0.045463477476150975 0.00072666905013815545 0 0.045412103367157418 0.0011715425516813278 0 0.04573532090256955 0.0011874022641822593 0 0.045534476694552677 0.0015638386479571379 0 0.045412103367157418 0.0011715425516813278 0 0.04573532090256955 0.0011874022641822593 0 0.045463477476150975 0.00072666905013815545 0 0.047809827750045351 0.00084874922382781109 0 0.047717030156399901 0.0015423924329132713 0 0.04963842208340373 -0.00065356382175388165 0 0.049974133493743626 -0.00056693851852930826 0 0.050559206255531404 -0.00092869561532817058 0 0.045463477476150975 0.00072666905013815545 0 0.045006022441744925 0.0012486950218171236 0 0.044290728510765751 0.0011302312485071708 0 0.050676886991212484 -0.00011718079852287219 0 0.049974133493743626 -0.00056693851852930826 0 0.050559206255531404 -0.00092869561532817058 0 0.049739675211501327 -0.00019753281958505831 0 0.04963842208340373 -0.00065356382175388165 0 0.049974133493743626 -0.00056693851852930826 0 0.045412103367157418 0.0011715425516813278 0 0.045006022441744925 0.0012486950218171236 0 0.045534476694552677 0.0015638386479571379 0 0.045412103367157418 0.0011715425516813278 0 0.045463477476150975 0.00072666905013815545 0 0.045006022441744925 0.0012486950218171236 0 0.045006022441744925 0.0012486950218171236 0 0.045017553504685767 0.0019001122037031275 0 0.045534476694552677 0.0015638386479571379 0 0.045017553504685767 0.0019001122037031275 0 0.044290728510765751 0.0011302312485071708 0 0.044499026686610217 0.0025060336343676356 0 0.045006022441744925 0.0012486950218171236 0 0.045017553504685767 0.0019001122037031275 0 0.044290728510765751 0.0011302312485071708 0 0.045260204506727318 0.0024698219840107133 0 0.045017553504685767 0.0019001122037031275 0 0.045586619576121507 0.0021195309338229006 0 0.045017553504685767 0.0019001122037031275 0 0.045586619576121507 0.0021195309338229006 0 0.045534476694552677 0.0015638386479571379 0 0.045586619576121507 0.0021195309338229006 0 0.045895332885281866 0.0018528349144946309 0 0.045534476694552677 0.0015638386479571379 0 0.045586619576121507 0.0021195309338229006 0 0.045953038809702494 0.0021628952879423776 0 0.045895332885281866 0.0018528349144946309 0 0.046210110971629512 0.0023296448764006674 0 0.046273921334666783 0.0019379406448262317 0 0.045953038809702494 0.0021628952879423776 0 0.046273921334666783 0.0019379406448262317 0 0.045953038809702494 0.0021628952879423776 0 0.045895332885281866 0.0018528349144946309 0 0.045895332885281866 0.0018528349144946309 0 0.046061915486066946 0.0014887941549482223 0 0.045534476694552677 0.0015638386479571379 0 0.046273921334666783 0.0019379406448262317 0 0.045895332885281866 0.0018528349144946309 0 0.046061915486066946 0.0014887941549482223 0 0.04573532090256955 0.0011874022641822593 0 0.046061915486066946 0.0014887941549482223 0 0.045534476694552677 0.0015638386479571379 0 0.047861104200828508 0.001558784668930172 0 0.047516579518925593 0.0017673207020284349 0 0.04652034509053074 0.0033079541539213081 0 0.045885210655326213 0.0034945384935741318 0 0.045780140787689466 0.0027136335725523476 0 0.047717030156399901 0.0015423924329132713 0 0.044862058339628891 0.0024908574043179749 0 0.049635872236466462 0.0014217554343699517 0 0.049404894620621115 0.0014902428534676764 0 0.049684002090349233 0.0018380561866182463 0 0.049404894620621115 0.0014902428534676764 0 0.04922237680598307 0.0019753989848929863 0 0.049684002090349233 0.0018380561866182463 0 0.047861104200828508 0.001558784668930172 0 0.047717030156399901 0.0015423924329132713 0 0.04981229840937762 0.0011392305965465688 0 0.047717030156399901 0.0015423924329132713 0 0.04654146513445491 0.00027275433025580138 0 0.04583478731614829 0.00032676107528649954 0 0.046090000912593319 -0.00034610960019571685 0 0.049433079134096128 0.0014351668283058168 0 0.047861104200828508 0.001558784668930172 0 0.046697897567859005 7.3372951210352267e-05 0 0.047215777783721637 -0.00016082632900033301 0 0.047002411847935369 -0.000318008777676637 0 0.04654146513445491 0.00027275433025580138 0 0.046090000912593319 -0.00034610960019571685 0 0.046704287898228836 -0.00052685069311915293 0 0.046992388537788088 0.00047624902474429384 0 0.04729109227500073 0.00069193356636332922 0 0.047215777783721637 -0.00016082632900033301 0 0.047002411847935369 -0.000318008777676637 0 0.047189970886495521 -0.00018352188388902547 0 0.04729109227500073 0.00069193356636332922 0 0.047367372370118323 0.00041766106261378248 0 0.047545746101152211 0.0010238469231585317 0 0.047502994693493589 0.0010350860958495687 0 0.047529428553629037 0.0010685375990705189 0 0.047861104200828508 0.001558784668930172 0 0.04729109227500073 0.00069193356636332922 0 0.047502994693493589 0.0010350860958495687 0 0.047491618878498836 0.0010817939581207192 0 0.047529428553629037 0.0010685375990705189 0 0.04729109227500073 0.00069193356636332922 0 0.047416390447481499 0.00069710453798262355 0 0.047491618878498836 0.0010817939581207192 0 0.047514363374735066 0.0011203839663649789 0 0.047529428553629037 0.0010685375990705189 0 0.048021228166542633 -0.00035412644984772002 0 0.047875113617711969 0.00033416583164848395 0 0.047189970886495521 -0.00018352188388902547 0 0.047875113617711969 0.00033416583164848395 0 0.047314943164320632 0.00063741429334414985 0 0.047189970886495521 -0.00018352188388902547 0 0.047875113617711969 0.00033416583164848395 0 0.047472249295340309 0.0011393195472566156 0 0.047314943164320632 0.00063741429334414985 0 0.047416390447481499 0.00069710453798262355 0 0.047425966164088978 0.00079908459651613752 0 0.047472249295340309 0.0011393195472566156 0 0.047281175341014614 0.0012408140103415055 0 0.047314943164320632 0.00063741429334414985 0 0.047017207114429457 0.0019985365335626502 0 0.046598447163711712 0.0021686917209861184 0 0.046761783774170063 0.0026585831275403133 0 0.047491618878498836 0.0010817939581207192 0 0.047514363374735066 0.0011203839663649789 0 0.047472249295340309 0.0011393195472566156 0 0.047442856681688954 0.0016075986856737791 0 0.047516579518925593 0.0017673207020284349 0 0.047017207114429457 0.0019985365335626502 0 0.046598447163711712 0.0021686917209861184 0 0.046643167456227361 0.0017187936188277032 0 0.0462887772104787 0.0019790211538776819 0 0.046598447163711712 0.0021686917209861184 0 0.046643167456227361 0.0017187936188277032 0 0.0462887772104787 0.0019790211538776819 0 0.046598447163711712 0.0021686917209861184 0 0.04628410601202234 0.0024753404417454891 0 0.04652034509053074 0.0033079541539213081 0 0.04628410601202234 0.0024753404417454891 0 0.046761783774170063 0.0026585831275403133 0 0.046598447163711712 0.0021686917209861184 0 0.04628410601202234 0.0024753404417454891 0 0.046761783774170063 0.0026585831275403133 0 0.04652034509053074 0.0033079541539213081 0 0.04628410601202234 0.0024753404417454891 0 0.045780140787689466 0.0027136335725523476 0 0.045666763313851728 0.0019264195549859439 0 0.04628410601202234 0.0024753404417454891 0 0.045780140787689466 0.0027136335725523476 0 0.045666763313851728 0.0019264195549859439 0 0.0462887772104787 0.0019790211538776819 0 0.04628410601202234 0.0024753404417454891 0 0.045684239887817162 0.0013263645609679657 0 0.045666763313851728 0.0019264195549859439 0 0.045977568047141794 0.0016539223358809823 0 0.045666763313851728 0.0019264195549859439 0 0.0462887772104787 0.0019790211538776819 0 0.045977568047141794 0.0016539223358809823 0 0.0462887772104787 0.0019790211538776819 0 0.045977568047141794 0.0016539223358809823 0 0.046322881581374008 0.001659969362760527 0 0.045977568047141794 0.0016539223358809823 0 0.046133581529553477 0.0013856395568641246 0 0.046322881581374008 0.001659969362760527 0 0.045684239887817162 0.0013263645609679657 0 0.045977568047141794 0.0016539223358809823 0 0.046133581529553477 0.0013856395568641246 0 0.0462887772104787 0.0019790211538776819 0 0.046643167456227361 0.0017187936188277032 0 0.046322881581374008 0.001659969362760527 0 0.046643167456227361 0.0017187936188277032 0 0.046322881581374008 0.001659969362760527 0 0.046602795942169831 0.0013363722778865397 0 0.046133581529553477 0.0013856395568641246 0 0.046322881581374008 0.001659969362760527 0 0.046602795942169831 0.0013363722778865397 0 0.046643167456227361 0.0017187936188277032 0 0.046602795942169831 0.0013363722778865397 0 0.046889300513369127 0.0013852512101239914 0 0.046602795942169831 0.0013363722778865397 0 0.046771329772381062 0.0011551818371121601 0 0.0465766859164966 0.0010365329980428072 0 0.046602795942169831 0.0013363722778865397 0 0.046771329772381062 0.0011551818371121601 0 0.046889300513369127 0.0013852512101239914 0 0.046602795942169831 0.0013363722778865397 0 0.046427009151922438 0.0011747136314753273 0 0.0465766859164966 0.0010365329980428072 0 0.046133581529553477 0.0013856395568641246 0 0.046602795942169831 0.0013363722778865397 0 0.046427009151922438 0.0011747136314753273 0 0.046427009151922438 0.0011747136314753273 0 0.046376544898818463 0.00096353342213030405 0 0.0465766859164966 0.0010365329980428072 0 0.046771329772381062 0.0011551818371121601 0 0.0465766859164966 0.0010365329980428072 0 0.046808980287392388 0.00093409643693825309 0 0.046133581529553477 0.0013856395568641246 0 0.046427009151922438 0.0011747136314753273 0 0.046376544898818463 0.00096353342213030405 0 0.046133581529553477 0.0013856395568641246 0 0.046187450015378093 0.0009127148693611136 0 0.045969279470906017 0.0011014880086187789 0 0.03802756615690752 -3.0309883783937913e-05 0 0.037032787067459501 0.000174793095096217 0 0.045684239887817162 0.0013263645609679657 0 0.046133581529553477 0.0013856395568641246 0 0.045969279470906017 0.0011014880086187789 0 0.045684239887817162 0.0013263645609679657 0 0.045969279470906017 0.0011014880086187789 0 0.045775478960173893 0.0010624416970194759 0 0.046187450015378093 0.0009127148693611136 0 0.045965457546230923 0.00090829372929530179 0 0.045969279470906017 0.0011014880086187789 0 0.045965457546230923 0.00090829372929530179 0 0.045969279470906017 0.0011014880086187789 0 0.045775478960173893 0.0010624416970194759 0 0.045965457546230923 0.00090829372929530179 0 0.045775478960173893 0.0010624416970194759 0 0.045744845843846513 0.00088686343965577272 0 0.033148388790927401 0.0014352425403150678 0 0.03364062872757892 0.0014875395102248495 0 0.045460208013421384 0.00060470799364200235 0 0.045855438648611906 0.00076604395494039531 0 0.045992473916251449 0.00064460416502232459 0 0.045460208013421384 0.00060470799364200235 0 0.045992473916251449 0.00064460416502232459 0 0.046295739930370158 0.0004738977292231932 0 0.019500596759180085 0.0036082861519458435 0 0.019663662089378111 0.0033984026612514252 0 0.020967459800892641 0.0033566901950635012 0 0.045965457546230923 0.00090829372929530179 0 0.045744845843846513 0.00088686343965577272 0 0.045855438648611906 0.00076604395494039531 0 0.045992473916251449 0.00064460416502232459 0 0.046077219568552472 0.00076179560637035357 0 0.046295739930370158 0.0004738977292231932 0 0.046187450015378093 0.0009127148693611136 0 0.045965457546230923 0.00090829372929530179 0 0.046077219568552472 0.00076179560637035357 0 0.045855438648611906 0.00076604395494039531 0 0.045992473916251449 0.00064460416502232459 0 0.046077219568552472 0.00076179560637035357 0 0.045965457546230923 0.00090829372929530179 0 0.045855438648611906 0.00076604395494039531 0 0.046077219568552472 0.00076179560637035357 0 0.046187450015378093 0.0009127148693611136 0 0.046077219568552472 0.00076179560637035357 0 0.046295739930370158 0.0004738977292231932 0 0.046376544898818463 0.00096353342213030405 0 0.046454506929894945 0.00089236954647006208 0 0.04644879140971183 0.00077128577976671574 0 0.046376544898818463 0.00096353342213030405 0 0.0465766859164966 0.0010365329980428072 0 0.046454506929894945 0.00089236954647006208 0 0.037032787067459501 0.000174793095096217 0 0.03364062872757892 0.0014875395102248495 0 0.0465766859164966 0.0010365329980428072 0 0.046454506929894945 0.00089236954647006208 0 0.046661645096680374 0.00088414347400288197 0 0.0465766859164966 0.0010365329980428072 0 0.046661645096680374 0.00088414347400288197 0 0.046808980287392388 0.00093409643693825309 0 0.046661645096680374 0.00088414347400288197 0 0.046807397413525659 0.00067700350560457321 0 0.046808980287392388 0.00093409643693825309 0 0.046454506929894945 0.00089236954647006208 0 0.046661645096680374 0.00088414347400288197 0 0.046807397413525659 0.00067700350560457321 0 0.046454506929894945 0.00089236954647006208 0 0.04644879140971183 0.00077128577976671574 0 0.046538257540870452 0.00075663771505782545 0 0.038019753568227094 -0.00028158544890450184 0 0.035323088329558681 0.0012283010688963233 0 0.020967459800892641 0.0033566901950635012 0 0.020486207338054063 0.0024438788390514143 0 0.02126033012967669 0.0022489821306602279 0 0.021329333496938666 0.002625795218159639 0 0.021724608481673006 0.0021813910544855476 0 0.021482098983484646 0.0019436553602393452 0 0.03364062872757892 0.0014875395102248495 0 0.028444713845815088 0.0029684249661716582 0 0.03364062872757892 0.0014875395102248495 0 0.035323088329558681 0.0012283010688963233 0 0.021329333496938666 0.002625795218159639 0 0.021724608481673006 0.0021813910544855476 0 0.021673385535649046 0.002568003378458303 0 0.01991639218926675 0.0027791339619545395 0 0.020967459800892641 0.0033566901950635012 0 0.020486207338054063 0.0024438788390514143 0 0.01991639218926675 0.0027791339619545395 0 0.019663662089378111 0.0033984026612514252 0 0.020967459800892641 0.0033566901950635012 0 0.037732855738435468 0.00099146189685494633 0 0.036221777211374685 0.0013192024386965901 0 0.047135473426291673 0.0007339611220854793 0 0.047259010602285191 0.00090117816663653528 0 0.047329095083993696 0.00076869779550159671 0 0.034384591877566768 0.00093011761342857405 0 0.033936055101322547 0.0010109334346811928 0 0.034308580629373205 0.0013877520101101062 0 0.036221777211374685 0.0013192024386965901 0 0.031512227132730657 0.00073859773536160973 0 0.037732855738435468 0.00099146189685494633 0 0.035323088329558681 0.0012283010688963233 0 0.034384591877566768 0.00093011761342857405 0 0.034835240792982329 0.00085013737940155905 0 0.034308580629373205 0.0013877520101101062 0 0.035323088329558681 0.0012283010688963233 0 0.031512227132730657 0.00073859773536160973 0 0.021724608481673006 0.0021813910544855476 0 0.021673385535649046 0.002568003378458303 0 0.022349495300375936 0.00191014646927803 0 0.047135473426291673 0.0007339611220854793 0 0.046807397413525659 0.00067700350560457321 0 0.04705849940805943 0.00088849133391165564 0 0.046807397413525659 0.00067700350560457321 0 0.046808980287392388 0.00093409643693825309 0 0.04705849940805943 0.00088849133391165564 0 0.046808980287392388 0.00093409643693825309 0 0.04705849940805943 0.00088849133391165564 0 0.047032203711346261 0.0010836883863936659 0 0.04705849940805943 0.00088849133391165564 0 0.047259010602285191 0.00090117816663653528 0 0.047209796270989597 0.0010600452472425818 0 0.047135473426291673 0.0007339611220854793 0 0.04705849940805943 0.00088849133391165564 0 0.047259010602285191 0.00090117816663653528 0 0.047259010602285191 0.00090117816663653528 0 0.047209796270989597 0.0010600452472425818 0 0.047314563159436891 0.0010652039201085365 0 0.047209796270989597 0.0010600452472425818 0 0.047293995622766566 0.0012054400155236465 0 0.047314563159436891 0.0010652039201085365 0 0.047209796270989597 0.0010600452472425818 0 0.047293995622766566 0.0012054400155236465 0 0.047270568957429933 0.0012432975339129806 0 0.046771329772381062 0.0011551818371121601 0 0.046808980287392388 0.00093409643693825309 0 0.047032203711346261 0.0010836883863936659 0 0.04705849940805943 0.00088849133391165564 0 0.047209796270989597 0.0010600452472425818 0 0.047032203711346261 0.0010836883863936659 0 0.047209796270989597 0.0010600452472425818 0 0.047032203711346261 0.0010836883863936659 0 0.047270568957429933 0.0012432975339129806 0 0.047032203711346261 0.0010836883863936659 0 0.047270568957429933 0.0012432975339129806 0 0.046889300513369127 0.0013852512101239914 0 0.046771329772381062 0.0011551818371121601 0 0.047032203711346261 0.0010836883863936659 0 0.046889300513369127 0.0013852512101239914 0 0.047017207114429457 0.0019985365335626502 0 0.047270568957429933 0.0012432975339129806 0 0.046889300513369127 0.0013852512101239914 0 0.047514363374735066 0.0011203839663649789 0 0.047270568957429933 0.0012432975339129806 0 0.047472249295340309 0.0011393195472566156 0 0.047442856681688954 0.0016075986856737791 0 0.047442913454391264 0.0014839971229997485 0 0.047017207114429457 0.0019985365335626502 0 0.046643167456227361 0.0017187936188277032 0 0.046889300513369127 0.0013852512101239914 0 0.047293995622766566 0.0012054400155236465 0 0.047472249295340309 0.0011393195472566156 0 0.047281175341014614 0.0012408140103415055 0 0.047293995622766566 0.0012054400155236465 0 0.047270568957429933 0.0012432975339129806 0 0.047472249295340309 0.0011393195472566156 0 0.047293995622766566 0.0012054400155236465 0 0.047281175341014614 0.0012408140103415055 0 0.047383983037771096 0.0011451998859527536 0 0.046265101956206478 0.00071171745550774226 0 0.045291731989615405 0.00059939338482822195 0 0.047281175341014614 0.0012408140103415055 0 0.04746458164668782 0.0012094050231141627 0 0.047383983037771096 0.0011451998859527536 0 0.047281175341014614 0.0012408140103415055 0 0.046138182001209588 0.0016957257578203763 0 0.046653466964799099 0.0005480308779645237 0 0.04746458164668782 0.0012094050231141627 0 0.047383983037771096 0.0011451998859527536 0 0.047518622793098104 0.0011006643817483934 0 0.047383983037771096 0.0011451998859527536 0 0.04744512055766311 0.00096227291557144539 0 0.047518622793098104 0.0011006643817483934 0 0.047383983037771096 0.0011451998859527536 0 0.047314563159436891 0.0010652039201085365 0 0.04744512055766311 0.00096227291557144539 0 0.047293995622766566 0.0012054400155236465 0 0.047383983037771096 0.0011451998859527536 0 0.047314563159436891 0.0010652039201085365 0 0.047259010602285191 0.00090117816663653528 0 0.047314563159436891 0.0010652039201085365 0 0.04744512055766311 0.00096227291557144539 0 0.047259010602285191 0.00090117816663653528 0 0.04744512055766311 0.00096227291557144539 0 0.047329095083993696 0.00076869779550159671 0 0.038583626569365898 0.0010784562409867054 0 0.036221777211374685 0.0013192024386965901 0 0.038583626569365898 0.0010784562409867054 0 0.040044038001242607 0.00072913052066486228 0 0.032231850934088209 -0.00012588971507354941 0 0.031970082739887579 -0.00059068197313847477 0 0.031795282034913407 -0.00045809692275010496 0 0.032231850934088209 -0.00012588971507354941 0 0.031970082739887579 -0.00059068197313847477 0 0.033610003268932882 -0.00038118403436013595 0 0.034183290518237104 0.0012306134065118194 0 0.036221777211374685 0.0013192024386965901 0 0.031970082739887579 -0.00059068197313847477 0 0.031280285703100694 -0.00045839463893151451 0 0.031322625983888019 -0.00069526061939111084 0 0.032603677162687458 -7.6151110658835457e-07 0 0.033610003268932882 -0.00038118403436013595 0 0.03181620544230615 -0.00049829785138868609 0 0.032603677162687458 -7.6151110658835457e-07 0 0.033610003268932882 -0.00038118403436013595 0 0.036016967231124797 -1.5146325583854358e-06 0 0.031970082739887579 -0.00059068197313847477 0 0.033610003268932882 -0.00038118403436013595 0 0.03181620544230615 -0.00049829785138868609 0 0.032231850934088209 -0.00012588971507354941 0 0.033610003268932882 -0.00038118403436013595 0 0.033927206992865888 0.00045190688742798149 0 0.033610003268932882 -0.00038118403436013595 0 0.036016967231124797 -1.5146325583854358e-06 0 0.035930068040209047 0.00012270890683245564 0 0.036016967231124797 -1.5146325583854358e-06 0 0.035930068040209047 0.00012270890683245564 0 0.039425918458291132 4.4489732490044333e-06 0 0.033610003268932882 -0.00038118403436013595 0 0.035930068040209047 0.00012270890683245564 0 0.033927206992865888 0.00045190688742798149 0 0.035930068040209047 0.00012270890683245564 0 0.033927206992865888 0.00045190688742798149 0 0.036742827811737926 0.0011507083261585462 0 0.040044038001242607 0.00072913052066486228 0 0.041025846506428147 0.00018556515269056717 0 0.045291731989615405 0.00059939338482822195 0 0.041025846506428147 0.00018556515269056717 0 0.046138182001209588 0.0016957257578203763 0 0.043362551450591182 0.0022538399657505057 0 0.043836227920521921 0.00056922584818824406 0 0.04746458164668782 0.0012094050231141627 0 0.047518622793098104 0.0011006643817483934 0 0.04758102597433992 0.0011913258902552344 0 0.039433988323707127 1.073879742696649e-06 0 0.041025846506428147 0.00018556515269056717 0 0.035930068040209047 0.00012270890683245564 0 0.039425918458291132 4.4489732490044333e-06 0 0.036742827811737926 0.0011507083261585462 0 0.043362551450591182 0.0022538399657505057 0 0.04094809254609473 4.859926239645361e-06 0 0.043836227920521921 0.00056922584818824406 0 0.039435299194885719 -5.9432057652194331e-10 0 0.039511627380140954 -9.2806483665523714e-07 0 0.040938269144752321 -1.5961073734701563e-09 0 0.041025846506428147 0.00018556515269056717 0 0.040942502981764842 3.4432497724698655e-07 0 0.043836227920521921 0.00056922584818824406 0 0.043258806195530068 -1.7865533700038566e-06 0 0.045179532766477098 0.00022543878175913264 0 0.04094809254609473 4.859926239645361e-06 0 0.043836227920521921 0.00056922584818824406 0 0.043258806195530068 -1.7865533700038566e-06 0 0.043258806195530068 -1.7865533700038566e-06 0 0.045505394574658693 -0.00022842107351971259 0 0.045179532766477098 0.00022543878175913264 0 0.043258806195530068 -1.7865533700038566e-06 0 0.045505394574658693 -0.00022842107351971259 0 0.045572720922297444 -4.0851244640160381e-07 0 0.045505394574658693 -0.00022842107351971259 0 0.045179532766477098 0.00022543878175913264 0 0.046198927167973781 -2.5600681358244703e-05 0 0.045505394574658693 -0.00022842107351971259 0 0.046198927167973781 -2.5600681358244703e-05 0 0.046753626525863776 -0.00027956447959649343 0 0.046138182001209588 0.0016957257578203763 0 0.043836227920521921 0.00056922584818824406 0 0.045179532766477098 0.00022543878175913264 0 0.046138182001209588 0.0016957257578203763 0 0.045179532766477098 0.00022543878175913264 0 0.046653466964799099 0.0005480308779645237 0 0.047281175341014614 0.0012408140103415055 0 0.046653466964799099 0.0005480308779645237 0 0.047314943164320632 0.00063741429334414985 0 0.046653466964799099 0.0005480308779645237 0 0.047314943164320632 0.00063741429334414985 0 0.047189970886495521 -0.00018352188388902547 0 0.046653466964799099 0.0005480308779645237 0 0.047189970886495521 -0.00018352188388902547 0 0.046198927167973781 -2.5600681358244703e-05 0 0.045179532766477098 0.00022543878175913264 0 0.046653466964799099 0.0005480308779645237 0 0.046198927167973781 -2.5600681358244703e-05 0 0.046753626525863776 -0.00027956447959649343 0 0.047348179485731189 -0.00025829624256311801 0 0.047422536182898489 -0.00024746975252385036 0 0.047189970886495521 -0.00018352188388902547 0 0.046753626525863776 -0.00027956447959649343 0 0.047348179485731189 -0.00025829624256311801 0 0.047189970886495521 -0.00018352188388902547 0 0.046198927167973781 -2.5600681358244703e-05 0 0.046753626525863776 -0.00027956447959649343 0 0.047215777783721637 -0.00016082632900033301 0 0.047189970886495521 -0.00018352188388902547 0 0.047348179485731189 -0.00025829624256311801 0 0.047215777783721637 -0.00016082632900033301 0 0.047348179485731189 -0.00025829624256311801 0 0.047671908605938507 -0.00013135011190858287 0 0.048028213730141774 -8.6704665424251252e-05 0 0.047671908605938507 -0.00013135011190858287 0 0.047422536182898489 -0.00024746975252385036 0 0.047348179485731189 -0.00025829624256311801 0 0.047671908605938507 -0.00013135011190858287 0 0.047422536182898489 -0.00024746975252385036 0 0.047204830393962519 -0.00023709270573113328 0 0.047124838077705192 -0.00032580403164488459 0 0.046357933110224597 -0.00017565933063095254 0 0.048028213730141774 -8.6704665424251252e-05 0 0.047422536182898489 -0.00024746975252385036 0 0.047204830393962519 -0.00023709270573113328 0 0.047920112357405571 -6.6153329065763667e-05 0 0.048028213730141774 -8.6704665424251252e-05 0 0.047204830393962519 -0.00023709270573113328 0 0.046753626525863776 -0.00027956447959649343 0 0.047422536182898489 -0.00024746975252385036 0 0.047204830393962519 -0.00023709270573113328 0 0.047920112357405571 -6.6153329065763667e-05 0 0.047204830393962519 -0.00023709270573113328 0 0.047124838077705192 -0.00032580403164488459 0 0.047124838077705192 -0.00032580403164488459 0 0.045572720922297444 -4.0851244640160381e-07 0 0.046357933110224597 -0.00017565933063095254 0 0.049127513237010992 1.5937484934370412e-07 0 0.049512135412217689 0.00022179100147068216 0 0.04557625328960626 9.5077134276783154e-07 0 0.04780707056896065 -0.00029813488271889638 0 0.045578992476011687 1.8510594743162342e-08 0 0.045505394574658693 -0.00022842107351971259 0 0.045572720922297444 -4.0851244640160381e-07 0 0.046357933110224597 -0.00017565933063095254 0 0.045505394574658693 -0.00022842107351971259 0 0.046753626525863776 -0.00027956447959649343 0 0.046357933110224597 -0.00017565933063095254 0 0.046753626525863776 -0.00027956447959649343 0 0.047204830393962519 -0.00023709270573113328 0 0.046357933110224597 -0.00017565933063095254 0 0.016470374158459818 0.00021370658769946161 0 0.015938369238391557 0.00051198570417179744 0 0.015282274408763227 0.00022056184266287129 0 0.016470374158459818 0.00021370658769946161 0 0.015938369238391557 0.00051198570417179744 0 0.017759947139712375 0.00037626143356116182 0 0.015938369238391557 0.00051198570417179744 0 0.015282274408763227 0.00022056184266287129 0 0.01482929236109135 0.00058959119157599648 0 0.015938369238391557 0.00051198570417179744 0 0.01482929236109135 0.00058959119157599648 0 0.015887000394941484 0.001329913284864893 0 0.015938369238391557 0.00051198570417179744 0 0.017759947139712375 0.00037626143356116182 0 0.015887000394941484 0.001329913284864893 0 0.016470374158459818 0.00021370658769946161 0 0.017759947139712375 0.00037626143356116182 0 0.017944553457740525 -1.3957845457227436e-06 0 0.017759947139712375 0.00037626143356116182 0 0.017944553457740525 -1.3957845457227436e-06 0 0.02161484746483908 5.170326111996374e-06 0 0.016470374158459818 0.00021370658769946161 0 0.017944553457740525 -1.3957845457227436e-06 0 0.015110729334783343 -3.6840796568127733e-06 0 0.017944553457740525 -1.3957845457227436e-06 0 0.015110729334783343 -3.6840796568127733e-06 0 0.014417624731662849 -8.2960575652894915e-06 0 0.016470374158459818 0.00021370658769946161 0 0.015110729334783343 -3.6840796568127733e-06 0 0.015282274408763227 0.00022056184266287129 0 0.015110729334783343 -3.6840796568127733e-06 0 0.015282274408763227 0.00022056184266287129 0 0.01450605650958158 0.00016771403251764251 0 0.015110729334783343 -3.6840796568127733e-06 0 0.01450605650958158 0.00016771403251764251 0 0.014108741064116205 3.0877330141553583e-05 0 0.01450605650958158 0.00016771403251764251 0 0.013993813182422736 0.00045800911452259605 0 0.013916966044832809 0.00017338267940175545 0 0.01450605650958158 0.00016771403251764251 0 0.013993813182422736 0.00045800911452259605 0 0.01482929236109135 0.00058959119157599648 0 0.015282274408763227 0.00022056184266287129 0 0.01450605650958158 0.00016771403251764251 0 0.01482929236109135 0.00058959119157599648 0 0.013993813182422736 0.00045800911452259605 0 0.013279726135044297 0.00071748185705917424 0 0.013327919745347404 0.00043912541370948096 0 0.013993813182422736 0.00045800911452259605 0 0.013327919745347404 0.00043912541370948096 0 0.013916966044832809 0.00017338267940175545 0 0.019353525755129244 -0.00055761532892274887 0 0.017863057516663915 -0.0014378625782944592 0 0.013993813182422736 0.00045800911452259605 0 0.014330932290360749 0.00099944440329586388 0 0.013279726135044297 0.00071748185705917424 0 0.019837393058355513 -0.0010637095606270167 0 0.019638945585543219 -0.0011598460725298421 0 0.019685986027252942 -0.0013889783875200995 0 0.020020384418979163 -0.001212008553327397 0 0.019837393058355513 -0.0010637095606270167 0 0.019685986027252942 -0.0013889783875200995 0 0.019353525755129244 -0.00055761532892274887 0 0.020530381976127471 -0.00081114929897489556 0 0.018929513566208755 -0.00028865943180500373 0 0.019353525755129244 -0.00055761532892274887 0 0.013993813182422736 0.00045800911452259605 0 0.01482929236109135 0.00058959119157599648 0 0.014330932290360749 0.00099944440329586388 0 0.01482929236109135 0.00058959119157599648 0 0.014357565328103183 0.00097916528805665204 0 0.015887000394941484 0.001329913284864893 0 0.023333578221217996 0.00017501707420267744 0 0.023262521995756409 0.00010682434637682439 0 0.023178751167067017 0.00011862459261939273 0 0.019353525755129244 -0.00055761532892274887 0 0.020247003648491767 -0.00027777952278409328 0 0.023314534236625807 8.9497358236425998e-05 0 0.023407369395489874 5.7264489184780478e-05 0 0.02321866190707858 2.8977462077647962e-05 0 0.023407369395489874 5.7264489184780478e-05 0 0.023493382991867848 0.00011231961008131295 0 0.023589328995040959 0.00011047638704928789 0 0.023005248769450575 6.5300290756879905e-06 0 0.022742455007885451 -4.717028988995459e-06 0 0.023262521995756409 0.00010682434637682439 0 0.023314534236625807 8.9497358236425998e-05 0 0.02321866190707858 2.8977462077647962e-05 0 0.023333578221217996 0.00017501707420267744 0 0.023262521995756409 0.00010682434637682439 0 0.023314534236625807 8.9497358236425998e-05 0 0.023333578221217996 0.00017501707420267744 0 0.023314534236625807 8.9497358236425998e-05 0 0.023418424235449077 7.6613103320211415e-05 0 0.023418424235449077 7.6613103320211415e-05 0 0.023407369395489874 5.7264489184780478e-05 0 0.023382420157308941 6.5857365657008026e-05 0 0.023314534236625807 8.9497358236425998e-05 0 0.023418424235449077 7.6613103320211415e-05 0 0.023407369395489874 5.7264489184780478e-05 0 0.020530381976127471 -0.00081114929897489556 0 0.021157707454746568 -0.00085934010647947953 0 0.023407369395489874 5.7264489184780478e-05 0 0.023340746738445852 0.0001184308435044143 0 0.023382420157308941 6.5857365657008026e-05 0 0.02221474764100231 -1.0900434005811327e-07 0 0.021157707454746568 -0.00085934010647947953 0 0.023340746738445852 0.0001184308435044143 0 0.022666424763822052 -0.00020671493494522973 0 0.022618263549904764 -0.0009728198794723311 0 0.023407369395489874 5.7264489184780478e-05 0 0.023493382991867848 0.00011231961008131295 0 0.023340746738445852 0.0001184308435044143 0 0.023493382991867848 0.00011231961008131295 0 0.023593336401836952 0.00014565475439103266 0 0.023589328995040959 0.00011047638704928789 0 0.023493382991867848 0.00011231961008131295 0 0.023544434341770715 0.00016455050660433432 0 0.023340746738445852 0.0001184308435044143 0 0.023493382991867848 0.00011231961008131295 0 0.023593336401836952 0.00014565475439103266 0 0.023544434341770715 0.00016455050660433432 0 0.023593336401836952 0.00014565475439103266 0 0.023678316276074314 0.00015330495394946442 0 0.023544434341770715 0.00016455050660433432 0 0.023629143498524977 0.00019200763917587537 0 0.023593336401836952 0.00014565475439103266 0 0.023678316276074314 0.00015330495394946442 0 0.023629143498524977 0.00019200763917587537 0 0.023593336401836952 0.00014565475439103266 0 0.023589328995040959 0.00011047638704928789 0 0.022742455007885451 -4.717028988995459e-06 0 0.021661542905149149 -5.4368895076636058e-05 0 0.02321866190707858 2.8977462077647962e-05 0 0.023178751167067017 0.00011862459261939273 0 0.022982768299233708 2.5747866978948264e-05 0 0.023629143498524977 0.00019200763917587537 0 0.023589328995040959 0.00011047638704928789 0 0.023646828219117091 0.0004116773289934701 0 0.017759947139712375 0.00037626143356116182 0 0.015887000394941484 0.001329913284864893 0 0.018653103473886181 0.001453002911700439 0 0.020247003648491767 -0.00027777952278409328 0 0.021661542905149149 -5.4368895076636058e-05 0 0.023262521995756409 0.00010682434637682439 0 0.02321866190707858 2.8977462077647962e-05 0 0.023178751167067017 0.00011862459261939273 0 0.017759947139712375 0.00037626143356116182 0 0.018653103473886181 0.001453002911700439 0 0.02161484746483908 5.170326111996374e-06 0 0.021661542905149149 -5.4368895076636058e-05 0 0.022362346737216415 3.619313680567997e-07 0 0.021604076510682482 -1.2832374980086064e-06 0 0.02162487297180676 1.2845701719254277e-09 0 0.022359542429136788 -2.5602120329122303e-09 0 0.021661542905149149 -5.4368895076636058e-05 0 0.02161997075654375 -1.8715927185229717e-07 0 0.023646828219117091 0.0004116773289934701 0 0.023384844697472339 0.00013798831977343391 0 0.022369179946775567 2.8619065595697688e-06 0 0.023384844697472339 0.00013798831977343391 0 0.022369179946775567 2.8619065595697688e-06 0 0.025777648192813325 -4.6570108956308413e-07 0 0.023629143498524977 0.00019200763917587537 0 0.023384844697472339 0.00013798831977343391 0 0.023678316276074314 0.00015330495394946442 0 0.026019105862057343 0.00045704305199959996 0 0.026549760304845522 0.00044457191731663573 0 0.023629143498524977 0.00019200763917587537 0 0.023646828219117091 0.0004116773289934701 0 0.023384844697472339 0.00013798831977343391 0 0.023384844697472339 0.00013798831977343391 0 0.025777648192813325 -4.6570108956308413e-07 0 0.027746767009526212 0.00060485010516144432 0 0.025777648192813325 -4.6570108956308413e-07 0 0.027746767009526212 0.00060485010516144432 0 0.028961084491160242 -0.00024757828494372062 0 0.026549760304845522 0.00044457191731663573 0 0.027432035815269054 0.00064498243043329805 0 0.027746767009526212 0.00060485010516144432 0 0.028961084491160242 -0.00024757828494372062 0 0.030370129909781631 7.3061649988737581e-05 0 0.025777648192813325 -4.6570108956308413e-07 0 0.028961084491160242 -0.00024757828494372062 0 0.029191534115799458 -9.7767245988022279e-07 0 0.029191534115799458 -9.7767245988022279e-07 0 0.030441379626606539 -0.00045854553763262763 0 0.03181620544230615 -0.00049829785138868609 0 0.028961084491160242 -0.00024757828494372062 0 0.029191534115799458 -9.7767245988022279e-07 0 0.030441379626606539 -0.00045854553763262763 0 0.028961084491160242 -0.00024757828494372062 0 0.030441379626606539 -0.00045854553763262763 0 0.030706489502559817 -0.00047955568381888758 0 0.031970082739887579 -0.00059068197313847477 0 0.03181620544230615 -0.00049829785138868609 0 0.031205111212388559 -0.00070169728532193929 0 0.030441379626606539 -0.00045854553763262763 0 0.03181620544230615 -0.00049829785138868609 0 0.031205111212388559 -0.00070169728532193929 0 0.032603677162687458 -7.6151110658835457e-07 0 0.029191534115799458 -9.7767245988022279e-07 0 0.03181620544230615 -0.00049829785138868609 0 0.031322625983888019 -0.00069526061939111084 0 0.031301636094844772 -0.00058964556397749022 0 0.031237712913738936 -0.00067023900507151405 0 0.031322625983888019 -0.00069526061939111084 0 0.031205111212388559 -0.00070169728532193929 0 0.031301636094844772 -0.00058964556397749022 0 0.031280285703100694 -0.00045839463893151451 0 0.031322625983888019 -0.00069526061939111084 0 0.031237712913738936 -0.00067023900507151405 0 0.031970082739887579 -0.00059068197313847477 0 0.031322625983888019 -0.00069526061939111084 0 0.031205111212388559 -0.00070169728532193929 0 0.030441379626606539 -0.00045854553763262763 0 0.031205111212388559 -0.00070169728532193929 0 0.030706489502559817 -0.00047955568381888758 0 0.031205111212388559 -0.00070169728532193929 0 0.030706489502559817 -0.00047955568381888758 0 0.031301636094844772 -0.00058964556397749022 0 0.030706489502559817 -0.00047955568381888758 0 0.031301636094844772 -0.00058964556397749022 0 0.030370129909781631 7.3061649988737581e-05 0 0.023055354286389513 0.001248558352938063 0 0.023074115821806435 0.00059148588268910117 0 0.022703431375966778 0.00083731396628720738 0 0.023055354286389513 0.001248558352938063 0 0.023074115821806435 0.00059148588268910117 0 0.023570605412274612 0.00054395342534010777 0 0.028620944256556157 0.0010135974514169466 0 0.027432035815269054 0.00064498243043329805 0 0.028961084491160242 -0.00024757828494372062 0 0.030706489502559817 -0.00047955568381888758 0 0.030370129909781631 7.3061649988737581e-05 0 0.023678316276074314 0.00015330495394946442 0 0.023570605412274612 0.00054395342534010777 0 0.023544434341770715 0.00016455050660433432 0 0.023570605412274612 0.00054395342534010777 0 0.023544434341770715 0.00016455050660433432 0 0.023340746738445852 0.0001184308435044143 0 0.023074115821806435 0.00059148588268910117 0 0.023340746738445852 0.0001184308435044143 0 0.022666424763822052 -0.00020671493494522973 0 0.023074115821806435 0.00059148588268910117 0 0.023570605412274612 0.00054395342534010777 0 0.023340746738445852 0.0001184308435044143 0 0.022245514307946395 -5.8261829793424609e-05 0 0.022407116075971411 0.0004395036619910812 0 0.022666424763822052 -0.00020671493494522973 0 0.023074115821806435 0.00059148588268910117 0 0.022407116075971411 0.0004395036619910812 0 0.022666424763822052 -0.00020671493494522973 0 0.022245514307946395 -5.8261829793424609e-05 0 0.021926205298378819 0.00010911965140964053 0 0.022407116075971411 0.0004395036619910812 0 0.021926205298378819 0.00010911965140964053 0 0.021256423560371517 -4.0408268962282063e-05 0 0.021964991692163875 -0.00046340193366439482 0 0.021357876034904855 -0.00063681177879149758 0 0.021446246232787802 -0.000795584755207413 0 0.022245514307946395 -5.8261829793424609e-05 0 0.021926205298378819 0.00010911965140964053 0 0.021964991692163875 -0.00046340193366439482 0 0.021926205298378819 0.00010911965140964053 0 0.021897399362461309 0.00055452014069484778 0 0.022407116075971411 0.0004395036619910812 0 0.021926205298378819 0.00010911965140964053 0 0.021897399362461309 0.00055452014069484778 0 0.021256423560371517 -4.0408268962282063e-05 0 0.021897399362461309 0.00055452014069484778 0 0.022264357930124698 0.0010585852415519546 0 0.021559468053213498 0.0011655954924682159 0 0.021897399362461309 0.00055452014069484778 0 0.021559468053213498 0.0011655954924682159 0 0.021256423560371517 -4.0408268962282063e-05 0 0.023074115821806435 0.00059148588268910117 0 0.022407116075971411 0.0004395036619910812 0 0.022703431375966778 0.00083731396628720738 0 0.021897399362461309 0.00055452014069484778 0 0.022407116075971411 0.0004395036619910812 0 0.022264357930124698 0.0010585852415519546 0 0.022407116075971411 0.0004395036619910812 0 0.022703431375966778 0.00083731396628720738 0 0.022264357930124698 0.0010585852415519546 0 0.028620944256556157 0.0010135974514169466 0 0.031512227132730657 0.00073859773536160973 0 0.023055354286389513 0.001248558352938063 0 0.022379193472341866 0.0014984093993303492 0 0.022385469896210351 0.0019426825259697134 0 0.023055354286389513 0.001248558352938063 0 0.022703431375966778 0.00083731396628720738 0 0.022264357930124698 0.0010585852415519546 0 0.023055354286389513 0.001248558352938063 0 0.022379193472341866 0.0014984093993303492 0 0.022264357930124698 0.0010585852415519546 0 0.022379193472341866 0.0014984093993303492 0 0.022264357930124698 0.0010585852415519546 0 0.021974826382228183 0.0014677565692965129 0 0.022379193472341866 0.0014984093993303492 0 0.021974826382228183 0.0014677565692965129 0 0.022225465397229995 0.0017849067546353058 0 0.022264357930124698 0.0010585852415519546 0 0.021559468053213498 0.0011655954924682159 0 0.021974826382228183 0.0014677565692965129 0 0.021559468053213498 0.0011655954924682159 0 0.021974826382228183 0.0014677565692965129 0 0.021835435697793983 0.0018501125659538954 0 0.021724608481673006 0.0021813910544855476 0 0.021835435697793983 0.0018501125659538954 0 0.022349495300375936 0.00191014646927803 0 0.021835435697793983 0.0018501125659538954 0 0.022349495300375936 0.00191014646927803 0 0.022225465397229995 0.0017849067546353058 0 0.021559468053213498 0.0011655954924682159 0 0.021835435697793983 0.0018501125659538954 0 0.021482098983484646 0.0019436553602393452 0 0.021974826382228183 0.0014677565692965129 0 0.021835435697793983 0.0018501125659538954 0 0.022225465397229995 0.0017849067546353058 0 0.021724608481673006 0.0021813910544855476 0 0.021835435697793983 0.0018501125659538954 0 0.021482098983484646 0.0019436553602393452 0 0.022379193472341866 0.0014984093993303492 0 0.022385469896210351 0.0019426825259697134 0 0.022225465397229995 0.0017849067546353058 0 0.031512227132730657 0.00073859773536160973 0 0.031270740617132517 0.00061507365057454503 0 0.01991639218926675 0.0027791339619545395 0 0.020486207338054063 0.0024438788390514143 0 0.019842115496524766 0.0019171544052516947 0 0.0205918544237946 0.0018839717773758869 0 0.020486207338054063 0.0024438788390514143 0 0.019842115496524766 0.0019171544052516947 0 0.0205918544237946 0.0018839717773758869 0 0.020486207338054063 0.0024438788390514143 0 0.02126033012967669 0.0022489821306602279 0 0.027098696506764056 0.0028352516987775267 0 0.028444713845815088 0.0029684249661716582 0 0.021559468053213498 0.0011655954924682159 0 0.0205918544237946 0.0018839717773758869 0 0.020194294791096794 0.0011928105318410776 0 0.021559468053213498 0.0011655954924682159 0 0.0205918544237946 0.0018839717773758869 0 0.02126033012967669 0.0022489821306602279 0 0.0205918544237946 0.0018839717773758869 0 0.020194294791096794 0.0011928105318410776 0 0.019842115496524766 0.0019171544052516947 0 0.020194294791096794 0.0011928105318410776 0 0.02052832885254053 0.00043300158015837991 0 0.019481448689104019 0.00016735558285978303 0 0.021559468053213498 0.0011655954924682159 0 0.020194294791096794 0.0011928105318410776 0 0.02052832885254053 0.00043300158015837991 0 0.021559468053213498 0.0011655954924682159 0 0.02052832885254053 0.00043300158015837991 0 0.021256423560371517 -4.0408268962282063e-05 0 0.02052832885254053 0.00043300158015837991 0 0.021256423560371517 -4.0408268962282063e-05 0 0.020281708186097484 -0.00041562764254465638 0 0.02052832885254053 0.00043300158015837991 0 0.020281708186097484 -0.00041562764254465638 0 0.019481448689104019 0.00016735558285978303 0 0.020281708186097484 -0.00041562764254465638 0 0.020318827274167024 -0.0016324904871479911 0 0.020953091403703165 -0.00094420699836106521 0 0.020281708186097484 -0.00041562764254465638 0 0.020318827274167024 -0.0016324904871479911 0 0.019639329684412985 -0.0010620501736472213 0 0.020318827274167024 -0.0016324904871479911 0 0.021231866190703799 -0.001585473155879772 0 0.020757378516614113 -0.0025206060977675548 0 0.020318827274167024 -0.0016324904871479911 0 0.021231866190703799 -0.001585473155879772 0 0.020953091403703165 -0.00094420699836106521 0 0.021256423560371517 -4.0408268962282063e-05 0 0.020953091403703165 -0.00094420699836106521 0 0.02147071719712949 -0.00087524372962630495 0 0.021256423560371517 -4.0408268962282063e-05 0 0.020281708186097484 -0.00041562764254465638 0 0.020953091403703165 -0.00094420699836106521 0 0.021231866190703799 -0.001585473155879772 0 0.020953091403703165 -0.00094420699836106521 0 0.02147071719712949 -0.00087524372962630495 0 0.021256423560371517 -4.0408268962282063e-05 0 0.021955373573360058 -0.00066719176089489584 0 0.02147071719712949 -0.00087524372962630495 0 0.021955373573360058 -0.00066719176089489584 0 0.021949723080277161 -0.0011344430045036136 0 0.02147071719712949 -0.00087524372962630495 0 0.022245514307946395 -5.8261829793424609e-05 0 0.021964991692163875 -0.00046340193366439482 0 0.022666424763822052 -0.00020671493494522973 0 0.021964991692163875 -0.00046340193366439482 0 0.022666424763822052 -0.00020671493494522973 0 0.022618263549904764 -0.0009728198794723311 0 0.021446246232787802 -0.000795584755207413 0 0.021157707454746568 -0.00085934010647947953 0 0.021955373573360058 -0.00066719176089489584 0 0.021949723080277161 -0.0011344430045036136 0 0.02266655716501962 -0.0012582290116676198 0 0.019837393058355513 -0.0010637095606270167 0 0.019654246694476137 -0.00091402893844540396 0 0.019638945585543219 -0.0011598460725298421 0 0.019654246694476137 -0.00091402893844540396 0 0.019377654399413993 -0.0012729338223286808 0 0.019638945585543219 -0.0011598460725298421 0 0.021157707454746568 -0.00085934010647947953 0 0.020281383353058721 -0.0019205814918749123 0 0.021949723080277161 -0.0011344430045036136 0 0.02266655716501962 -0.0012582290116676198 0 0.021831815771747899 -0.0023386996626957239 0 0.020672546605445003 -0.001627551565225493 0 0.020281383353058721 -0.0019205814918749123 0 0.021231866190703799 -0.001585473155879772 0 0.021949723080277161 -0.0011344430045036136 0 0.021813513219087376 -0.0024149361615618771 0 0.021231866190703799 -0.001585473155879772 0 0.021949723080277161 -0.0011344430045036136 0 0.02147071719712949 -0.00087524372962630495 0 0.019377654399413993 -0.0012729338223286808 0 0.019638945585543219 -0.0011598460725298421 0 0.019685986027252942 -0.0013889783875200995 0 0.017863057516663915 -0.0014378625782944592 0 0.018555841365922397 -0.002132411560306721 0 0.019377654399413993 -0.0012729338223286808 0 0.019685986027252942 -0.0013889783875200995 0 0.019348771366456758 -0.0015666898899965838 0 0.013279726135044297 0.00071748185705917424 0 0.012801715807245886 0.00055915898205932712 0 0.013327919745347404 0.00043912541370948096 0 0.021796407797466621 -0.002375183638524422 0 0.021712096750611025 -0.0033459745804373985 0 0.021014839972622684 -0.0034013131224925417 0 0.020281383353058721 -0.0019205814918749123 0 0.020430132272162272 -0.0022597972035740457 0 0.020281383353058721 -0.0019205814918749123 0 0.018555841365922397 -0.002132411560306721 0 0.021813513219087376 -0.0024149361615618771 0 0.021014839972622684 -0.0034013131224925417 0 0.020757378516614113 -0.0025206060977675548 0 0.021014839972622684 -0.0034013131224925417 0 0.020307100544329861 -0.0033138347075921839 0 0.020757378516614113 -0.0025206060977675548 0 0.019846993386564097 -0.0027455919097406725 0 0.020307100544329861 -0.0033138347075921839 0 0.019529044573572931 -0.0037240279255148926 0 0.019846993386564097 -0.0027455919097406725 0 0.020307100544329861 -0.0033138347075921839 0 0.020757378516614113 -0.0025206060977675548 0 0.020318827274167024 -0.0016324904871479911 0 0.019846993386564097 -0.0027455919097406725 0 0.01925343027800782 -0.0019033253272907054 0 0.020318827274167024 -0.0016324904871479911 0 0.019846993386564097 -0.0027455919097406725 0 0.020757378516614113 -0.0025206060977675548 0 0.021231866190703799 -0.001585473155879772 0 0.021813513219087376 -0.0024149361615618771 0 0.020757378516614113 -0.0025206060977675548 0 0.018950519963457615 -0.0029030389520082757 0 0.018006249707770098 -0.0030451278567456726 0 0.01800683441818237 -0.0021090934274482966 0 0.018950519963457615 -0.0029030389520082757 0 0.01800683441818237 -0.0021090934274482966 0 0.01925343027800782 -0.0019033253272907054 0 0.019846993386564097 -0.0027455919097406725 0 0.018950519963457615 -0.0029030389520082757 0 0.01925343027800782 -0.0019033253272907054 0 0.019846993386564097 -0.0027455919097406725 0 0.018950519963457615 -0.0029030389520082757 0 0.019529044573572931 -0.0037240279255148926 0 0.018950519963457615 -0.0029030389520082757 0 0.018006249707770098 -0.0030451278567456726 0 0.018575549387204456 -0.003837291432056333 0 0.018006249707770098 -0.0030451278567456726 0 0.017131862936338664 -0.0033982928482550975 0 0.017795689677884523 -0.0038186734993920892 0 0.018006249707770098 -0.0030451278567456726 0 0.017131862936338664 -0.0033982928482550975 0 0.016884121219881365 -0.0022435465505612423 0 0.017131862936338664 -0.0033982928482550975 0 0.016884121219881365 -0.0022435465505612423 0 0.016367929601573846 -0.0031305617372655516 0 0.018006249707770098 -0.0030451278567456726 0 0.016884121219881365 -0.0022435465505612423 0 0.01800683441818237 -0.0021090934274482966 0 0.01800683441818237 -0.0021090934274482966 0 0.017295506209182278 -0.0013237705340409297 0 0.018652252096570416 -0.0011323897346291591 0 0.016884121219881365 -0.0022435465505612423 0 0.017295506209182278 -0.0013237705340409297 0 0.016093741643860834 -0.0013559575936005347 0 0.016884121219881365 -0.0022435465505612423 0 0.01800683441818237 -0.0021090934274482966 0 0.017295506209182278 -0.0013237705340409297 0 0.017295506209182278 -0.0013237705340409297 0 0.017627558432983165 -0.00042012781986536555 0 0.016347641392422008 -0.00036938872193881093 0 0.017295506209182278 -0.0013237705340409297 0 0.018652252096570416 -0.0011323897346291591 0 0.017627558432983165 -0.00042012781986536555 0 0.01800683441818237 -0.0021090934274482966 0 0.018734031095048662 -0.0009486744610920719 0 0.01925343027800782 -0.0019033253272907054 0 0.018453668602711745 -0.0014796321403554541 0 0.018791705961212116 -0.00093940152378297931 0 0.018734031095048662 -0.0009486744610920719 0 0.01925343027800782 -0.0019033253272907054 0 0.019639329684412985 -0.0010620501736472213 0 0.020318827274167024 -0.0016324904871479911 0 0.01925343027800782 -0.0019033253272907054 0 0.019639329684412985 -0.0010620501736472213 0 0.020281708186097484 -0.00041562764254465638 0 0.019639329684412985 -0.0010620501736472213 0 0.019481448689104019 0.00016735558285978303 0 0.018734031095048662 -0.0009486744610920719 0 0.019639329684412985 -0.0010620501736472213 0 0.019481448689104019 0.00016735558285978303 0 0.018791705961212116 -0.00093940152378297931 0 0.019370516465301205 -2.438155687491344e-05 0 0.018652252096570416 -0.0011323897346291591 0 0.018497700469754196 3.2345809500634984e-05 0 0.017627558432983165 -0.00042012781986536555 0 0.018652252096570416 -0.0011323897346291591 0 0.019426669430844291 -4.8686298214224881e-05 0 0.018497700469754196 3.2345809500634984e-05 0 0.019426669430844291 -4.8686298214224881e-05 0 0.018497700469754196 3.2345809500634984e-05 0 0.018868258942258912 0.0012529561886492676 0 0.018497700469754196 3.2345809500634984e-05 0 0.018868258942258912 0.0012529561886492676 0 0.017917999285729312 0.00061766699338988772 0 0.019717417065108201 0.00052852049498832787 0 0.019370516465301205 -2.438155687491344e-05 0 0.020194294791096794 0.0011928105318410776 0 0.019426669430844291 -4.8686298214224881e-05 0 0.018868258942258912 0.0012529561886492676 0 0.020194294791096794 0.0011928105318410776 0 0.018868258942258912 0.0012529561886492676 0 0.019842115496524766 0.0019171544052516947 0 0.018342619714241639 0.0027314878593484764 0 0.018868258942258912 0.0012529561886492676 0 0.019269509537640412 0.0024592665603848491 0 0.018868258942258912 0.0012529561886492676 0 0.019269509537640412 0.0024592665603848491 0 0.019842115496524766 0.0019171544052516947 0 0.01991639218926675 0.0027791339619545395 0 0.019269509537640412 0.0024592665603848491 0 0.019842115496524766 0.0019171544052516947 0 0.016620278985887207 0.00058348379219695223 0 0.016859786563563496 0.00014609211929394691 0 0.016254577481039551 0.0001779808006960852 0 0.018342619714241639 0.0027314878593484764 0 0.018868258942258912 0.0012529561886492676 0 0.017636327179973901 0.0017451355483616695 0 0.023078090194963444 -0.00028786200490953784 0 0.019936719203567932 -0.0004074296207956896 0 0.016620278985887207 0.00058348379219695223 0 0.017168894018075011 0.00050791375085591653 0 0.016859786563563496 0.00014609211929394691 0 0.017636327179973901 0.0017451355483616695 0 0.016968462379226265 0.0007198854536887403 0 0.017917999285729312 0.00061766699338988772 0 0.018868258942258912 0.0012529561886492676 0 0.017636327179973901 0.0017451355483616695 0 0.017917999285729312 0.00061766699338988772 0 0.016859786563563496 0.00014609211929394691 0 0.016564346239125994 -0.00016686266419056075 0 0.016254577481039551 0.0001779808006960852 0 0.019936719203567932 -0.0004074296207956896 0 0.018434036840338321 -0.00053316604611805128 0 0.016968462379226265 0.0007198854536887403 0 0.017917999285729312 0.00061766699338988772 0 0.017627558432983165 -0.00042012781986536555 0 0.018497700469754196 3.2345809500634984e-05 0 0.017917999285729312 0.00061766699338988772 0 0.017627558432983165 -0.00042012781986536555 0 0.016968462379226265 0.0007198854536887403 0 0.017627558432983165 -0.00042012781986536555 0 0.016347641392422008 -0.00036938872193881093 0 0.016347641392422008 -0.00036938872193881093 0 0.015685398863977806 -0.0004052281693404317 0 0.015778238442307815 -0.00080943194910728365 0 0.016347641392422008 -0.00036938872193881093 0 0.016138279386198277 -0.00015216612548745774 0 0.015685398863977806 -0.0004052281693404317 0 0.016564346239125994 -0.00016686266419056075 0 0.016347641392422008 -0.00036938872193881093 0 0.016138279386198277 -0.00015216612548745774 0 0.018434036840338321 -0.00053316604611805128 0 0.017927895040312444 -0.00067445999105199923 0 0.016564346239125994 -0.00016686266419056075 0 0.016138279386198277 -0.00015216612548745774 0 0.016254577481039551 0.0001779808006960852 0 0.016138279386198277 -0.00015216612548745774 0 0.016254577481039551 0.0001779808006960852 0 0.015760623016746442 -8.1548962978763095e-05 0 0.016080034567635869 0.0006702547986003458 0 0.016254577481039551 0.0001779808006960852 0 0.015735469457304495 0.00028213113107003262 0 0.016254577481039551 0.0001779808006960852 0 0.015735469457304495 0.00028213113107003262 0 0.015760623016746442 -8.1548962978763095e-05 0 0.01566267633875101 0.00051063238660686448 0 0.015602985579108842 0.00018700243113008595 0 0.016067674349154785 0.00023868197734127719 0 0.015602985579108842 0.00018700243113008595 0 0.016067674349154785 0.00023868197734127719 0 0.015561346220133712 -7.9643242089230481e-05 0 0.01690164787574264 -0.00031078258480505037 0 0.016475327462008787 -0.00038096506506782253 0 0.015735469457304495 0.00028213113107003262 0 0.015760623016746442 -8.1548962978763095e-05 0 0.015561346220133712 -7.9643242089230481e-05 0 0.015760623016746442 -8.1548962978763095e-05 0 0.015561346220133712 -7.9643242089230481e-05 0 0.015490216837462371 -0.00028278829087527327 0 0.015685398863977806 -0.0004052281693404317 0 0.015257454691275535 -0.00074717262943075041 0 0.015139198246771311 -0.00047154211723621719 0 0.015502920460281356 -0.00042979443390578836 0 0.01530533333862283 -0.00038513540081213597 0 0.015760623016746442 -8.1548962978763095e-05 0 0.015685398863977806 -0.0004052281693404317 0 0.015490216837462371 -0.00028278829087527327 0 0.016138279386198277 -0.00015216612548745774 0 0.015760623016746442 -8.1548962978763095e-05 0 0.015685398863977806 -0.0004052281693404317 0 0.015685398863977806 -0.0004052281693404317 0 0.015257454691275535 -0.00074717262943075041 0 0.015778238442307815 -0.00080943194910728365 0 0.015257454691275535 -0.00074717262943075041 0 0.015258765768434709 -0.0012290363786417067 0 0.014908110330227084 -0.00091949631458796398 0 0.015257454691275535 -0.00074717262943075041 0 0.015258765768434709 -0.0012290363786417067 0 0.015778238442307815 -0.00080943194910728365 0 0.015258765768434709 -0.0012290363786417067 0 0.016093741643860834 -0.0013559575936005347 0 0.015590289134736179 -0.0016448339702275145 0 0.015258765768434709 -0.0012290363786417067 0 0.015778238442307815 -0.00080943194910728365 0 0.016093741643860834 -0.0013559575936005347 0 0.016347641392422008 -0.00036938872193881093 0 0.015778238442307815 -0.00080943194910728365 0 0.016093741643860834 -0.0013559575936005347 0 0.017295506209182278 -0.0013237705340409297 0 0.016347641392422008 -0.00036938872193881093 0 0.016093741643860834 -0.0013559575936005347 0 0.01510661859240154 -0.0014592161614262406 0 0.014500191369022872 -0.0019626897747951448 0 0.016884121219881365 -0.0022435465505612423 0 0.016093741643860834 -0.0013559575936005347 0 0.015375236820800234 -0.0026548085203032877 0 0.016884121219881365 -0.0022435465505612423 0 0.015375236820800234 -0.0026548085203032877 0 0.016367929601573846 -0.0031305617372655516 0 0.017131862936338664 -0.0033982928482550975 0 0.016367929601573846 -0.0031305617372655516 0 0.01654439476291605 -0.0038283298259973566 0 0.015375236820800234 -0.0026548085203032877 0 0.016367929601573846 -0.0031305617372655516 0 0.015833305041658897 -0.0036863844375932889 0 0.015375236820800234 -0.0026548085203032877 0 0.015280540867945749 -0.0037158758112921749 0 0.015833305041658897 -0.0036863844375932889 0 0.015375236820800234 -0.0026548085203032877 0 0.01468830533581968 -0.0039165364587976561 0 0.015280540867945749 -0.0037158758112921749 0 0.014500191369022872 -0.0019626897747951448 0 0.012414321360084189 -0.003642305958654485 0 0.014876248356907427 -0.001749244128270189 0 0.015184095008545898 -0.0015868369171410655 0 0.015173563977909053 -0.0020724333492478709 0 0.015590289134736179 -0.0016448339702275145 0 0.015184095008545898 -0.0015868369171410655 0 0.015173563977909053 -0.0020724333492478709 0 0.014876248356907427 -0.001749244128270189 0 0.014917143077494399 -0.0015275387118998073 0 0.015184095008545898 -0.0015868369171410655 0 0.014876248356907427 -0.001749244128270189 0 0.014917143077494399 -0.0015275387118998073 0 0.014710942110080519 -0.0016732850798105577 0 0.015258765768434709 -0.0012290363786417067 0 0.014917143077494399 -0.0015275387118998073 0 0.015184095008545898 -0.0015868369171410655 0 0.015258765768434709 -0.0012290363786417067 0 0.015590289134736179 -0.0016448339702275145 0 0.015184095008545898 -0.0015868369171410655 0 0.011268754170456221 -0.0044065410844164096 0 0.011461377293085398 -0.0042156427691832227 0 0.011269817326968069 -0.0035574229309191354 0 0.011621937562509713 -0.0039580508436708314 0 0.011515177313722744 -0.0044798622478716419 0 0.012240818809970567 -0.0035781315226506632 0 0.011590485517453711 -0.0047775737322096144 0 0.011515177313722744 -0.0044798622478716419 0 0.012240818809970567 -0.0035781315226506632 0 0.011621937562509713 -0.0039580508436708314 0 0.011269817326968069 -0.0035574229309191354 0 0.012240818809970567 -0.0035781315226506632 0 0.011461377293085398 -0.0042156427691832227 0 0.011621937562509713 -0.0039580508436708314 0 0.011515177313722744 -0.0044798622478716419 0 0.011216574970413243 -0.0044547353661382842 0 0.011224262084915259 -0.0044564309823561174 0 0.011268754170456221 -0.0044065410844164096 0 0.011461377293085398 -0.0042156427691832227 0 0.011515177313722744 -0.0044798622478716419 0 0.011461377293085398 -0.0042156427691832227 0 0.011621937562509713 -0.0039580508436708314 0 0.011269817326968069 -0.0035574229309191354 0 0.012414321360084189 -0.003642305958654485 0 0.013130541710892521 -0.0025273306867237893 0 0.014620630297693596 -0.0016218244126967971 0 0.014615341394215687 -0.0016555404766273242 0 0.014453617295323391 -0.0015300804355677542 0 0.014620630297693596 -0.0016218244126967971 0 0.014731996639208345 -0.0016855832194299493 0 0.014615341394215687 -0.0016555404766273242 0 0.014876248356907427 -0.001749244128270189 0 0.014731996639208345 -0.0016855832194299493 0 0.014710942110080519 -0.0016732850798105577 0 0.014620630297693596 -0.0016218244126967971 0 0.014731996639208345 -0.0016855832194299493 0 0.014710942110080519 -0.0016732850798105577 0 0.014876248356907427 -0.001749244128270189 0 0.014731996639208345 -0.0016855832194299493 0 0.014615341394215687 -0.0016555404766273242 0 0.01271155996195616 -0.0034595653351033703 0 0.012414321360084189 -0.003642305958654485 0 0.014991500454184306 -0.0042678146872932631 0 0.01468830533581968 -0.0039165364587976561 0 0.015280540867945749 -0.0037158758112921749 0 0.01127069182839387 -0.0044053488137443262 0 0.011590485517453711 -0.0047775737322096144 0 0.011515177313722744 -0.0044798622478716419 0 0.011216574970413243 -0.0044547353661382842 0 0.012414321360084189 -0.003642305958654485 0 0.014991500454184306 -0.0042678146872932631 0 0.015833305041658897 -0.0036863844375932889 0 0.016282102162506192 -0.0046543027469169796 0 0.014991500454184306 -0.0042678146872932631 0 0.015280540867945749 -0.0037158758112921749 0 0.015833305041658897 -0.0036863844375932889 0 0.015833305041658897 -0.0036863844375932889 0 0.01654439476291605 -0.0038283298259973566 0 0.016282102162506192 -0.0046543027469169796 0 0.016367929601573846 -0.0031305617372655516 0 0.015833305041658897 -0.0036863844375932889 0 0.01654439476291605 -0.0038283298259973566 0 0.01654439476291605 -0.0038283298259973566 0 0.016282102162506192 -0.0046543027469169796 0 0.017103473965107561 -0.004271843116749414 0 0.011268754170456221 -0.0044065410844164096 0 0.01036384982256325 -0.0033615634319076708 0 0.011269817326968069 -0.0035574229309191354 0 0.0055829727931082564 -0.0063799877676085177 0 0.0042297158725501114 -0.0059694145540490316 0 0.0046829564201339279 -0.0053758383845769571 0 0.011216574970413243 -0.0044547353661382842 0 0.010549780654450136 -0.0047630856073530908 0 0.011216574970413243 -0.0044547353661382842 0 0.0081892534285511707 -0.0039525930004948445 0 0.01036384982256325 -0.0033615634319076708 0 0.010867104758493873 -0.0028925824433175219 0 0.011269817326968069 -0.0035574229309191354 0 0.01036384982256325 -0.0033615634319076708 0 0.010125767897431078 -0.0025329199911106634 0 0.010419126927918571 -0.0028019189021933765 0 0.01036384982256325 -0.0033615634319076708 0 0.010867104758493873 -0.0028925824433175219 0 0.010419126927918571 -0.0028019189021933765 0 0.0046829564201339279 -0.0053758383845769571 0 0.0038209656698061996 -0.0053461008141605509 0 0.0039227528918799083 -0.0050567229799373921 0 0.0081892534285511707 -0.0039525930004948445 0 0.0057585378683175127 -0.0034068899058177812 0 0.0042297158725501114 -0.0059694145540490316 0 0.0046829564201339279 -0.0053758383845769571 0 0.0038209656698061996 -0.0053461008141605509 0 0.0046829564201339279 -0.0053758383845769571 0 0.0039227528918799083 -0.0050567229799373921 0 0.0038111900767451327 -0.0045437765108091704 0 0.0046829564201339279 -0.0053758383845769571 0 0.0038140192457452025 -0.0044730699680542874 0 0.0038111900767451327 -0.0045437765108091704 0 0.01036384982256325 -0.0033615634319076708 0 0.010125767897431078 -0.0025329199911106634 0 0.0094657361958932814 -0.002316771464345297 0 0.010125767897431078 -0.0025329199911106634 0 0.010218128802106718 -0.0021013707178083253 0 0.0098926237594776159 -0.0020906219879259524 0 0.010125767897431078 -0.0025329199911106634 0 0.0098926237594776159 -0.0020906219879259524 0 0.0094657361958932814 -0.002316771464345297 0 0.0057585378683175127 -0.0034068899058177812 0 0.0057564832140930408 -0.003411416909979243 0 0.010867104758493873 -0.0028925824433175219 0 0.010493068849663584 -0.0024304899147406713 0 0.011075025541769701 -0.0022709165765642039 0 0.010867104758493873 -0.0028925824433175219 0 0.010419126927918571 -0.0028019189021933765 0 0.010493068849663584 -0.0024304899147406713 0 0.010125767897431078 -0.0025329199911106634 0 0.010419126927918571 -0.0028019189021933765 0 0.010493068849663584 -0.0024304899147406713 0 0.010218128802106718 -0.0021013707178083253 0 0.010493068849663584 -0.0024304899147406713 0 0.010575100406822862 -0.0018725243872592199 0 0.010125767897431078 -0.0025329199911106634 0 0.010218128802106718 -0.0021013707178083253 0 0.010493068849663584 -0.0024304899147406713 0 0.010493068849663584 -0.0024304899147406713 0 0.011075025541769701 -0.0022709165765642039 0 0.010575100406822862 -0.0018725243872592199 0 0.010867104758493873 -0.0028925824433175219 0 0.011687000851597762 -0.0027796854030600095 0 0.011075025541769701 -0.0022709165765642039 0 0.011687000851597762 -0.0027796854030600095 0 0.011075025541769701 -0.0022709165765642039 0 0.011801901147595731 -0.0018866367100162187 0 0.010867104758493873 -0.0028925824433175219 0 0.011687000851597762 -0.0027796854030600095 0 0.011269817326968069 -0.0035574229309191354 0 0.011687000851597762 -0.0027796854030600095 0 0.011269817326968069 -0.0035574229309191354 0 0.012240818809970567 -0.0035781315226506632 0 0.013130541710892521 -0.0025273306867237893 0 0.01349693501548078 -0.0018193318333992749 0 0.011687000851597762 -0.0027796854030600095 0 0.012240818809970567 -0.0035781315226506632 0 0.012911785480778022 -0.0023806659872776721 0 0.011687000851597762 -0.0027796854030600095 0 0.011801901147595731 -0.0018866367100162187 0 0.012911785480778022 -0.0023806659872776721 0 0.012444933660172136 -0.0012178813118979396 0 0.011801901147595731 -0.0018866367100162187 0 0.012911785480778022 -0.0023806659872776721 0 0.012444933660172136 -0.0012178813118979396 0 0.011801901147595731 -0.0018866367100162187 0 0.011555772703342284 -0.00093098768931558604 0 0.011138912525400108 -0.001639637948940166 0 0.011801901147595731 -0.0018866367100162187 0 0.011555772703342284 -0.00093098768931558604 0 0.011138912525400108 -0.001639637948940166 0 0.011555772703342284 -0.00093098768931558604 0 0.010595532403700942 -0.0010742514161333839 0 0.011075025541769701 -0.0022709165765642039 0 0.011138912525400108 -0.001639637948940166 0 0.011801901147595731 -0.0018866367100162187 0 0.011555772703342284 -0.00093098768931558604 0 0.012255390424527194 -0.00025691613624940162 0 0.011553210350895652 -0.00011158367102170206 0 0.011555772703342284 -0.00093098768931558604 0 0.011553210350895652 -0.00011158367102170206 0 0.010994382415358685 -0.0003900784308799736 0 0.012444933660172136 -0.0012178813118979396 0 0.011555772703342284 -0.00093098768931558604 0 0.012255390424527194 -0.00025691613624940162 0 0.012444933660172136 -0.0012178813118979396 0 0.012255390424527194 -0.00025691613624940162 0 0.012929154905164277 -0.00050512881364595853 0 0.012255390424527194 -0.00025691613624940162 0 0.012124000293441062 7.6003410238559808e-05 0 0.012649223297431685 3.1038765002513122e-05 0 0.010062858460546475 -0.00062717990699614676 0 0.011035517884159789 -0.00059370252821467544 0 0.012255390424527194 -0.00025691613624940162 0 0.011553210350895652 -0.00011158367102170206 0 0.01199479251254754 0.00042867703257168919 0 0.010235792368171667 -0.00062999671523678252 0 0.010062858460546475 -0.00062717990699614676 0 0.011553210350895652 -0.00011158367102170206 0 0.01083007797256042 0.00058050418920738492 0 0.010994382415358685 -0.0003900784308799736 0 0.011553210350895652 -0.00011158367102170206 0 0.01199479251254754 0.00042867703257168919 0 0.01083007797256042 0.00058050418920738492 0 0.0084630889717248903 -0.0018544856025173072 0 0.0095523831050875439 -0.0029067900063572409 0 0.0078297793016342144 -0.0026914008227058922 0 0.010062858460546475 -0.00062717990699614676 0 0.008825728354919727 -0.00080841531238482834 0 0.010179103045199802 0.0013718162704267143 0 0.010105036840290335 0.00029118438193678607 0 0.0095344420708482133 0.0019733240087978442 0 0.0084630889717248903 -0.0018544856025173072 0 0.0095523831050875439 -0.0029067900063572409 0 0.0088252071457164388 -0.00092247283269401988 0 0.010062858460546475 -0.00062717990699614676 0 0.0092225891425292209 0.00074985132163765656 0 0.011350273571606473 0.00079258902223192714 0 0.010105036840290335 0.00029118438193678607 0 0.012649223297431685 3.1038765002513122e-05 0 0.010179103045199802 0.0013718162704267143 0 0.011350273571606473 0.00079258902223192714 0 0.010399674119197289 0.0017590389347643129 0 0.010179103045199802 0.0013718162704267143 0 0.011350273571606473 0.00079258902223192714 0 0.010105036840290335 0.00029118438193678607 0 0.0060789218598835499 -0.00246231286137905 0 0.0078297793016342144 -0.0026914008227058922 0 0.0069527058429060991 -0.0014491451966378098 0 0.0064210698913847184 -0.00075921437875881893 0 0.008825728354919727 -0.00080841531238482834 0 0.0078297793016342144 -0.0026914008227058922 0 0.0078021090444358367 -0.0015640843455222357 0 0.0069527058429060991 -0.0014491451966378098 0 0.0084630889717248903 -0.0018544856025173072 0 0.0078297793016342144 -0.0026914008227058922 0 0.0078021090444358367 -0.0015640843455222357 0 0.0096699656387230614 0.0007281726951130096 0 0.01083007797256042 0.00058050418920738492 0 0.010332432588999765 -0.00018906295899933181 0 0.01083007797256042 0.00058050418920738492 0 0.010994382415358685 -0.0003900784308799736 0 0.010332432588999765 -0.00018906295899933181 0 0.0096699656387230614 0.0007281726951130096 0 0.010332432588999765 -0.00018906295899933181 0 0.0095725171929314252 -0.00078979055095170783 0 0.0064210698913847184 -0.00075921437875881893 0 0.0063015945819818661 -0.0020093292270591378 0 0.010332432588999765 -0.00018906295899933181 0 0.0095725171929314252 -0.00078979055095170783 0 0.010595532403700942 -0.0010742514161333839 0 0.0095725171929314252 -0.00078979055095170783 0 0.010595532403700942 -0.0010742514161333839 0 0.01000498711964524 -0.0015829371096026115 0 0.010994382415358685 -0.0003900784308799736 0 0.010332432588999765 -0.00018906295899933181 0 0.010595532403700942 -0.0010742514161333839 0 0.011555772703342284 -0.00093098768931558604 0 0.010994382415358685 -0.0003900784308799736 0 0.010595532403700942 -0.0010742514161333839 0 0.011138912525400108 -0.001639637948940166 0 0.010595532403700942 -0.0010742514161333839 0 0.010575100406822862 -0.0018725243872592199 0 0.010595532403700942 -0.0010742514161333839 0 0.010575100406822862 -0.0018725243872592199 0 0.01000498711964524 -0.0015829371096026115 0 0.010218128802106718 -0.0021013707178083253 0 0.010575100406822862 -0.0018725243872592199 0 0.01000498711964524 -0.0015829371096026115 0 0.011075025541769701 -0.0022709165765642039 0 0.011138912525400108 -0.001639637948940166 0 0.010575100406822862 -0.0018725243872592199 0 0.0057585378683175127 -0.0034068899058177812 0 0.0063015945819818661 -0.0020093292270591378 0 0.0094657361958932814 -0.002316771464345297 0 0.0095725171929314252 -0.00078979055095170783 0 0.01000498711964524 -0.0015829371096026115 0 0.010218128802106718 -0.0021013707178083253 0 0.0098926237594776159 -0.0020906219879259524 0 0.01000498711964524 -0.0015829371096026115 0 0.0098926237594776159 -0.0020906219879259524 0 0.0094657361958932814 -0.002316771464345297 0 0.01000498711964524 -0.0015829371096026115 0 0.0039702530237648685 -0.0047866478499177401 0 0.0040723527825091048 -0.0032384136574557898 0 0.0033126596989201456 -0.0040310169022825647 0 0.0057585378683175127 -0.0034068899058177812 0 0.0046743532294782021 -0.00319681824440838 0 0.0026160898866532532 -0.0041209814464957008 0 0.0022787214810356974 -0.0041628770944493153 0 0.0023618610327192087 -0.0045023760173593507 0 0.0032389076386426393 -0.0038872595703726984 0 0.0026160898866532532 -0.0041209814464957008 0 0.003164502887487864 -0.0044928967263571833 0 0.0032389076386426393 -0.0038872595703726984 0 0.0026160898866532532 -0.0041209814464957008 0 0.0025385829629136765 -0.0037226434592275504 0 0.0032389076386426393 -0.0038872595703726984 0 0.0025385829629136765 -0.0037226434592275504 0 0.0026498290315440385 -0.0032655678898919917 0 0.0026160898866532532 -0.0041209814464957008 0 0.0025385829629136765 -0.0037226434592275504 0 0.0021979189855079236 -0.0038657879658886719 0 0.0025385829629136765 -0.0037226434592275504 0 0.0026498290315440385 -0.0032655678898919917 0 0.0020800722894896775 -0.0035667808312614254 0 0.0033126596989201456 -0.0040310169022825647 0 0.0026498290315440385 -0.0032655678898919917 0 0.0033197775093129619 -0.0032666425439310479 0 0.0046743532294782021 -0.00319681824440838 0 0.0042576746375657644 -0.0030324902065171559 0 0.0026498290315440385 -0.0032655678898919917 0 0.0033197775093129619 -0.0032666425439310479 0 0.0025823325370391646 -0.0025356054454861074 0 0.0026498290315440385 -0.0032655678898919917 0 0.0025823325370391646 -0.0025356054454861074 0 0.0021404257833094712 -0.0030283232560132929 0 0.0040723527825091048 -0.0032384136574557898 0 0.0033126596989201456 -0.0040310169022825647 0 0.0033197775093129619 -0.0032666425439310479 0 0.0040723527825091048 -0.0032384136574557898 0 0.0033197775093129619 -0.0032666425439310479 0 0.0033955590161399199 -0.0024543656551649236 0 0.0041924729239152586 -0.0016466140183763007 0 0.0040723527825091048 -0.0032384136574557898 0 0.0033955590161399199 -0.0024543656551649236 0 0.0033955590161399199 -0.0024543656551649236 0 0.0025823325370391646 -0.0025356054454861074 0 0.0027088700383820917 -0.0014449196319446605 0 0.0033197775093129619 -0.0032666425439310479 0 0.0033955590161399199 -0.0024543656551649236 0 0.0025823325370391646 -0.0025356054454861074 0 0.0027088700383820917 -0.0014449196319446605 0 0.0019679823323386449 -0.0015604507342708717 0 0.0021272582320011114 -0.00052939951365260445 0 0.0025823325370391646 -0.0025356054454861074 0 0.0027088700383820917 -0.0014449196319446605 0 0.0019679823323386449 -0.0015604507342708717 0 0.004537201807425219 -0.0016859932704261977 0 0.0027088700383820917 -0.0014449196319446605 0 0.0034815151276740334 -0.0004302008397534154 0 0.0064210698913847184 -0.00075921437875881893 0 0.0043898887368008779 -0.00078548678125104677 0 0.0041924729239152586 -0.0016466140183763007 0 0.0033955590161399199 -0.0024543656551649236 0 0.0027088700383820917 -0.0014449196319446605 0 0.00054199993015552068 -0.0014971502178390997 0 -0.00032815825396868804 -0.0018111482921234364 0 0.0006791934904761029 -0.00056239927698596877 0 0.00054199993015552068 -0.0014971502178390997 0 0.0012840163083896895 -0.0026263802010985785 0 -0.00032815825396868804 -0.0018111482921234364 0 0.000616759744773579 -0.0018554657823170828 0 0.00073879083272221076 -0.0014937363890051281 0 0.0019679823323386449 -0.0015604507342708717 0 0.0015710710246833071 -0.0022441640418150053 0 0.0012744482279344331 -0.00085386136144147899 0 0.0015586188349631883 -0.0025110630031655984 0 0.0015013371583984215 -0.001838668779365977 0 0.00054199993015552068 -0.0014971502178390997 0 0.0012840163083896895 -0.0026263802010985785 0 0.0012744482279344331 -0.00085386136144147899 0 0.0025823325370391646 -0.0025356054454861074 0 0.0015710710246833071 -0.0022441640418150053 0 0.0021404257833094712 -0.0030283232560132929 0 0.0025823325370391646 -0.0025356054454861074 0 0.0019679823323386449 -0.0015604507342708717 0 0.0015710710246833071 -0.0022441640418150053 0 0.0012840163083896895 -0.0026263802010985785 0 -1.350784307551354e-05 -0.0036924095351657639 0 -0.00032815825396868804 -0.0018111482921234364 0 0.0012840163083896895 -0.0026263802010985785 0 -1.350784307551354e-05 -0.0036924095351657639 0 0.0013298846622256701 -0.0043523600599815263 0 0.002225647270710208 -0.0049336923877326177 0 0.0021335465897971383 -0.0046894827493527856 0 0.002413083710289885 -0.0045504731527031229 0 0.0014236832213056143 -0.0031740130501282278 0 0.0016903753249264048 -0.0035818518288828344 0 0.002225647270710208 -0.0049336923877326177 0 0.0019102314829273289 -0.0047326111674538271 0 0.0021335465897971383 -0.0046894827493527856 0 0.0015586188349631883 -0.0025110630031655984 0 0.0016903753249264048 -0.0035818518288828344 0 0.0015710710246833071 -0.0022441640418150053 0 0.0021404257833094712 -0.0030283232560132929 0 0.0017669958291961347 -0.0034433380315061343 0 0.0016903753249264048 -0.0035818518288828344 0 0.0017025159332660638 -0.0035848420008031999 0 0.0026498290315440385 -0.0032655678898919917 0 0.0021404257833094712 -0.0030283232560132929 0 0.0020800722894896775 -0.0035667808312614254 0 0.0021404257833094712 -0.0030283232560132929 0 0.0017669958291961347 -0.0034433380315061343 0 0.0020800722894896775 -0.0035667808312614254 0 0.0018553458658435355 -0.0034520869372100969 0 0.0021979189855079236 -0.0038657879658886719 0 0.0019467739059044018 -0.0041606006352294597 0 0.0019102314829273289 -0.0047326111674538271 0 0.0019972967584662125 -0.0045206380503824582 0 0.0020000597226026672 -0.0046059202131020121 0 0.0016903753249264048 -0.0035818518288828344 0 0.0017746071954308372 -0.0040944286454650675 0 0.0018553458658435355 -0.0034520869372100969 0 0.0020800722894896775 -0.0035667808312614254 0 0.0021979189855079236 -0.0038657879658886719 0 0.0025385829629136765 -0.0037226434592275504 0 0.0020800722894896775 -0.0035667808312614254 0 0.0021979189855079236 -0.0038657879658886719 0 0.0019972967584662125 -0.0045206380503824582 0 0.0020000597226026672 -0.0046059202131020121 0 0.0019704239212703497 -0.004515876145202255 0 0.0026160898866532532 -0.0041209814464957008 0 0.0021979189855079236 -0.0038657879658886719 0 0.0022787214810356974 -0.0041628770944493153 0 0.0021979189855079236 -0.0038657879658886719 0 0.0019467739059044018 -0.0041606006352294597 0 0.0022787214810356974 -0.0041628770944493153 0 0.0021335465897971383 -0.0046894827493527856 0 0.0020803585846984954 -0.0045738696053359987 0 0.0022060419503943632 -0.0044951586453924738 0 0.0021335465897971383 -0.0046894827493527856 0 0.0022060419503943632 -0.0044951586453924738 0 0.002413083710289885 -0.0045504731527031229 0 0.0019102314829273289 -0.0047326111674538271 0 0.0021335465897971383 -0.0046894827493527856 0 0.0020000597226026672 -0.0046059202131020121 0 0.0021335465897971383 -0.0046894827493527856 0 0.0020000597226026672 -0.0046059202131020121 0 0.0020803585846984954 -0.0045738696053359987 0 0.0020803585846984954 -0.0045738696053359987 0 0.0019704239212703497 -0.004515876145202255 0 0.0022060419503943632 -0.0044951586453924738 0 0.0020000597226026672 -0.0046059202131020121 0 0.0020803585846984954 -0.0045738696053359987 0 0.0019704239212703497 -0.004515876145202255 0 0.0019704239212703497 -0.004515876145202255 0 0.0022060419503943632 -0.0044951586453924738 0 0.0024452513285050099 -0.0041064559899299949 0 0.0019704239212703497 -0.004515876145202255 0 0.0019079732803772686 -0.004743787835629917 0 0.0014831348201382764 -0.0048349995293038364 0 0.0019079732803772686 -0.004743787835629917 0 0.0019804341926304742 -0.0050739556846535923 0 0.0014831348201382764 -0.0048349995293038364 0 0.0048691494344915024 -0.005311063136386459 0 0.0089605259747200811 -0.0033335626258276089 0 0.018839230484052168 -0.0054015561809837645 0 0.019816159352743223 -0.0051456096346831183 0 0.020076976031380346 -0.00575254018115013 0 0.010329327707923167 -0.0045051519670348192 0 0.0089605259747200811 -0.0033335626258276089 0 0.019243711356816399 -0.0049649885558241871 0 0.018839230484052168 -0.0054015561809837645 0 0.019816159352743223 -0.0051456096346831183 0 0.0019804341926304742 -0.0050739556846535923 0 0.0020623717327710859 -0.0048560330724613174 0 0.0025978726452258001 -0.0050211677063917645 0 0.018839230484052168 -0.0054015561809837645 0 0.017564765925487783 -0.0050344562494780724 0 0.018561392985537176 -0.0048912433763799073 0 0.019243711356816399 -0.0049649885558241871 0 0.018839230484052168 -0.0054015561809837645 0 0.018561392985537176 -0.0048912433763799073 0 0.0019972967584662125 -0.0045206380503824582 0 0.0019079732803772686 -0.004743787835629917 0 0.0020623717327710859 -0.0048560330724613174 0 0.0020623717327710859 -0.0048560330724613174 0 0.0023618610327192087 -0.0045023760173593507 0 0.0025978726452258001 -0.0050211677063917645 0 0.0019467739059044018 -0.0041606006352294597 0 0.0020623717327710859 -0.0048560330724613174 0 0.0023618610327192087 -0.0045023760173593507 0 0.0017746071954308372 -0.0040944286454650675 0 0.0018056042082912915 -0.0042960941213269054 0 0.0019079732803772686 -0.004743787835629917 0 0.0019804341926304742 -0.0050739556846535923 0 0.0020623717327710859 -0.0048560330724613174 0 0.0019972967584662125 -0.0045206380503824582 0 0.0019704239212703497 -0.004515876145202255 0 0.0019079732803772686 -0.004743787835629917 0 0.0019467739059044018 -0.0041606006352294597 0 0.0022787214810356974 -0.0041628770944493153 0 0.0023618610327192087 -0.0045023760173593507 0 0.003164502887487864 -0.0044928967263571833 0 0.0033941499758204973 -0.0049608840966804514 0 0.0025978726452258001 -0.0050211677063917645 0 0.0023618610327192087 -0.0045023760173593507 0 0.003164502887487864 -0.0044928967263571833 0 0.0025978726452258001 -0.0050211677063917645 0 0.0026160898866532532 -0.0041209814464957008 0 0.0023618610327192087 -0.0045023760173593507 0 0.003164502887487864 -0.0044928967263571833 0 0.0038131441767730576 -0.004480091256166171 0 0.0038111900767451327 -0.0045437765108091704 0 0.003164502887487864 -0.0044928967263571833 0 0.0038131441767730576 -0.004480091256166171 0 0.0032389076386426393 -0.0038872595703726984 0 0.003164502887487864 -0.0044928967263571833 0 0.0039227528918799083 -0.0050567229799373921 0 0.0038111900767451327 -0.0045437765108091704 0 0.0033941499758204973 -0.0049608840966804514 0 0.0038111900767451327 -0.0045437765108091704 0 0.003164502887487864 -0.0044928967263571833 0 0.0033941499758204973 -0.0049608840966804514 0 0.0038209656698061996 -0.0053461008141605509 0 0.0033941499758204973 -0.0049608840966804514 0 0.0029869687835583792 -0.0055317791389280779 0 0.0042297158725501114 -0.0059694145540490316 0 0.0038209656698061996 -0.0053461008141605509 0 0.0029869687835583792 -0.0055317791389280779 0 0.0038209656698061996 -0.0053461008141605509 0 0.0039227528918799083 -0.0050567229799373921 0 0.0033941499758204973 -0.0049608840966804514 0 0.010329327707923167 -0.0045051519670348192 0 0.010435430572532987 -0.0048081720722468295 0 0.0033941499758204973 -0.0049608840966804514 0 0.0029869687835583792 -0.0055317791389280779 0 0.0025978726452258001 -0.0050211677063917645 0 0.0019804341926304742 -0.0050739556846535923 0 0.0029869687835583792 -0.0055317791389280779 0 0.0025978726452258001 -0.0050211677063917645 0 0.017564765925487783 -0.0050344562494780724 0 0.018117335686946786 -0.0044368202522722519 0 0.018561392985537176 -0.0048912433763799073 0 0.017564765925487783 -0.0050344562494780724 0 0.018117335686946786 -0.0044368202522722519 0 0.017103473965107561 -0.004271843116749414 0 0.010549780654450136 -0.0047630856073530908 0 0.010435430572532987 -0.0048081720722468295 0 0.016282102162506192 -0.0046543027469169796 0 0.017564765925487783 -0.0050344562494780724 0 0.017103473965107561 -0.004271843116749414 0 0.017131862936338664 -0.0033982928482550975 0 0.01654439476291605 -0.0038283298259973566 0 0.017103473965107561 -0.004271843116749414 0 0.017131862936338664 -0.0033982928482550975 0 0.017103473965107561 -0.004271843116749414 0 0.017795689677884523 -0.0038186734993920892 0 0.018006249707770098 -0.0030451278567456726 0 0.017795689677884523 -0.0038186734993920892 0 0.018575549387204456 -0.003837291432056333 0 0.018117335686946786 -0.0044368202522722519 0 0.017103473965107561 -0.004271843116749414 0 0.017795689677884523 -0.0038186734993920892 0 0.018117335686946786 -0.0044368202522722519 0 0.017795689677884523 -0.0038186734993920892 0 0.018575549387204456 -0.003837291432056333 0 0.018575549387204456 -0.003837291432056333 0 0.019529044573572931 -0.0037240279255148926 0 0.018990015884849182 -0.0045157697890054332 0 0.018950519963457615 -0.0029030389520082757 0 0.018575549387204456 -0.003837291432056333 0 0.019529044573572931 -0.0037240279255148926 0 0.019529044573572931 -0.0037240279255148926 0 0.018990015884849182 -0.0045157697890054332 0 0.01969860027149023 -0.0046464606152549041 0 0.019243711356816399 -0.0049649885558241871 0 0.01969860027149023 -0.0046464606152549041 0 0.019816159352743223 -0.0051456096346831183 0 0.019243711356816399 -0.0049649885558241871 0 0.018990015884849182 -0.0045157697890054332 0 0.01969860027149023 -0.0046464606152549041 0 0.018117335686946786 -0.0044368202522722519 0 0.018990015884849182 -0.0045157697890054332 0 0.018561392985537176 -0.0048912433763799073 0 0.019243711356816399 -0.0049649885558241871 0 0.018990015884849182 -0.0045157697890054332 0 0.018561392985537176 -0.0048912433763799073 0 0.018117335686946786 -0.0044368202522722519 0 0.018575549387204456 -0.003837291432056333 0 0.018990015884849182 -0.0045157697890054332 0 0.020758935906120511 -0.0045939446228062154 0 0.020325787211272001 -0.0040248914709471086 0 0.021039085016350233 -0.0040829664997090219 0 0.020758935906120511 -0.0045939446228062154 0 0.020279593174382476 -0.0048697157222624791 0 0.020325787211272001 -0.0040248914709471086 0 0.020758935906120511 -0.0045939446228062154 0 0.021039085016350233 -0.0040829664997090219 0 0.021363139976860877 -0.0047346955992030185 0 0.020758935906120511 -0.0045939446228062154 0 0.021363139976860877 -0.0047346955992030185 0 0.020734966533014612 -0.0052402983544185579 0 0.020758935906120511 -0.0045939446228062154 0 0.020279593174382476 -0.0048697157222624791 0 0.020734966533014612 -0.0052402983544185579 0 0.01969860027149023 -0.0046464606152549041 0 0.020279593174382476 -0.0048697157222624791 0 0.020325787211272001 -0.0040248914709471086 0 0.01969860027149023 -0.0046464606152549041 0 0.020279593174382476 -0.0048697157222624791 0 0.019816159352743223 -0.0051456096346831183 0 0.019529044573572931 -0.0037240279255148926 0 0.01969860027149023 -0.0046464606152549041 0 0.020325787211272001 -0.0040248914709471086 0 0.020307100544329861 -0.0033138347075921839 0 0.019529044573572931 -0.0037240279255148926 0 0.020325787211272001 -0.0040248914709471086 0 0.021014839972622684 -0.0034013131224925417 0 0.020307100544329861 -0.0033138347075921839 0 0.020325787211272001 -0.0040248914709471086 0 0.018555841365922397 -0.002132411560306721 0 0.019665057743733644 -0.0023791064982125556 0 0.021712096750611025 -0.0033459745804373985 0 0.021014839972622684 -0.0034013131224925417 0 0.020325787211272001 -0.0040248914709471086 0 0.02147156736755506 -0.0034256202399882705 0 0.020325787211272001 -0.0040248914709471086 0 0.021039085016350233 -0.0040829664997090219 0 0.02147156736755506 -0.0034256202399882705 0 0.021039085016350233 -0.0040829664997090219 0 0.021363139976860877 -0.0047346955992030185 0 0.012801715807245886 0.00055915898205932712 0 0.012914548524629588 0.00045810908980441884 0 0.012786326589216541 0.00035027086798471461 0 0.018555841365922397 -0.002132411560306721 0 0.014101148461968182 -0.001079511255868696 0 0.012801715807245886 0.00055915898205932712 0 0.012914548524629588 0.00045810908980441884 0 0.013327919745347404 0.00043912541370948096 0 0.012914548524629588 0.00045810908980441884 0 0.011742241338370908 -0.00020299988014333063 0 0.012845198497862824 -0.00022170923651585885 0 0.012914548524629588 0.00045810908980441884 0 0.012845198497862824 -0.00022170923651585885 0 0.013273380438729684 5.9837100097277814e-05 0 0.013512645257663405 -0.00097747561536664892 0 0.014101148461968182 -0.001079511255868696 0 0.012914548524629588 0.00045810908980441884 0 0.011742241338370908 -0.00020299988014333063 0 0.010497066018272204 8.4533134991438517e-05 0 0.011742241338370908 -0.00020299988014333063 0 0.010497066018272204 8.4533134991438517e-05 0 0.010190300488064311 -0.0004802504171790966 0 0.014101148461968182 -0.001079511255868696 0 0.0140228162626139 -0.0010547576794610251 0 0.011742241338370908 -0.00020299988014333063 0 0.010190300488064311 -0.0004802504171790966 0 0.012008705000163497 -0.0012480101401554078 0 0.010190300488064311 -0.0004802504171790966 0 0.0099068360903005973 -0.00086085299121258809 0 0.012008705000163497 -0.0012480101401554078 0 0.0089889465538295407 -0.00060761378196200254 0 0.0091098942715570862 -0.00064237916138285467 0 0.0099068360903005973 -0.00086085299121258809 0 0.012008705000163497 -0.0012480101401554078 0 0.0088885744372996095 -0.0011031460884711264 0 0.010244589771355818 0.00016020157517698412 0 0.010190300488064311 -0.0004802504171790966 0 0.009064598486689451 -0.00091382128456562572 0 0.011742241338370908 -0.00020299988014333063 0 0.012845198497862824 -0.00022170923651585885 0 0.012008705000163497 -0.0012480101401554078 0 0.0038712548475447538 -0.0012363808197536632 0 0.0038523171530449418 -0.00042044664006667072 0 0.0038182244362118824 -0.00032578991598919296 0 0.0038712548475447538 -0.0012363808197536632 0 0.0038523171530449418 -0.00042044664006667072 0 0.0042496227215909673 -0.00034251658638509392 0 0.0038523171530449418 -0.00042044664006667072 0 0.0038182244362118824 -0.00032578991598919296 0 0.003531554197381534 -0.00010319285897546461 0 0.0038712548475447538 -0.0012363808197536632 0 0.0038182244362118824 -0.00032578991598919296 0 0.0045740607490726178 -0.0004612928907203624 0 0.0038712548475447538 -0.0012363808197536632 0 0.0045740607490726178 -0.0004612928907203624 0 0.0061707980470242412 -0.00056170291564533415 0 0.0038182244362118824 -0.00032578991598919296 0 0.0042677825316072551 -0.00010794901742499251 0 0.0036951847712422933 0.00030259385483810675 0 0.0038182244362118824 -0.00032578991598919296 0 0.0045740607490726178 -0.0004612928907203624 0 0.0042677825316072551 -0.00010794901742499251 0 0.0045740607490726178 -0.0004612928907203624 0 0.0042677825316072551 -0.00010794901742499251 0 0.0052216816164981578 0.00010202762217709843 0 0.0043743722069789276 0.00034910593124962591 0 0.0043838083258888917 0.0013423392423744154 0 0.0052216816164981578 0.00010202762217709843 0 0.0042677825316072551 -0.00010794901742499251 0 0.0043743722069789276 0.00034910593124962591 0 0.0036951847712422933 0.00030259385483810675 0 0.0042677825316072551 -0.00010794901742499251 0 0.0043743722069789276 0.00034910593124962591 0 0.0052216816164981578 0.00010202762217709843 0 0.0043743722069789276 0.00034910593124962591 0 0.0043838083258888917 0.0013423392423744154 0 0.0036951847712422933 0.00030259385483810675 0 0.0040453507941865504 -0.0023498708895643762 0 0.0040714987025933782 -0.0022979906643932112 0 0.0036951847712422933 0.00030259385483810675 0 0.0034130350372879271 0.00010449280244901007 0 0.0030665745862221874 0.00016473527467727723 0 0.0035966836131989164 0.00030714734104868264 0 0.0036951847712422933 0.00030259385483810675 0 0.0030665745862221874 0.00016473527467727723 0 0.0040453507941865504 -0.0023498708895643762 0 0.0040010472293432629 -0.0023122703676568424 0 0.0038182244362118824 -0.00032578991598919296 0 0.0036951847712422933 0.00030259385483810675 0 0.0034130350372879271 0.00010449280244901007 0 0.0038182244362118824 -0.00032578991598919296 0 0.0034130350372879271 0.00010449280244901007 0 0.003531554197381534 -0.00010319285897546461 0 0.0034130350372879271 0.00010449280244901007 0 0.0032493676034284495 4.74359804870787e-06 0 0.0030665745862221874 0.00016473527467727723 0 0.0034130350372879271 0.00010449280244901007 0 0.0032493676034284495 4.74359804870787e-06 0 0.003531554197381534 -0.00010319285897546461 0 0.0043838083258888917 0.0013423392423744154 0 0.0052216816164981578 0.00010202762217709843 0 0.0087510911035551409 -0.00042809408584363527 0 0.0061707980470242412 -0.00056170291564533415 0 0.0052216816164981578 0.00010202762217709843 0 0.0087510911035551409 -0.00042809408584363527 0 0.0032638315124409239 -0.0043450331971821967 0 0.0028519221837102274 -0.0042256323740283925 0 0.0029348068031142911 -0.004449802422185521 0 0.0040453507941865504 -0.0023498708895643762 0 0.0059274173163934548 -0.0026173673500123036 0 0.0038712548475447538 -0.0012363808197536632 0 0.0061707980470242412 -0.00056170291564533415 0 0.0088885744372996095 -0.0011031460884711264 0 0.0061707980470242412 -0.00056170291564533415 0 0.0087510911035551409 -0.00042809408584363527 0 0.0088885744372996095 -0.0011031460884711264 0 0.0045740607490726178 -0.0004612928907203624 0 0.0061707980470242412 -0.00056170291564533415 0 0.0052216816164981578 0.00010202762217709843 0 0.0028519221837102274 -0.0042256323740283925 0 0.0026033098003988985 -0.0043429299699457571 0 0.0024452513285050099 -0.0041064559899299949 0 0.0087510911035551409 -0.00042809408584363527 0 0.0088885744372996095 -0.0011031460884711264 0 0.0095223084483751948 -0.0010676235981996651 0 0.0059274173163934548 -0.0026173673500123036 0 0.0089605259747200811 -0.0033335626258276089 0 0.0028519221837102274 -0.0042256323740283925 0 0.0026033098003988985 -0.0043429299699457571 0 0.0027006111548347517 -0.0044902730444749961 0 0.0088885744372996095 -0.0011031460884711264 0 0.009064598486689451 -0.00091382128456562572 0 0.0095223084483751948 -0.0010676235981996651 0 0.0099068360903005973 -0.00086085299121258809 0 0.0088885744372996095 -0.0011031460884711264 0 0.009064598486689451 -0.00091382128456562572 0 0.014101148461968182 -0.001079511255868696 0 0.012439477750573686 -0.0019141472162028125 0 0.010190300488064311 -0.0004802504171790966 0 0.0099068360903005973 -0.00086085299121258809 0 0.009064598486689451 -0.00091382128456562572 0 0.020734966533014612 -0.0052402983544185579 0 0.019816159352743223 -0.0051456096346831183 0 0.020076976031380346 -0.00575254018115013 0 0.020279593174382476 -0.0048697157222624791 0 0.020734966533014612 -0.0052402983544185579 0 0.019816159352743223 -0.0051456096346831183 0 0.012439477750573686 -0.0019141472162028125 0 0.0089605259747200811 -0.0033335626258276089 0 0.0026033098003988985 -0.0043429299699457571 0 0.0024452513285050099 -0.0041064559899299949 0 0.002413083710289885 -0.0045504731527031229 0 0.0022060419503943632 -0.0044951586453924738 0 0.0024452513285050099 -0.0041064559899299949 0 0.002413083710289885 -0.0045504731527031229 0 0.0026033098003988985 -0.0043429299699457571 0 0.002413083710289885 -0.0045504731527031229 0 0.0027006111548347517 -0.0044902730444749961 0 0.002413083710289885 -0.0045504731527031229 0 0.0027006111548347517 -0.0044902730444749961 0 0.0025841017032686027 -0.0047796067823709498 0 0.0027006111548347517 -0.0044902730444749961 0 0.0025841017032686027 -0.0047796067823709498 0 0.0029227376103793819 -0.0047374110870490715 0 0.0028519221837102274 -0.0042256323740283925 0 0.0027006111548347517 -0.0044902730444749961 0 0.0029348068031142911 -0.004449802422185521 0 0.0027006111548347517 -0.0044902730444749961 0 0.0029227376103793819 -0.0047374110870490715 0 0.0029348068031142911 -0.004449802422185521 0 0.00099081233700443411 -0.0022349217264204828 0 0.0023355544827559339 -0.0025087997579339516 0 0.0025841017032686027 -0.0047796067823709498 0 0.002584689060272565 -0.0051154290502196907 0 0.0029227376103793819 -0.0047374110870490715 0 0.002225647270710208 -0.0049336923877326177 0 0.002413083710289885 -0.0045504731527031229 0 0.0025841017032686027 -0.0047796067823709498 0 0.002225647270710208 -0.0049336923877326177 0 0.0025841017032686027 -0.0047796067823709498 0 0.002584689060272565 -0.0051154290502196907 0 0.0014236832213056143 -0.0031740130501282278 0 0.00099081233700443411 -0.0022349217264204828 0 -1.350784307551354e-05 -0.0036924095351657639 0 -0.0013580937105248454 -0.0030268298782011233 0 -0.00032815825396868804 -0.0018111482921234364 0 0.00099081233700443411 -0.0022349217264204828 0 0.000616759744773579 -0.0018554657823170828 0 0.00099081233700443411 -0.0022349217264204828 0 0.00033914022055143078 -0.0015180646212010695 0 0.0013018851875254772 -0.00075741567605432287 0 0.001342728512745271 -0.00079222885651386284 0 0.0013944064253431788 -0.0006854129549353832 0 -0.00092119049569399053 -0.00097009418034053711 0 -0.00097736125194969586 -0.00079378824980303158 0 -0.0010705889892445536 -0.00094486279846299774 0 -0.00084329368121076353 -0.0012323828634174742 0 -0.00092119049569399053 -0.00097009418034053711 0 -0.00097736125194969586 -0.00079378824980303158 0 -0.00084329368121076353 -0.0012323828634174742 0 -0.00092119049569399053 -0.00097009418034053711 0 -0.00035552857617109817 -0.0011177146731660608 0 -0.00092119049569399053 -0.00097009418034053711 0 -0.00035552857617109817 -0.0011177146731660608 0 -0.00023954786218902181 -0.0006426337138467728 0 0.0002203330465101001 -0.0013480219683743883 0 0.00033914022055143078 -0.0015180646212010695 0 -4.6678008854839567e-05 -0.00077644770910139651 0 0.001342728512745271 -0.00079222885651386284 0 0.001324963252904038 -0.0008766291043200401 0 -4.6678008854839567e-05 -0.00077644770910139651 0 -0.00097736125194969586 -0.00079378824980303158 0 -0.0010705889892445536 -0.00094486279846299774 0 0.001342728512745271 -0.00079222885651386284 0 0.001324963252904038 -0.0008766291043200401 0 0.0013944064253431788 -0.0006854129549353832 0 -4.6678008854839567e-05 -0.00077644770910139651 0 0.001324963252904038 -0.0008766291043200401 0 0.0013815643027550264 -0.00077742483932091168 0 0.001324963252904038 -0.0008766291043200401 0 0.0019447901043713604 -0.00065272174994675388 0 0.0013815643027550264 -0.00077742483932091168 0 0.0019447901043713604 -0.00065272174994675388 0 0.0025803113293970227 -0.0004131325188813298 0 0.002187138034209171 -0.00058491134168751479 0 0.001324963252904038 -0.0008766291043200401 0 0.0019447901043713604 -0.00065272174994675388 0 0.0013944064253431788 -0.0006854129549353832 0 0.0019447901043713604 -0.00065272174994675388 0 0.0013944064253431788 -0.0006854129549353832 0 0.0021606262415261655 -0.00033687427081374738 0 0.0032638315124409239 -0.0043450331971821967 0 0.0029227376103793819 -0.0047374110870490715 0 0.0029348068031142911 -0.004449802422185521 0 0.0024188502096615925 0.00029371878833213443 0 0.0013944064253431788 -0.0006854129549353832 0 0.0021606262415261655 -0.00033687427081374738 0 0.0040453507941865504 -0.0023498708895643762 0 0.0023355544827559339 -0.0025087997579339516 0 0.0026726158530001177 -0.00024203206902887183 0 0.0031193038449304775 -0.00018987125432900272 0 0.0025803113293970227 -0.0004131325188813298 0 0.0019447901043713604 -0.00065272174994675388 0 0.0026726158530001177 -0.00024203206902887183 0 0.0025803113293970227 -0.0004131325188813298 0 0.0019447901043713604 -0.00065272174994675388 0 0.0026726158530001177 -0.00024203206902887183 0 0.0021606262415261655 -0.00033687427081374738 0 0.0026726158530001177 -0.00024203206902887183 0 0.0021606262415261655 -0.00033687427081374738 0 0.0030665745862221874 0.00016473527467727723 0 0.0024188502096615925 0.00029371878833213443 0 0.0021606262415261655 -0.00033687427081374738 0 0.0030665745862221874 0.00016473527467727723 0 0.0032493676034284495 4.74359804870787e-06 0 0.0026726158530001177 -0.00024203206902887183 0 0.0030665745862221874 0.00016473527467727723 0 0.0032493676034284495 4.74359804870787e-06 0 0.0026726158530001177 -0.00024203206902887183 0 0.0031193038449304775 -0.00018987125432900272 0 0.0032493676034284495 4.74359804870787e-06 0 0.0031193038449304775 -0.00018987125432900272 0 0.0034951234593036998 -0.00011694418759398628 0 0.0031193038449304775 -0.00018987125432900272 0 0.0035918961580319406 -0.00017079960446702707 0 0.0034951234593036998 -0.00011694418759398628 0 0.0031193038449304775 -0.00018987125432900272 0 0.0035918961580319406 -0.00017079960446702707 0 0.0029445211321497745 -0.00037202602243889511 0 0.0031193038449304775 -0.00018987125432900272 0 0.0029445211321497745 -0.00037202602243889511 0 0.0025803113293970227 -0.0004131325188813298 0 0.0035918961580319406 -0.00017079960446702707 0 0.0035024246389262718 -0.00036033690470495651 0 0.0043598418310869021 -0.00015259591362750094 0 0.0035918961580319406 -0.00017079960446702707 0 0.0029445211321497745 -0.00037202602243889511 0 0.0035024246389262718 -0.00036033690470495651 0 0.0035024246389262718 -0.00036033690470495651 0 0.0024166375826751682 -0.0006032297828816105 0 0.0042253673728183663 -0.00043318355872282811 0 0.0029445211321497745 -0.00037202602243889511 0 0.0035024246389262718 -0.00036033690470495651 0 0.0024166375826751682 -0.0006032297828816105 0 0.0024166375826751682 -0.0006032297828816105 0 0.002187138034209171 -0.00058491134168751479 0 0.0013815643027550264 -0.00077742483932091168 0 0.0029445211321497745 -0.00037202602243889511 0 0.0025803113293970227 -0.0004131325188813298 0 0.002187138034209171 -0.00058491134168751479 0 0.0029445211321497745 -0.00037202602243889511 0 0.0024166375826751682 -0.0006032297828816105 0 0.002187138034209171 -0.00058491134168751479 0 0.0019447901043713604 -0.00065272174994675388 0 0.002187138034209171 -0.00058491134168751479 0 0.0013815643027550264 -0.00077742483932091168 0 0.0024166375826751682 -0.0006032297828816105 0 0.0013815643027550264 -0.00077742483932091168 0 0.00099671096430727774 -0.00073111117951114412 0 -4.6678008854839567e-05 -0.00077644770910139651 0 0.0013815643027550264 -0.00077742483932091168 0 0.00099671096430727774 -0.00073111117951114412 0 0.0024166375826751682 -0.0006032297828816105 0 0.00099671096430727774 -0.00073111117951114412 0 0.002080972576136899 -0.00044193888705237671 0 0.00099671096430727774 -0.00073111117951114412 0 0.00030249773316907015 -0.0007400491391051702 0 -0.00064688161880117889 -0.00087594765033780907 0 0.00099671096430727774 -0.00073111117951114412 0 0.00030249773316907015 -0.0007400491391051702 0 0.002080972576136899 -0.00044193888705237671 0 -4.6678008854839567e-05 -0.00077644770910139651 0 0.00099671096430727774 -0.00073111117951114412 0 -0.00064688161880117889 -0.00087594765033780907 0 0.00030249773316907015 -0.0007400491391051702 0 0.002080972576136899 -0.00044193888705237671 0 -0.0011434688274262451 -0.00062728338011193462 0 0.002080972576136899 -0.00044193888705237671 0 0.0027847974955098869 -8.4330878016023218e-07 0 -0.0011434688274262451 -0.00062728338011193462 0 0.0027847974955098869 -8.4330878016023218e-07 0 -0.0011434688274262451 -0.00062728338011193462 0 -0.0011183651853886442 -8.2008874324672315e-07 0 0.002080972576136899 -0.00044193888705237671 0 0.0027847974955098869 -8.4330878016023218e-07 0 0.0042253673728183663 -0.00043318355872282811 0 0.0027847974955098869 -8.4330878016023218e-07 0 0.0042253673728183663 -0.00043318355872282811 0 0.0066894646088746694 -2.174062882681764e-06 0 0.0024166375826751682 -0.0006032297828816105 0 0.002080972576136899 -0.00044193888705237671 0 0.0042253673728183663 -0.00043318355872282811 0 0.0042253673728183663 -0.00043318355872282811 0 0.0062432268171849128 -0.00020821650112657985 0 0.0043598418310869021 -0.00015259591362750094 0 0.0035024246389262718 -0.00036033690470495651 0 0.0042253673728183663 -0.00043318355872282811 0 0.0043598418310869021 -0.00015259591362750094 0 0.0042253673728183663 -0.00043318355872282811 0 0.0066894646088746694 -2.174062882681764e-06 0 0.0062432268171849128 -0.00020821650112657985 0 0.0066894646088746694 -2.174062882681764e-06 0 0.010586526168662496 4.5261047368498442e-06 0 0.0062432268171849128 -0.00020821650112657985 0 0.010586526168662496 4.5261047368498442e-06 0 0.0054305389965008171 0.0012050046157237176 0 0.0062432268171849128 -0.00020821650112657985 0 0.010599988416689562 -1.4652899792004405e-07 0 0.012765129526310443 -0.0011480474575405622 0 0.013242446034913783 -0.00019765871990441795 0 0.010592072950502738 -1.1397764734355108e-07 0 0.0089663856244553367 8.0001234036431885e-05 0 0.0054305389965008171 0.0012050046157237176 0 0.004963854781790557 0.00035934210835481694 0 0.0062432268171849128 -0.00020821650112657985 0 0.004963854781790557 0.00035934210835481694 0 0.0062432268171849128 -0.00020821650112657985 0 0.0043598418310869021 -0.00015259591362750094 0 0.0043598418310869021 -0.00015259591362750094 0 0.0045717319438301112 8.5676240331305662e-05 0 0.0040902384945677595 -8.3262088135167326e-05 0 0.0035918961580319406 -0.00017079960446702707 0 0.0043598418310869021 -0.00015259591362750094 0 0.0040902384945677595 -8.3262088135167326e-05 0 0.0045717319438301112 8.5676240331305662e-05 0 0.0040902384945677595 -8.3262088135167326e-05 0 0.0045405942751169008 -0.00016093481192770885 0 0.004963854781790557 0.00035934210835481694 0 0.0043598418310869021 -0.00015259591362750094 0 0.0045717319438301112 8.5676240331305662e-05 0 0.004963854781790557 0.00035934210835481694 0 0.0045717319438301112 8.5676240331305662e-05 0 0.0050157640731425665 0.00020267574890121663 0 0.003531554197381534 -0.00010319285897546461 0 0.0034951234593036998 -0.00011694418759398628 0 0.0038934829318986236 -0.00018570603732205517 0 0.0032493676034284495 4.74359804870787e-06 0 0.003531554197381534 -0.00010319285897546461 0 0.0034951234593036998 -0.00011694418759398628 0 0.0035918961580319406 -0.00017079960446702707 0 0.0034951234593036998 -0.00011694418759398628 0 0.0038934829318986236 -0.00018570603732205517 0 0.0035918961580319406 -0.00017079960446702707 0 0.0040902384945677595 -8.3262088135167326e-05 0 0.0038934829318986236 -0.00018570603732205517 0 0.0040902384945677595 -8.3262088135167326e-05 0 0.0038934829318986236 -0.00018570603732205517 0 0.0045405942751169008 -0.00016093481192770885 0 0.0038934829318986236 -0.00018570603732205517 0 0.0041273998035306972 -0.00028917923832175966 0 0.0045405942751169008 -0.00016093481192770885 0 0.0038523171530449418 -0.00042044664006667072 0 0.003531554197381534 -0.00010319285897546461 0 0.0038934829318986236 -0.00018570603732205517 0 0.0038523171530449418 -0.00042044664006667072 0 0.0038934829318986236 -0.00018570603732205517 0 0.0041273998035306972 -0.00028917923832175966 0 0.012845198497862824 -0.00022170923651585885 0 0.012008705000163497 -0.0012480101401554078 0 0.01387164517021834 -0.00014872090619647788 0 0.0089889465538295407 -0.00060761378196200254 0 0.0095434717957457831 -0.00024792798703590228 0 0.0038712548475447538 -0.0012363808197536632 0 0.0042496227215909673 -0.00034251658638509392 0 0.0047754066870025281 0.00078880168748533472 0 0.0042496227215909673 -0.00034251658638509392 0 0.0041273998035306972 -0.00028917923832175966 0 0.0045405942751169008 -0.00016093481192770885 0 0.0038523171530449418 -0.00042044664006667072 0 0.0042496227215909673 -0.00034251658638509392 0 0.0041273998035306972 -0.00028917923832175966 0 0.0042496227215909673 -0.00034251658638509392 0 0.0045405942751169008 -0.00016093481192770885 0 0.0047185787865432292 -0.00011224264403703543 0 0.0045405942751169008 -0.00016093481192770885 0 0.0049391119159617452 -0.00016599538485779532 0 0.0047185787865432292 -0.00011224264403703543 0 0.0042496227215909673 -0.00034251658638509392 0 0.0047185787865432292 -0.00011224264403703543 0 0.0047754066870025281 0.00078880168748533472 0 0.0049391119159617452 -0.00016599538485779532 0 0.0047185787865432292 -0.00011224264403703543 0 0.0054396788865129775 -0.00037055906784859687 0 0.0047185787865432292 -0.00011224264403703543 0 0.0054396788865129775 -0.00037055906784859687 0 0.0047754066870025281 0.00078880168748533472 0 0.0054305389965008171 0.0012050046157237176 0 0.004963854781790557 0.00035934210835481694 0 0.0050157640731425665 0.00020267574890121663 0 0.0089663856244553367 8.0001234036431885e-05 0 0.007861804340829932 0.00014185836487742756 0 0.012765129526310443 -0.0011480474575405622 0 0.0054396788865129775 -0.00037055906784859687 0 0.0093031737706880651 -4.4288337421115483e-05 0 0.0054305389965008171 0.0012050046157237176 0 0.0050157640731425665 0.00020267574890121663 0 0.0054396788865129775 -0.00037055906784859687 0 0.0045405942751169008 -0.00016093481192770885 0 0.0049391119159617452 -0.00016599538485779532 0 0.0050157640731425665 0.00020267574890121663 0 0.0045717319438301112 8.5676240331305662e-05 0 0.0045405942751169008 -0.00016093481192770885 0 0.0050157640731425665 0.00020267574890121663 0 0.0054396788865129775 -0.00037055906784859687 0 0.0093031737706880651 -4.4288337421115483e-05 0 0.0047754066870025281 0.00078880168748533472 0 0.0049391119159617452 -0.00016599538485779532 0 0.0050157640731425665 0.00020267574890121663 0 0.0054396788865129775 -0.00037055906784859687 0 0.0093031737706880651 -4.4288337421115483e-05 0 0.0047754066870025281 0.00078880168748533472 0 0.013125672367546058 0.00064671696621110004 0 0.0095434717957457831 -0.00024792798703590228 0 0.010366527539067055 5.2723398498423933e-05 0 0.013837576037131464 0.00012392737782271221 0 0.01387164517021834 -0.00014872090619647788 0 0.013125672367546058 0.00064671696621110004 0 0.012914548524629588 0.00045810908980441884 0 0.013562021027176767 0.00017118140624612719 0 0.013273380438729684 5.9837100097277814e-05 0 0.012845198497862824 -0.00022170923651585885 0 0.01387164517021834 -0.00014872090619647788 0 0.013273380438729684 5.9837100097277814e-05 0 0.013837576037131464 0.00012392737782271221 0 0.01387164517021834 -0.00014872090619647788 0 0.013562021027176767 0.00017118140624612719 0 0.01387164517021834 -0.00014872090619647788 0 0.013562021027176767 0.00017118140624612719 0 0.013273380438729684 5.9837100097277814e-05 0 0.012914548524629588 0.00045810908980441884 0 0.013562021027176767 0.00017118140624612719 0 0.013327919745347404 0.00043912541370948096 0 0.013562021027176767 0.00017118140624612719 0 0.013327919745347404 0.00043912541370948096 0 0.013916966044832809 0.00017338267940175545 0 0.013837576037131464 0.00012392737782271221 0 0.014108741064116205 3.0877330141553583e-05 0 0.013125672367546058 0.00064671696621110004 0 0.013837576037131464 0.00012392737782271221 0 0.013916966044832809 0.00017338267940175545 0 0.014108741064116205 3.0877330141553583e-05 0 0.013837576037131464 0.00012392737782271221 0 0.013562021027176767 0.00017118140624612719 0 0.013916966044832809 0.00017338267940175545 0 0.01450605650958158 0.00016771403251764251 0 0.013916966044832809 0.00017338267940175545 0 0.014108741064116205 3.0877330141553583e-05 0 0.015110729334783343 -3.6840796568127733e-06 0 0.014108741064116205 3.0877330141553583e-05 0 0.014417624731662849 -8.2960575652894915e-06 0 0.014108741064116205 3.0877330141553583e-05 0 0.014417624731662849 -8.2960575652894915e-06 0 0.013125672367546058 0.00064671696621110004 0 0.017944553457740525 -1.3957845457227436e-06 0 0.014267990817992737 -2.6812517604554933e-07 0 0.014417624731662849 -8.2960575652894915e-06 0 0.014267990817992737 -2.6812517604554933e-07 0 0.014417624731662849 -8.2960575652894915e-06 0 0.013242446034913783 -0.00019765871990441795 0 0.010599988416689562 -1.4652899792004405e-07 0 0.014267990817992737 -2.6812517604554933e-07 0 0.013242446034913783 -0.00019765871990441795 0 0.012765129526310443 -0.0011480474575405622 0 0.0093031737706880651 -4.4288337421115483e-05 0 0.013125672367546058 0.00064671696621110004 0 0.012765129526310443 -0.0011480474575405622 0 0.013242446034913783 -0.00019765871990441795 0 0.013125672367546058 0.00064671696621110004 0 0.014417624731662849 -8.2960575652894915e-06 0 0.013242446034913783 -0.00019765871990441795 0 0.013125672367546058 0.00064671696621110004 0 0.021309245008848447 -0.0031025101191484612 0 0.021258932897009631 -0.0039900139025775437 0 0.020685702334617605 -0.0030029352298851673 0 0.020840651879706427 -0.0037367201908898875 0 0.021495081203100917 -0.0041045505276514843 0 0.020903373715677274 -0.0029780453534020272 0 0.021231033294798946 -0.0038873308006734052 0 0.020784503940577462 -0.0030050380034414704 0 0.021309245008848447 -0.0031025101191484612 0 0.021623219115161338 -0.0035462089011700881 0 0.021258932897009631 -0.0039900139025775437 0 0.021309245008848447 -0.0031025101191484612 0 0.021840329894250231 -0.0030555415574277738 0 0.021623219115161338 -0.0035462089011700881 0 0.021623219115161338 -0.0035462089011700881 0 0.021830058205801924 -0.0041193910695155496 0 0.021258932897009631 -0.0039900139025775437 0 0.021623219115161338 -0.0035462089011700881 0 0.021830058205801924 -0.0041193910695155496 0 0.022537339863445673 -0.004154203175310925 0 0.021830058205801924 -0.0041193910695155496 0 0.021258932897009631 -0.0039900139025775437 0 0.021951221325970879 -0.0050433655595836808 0 0.021830058205801924 -0.0041193910695155496 0 0.022537339863445673 -0.004154203175310925 0 0.022210215518558771 -0.0044365479869276957 0 0.020840651879706427 -0.0037367201908898875 0 0.021483526902344521 -0.0043815123688957496 0 0.02009970003618361 -0.0039626879443592986 0 0.020840651879706427 -0.0037367201908898875 0 0.021483526902344521 -0.0043815123688957496 0 0.021495081203100917 -0.0041045505276514843 0 0.021483526902344521 -0.0043815123688957496 0 0.02009970003618361 -0.0039626879443592986 0 0.020081240491640888 -0.0050596936020953533 0 0.02009970003618361 -0.0039626879443592986 0 0.019236078542952804 -0.0033761894039186732 0 0.019041868564083412 -0.0041057093309092695 0 0.02009970003618361 -0.0039626879443592986 0 0.020081240491640888 -0.0050596936020953533 0 0.019041868564083412 -0.0041057093309092695 0 0.019236078542952804 -0.0033761894039186732 0 0.020234220985045348 -0.0032465205184008749 0 0.019630788177634011 -0.0028611574849813247 0 0.02009970003618361 -0.0039626879443592986 0 0.019236078542952804 -0.0033761894039186732 0 0.020234220985045348 -0.0032465205184008749 0 0.020840651879706427 -0.0037367201908898875 0 0.02009970003618361 -0.0039626879443592986 0 0.020234220985045348 -0.0032465205184008749 0 0.020840651879706427 -0.0037367201908898875 0 0.020234220985045348 -0.0032465205184008749 0 0.020903373715677274 -0.0029780453534020272 0 0.020234220985045348 -0.0032465205184008749 0 0.020311602032853714 -0.001935019680374744 0 0.020903373715677274 -0.0029780453534020272 0 0.020234220985045348 -0.0032465205184008749 0 0.019630788177634011 -0.0028611574849813247 0 0.020311602032853714 -0.001935019680374744 0 0.020339402058007456 -0.0021424618979136978 0 0.020784503940577462 -0.0030050380034414704 0 0.019630788177634011 -0.0028611574849813247 0 0.019612630939896281 -0.0022141145814107625 0 0.018504843610506638 -0.0029158780371824223 0 0.019630788177634011 -0.0028611574849813247 0 0.019612630939896281 -0.0022141145814107625 0 0.020311602032853714 -0.001935019680374744 0 0.019612630939896281 -0.0022141145814107625 0 0.019570972992015132 -0.001621864865030993 0 0.019180732073264924 -0.0017539801256648332 0 0.019612630939896281 -0.0022141145814107625 0 0.019570972992015132 -0.001621864865030993 0 0.020311602032853714 -0.001935019680374744 0 0.020120077662458026 -0.0020309464285649271 0 0.02065255179077571 -0.0017280535368097596 0 0.020949703956274809 -0.0023394426847356282 0 0.02065255179077571 -0.0017280535368097596 0 0.020949703956274809 -0.0023394426847356282 0 0.02118487861212455 -0.0017110313329199143 0 0.021309245008848447 -0.0031025101191484612 0 0.020949703956274809 -0.0023394426847356282 0 0.020685702334617605 -0.0030029352298851673 0 0.020120077662458026 -0.0020309464285649271 0 0.020949703956274809 -0.0023394426847356282 0 0.020685702334617605 -0.0030029352298851673 0 0.021309245008848447 -0.0031025101191484612 0 0.020949703956274809 -0.0023394426847356282 0 0.021497316308180536 -0.0026331941180034908 0 0.021840329894250231 -0.0030555415574277738 0 0.021497316308180536 -0.0026331941180034908 0 0.022041780738250385 -0.0026100705297390915 0 0.021309245008848447 -0.0031025101191484612 0 0.021840329894250231 -0.0030555415574277738 0 0.021497316308180536 -0.0026331941180034908 0 0.020949703956274809 -0.0023394426847356282 0 0.021497316308180536 -0.0026331941180034908 0 0.021554545529677706 -0.0021398510973370242 0 0.021497316308180536 -0.0026331941180034908 0 0.021554545529677706 -0.0021398510973370242 0 0.022041780738250385 -0.0026100705297390915 0 0.020949703956274809 -0.0023394426847356282 0 0.021554545529677706 -0.0021398510973370242 0 0.02118487861212455 -0.0017110313329199143 0 0.021554545529677706 -0.0021398510973370242 0 0.02118487861212455 -0.0017110313329199143 0 0.021720190061135923 -0.0015927510974820481 0 0.021554545529677706 -0.0021398510973370242 0 0.021720190061135923 -0.0015927510974820481 0 0.02210898182248297 -0.0019203218509488689 0 0.02210898182248297 -0.0019203218509488689 0 0.022087914097656019 -0.0013236272433100611 0 0.022434515564675704 -0.0015383956806330327 0 0.021720190061135923 -0.0015927510974820481 0 0.02210898182248297 -0.0019203218509488689 0 0.022087914097656019 -0.0013236272433100611 0 0.021554545529677706 -0.0021398510973370242 0 0.02210898182248297 -0.0019203218509488689 0 0.022041780738250385 -0.0026100705297390915 0 0.02210898182248297 -0.0019203218509488689 0 0.022765075288694103 -0.001843933305802261 0 0.022569709219016423 -0.0024289634393901225 0 0.02210898182248297 -0.0019203218509488689 0 0.022765075288694103 -0.001843933305802261 0 0.022434515564675704 -0.0015383956806330327 0 0.022765075288694103 -0.001843933305802261 0 0.02314326057349889 -0.0023437164117899294 0 0.023506876067235425 -0.0014642046080218744 0 0.022765075288694103 -0.001843933305802261 0 0.023506876067235425 -0.0014642046080218744 0 0.022857527380925093 -0.0013476073841086457 0 0.022765075288694103 -0.001843933305802261 0 0.022857527380925093 -0.0013476073841086457 0 0.022434515564675704 -0.0015383956806330327 0 0.022765075288694103 -0.001843933305802261 0 0.02314326057349889 -0.0023437164117899294 0 0.022569709219016423 -0.0024289634393901225 0 0.02314326057349889 -0.0023437164117899294 0 0.023643304311739839 -0.0027960474968846093 0 0.022674685961176229 -0.0033509057940392479 0 0.02314326057349889 -0.0023437164117899294 0 0.022569709219016423 -0.0024289634393901225 0 0.022674685961176229 -0.0033509057940392479 0 0.021840329894250231 -0.0030555415574277738 0 0.022041780738250385 -0.0026100705297390915 0 0.022674685961176229 -0.0033509057940392479 0 0.022041780738250385 -0.0026100705297390915 0 0.022569709219016423 -0.0024289634393901225 0 0.022674685961176229 -0.0033509057940392479 0 0.02210898182248297 -0.0019203218509488689 0 0.022041780738250385 -0.0026100705297390915 0 0.022569709219016423 -0.0024289634393901225 0 0.024982258833285188 -0.0013418437020826892 0 0.024057445904085633 -0.0017686918274908976 0 0.023506876067235425 -0.0014642046080218744 0 0.024982258833285188 -0.0013418437020826892 0 0.024566893122816826 -0.0018340833829273082 0 0.024057445904085633 -0.0017686918274908976 0 0.024973276161178809 -0.002080946271828742 0 0.024566893122816826 -0.0018340833829273082 0 0.024262964137398587 -0.002145198730409823 0 0.024982258833285188 -0.0013418437020826892 0 0.024973276161178809 -0.002080946271828742 0 0.024566893122816826 -0.0018340833829273082 0 0.024566893122816826 -0.0018340833829273082 0 0.024262964137398587 -0.002145198730409823 0 0.024057445904085633 -0.0017686918274908976 0 0.02314326057349889 -0.0023437164117899294 0 0.02371633519409205 -0.0022108461275808233 0 0.023506876067235425 -0.0014642046080218744 0 0.024262964137398587 -0.002145198730409823 0 0.02371633519409205 -0.0022108461275808233 0 0.024057445904085633 -0.0017686918274908976 0 0.02371633519409205 -0.0022108461275808233 0 0.024057445904085633 -0.0017686918274908976 0 0.023506876067235425 -0.0014642046080218744 0 0.02314326057349889 -0.0023437164117899294 0 0.02371633519409205 -0.0022108461275808233 0 0.023643304311739839 -0.0027960474968846093 0 0.023643304311739839 -0.0027960474968846093 0 0.023996165521244853 -0.0028335495055347485 0 0.024054750924384853 -0.0025623386519273788 0 0.023643304311739839 -0.0027960474968846093 0 0.023975886598588889 -0.003156607204573861 0 0.023990951177751376 -0.0030827950828487185 0 0.023643304311739839 -0.0027960474968846093 0 0.023996165521244853 -0.0028335495055347485 0 0.023990951177751376 -0.0030827950828487185 0 0.024109860652468236 -0.0029602796952284773 0 0.023996165521244853 -0.0028335495055347485 0 0.023990951177751376 -0.0030827950828487185 0 0.024262964137398587 -0.002145198730409823 0 0.02371633519409205 -0.0022108461275808233 0 0.024054750924384853 -0.0025623386519273788 0 0.02371633519409205 -0.0022108461275808233 0 0.023643304311739839 -0.0027960474968846093 0 0.024054750924384853 -0.0025623386519273788 0 0.025242522434383591 -0.002985627155304454 0 0.024973276161178809 -0.002080946271828742 0 0.024550768584197222 -0.0025316382406978702 0 0.025361258652921152 -0.0030987160010828227 0 0.024356295765543882 -0.003326651042276797 0 0.025242522434383591 -0.002985627155304454 0 0.024317608323305765 -0.0028373470715794126 0 0.023974759713841318 -0.0031695472901222695 0 0.025242522434383591 -0.002985627155304454 0 0.024317608323305765 -0.0028373470715794126 0 0.024550768584197222 -0.0025316382406978702 0 0.024262964137398587 -0.002145198730409823 0 0.024054750924384853 -0.0025623386519273788 0 0.024550768584197222 -0.0025316382406978702 0 0.024054750924384853 -0.0025623386519273788 0 0.024317608323305765 -0.0028373470715794126 0 0.024550768584197222 -0.0025316382406978702 0 0.023996165521244853 -0.0028335495055347485 0 0.024054750924384853 -0.0025623386519273788 0 0.024317608323305765 -0.0028373470715794126 0 0.024109860652468236 -0.0029602796952284773 0 0.024317608323305765 -0.0028373470715794126 0 0.023974759713841318 -0.0031695472901222695 0 0.024109860652468236 -0.0029602796952284773 0 0.023996165521244853 -0.0028335495055347485 0 0.024317608323305765 -0.0028373470715794126 0 0.024973276161178809 -0.002080946271828742 0 0.024262964137398587 -0.002145198730409823 0 0.024550768584197222 -0.0025316382406978702 0 0.025651148170984246 -0.0031552835831232598 0 0.025242356898353822 -0.0037486298667467337 0 0.024950684666798995 -0.0034552370845340342 0 0.025242356898353822 -0.0037486298667467337 0 0.024950684666798995 -0.0034552370845340342 0 0.025051620899002047 -0.0037956645115076008 0 0.024390490069191618 -0.003009686016251195 0 0.02380504107026191 -0.0036069679384269494 0 0.024157811038321708 -0.0042462176555017432 0 0.024390490069191618 -0.003009686016251195 0 0.02380504107026191 -0.0036069679384269494 0 0.023100062253800704 -0.0032476970431979568 0 0.023643304311739839 -0.0027960474968846093 0 0.023975886598588889 -0.003156607204573861 0 0.022674685961176229 -0.0033509057940392479 0 0.024356295765543882 -0.003326651042276797 0 0.024392038735410456 -0.0041929154892223477 0 0.024109860652468236 -0.0029602796952284773 0 0.023974759713841318 -0.0031695472901222695 0 0.023990951177751376 -0.0030827950828487185 0 0.024356295765543882 -0.003326651042276797 0 0.024355993519314209 -0.0033259478183486012 0 0.024950684666798995 -0.0034552370845340342 0 0.024957710273039252 -0.0040299545093322436 0 0.025051620899002047 -0.0037956645115076008 0 0.02380504107026191 -0.0036069679384269494 0 0.024157811038321708 -0.0042462176555017432 0 0.023453201173296537 -0.0041235410925465465 0 0.024957710273039252 -0.0040299545093322436 0 0.025077677782958954 -0.003925822377361418 0 0.025186438193524136 -0.0040546114294734738 0 0.024957710273039252 -0.0040299545093322436 0 0.025051620899002047 -0.0037956645115076008 0 0.025077677782958954 -0.003925822377361418 0 0.025752417852824266 -0.0042882195137088569 0 0.025242356898353822 -0.0037486298667467337 0 0.025340690493673303 -0.005061763945245705 0 0.025910904500553895 -0.0043461285743392301 0 0.02618705455305257 -0.0048580326512514087 0 0.025242356898353822 -0.0037486298667467337 0 0.025186438193524136 -0.0040546114294734738 0 0.025424684994509658 -0.0041821436555362617 0 0.025242356898353822 -0.0037486298667467337 0 0.025077677782958954 -0.003925822377361418 0 0.025186438193524136 -0.0040546114294734738 0 0.025242356898353822 -0.0037486298667467337 0 0.025051620899002047 -0.0037956645115076008 0 0.025077677782958954 -0.003925822377361418 0 0.021623219115161338 -0.0035462089011700881 0 0.023100062253800704 -0.0032476970431979568 0 0.022537339863445673 -0.004154203175310925 0 0.021840329894250231 -0.0030555415574277738 0 0.021623219115161338 -0.0035462089011700881 0 0.022674685961176229 -0.0033509057940392479 0 0.022402971198184581 -0.0035206469449976432 0 0.023076078128571077 -0.0034297594809135747 0 0.024356295765543882 -0.003326651042276797 0 0.023076078128571077 -0.0034297594809135747 0 0.02380504107026191 -0.0036069679384269494 0 0.023100062253800704 -0.0032476970431979568 0 0.023453201173296537 -0.0041235410925465465 0 0.023453201173296537 -0.0041235410925465465 0 0.022537339863445673 -0.004154203175310925 0 0.023076234166761883 -0.0047516572263287182 0 0.023100062253800704 -0.0032476970431979568 0 0.023453201173296537 -0.0041235410925465465 0 0.022537339863445673 -0.004154203175310925 0 0.024157811038321708 -0.0042462176555017432 0 0.023453201173296537 -0.0041235410925465465 0 0.023586459897515538 -0.0047611550220147446 0 0.022469101905727058 -0.0048138700678619145 0 0.02268076580069835 -0.0053560678431234417 0 0.021951221325970879 -0.0050433655595836808 0 0.022537339863445673 -0.004154203175310925 0 0.022469101905727058 -0.0048138700678619145 0 0.022210215518558771 -0.0044365479869276957 0 0.022469101905727058 -0.0048138700678619145 0 0.023076234166761883 -0.0047516572263287182 0 0.02268076580069835 -0.0053560678431234417 0 0.022537339863445673 -0.004154203175310925 0 0.022469101905727058 -0.0048138700678619145 0 0.023076234166761883 -0.0047516572263287182 0 0.023453201173296537 -0.0041235410925465465 0 0.023076234166761883 -0.0047516572263287182 0 0.023586459897515538 -0.0047611550220147446 0 0.023076234166761883 -0.0047516572263287182 0 0.023586459897515538 -0.0047611550220147446 0 0.023313918648029154 -0.0052499110710537162 0 0.023313918648029154 -0.0052499110710537162 0 0.023927846893716666 -0.0054022404305318029 0 0.023227008549151044 -0.0058483323342535193 0 0.023586459897515538 -0.0047611550220147446 0 0.023313918648029154 -0.0052499110710537162 0 0.023927846893716666 -0.0054022404305318029 0 0.023313918648029154 -0.0052499110710537162 0 0.02268076580069835 -0.0053560678431234417 0 0.023227008549151044 -0.0058483323342535193 0 0.02268076580069835 -0.0053560678431234417 0 0.022567123622401229 -0.0060873057278277749 0 0.021990337861155323 -0.0057229658580273202 0 0.023076234166761883 -0.0047516572263287182 0 0.023313918648029154 -0.0052499110710537162 0 0.02268076580069835 -0.0053560678431234417 0 0.026181259405646386 -0.0051066287049614679 0 0.02533395866945384 -0.0046979791848981113 0 0.025938345055454205 -0.0043561668952298302 0 0.025186438193524136 -0.0040546114294734738 0 0.02533395866945384 -0.0046979791848981113 0 0.025938345055454205 -0.0043561668952298302 0 0.025879610131738038 -0.004664698279636237 0 0.02618705455305257 -0.0048580326512514087 0 0.024392038735410456 -0.0041929154892223477 0 0.024299282571257779 -0.0052802905053930625 0 0.024957710273039252 -0.0040299545093322436 0 0.025186438193524136 -0.0040546114294734738 0 0.02533395866945384 -0.0046979791848981113 0 0.024957710273039252 -0.0040299545093322436 0 0.02533395866945384 -0.0046979791848981113 0 0.024797580825081319 -0.0050656777396431108 0 0.024157811038321708 -0.0042462176555017432 0 0.023586459897515538 -0.0047611550220147446 0 0.023927846893716666 -0.0054022404305318029 0 0.02533395866945384 -0.0046979791848981113 0 0.024797580825081319 -0.0050656777396431108 0 0.025679555407126239 -0.0053541933887997972 0 0.026181259405646386 -0.0051066287049614679 0 0.02533395866945384 -0.0046979791848981113 0 0.025679555407126239 -0.0053541933887997972 0 0.026383591385074741 -0.0058410715180695332 0 0.025679555407126239 -0.0053541933887997972 0 0.025633457346167125 -0.0060249070431428933 0 0.02690617742267112 -0.0063041225179317944 0 0.026540741114764527 -0.0063052955508022448 0 0.024797580825081319 -0.0050656777396431108 0 0.025679555407126239 -0.0053541933887997972 0 0.025633457346167125 -0.0060249070431428933 0 0.024299282571257779 -0.0052802905053930625 0 0.024149829293873482 -0.0064896135444206292 0 0.024797580825081319 -0.0050656777396431108 0 0.025633457346167125 -0.0060249070431428933 0 0.024531674782614459 -0.0063255063584309436 0 0.025633457346167125 -0.0060249070431428933 0 0.025163490079985768 -0.0070812667271021304 0 0.024531674782614459 -0.0063255063584309436 0 0.024208231389630228 -0.0078557844446029753 0 0.025163490079985768 -0.0070812667271021304 0 0.024531674782614459 -0.0063255063584309436 0 0.025633457346167125 -0.0060249070431428933 0 0.025163490079985768 -0.0070812667271021304 0 0.026182764527450979 -0.0069481753848173516 0 0.026909270511224433 -0.0057266906792982552 0 0.025633457346167125 -0.0060249070431428933 0 0.026182764527450979 -0.0069481753848173516 0 0.02268076580069835 -0.0053560678431234417 0 0.022567123622401229 -0.0060873057278277749 0 0.023227008549151044 -0.0058483323342535193 0 0.022567123622401229 -0.0060873057278277749 0 0.023227008549151044 -0.0058483323342535193 0 0.023117089959105552 -0.0066182047929642298 0 0.023227008549151044 -0.0058483323342535193 0 0.023814432454604368 -0.0064692933401901392 0 0.023117089959105552 -0.0066182047929642298 0 0.023927846893716666 -0.0054022404305318029 0 0.023227008549151044 -0.0058483323342535193 0 0.023814432454604368 -0.0064692933401901392 0 0.023980796750159006 -0.0077443172054783684 0 0.024149829293873482 -0.0064896135444206292 0 0.023830268053368759 -0.0076887271108105433 0 0.023814432454604368 -0.0064692933401901392 0 0.023117089959105552 -0.0066182047929642298 0 0.022842170405521191 -0.0071576872934816576 0 0.023117089959105552 -0.0066182047929642298 0 0.02251199450208909 -0.0066469125333785788 0 0.022567123622401229 -0.0060873057278277749 0 0.023117089959105552 -0.0066182047929642298 0 0.02251199450208909 -0.0066469125333785788 0 0.022842170405521191 -0.0071576872934816576 0 0.02251199450208909 -0.0066469125333785788 0 0.022307873143768763 -0.0069759064437662742 0 0.022567123622401229 -0.0060873057278277749 0 0.02251199450208909 -0.0066469125333785788 0 0.021905972805467036 -0.0065305428666391973 0 0.02251199450208909 -0.0066469125333785788 0 0.022307873143768763 -0.0069759064437662742 0 0.021905972805467036 -0.0065305428666391973 0 0.021936519605401172 -0.0070169617855852682 0 0.021905972805467036 -0.0065305428666391973 0 0.021704773666032812 -0.0068966862142055343 0 0.021936519605401172 -0.0070169617855852682 0 0.022307873143768763 -0.0069759064437662742 0 0.021905972805467036 -0.0065305428666391973 0 0.021905972805467036 -0.0065305428666391973 0 0.021374429592511891 -0.0066866768596121713 0 0.02151977951058268 -0.0060852744036952863 0 0.021475106519897199 -0.0070213086411083873 0 0.021374429592511891 -0.0066866768596121713 0 0.021704773666032812 -0.0068966862142055343 0 0.021905972805467036 -0.0065305428666391973 0 0.021374429592511891 -0.0066866768596121713 0 0.021704773666032812 -0.0068966862142055343 0 0.022567123622401229 -0.0060873057278277749 0 0.021905972805467036 -0.0065305428666391973 0 0.021990337861155323 -0.0057229658580273202 0 0.021905972805467036 -0.0065305428666391973 0 0.02151977951058268 -0.0060852744036952863 0 0.021990337861155323 -0.0057229658580273202 0 0.02268076580069835 -0.0053560678431234417 0 0.021990337861155323 -0.0057229658580273202 0 0.021951221325970879 -0.0050433655595836808 0 0.021990337861155323 -0.0057229658580273202 0 0.02140711747344852 -0.0052188203715780902 0 0.021951221325970879 -0.0050433655595836808 0 0.02151977951058268 -0.0060852744036952863 0 0.021990337861155323 -0.0057229658580273202 0 0.02140711747344852 -0.0052188203715780902 0 0.02151977951058268 -0.0060852744036952863 0 0.02140711747344852 -0.0052188203715780902 0 0.020950312006344264 -0.0056682086911209375 0 0.021483526902344521 -0.0043815123688957496 0 0.02140711747344852 -0.0052188203715780902 0 0.021951221325970879 -0.0050433655595836808 0 0.021483526902344521 -0.0043815123688957496 0 0.02140711747344852 -0.0052188203715780902 0 0.020650343038849071 -0.0049622930682922881 0 0.021231033294798946 -0.0038873308006734052 0 0.021466951690441001 -0.0043638723529610089 0 0.021483526902344521 -0.0043815123688957496 0 0.021495081203100917 -0.0041045505276514843 0 0.021951221325970879 -0.0050433655595836808 0 0.021830058205801924 -0.0041193910695155496 0 0.022210215518558771 -0.0044365479869276957 0 0.021951221325970879 -0.0050433655595836808 0 0.022469101905727058 -0.0048138700678619145 0 0.022210215518558771 -0.0044365479869276957 0 0.021951221325970879 -0.0050433655595836808 0 0.020650343038849071 -0.0049622930682922881 0 0.020950312006344264 -0.0056682086911209375 0 0.019444461352771281 -0.0055167683408201282 0 0.020081240491640888 -0.0050596936020953533 0 0.019150255875545884 -0.0049191251325261436 0 0.019041868564083412 -0.0041057093309092695 0 0.020908828611787444 -0.0046728517033782536 0 0.020280874359223433 -0.0050183009381822427 0 0.02140711747344852 -0.0052188203715780902 0 0.020650343038849071 -0.0049622930682922881 0 0.020950312006344264 -0.0056682086911209375 0 0.020280874359223433 -0.0050183009381822427 0 0.019218145600640224 -0.005592552204694806 0 0.020081240491640888 -0.0050596936020953533 0 0.019150255875545884 -0.0049191251325261436 0 0.018907975333553383 -0.005644427885428677 0 0.020950312006344264 -0.0056682086911209375 0 0.020712829684565864 -0.006392019787713644 0 0.019444461352771281 -0.0055167683408201282 0 0.021374429592511891 -0.0066866768596121713 0 0.02151977951058268 -0.0060852744036952863 0 0.020712829684565864 -0.006392019787713644 0 0.02151977951058268 -0.0060852744036952863 0 0.020950312006344264 -0.0056682086911209375 0 0.020712829684565864 -0.006392019787713644 0 0.021000330925736443 -0.0070560901051643487 0 0.021374429592511891 -0.0066866768596121713 0 0.020712829684565864 -0.006392019787713644 0 0.021000330925736443 -0.0070560901051643487 0 0.020712829684565864 -0.006392019787713644 0 0.020517455232891859 -0.0068488674644452434 0 0.020712829684565864 -0.006392019787713644 0 0.020517455232891859 -0.0068488674644452434 0 0.020233019147727124 -0.0066647757463923433 0 0.020212677549880789 -0.0059329653620083566 0 0.020024976262042572 -0.0057405842295802133 0 0.020223104433784656 -0.0069311452469056657 0 0.020517455232891859 -0.0068488674644452434 0 0.020233019147727124 -0.0066647757463923433 0 0.020712829684565864 -0.006392019787713644 0 0.019197179196401657 -0.0068133020849453904 0 0.019444461352771281 -0.0055167683408201282 0 0.019197179196401657 -0.0068133020849453904 0 0.017880976025595633 -0.0062937183827237973 0 0.019444461352771281 -0.0055167683408201282 0 0.018541654613240026 -0.0059638556591236382 0 0.019218145600640224 -0.005592552204694806 0 0.020082512917666218 -0.0069078663055704157 0 0.020233019147727124 -0.0066647757463923433 0 0.01989142448688945 -0.0067796009135637101 0 0.019197179196401657 -0.0068133020849453904 0 0.017547893556297649 -0.0071416236688769267 0 0.017880976025595633 -0.0062937183827237973 0 0.020082512917666218 -0.0069078663055704157 0 0.020223104433784656 -0.0069311452469056657 0 0.020233019147727124 -0.0066647757463923433 0 0.020024976262042572 -0.0057405842295802133 0 0.022078380616090059 -0.0043664900255389015 0 0.019854655034499888 -0.0025319800177514592 0 0.020305565228843764 -0.0028088005377888874 0 0.019980231784087088 -0.0031355405335943176 0 0.019854655034499888 -0.0025319800177514592 0 0.020494855914412888 -0.0023863150828616563 0 0.020305565228843764 -0.0028088005377888874 0 0.022078380616090059 -0.0043664900255389015 0 0.023231501179631416 -0.0024644799056126815 0 0.020305565228843764 -0.0028088005377888874 0 0.0204499034837709 -0.0032439333491373398 0 0.019980231784087088 -0.0031355405335943176 0 0.017547893556297649 -0.0071416236688769267 0 0.017357991582610772 -0.0060332956967462806 0 0.017880976025595633 -0.0062937183827237973 0 0.017357991582610772 -0.0060332956967462806 0 0.017880976025595633 -0.0062937183827237973 0 0.017951521101620807 -0.0054437265371369463 0 0.022078380616090059 -0.0043664900255389015 0 0.019974930748201419 -0.0041036778207267314 0 0.017357991582610772 -0.0060332956967462806 0 0.017151243924459967 -0.005136000703397918 0 0.017951521101620807 -0.0054437265371369463 0 0.017151243924459967 -0.005136000703397918 0 0.017951521101620807 -0.0054437265371369463 0 0.017826046789775722 -0.0040627106397686874 0 0.019974930748201419 -0.0041036778207267314 0 0.018307915463987804 -0.0033165813280527992 0 0.0204499034837709 -0.0032439333491373398 0 0.019980231784087088 -0.0031355405335943176 0 0.020105200972554447 -0.0037399324897105985 0 0.018703014872436141 -0.0026292354222081701 0 0.018307915463987804 -0.0033165813280527992 0 0.014227361561212768 -0.00038675129811680084 0 0.013992756380986572 -0.00074043963426472317 0 0.014369197302626258 -0.00067811162658173649 0 0.018307915463987804 -0.0033165813280527992 0 0.015998145504596543 -0.0021732642969822555 0 0.013992756380986572 -0.00074043963426472317 0 0.014417543914726499 -0.0010194828543775884 0 0.014119549599710002 -0.0013209954217700912 0 0.013992756380986572 -0.00074043963426472317 0 0.014369197302626258 -0.00067811162658173649 0 0.014417543914726499 -0.0010194828543775884 0 0.018307915463987804 -0.0033165813280527992 0 0.018096512343356897 -0.0035176634929903619 0 0.018583640682797935 -0.0048448191750433177 0 0.017951521101620807 -0.0054437265371369463 0 0.017826046789775722 -0.0040627106397686874 0 0.019150255875545884 -0.0049191251325261436 0 0.018583640682797935 -0.0048448191750433177 0 0.019041868564083412 -0.0041057093309092695 0 0.019150255875545884 -0.0049191251325261436 0 0.018583640682797935 -0.0048448191750433177 0 0.018907975333553383 -0.005644427885428677 0 0.017880976025595633 -0.0062937183827237973 0 0.018907975333553383 -0.005644427885428677 0 0.017951521101620807 -0.0054437265371369463 0 0.018583640682797935 -0.0048448191750433177 0 0.018907975333553383 -0.005644427885428677 0 0.017951521101620807 -0.0054437265371369463 0 0.015351055603648793 8.5739443556070993e-06 0 0.015092200149219512 -0.00024460758784505555 0 0.015490216837462371 -0.00028278829087527327 0 0.015561346220133712 -7.9643242089230481e-05 0 0.015351055603648793 8.5739443556070993e-06 0 0.015490216837462371 -0.00028278829087527327 0 0.015602985579108842 0.00018700243113008595 0 0.015561346220133712 -7.9643242089230481e-05 0 0.015351055603648793 8.5739443556070993e-06 0 0.015602985579108842 0.00018700243113008595 0 0.015351055603648793 8.5739443556070993e-06 0 0.015436239154308026 0.00029374217930280036 0 0.01566267633875101 0.00051063238660686448 0 0.015602985579108842 0.00018700243113008595 0 0.015436239154308026 0.00029374217930280036 0 0.015292308378622338 0.00037717843818811978 0 0.015436239154308026 0.00029374217930280036 0 0.015263221689869115 0.00023056558523665012 0 0.015351055603648793 8.5739443556070993e-06 0 0.015436239154308026 0.00029374217930280036 0 0.015263221689869115 0.00023056558523665012 0 0.015351055603648793 8.5739443556070993e-06 0 0.015263221689869115 0.00023056558523665012 0 0.015086027780979847 0.0001255522654460766 0 0.015263221689869115 0.00023056558523665012 0 0.015149492791644611 0.00034291478747819207 0 0.015086027780979847 0.0001255522654460766 0 0.015292308378622338 0.00037717843818811978 0 0.015263221689869115 0.00023056558523665012 0 0.015149492791644611 0.00034291478747819207 0 0.015149492791644611 0.00034291478747819207 0 0.015001425997475819 0.00032140492154641108 0 0.015086027780979847 0.0001255522654460766 0 0.015001425997475819 0.00032140492154641108 0 0.015086027780979847 0.0001255522654460766 0 0.014824128436714488 0.00019167054689479381 0 0.015086027780979847 0.0001255522654460766 0 0.015092200149219512 -0.00024460758784505555 0 0.014850629695631869 -2.6820377124845062e-05 0 0.015351055603648793 8.5739443556070993e-06 0 0.015086027780979847 0.0001255522654460766 0 0.015092200149219512 -0.00024460758784505555 0 0.014859997617800241 -0.00044201678969596432 0 0.014513887061439417 -0.00020801655920859081 0 0.014607713369363392 -0.00058676311235543184 0 0.015092200149219512 -0.00024460758784505555 0 0.014850629695631869 -2.6820377124845062e-05 0 0.014513887061439417 -0.00020801655920859081 0 0.014962992434074528 -0.00030431002708277062 0 0.014741326770994561 -0.00024551422450593002 0 0.014850629695631869 -2.6820377124845062e-05 0 0.014662465225724501 -1.362333595435171e-05 0 0.014513887061439417 -0.00020801655920859081 0 0.021759236868956439 -0.0013606066856603895 0 0.019664754299683024 -0.0021400528029473301 0 0.015086027780979847 0.0001255522654460766 0 0.014850629695631869 -2.6820377124845062e-05 0 0.014824128436714488 0.00019167054689479381 0 0.014767311326348172 0.0004355690992695872 0 0.014824128436714488 0.00019167054689479381 0 0.014488083009904101 3.3999392267037704e-05 0 0.014897311041053378 0.00046069856019539024 0 0.015001425997475819 0.00032140492154641108 0 0.014824128436714488 0.00019167054689479381 0 0.014824128436714488 0.00019167054689479381 0 0.014662465225724501 -1.362333595435171e-05 0 0.014488083009904101 3.3999392267037704e-05 0 0.014850629695631869 -2.6820377124845062e-05 0 0.014824128436714488 0.00019167054689479381 0 0.014662465225724501 -1.362333595435171e-05 0 0.021140632102409997 -0.0022394024721785416 0 0.020494855914412888 -0.0023863150828616563 0 0.020795341192253288 -0.0027448302410140847 0 0.020494855914412888 -0.0023863150828616563 0 0.020305565228843764 -0.0028088005377888874 0 0.020795341192253288 -0.0027448302410140847 0 0.018703014872436141 -0.0026292354222081701 0 0.019664754299683024 -0.0021400528029473301 0 0.014227361561212768 -0.00038675129811680084 0 0.014488083009904101 3.3999392267037704e-05 0 0.014513887061439417 -0.00020801655920859081 0 0.020305565228843764 -0.0028088005377888874 0 0.0204499034837709 -0.0032439333491373398 0 0.020795341192253288 -0.0027448302410140847 0 0.014662465225724501 -1.362333595435171e-05 0 0.014488083009904101 3.3999392267037704e-05 0 0.014513887061439417 -0.00020801655920859081 0 0.014227361561212768 -0.00038675129811680084 0 0.014513887061439417 -0.00020801655920859081 0 0.014430574139794195 -0.00046908132601200043 0 0.014513887061439417 -0.00020801655920859081 0 0.014430574139794195 -0.00046908132601200043 0 0.014607713369363392 -0.00058676311235543184 0 0.014227361561212768 -0.00038675129811680084 0 0.014430574139794195 -0.00046908132601200043 0 0.014369197302626258 -0.00067811162658173649 0 0.014430574139794195 -0.00046908132601200043 0 0.014369197302626258 -0.00067811162658173649 0 0.014607713369363392 -0.00058676311235543184 0 0.014369197302626258 -0.00067811162658173649 0 0.01458493187717 -0.00082414600068919945 0 0.014607713369363392 -0.00058676311235543184 0 0.014369197302626258 -0.00067811162658173649 0 0.014417543914726499 -0.0010194828543775884 0 0.01458493187717 -0.00082414600068919945 0 0.014417543914726499 -0.0010194828543775884 0 0.01458493187717 -0.00082414600068919945 0 0.014672497306170837 -0.0010651184498942196 0 0.01458493187717 -0.00082414600068919945 0 0.014773204335133417 -0.00079587608419078536 0 0.014607713369363392 -0.00058676311235543184 0 0.01458493187717 -0.00082414600068919945 0 0.014773204335133417 -0.00079587608419078536 0 0.014672497306170837 -0.0010651184498942196 0 0.014773204335133417 -0.00079587608419078536 0 0.014756941186613049 -0.0010290957791096083 0 0.014672497306170837 -0.0010651184498942196 0 0.014859997617800241 -0.00044201678969596432 0 0.014773204335133417 -0.00079587608419078536 0 0.014607713369363392 -0.00058676311235543184 0 0.014859997617800241 -0.00044201678969596432 0 0.014773204335133417 -0.00079587608419078536 0 0.014957650595853571 -0.00065669254228718505 0 0.014773204335133417 -0.00079587608419078536 0 0.014908110330227084 -0.00091949631458796398 0 0.014756941186613049 -0.0010290957791096083 0 0.014773204335133417 -0.00079587608419078536 0 0.014957650595853571 -0.00065669254228718505 0 0.014908110330227084 -0.00091949631458796398 0 0.015257454691275535 -0.00074717262943075041 0 0.014957650595853571 -0.00065669254228718505 0 0.014908110330227084 -0.00091949631458796398 0 0.015257454691275535 -0.00074717262943075041 0 0.014957650595853571 -0.00065669254228718505 0 0.015139198246771311 -0.00047154211723621719 0 0.014962992434074528 -0.00030431002708277062 0 0.01530533333862283 -0.00038513540081213597 0 0.014859997617800241 -0.00044201678969596432 0 0.014957650595853571 -0.00065669254228718505 0 0.015139198246771311 -0.00047154211723621719 0 0.015258765768434709 -0.0012290363786417067 0 0.014908110330227084 -0.00091949631458796398 0 0.014754217048009576 -0.0013162646990607478 0 0.015258765768434709 -0.0012290363786417067 0 0.014917143077494399 -0.0015275387118998073 0 0.014754217048009576 -0.0013162646990607478 0 0.014801020535609534 -0.0011481697745585717 0 0.014771536107155914 -0.0012894924957374875 0 0.014908110330227084 -0.00091949631458796398 0 0.014756941186613049 -0.0010290957791096083 0 0.014850405662258087 -0.001269481627464161 0 0.014850405662258087 -0.001269481627464161 0 0.014693684873827603 -0.0012058849424258081 0 0.014651605471212614 -0.0014143704540402044 0 0.014756941186613049 -0.0010290957791096083 0 0.014850405662258087 -0.001269481627464161 0 0.014693684873827603 -0.0012058849424258081 0 0.014693684873827603 -0.0012058849424258081 0 0.014557501612649333 -0.0013100523368581305 0 0.014651605471212614 -0.0014143704540402044 0 0.014693684873827603 -0.0012058849424258081 0 0.014672497306170837 -0.0010651184498942196 0 0.014557501612649333 -0.0013100523368581305 0 0.014756941186613049 -0.0010290957791096083 0 0.014693684873827603 -0.0012058849424258081 0 0.014672497306170837 -0.0010651184498942196 0 0.014672497306170837 -0.0010651184498942196 0 0.014464451358003174 -0.0015541566888657786 0 0.014601936488271926 -0.002163890440503905 0 0.014417543914726499 -0.0010194828543775884 0 0.014672497306170837 -0.0010651184498942196 0 0.014464451358003174 -0.0015541566888657786 0 0.014417543914726499 -0.0010194828543775884 0 0.014464451358003174 -0.0015541566888657786 0 0.014063433889448664 -0.0015568436181984757 0 0.014464451358003174 -0.0015541566888657786 0 0.014459803306087581 -0.0019165871321497156 0 0.014063433889448664 -0.0015568436181984757 0 0.014642228846986525 -0.0014114518871522243 0 0.014610713424952612 -0.0015959644301981313 0 0.014464451358003174 -0.0015541566888657786 0 0.014459803306087581 -0.0019165871321497156 0 0.014601936488271926 -0.002163890440503905 0 0.014459803306087581 -0.0019165871321497156 0 0.014601936488271926 -0.002163890440503905 0 0.014533724631555828 -0.0022243545630999261 0 0.014601936488271926 -0.002163890440503905 0 0.01454008026991311 -0.0019004004384253945 0 0.014533724631555828 -0.0022243545630999261 0 0.014557501612649333 -0.0013100523368581305 0 0.014579686340334259 -0.0015464042285147986 0 0.014651605471212614 -0.0014143704540402044 0 0.014610713424952612 -0.0015959644301981313 0 0.01463201647741646 -0.0015990156735098448 0 0.014579686340334259 -0.0015464042285147986 0 0.014651605471212614 -0.0014143704540402044 0 0.014610530210819393 -0.0015357876602720138 0 0.014850405662258087 -0.001269481627464161 0 0.014651605471212614 -0.0014143704540402044 0 0.014731473677652205 -0.0014839929412084052 0 0.014771536107155914 -0.0012894924957374875 0 0.014721516982265053 -0.0014684299036086474 0 0.014651605471212614 -0.0014143704540402044 0 0.014731473677652205 -0.0014839929412084052 0 0.014610530210819393 -0.0015357876602720138 0 0.014917143077494399 -0.0015275387118998073 0 0.014669866728899889 -0.0016196421422833977 0 0.014710942110080519 -0.0016732850798105577 0 0.014917143077494399 -0.0015275387118998073 0 0.014754217048009576 -0.0013162646990607478 0 0.014669866728899889 -0.0016196421422833977 0 0.018050950946408777 -0.0033354149484477072 0 0.017960391756560629 -0.0026516439899385443 0 0.018590466178846212 -0.0025771123601072217 0 0.019041868564083412 -0.0041057093309092695 0 0.017826046789775722 -0.0040627106397686874 0 0.018504843610506638 -0.0029158780371824223 0 0.018096512343356897 -0.0035176634929903619 0 0.018559206748973687 -0.0027767073006105588 0 0.019236078542952804 -0.0033761894039186732 0 0.019630788177634011 -0.0028611574849813247 0 0.018504843610506638 -0.0029158780371824223 0 0.019236078542952804 -0.0033761894039186732 0 0.019041868564083412 -0.0041057093309092695 0 0.018504843610506638 -0.0029158780371824223 0 0.018583640682797935 -0.0048448191750433177 0 0.019041868564083412 -0.0041057093309092695 0 0.017826046789775722 -0.0040627106397686874 0 0.017541720278208509 -0.004075378647126069 0 0.018050950946408777 -0.0033354149484477072 0 0.017359189475977872 -0.0032525620962094337 0 0.015663000481851125 -0.0021191108048706953 0 0.015998145504596543 -0.0021732642969822555 0 0.014459803306087581 -0.0019165871321497156 0 0.014063433889448664 -0.0015568436181984757 0 0.014533724631555828 -0.0022243545630999261 0 0.015998145504596543 -0.0021732642969822555 0 0.015751898308325473 -0.0020447042040398866 0 0.01463860106134572 -0.0027190276667327824 0 0.014533724631555828 -0.0022243545630999261 0 0.015117833626593254 -0.0023735590940448512 0 0.018050950946408777 -0.0033354149484477072 0 0.017359189475977872 -0.0032525620962094337 0 0.017960391756560629 -0.0026516439899385443 0 0.015998145504596543 -0.0021732642969822555 0 0.016517143723948892 -0.0022594242994419997 0 0.015117833626593254 -0.0023735590940448512 0 0.014861807748370818 -0.0020896365674999678 0 0.015210498399524477 -0.0021000633997951472 0 0.014533724631555828 -0.0022243545630999261 0 0.015117833626593254 -0.0023735590940448512 0 0.014861807748370818 -0.0020896365674999678 0 0.01454008026991311 -0.0019004004384253945 0 0.014533724631555828 -0.0022243545630999261 0 0.014861807748370818 -0.0020896365674999678 0 0.01454008026991311 -0.0019004004384253945 0 0.014861807748370818 -0.0020896365674999678 0 0.014986702126090504 -0.0018013798150040884 0 0.014861807748370818 -0.0020896365674999678 0 0.015210498399524477 -0.0021000633997951472 0 0.014986702126090504 -0.0018013798150040884 0 0.015210498399524477 -0.0021000633997951472 0 0.015350002510336061 -0.0018277022112900487 0 0.014986702126090504 -0.0018013798150040884 0 0.015210498399524477 -0.0021000633997951472 0 0.015723483763221927 -0.0022687898672644367 0 0.015350002510336061 -0.0018277022112900487 0 0.016517143723948892 -0.0022594242994419997 0 0.017270399884066326 -0.0019037777455733823 0 0.017960391756560629 -0.0026516439899385443 0 0.018596017020141895 -0.0020098922693632905 0 0.018590466178846212 -0.0025771123601072217 0 0.015117833626593254 -0.0023735590940448512 0 0.015210498399524477 -0.0021000633997951472 0 0.015723483763221927 -0.0022687898672644367 0 0.018888166765596421 -0.0022697012552700723 0 0.018559206748973687 -0.0027767073006105588 0 0.019612630939896281 -0.0022141145814107625 0 0.019180732073264924 -0.0017539801256648332 0 0.018504843610506638 -0.0029158780371824223 0 0.017270399884066326 -0.0019037777455733823 0 0.018176397325228816 -0.001284025323545684 0 0.019180732073264924 -0.0017539801256648332 0 0.018596017020141895 -0.0020098922693632905 0 0.019282656706418263 -0.0013160552165440524 0 0.019180732073264924 -0.0017539801256648332 0 0.018596017020141895 -0.0020098922693632905 0 0.018590466178846212 -0.0025771123601072217 0 0.015723483763221927 -0.0022687898672644367 0 0.016323106667200212 -0.0016909148877864968 0 0.015711621526503246 -0.0015564653943773183 0 0.015723483763221927 -0.0022687898672644367 0 0.016323106667200212 -0.0016909148877864968 0 0.016990675237379314 -0.0019651558800366925 0 0.016323106667200212 -0.0016909148877864968 0 0.016424259838692546 -0.0010917636536680762 0 0.015711621526503246 -0.0015564653943773183 0 0.016323106667200212 -0.0016909148877864968 0 0.016424259838692546 -0.0010917636536680762 0 0.017068105051734506 -0.0011506960607185045 0 0.016424259838692546 -0.0010917636536680762 0 0.015520401914611745 -0.00077789230040866818 0 0.017554957581703917 -1.9062967532731814e-05 0 0.016424259838692546 -0.0010917636536680762 0 0.015711621526503246 -0.0015564653943773183 0 0.015520401914611745 -0.00077789230040866818 0 0.015205602142567038 -0.0013706569458901555 0 0.015157610698714961 -0.0010335272542892355 0 0.015520401914611745 -0.00077789230040866818 0 0.015711621526503246 -0.0015564653943773183 0 0.015205602142567038 -0.0013706569458901555 0 0.015520401914611745 -0.00077789230040866818 0 0.015723483763221927 -0.0022687898672644367 0 0.015711621526503246 -0.0015564653943773183 0 0.015350002510336061 -0.0018277022112900487 0 0.015711621526503246 -0.0015564653943773183 0 0.015350002510336061 -0.0018277022112900487 0 0.015205602142567038 -0.0013706569458901555 0 0.014986702126090504 -0.0018013798150040884 0 0.014746859631494833 -0.0012262556387763416 0 0.015205602142567038 -0.0013706569458901555 0 0.015350002510336061 -0.0018277022112900487 0 0.014986702126090504 -0.0018013798150040884 0 0.015205602142567038 -0.0013706569458901555 0 0.01454008026991311 -0.0019004004384253945 0 0.014986702126090504 -0.0018013798150040884 0 0.014746859631494833 -0.0012262556387763416 0 0.014746859631494833 -0.0012262556387763416 0 0.015205602142567038 -0.0013706569458901555 0 0.015157610698714961 -0.0010335272542892355 0 0.015157610698714961 -0.0010335272542892355 0 0.014938311780894645 -0.0010305072392832572 0 0.01521501964902393 -0.00094823801376777057 0 0.014746859631494833 -0.0012262556387763416 0 0.015157610698714961 -0.0010335272542892355 0 0.014938311780894645 -0.0010305072392832572 0 0.014725487948760701 -0.0013738361024865043 0 0.014792073647828571 -0.0012039893312012734 0 0.014938311780894645 -0.0010305072392832572 0 0.01521501964902393 -0.00094823801376777057 0 0.015143487127774895 -0.00085791141944454989 0 0.01521501964902393 -0.00094823801376777057 0 0.015274730801595086 -0.00090797520007994978 0 0.015143487127774895 -0.00085791141944454989 0 0.01521501964902393 -0.00094823801376777057 0 0.015274730801595086 -0.00090797520007994978 0 0.015318224435261412 -0.00092982750815395255 0 0.01521501964902393 -0.00094823801376777057 0 0.015318224435261412 -0.00092982750815395255 0 0.015342487916515683 -0.00091501626438334025 0 0.015318224435261412 -0.00092982750815395255 0 0.015336240753547949 -0.00094482895014168222 0 0.015347886523017707 -0.00091225990139870753 0 0.015274730801595086 -0.00090797520007994978 0 0.015318224435261412 -0.00092982750815395255 0 0.015336240753547949 -0.00094482895014168222 0 0.015274730801595086 -0.00090797520007994978 0 0.015336240753547949 -0.00094482895014168222 0 0.015238800402548047 -0.00083234373805906009 0 0.0072176744885839774 -0.0043605729955154089 0 0.0088220644154816379 -0.0037568443945668745 0 0.015175846846973587 -0.0012620104396953167 0 0.01515614238853528 -0.00086944442085217205 0 0.015051525567512479 -0.001110990783474779 0 0.015175846846973587 -0.0012620104396953167 0 0.015101122334906422 -0.0013130447386886053 0 0.015051525567512479 -0.001110990783474779 0 0.01515614238853528 -0.00086944442085217205 0 0.015520401914611745 -0.00077789230040866818 0 0.014950685761316364 -0.00075336437302286874 0 0.015336240753547949 -0.00094482895014168222 0 0.015347886523017707 -0.00091225990139870753 0 0.01515614238853528 -0.00086944442085217205 0 0.015697734487136478 -0.0011815476051890855 0 0.015327277008752306 -0.0013148186321962733 0 0.015347886523017707 -0.00091225990139870753 0 0.01515614238853528 -0.00086944442085217205 0 0.015520401914611745 -0.00077789230040866818 0 0.015157610698714961 -0.0010335272542892355 0 0.015520401914611745 -0.00077789230040866818 0 0.015342487916515683 -0.00091501626438334025 0 0.015157610698714961 -0.0010335272542892355 0 0.01521501964902393 -0.00094823801376777057 0 0.015342487916515683 -0.00091501626438334025 0 0.015318224435261412 -0.00092982750815395255 0 0.015347886523017707 -0.00091225990139870753 0 0.015342487916515683 -0.00091501626438334025 0 0.015347886523017707 -0.00091225990139870753 0 0.015520401914611745 -0.00077789230040866818 0 0.015342487916515683 -0.00091501626438334025 0 0.014620630297693596 -0.0016218244126967971 0 0.014566883038196124 -0.0015843357549689761 0 0.014410588767667815 -0.0015008244264259783 0 0.014620630297693596 -0.0016218244126967971 0 0.014453617295323391 -0.0015300804355677542 0 0.014410588767667815 -0.0015008244264259783 0 0.014669866728899889 -0.0016196421422833977 0 0.014710942110080519 -0.0016732850798105577 0 0.014566883038196124 -0.0015843357549689761 0 0.014620630297693596 -0.0016218244126967971 0 0.014710942110080519 -0.0016732850798105577 0 0.014566883038196124 -0.0015843357549689761 0 0.014721516982265053 -0.0014684299036086474 0 0.014693829770791448 -0.0015291989063228077 0 0.014731473677652205 -0.0014839929412084052 0 0.014566883038196124 -0.0015843357549689761 0 0.014610530210819393 -0.0015357876602720138 0 0.014566883038196124 -0.0015843357549689761 0 0.014563850314614638 -0.0015368947463219962 0 0.014410588767667815 -0.0015008244264259783 0 0.014566883038196124 -0.0015843357549689761 0 0.014563850314614638 -0.0015368947463219962 0 0.014610530210819393 -0.0015357876602720138 0 0.014579686340334259 -0.0015464042285147986 0 0.014563850314614638 -0.0015368947463219962 0 0.014610530210819393 -0.0015357876602720138 0 0.01463201647741646 -0.0015990156735098448 0 0.014725487948760701 -0.0013738361024865043 0 0.014579686340334259 -0.0015464042285147986 0 0.014733864767345685 -0.0015104448584864155 0 0.014563850314614638 -0.0015368947463219962 0 0.014733864767345685 -0.0015104448584864155 0 0.014938311780894645 -0.0010305072392832572 0 0.014450126308998751 -0.0013353495271422528 0 0.014938311780894645 -0.0010305072392832572 0 0.014450126308998751 -0.0013353495271422528 0 0.014718986773962564 -0.00095700312798923 0 0.014733864767345685 -0.0015104448584864155 0 0.014563850314614638 -0.0015368947463219962 0 0.014450126308998751 -0.0013353495271422528 0 0.014450126308998751 -0.0013353495271422528 0 0.014209558194591014 -0.0011093437621036181 0 0.014718986773962564 -0.00095700312798923 0 0.014563850314614638 -0.0015368947463219962 0 0.014450126308998751 -0.0013353495271422528 0 0.014410588767667815 -0.0015008244264259783 0 0.014450126308998751 -0.0013353495271422528 0 0.014124641501595567 -0.0013473679669543145 0 0.014410588767667815 -0.0015008244264259783 0 0.014450126308998751 -0.0013353495271422528 0 0.014124641501595567 -0.0013473679669543145 0 0.014209558194591014 -0.0011093437621036181 0 0.014453617295323391 -0.0015300804355677542 0 0.014124641501595567 -0.0013473679669543145 0 0.014410588767667815 -0.0015008244264259783 0 0.012929154905164277 -0.00050512881364595853 0 0.013688699029648732 -0.0010285031925947104 0 0.013591106222299353 -0.00026275343965503483 0 0.012444933660172136 -0.0012178813118979396 0 0.012929154905164277 -0.00050512881364595853 0 0.013688699029648732 -0.0010285031925947104 0 0.012444933660172136 -0.0012178813118979396 0 0.012911785480778022 -0.0023806659872776721 0 0.013688699029648732 -0.0010285031925947104 0 0.01349693501548078 -0.0018193318333992749 0 0.013668068251947774 -0.0014391729706407749 0 0.014124641501595567 -0.0013473679669543145 0 0.013688699029648732 -0.0010285031925947104 0 0.014209558194591014 -0.0011093437621036181 0 0.013688699029648732 -0.0010285031925947104 0 0.014200720208619982 -0.00064358301095482058 0 0.013591106222299353 -0.00026275343965503483 0 0.013688699029648732 -0.0010285031925947104 0 0.014200720208619982 -0.00064358301095482058 0 0.014209558194591014 -0.0011093437621036181 0 0.014200720208619982 -0.00064358301095482058 0 0.014209558194591014 -0.0011093437621036181 0 0.014535606132772395 -0.00076807821530188759 0 0.014200720208619982 -0.00064358301095482058 0 0.014535606132772395 -0.00076807821530188759 0 0.014629837831273598 -0.00046890349647027901 0 0.014209558194591014 -0.0011093437621036181 0 0.014718986773962564 -0.00095700312798923 0 0.014535606132772395 -0.00076807821530188759 0 0.014718986773962564 -0.00095700312798923 0 0.014819671450220258 -0.00065210257655160832 0 0.014535606132772395 -0.00076807821530188759 0 0.014819671450220258 -0.00065210257655160832 0 0.014629837831273598 -0.00046890349647027901 0 0.014932848801034543 -0.00041114724547133483 0 0.014819671450220258 -0.00065210257655160832 0 0.014535606132772395 -0.00076807821530188759 0 0.014629837831273598 -0.00046890349647027901 0 0.01060271302505332 -0.00086809767140530014 0 0.0090170071422548178 -0.0028598779051718631 0 0.014629837831273598 -0.00046890349647027901 0 0.014465534857358121 5.028765228259926e-05 0 0.014932848801034543 -0.00041114724547133483 0 0.0088061370210345928 0.0015996678600694633 0 0.0086584296540524602 0.0017032101788722726 0 0.008778596690095359 0.0015623099158184428 0 0.0088061370210345928 0.0015996678600694633 0 0.008989867050277248 0.0015609334833455387 0 0.0087237477055201046 0.001535975832370833 0 0.0088061370210345928 0.0015996678600694633 0 0.008989867050277248 0.0015609334833455387 0 0.0086433286096174455 0.0016546343100767838 0 0.008989867050277248 0.0015609334833455387 0 0.0086433286096174455 0.0016546343100767838 0 0.008266175540067696 0.0018815519991729544 0 0.0088061370210345928 0.0015996678600694633 0 0.0086433286096174455 0.0016546343100767838 0 0.0086584296540524602 0.0017032101788722726 0 0.0087177051155551376 0.0017920956896481004 0 0.0086584296540524602 0.0017032101788722726 0 0.009260221991632591 0.0020045885457631394 0 0.0086433286096174455 0.0016546343100767838 0 0.0087177051155551376 0.0017920956896481004 0 0.0086584296540524602 0.0017032101788722726 0 0.0086433286096174455 0.0016546343100767838 0 0.0087177051155551376 0.0017920956896481004 0 0.008266175540067696 0.0018815519991729544 0 0.014200720208619982 -0.00064358301095482058 0 0.014465534857358121 5.028765228259926e-05 0 0.013591106222299353 -0.00026275343965503483 0 0.014200720208619982 -0.00064358301095482058 0 0.014629837831273598 -0.00046890349647027901 0 0.014465534857358121 5.028765228259926e-05 0 0.014465534857358121 5.028765228259926e-05 0 0.013591106222299353 -0.00026275343965503483 0 0.013365281924991102 0.00085496294106590263 0 0.01060271302505332 -0.00086809767140530014 0 0.010797066947119833 0.0002471310983165141 0 0.0087177051155551376 0.0017920956896481004 0 0.009260221991632591 0.0020045885457631394 0 0.0089675184751114769 0.0016701319262225293 0 0.009260221991632591 0.0020045885457631394 0 0.0099708500663113833 0.001716629540806657 0 0.010399674119197289 0.0017590389347643129 0 0.010797066947119833 0.0002471310983165141 0 0.010603390751044576 0.00065945213938497593 0 0.011350273571606473 0.00079258902223192714 0 0.013365281924991102 0.00085496294106590263 0 0.012649223297431685 3.1038765002513122e-05 0 0.011350273571606473 0.00079258902223192714 0 0.013365281924991102 0.00085496294106590263 0 0.010399674119197289 0.0017590389347643129 0 0.013591106222299353 -0.00026275343965503483 0 0.013365281924991102 0.00085496294106590263 0 0.012649223297431685 3.1038765002513122e-05 0 0.012255390424527194 -0.00025691613624940162 0 0.012929154905164277 -0.00050512881364595853 0 0.012649223297431685 3.1038765002513122e-05 0 0.012929154905164277 -0.00050512881364595853 0 0.013591106222299353 -0.00026275343965503483 0 0.012649223297431685 3.1038765002513122e-05 0 -0.012131320890878863 -0.022172068042446508 0 -0.012220903226983241 -0.01805553070944731 0 -0.0091907376687842268 -0.015431649536681228 0 -0.012131320890878863 -0.022172068042446508 0 -0.012220903226983241 -0.01805553070944731 0 -0.01449126223437318 -0.017287447537674007 0 -0.011876466955926587 -0.022876004908711511 0 -0.013645729114145964 -0.020926416522116381 0 -0.014415960706968906 -0.017671031010184805 0 -0.00028637437329469148 -0.0043654811623886208 0 7.2163141353014275e-05 -0.0042335209908254687 0 0.00015311580915125219 -0.0033462833348067351 0 0.00071166559656557146 -0.0059182878134555021 0 -0.0034053559740013319 -0.010027897594383677 0 0.00071166559656557146 -0.0059182878134555021 0 -0.007089863643220346 -0.0080417609971476737 0 0.00071166559656557146 -0.0059182878134555021 0 0.001617915370178855 -0.0055780483979365149 0 0.015283197831462975 -0.00072432617373643059 0 0.015185379476278385 -0.00074716001796786881 0 0.015199145188563308 -0.00062876112872193896 0 -0.011876466955926587 -0.022876004908711511 0 -0.013645729114145964 -0.020926416522116381 0 -0.014881949906905063 -0.020453136915381673 0 -0.013645729114145964 -0.020926416522116381 0 -0.014892949258342537 -0.020467401349389347 0 -0.014415960706968906 -0.017671031010184805 0 0.001328258375400761 -0.005616705557792331 0 0.001617915370178855 -0.0055780483979365149 0 0.00046126487580676237 -0.0040556937589310664 0 7.2163141353014275e-05 -0.0042335209908254687 0 0.00015311580915125219 -0.0033462833348067351 0 0.00046126487580676237 -0.0040556937589310664 0 0.00057386956763989133 -0.0036633001507977341 0 0.00077136875226342075 -0.0039277264068255579 0 0.00046126487580676237 -0.0040556937589310664 0 0.00038900065341242998 -0.0045071307240576401 0 0.0009579576926541652 -0.0044717067531296062 0 0.00046126487580676237 -0.0040556937589310664 0 7.2163141353014275e-05 -0.0042335209908254687 0 0.00038900065341242998 -0.0045071307240576401 0 -0.00028637437329469148 -0.0043654811623886208 0 7.2163141353014275e-05 -0.0042335209908254687 0 0.00038900065341242998 -0.0045071307240576401 0 0.015175846846973587 -0.0012620104396953167 0 0.015173444909332168 -0.0014589152355812484 0 0.015101122334906422 -0.0013130447386886053 0 0.00071166559656557146 -0.0059182878134555021 0 0.0057932158689574147 -0.0045378743762390199 0 -0.00028637437329469148 -0.0043654811623886208 0 0.00038900065341242998 -0.0045071307240576401 0 0.00055945742014053106 -0.0051568082906360002 0 0.00038900065341242998 -0.0045071307240576401 0 0.00055945742014053106 -0.0051568082906360002 0 0.0009579576926541652 -0.0044717067531296062 0 0.015336240753547949 -0.00094482895014168222 0 0.015253079293484344 -0.00077012331217284091 0 0.015238800402548047 -0.00083234373805906009 0 0.0072176744885839774 -0.0043605729955154089 0 0.00071166559656557146 -0.0059182878134555021 0 0.00071166559656557146 -0.0059182878134555021 0 0.0018864091436658764 -0.0045129843202346637 0 0.015283197831462975 -0.00072432617373643059 0 0.015238800402548047 -0.00083234373805906009 0 0.015185379476278385 -0.00074716001796786881 0 0.015274730801595086 -0.00090797520007994978 0 0.015238800402548047 -0.00083234373805906009 0 0.015143487127774895 -0.00085791141944454989 0 0.015143487127774895 -0.00085791141944454989 0 0.014957182662820695 -0.00080307471730869072 0 0.015099312134705467 -0.0007263009037239669 0 0.015238800402548047 -0.00083234373805906009 0 0.015143487127774895 -0.00085791141944454989 0 0.015185379476278385 -0.00074716001796786881 0 0.015143487127774895 -0.00085791141944454989 0 0.015185379476278385 -0.00074716001796786881 0 0.015099312134705467 -0.0007263009037239669 0 0.014938311780894645 -0.0010305072392832572 0 0.014718986773962564 -0.00095700312798923 0 0.014957182662820695 -0.00080307471730869072 0 0.014938311780894645 -0.0010305072392832572 0 0.015143487127774895 -0.00085791141944454989 0 0.014957182662820695 -0.00080307471730869072 0 0.014718986773962564 -0.00095700312798923 0 0.014819671450220258 -0.00065210257655160832 0 0.014957182662820695 -0.00080307471730869072 0 0.014819671450220258 -0.00065210257655160832 0 0.014957182662820695 -0.00080307471730869072 0 0.015012314577231975 -0.00064135625625593253 0 0.014957182662820695 -0.00080307471730869072 0 0.015012314577231975 -0.00064135625625593253 0 0.015099312134705467 -0.0007263009037239669 0 0.014819671450220258 -0.00065210257655160832 0 0.015012314577231975 -0.00064135625625593253 0 0.014932848801034543 -0.00041114724547133483 0 0.015012314577231975 -0.00064135625625593253 0 0.015199145188563308 -0.00062876112872193896 0 0.014932848801034543 -0.00041114724547133483 0 0.001617915370178855 -0.0055780483979365149 0 0.0090170071422548178 -0.0028598779051718631 0 0.015012314577231975 -0.00064135625625593253 0 0.015099312134705467 -0.0007263009037239669 0 0.015199145188563308 -0.00062876112872193896 0 0.015185379476278385 -0.00074716001796786881 0 0.015099312134705467 -0.0007263009037239669 0 0.015199145188563308 -0.00062876112872193896 0 -0.02119490737295885 -0.014984680283795992 0 -0.016990752548805107 -0.01238293336095319 0 -0.014415960706968906 -0.017671031010184805 0 -0.0052286587999530723 -0.010082384475003927 0 -0.0034053559740013319 -0.010027897594383677 0 0.001617915370178855 -0.0055780483979365149 0 -0.0043397245310616327 -0.0046454996803676433 0 -0.014892949258342537 -0.020467401349389347 0 -0.02119490737295885 -0.014984680283795992 0 -0.014415960706968906 -0.017671031010184805 0 0.0088061370210345928 0.0015996678600694633 0 0.0087237477055201046 0.001535975832370833 0 0.008778596690095359 0.0015623099158184428 0 0.0085446863953763004 0.0015827263345888482 0 0.0087237477055201046 0.001535975832370833 0 0.008778596690095359 0.0015623099158184428 0 -0.02119490737295885 -0.014984680283795992 0 -0.016990752548805107 -0.01238293336095319 0 -0.021641184678921253 -0.0088236320725212126 0 -0.027648695645850194 -0.0094942006829359122 0 -0.02119490737295885 -0.014984680283795992 0 -0.021641184678921253 -0.0088236320725212126 0 -0.008871999368877042 -0.0026799514618409351 0 -0.0043397245310616327 -0.0046454996803676433 0 -0.016990752548805107 -0.01238293336095319 0 -0.014650623963431081 -0.0084537516511148363 0 -0.021641184678921253 -0.0088236320725212126 0 -0.012798120023656994 -0.013687101770661611 0 -0.0084216018343322204 -0.013789552661123312 0 -0.014650623963431081 -0.0084537516511148363 0 -0.017987567393523116 -0.010981756270812744 0 -0.022505192196885501 -0.0071984382469395588 0 -0.019383063046269789 -0.0050314332681061173 0 -0.016990752548805107 -0.01238293336095319 0 -0.012798120023656994 -0.013687101770661611 0 -0.014650623963431081 -0.0084537516511148363 0 -0.0079881967608246875 -0.0074469715922494415 0 -0.016495728963397783 -0.0054277338526755991 0 -0.012798120023656994 -0.013687101770661611 0 -0.01243301737474729 -0.015965491895872919 0 -0.01449126223437318 -0.017287447537674007 0 -0.016990752548805107 -0.01238293336095319 0 -0.012798120023656994 -0.013687101770661611 0 -0.01449126223437318 -0.017287447537674007 0 -0.012798120023656994 -0.013687101770661611 0 -0.01243301737474729 -0.015965491895872919 0 -0.0091650247223875776 -0.015454054755820521 0 -0.012798120023656994 -0.013687101770661611 0 -0.0091650247223875776 -0.015454054755820521 0 -0.0084216018343322204 -0.013789552661123312 0 -0.0085969375067915833 -0.0097421297656093107 0 -0.007089863643220346 -0.0080417609971476737 0 -0.01243301737474729 -0.015965491895872919 0 -0.012220903226983241 -0.01805553070944731 0 -0.0091650247223875776 -0.015454054755820521 0 -0.01243301737474729 -0.015965491895872919 0 -0.012220903226983241 -0.01805553070944731 0 -0.01449126223437318 -0.017287447537674007 0 0.00057386956763989133 -0.0036633001507977341 0 0.00034985362735943037 -0.0031760938014273646 0 0.0011333276899559948 -0.0038122076937735982 0 0.00046126487580676237 -0.0040556937589310664 0 0.00057386956763989133 -0.0036633001507977341 0 0.00015311580915125219 -0.0033462833348067351 0 -0.0071597409072614374 -0.0063813038433009686 0 -0.0083352447712151199 -0.0090761772462845166 0 -0.0093152066158718825 -0.0082485929955549344 0 -0.007089863643220346 -0.0080417609971476737 0 -0.0079881967608246875 -0.0074469715922494415 0 -0.007089863643220346 -0.0080417609971476737 0 -0.0069990380660250205 -0.0072964818266409229 0 -0.0079881967608246875 -0.0074469715922494415 0 -0.0069990380660250205 -0.0072964818266409229 0 0.00057386956763989133 -0.0036633001507977341 0 0.00015311580915125219 -0.0033462833348067351 0 0.00034985362735943037 -0.0031760938014273646 0 -0.0068449061821238867 -0.0040772229739557218 0 -0.0068542201141192881 -0.0040691022383905614 0 -0.0069148364768101345 -0.004120374552200547 0 -0.0068449061821238867 -0.0040772229739557218 0 -0.0069148364768101345 -0.004120374552200547 0 -0.0068876956323643676 -0.0041810136987408247 0 -0.0069990380660250205 -0.0072964818266409229 0 -0.0046244869278025498 -0.0021558029328885243 0 -0.0079881967608246875 -0.0074469715922494415 0 -0.0077243793860581646 -0.0041210449072872184 0 0.0057180029920827049 0.005288114255882507 0 0.0063462777690859364 0.0053458861449092879 0 0.0060986994013358282 0.0042371376087896326 0 0.00029556528427733796 -0.0031422681938798377 0 0.0009639046885454236 -0.0025628529450779144 0 0.00092973774424405563 -0.0032216787799977387 0 0.0063462777690859364 0.0053458861449092879 0 0.0067194690240369812 0.0048664468923630463 0 0.0073288401766295717 0.005708506747160929 0 0.0057180029920827049 0.005288114255882507 0 0.0063462777690859364 0.0053458861449092879 0 0.0064713047545314224 0.0058799308674482844 0 0.0063462777690859364 0.0053458861449092879 0 0.0067194690240369812 0.0048664468923630463 0 0.0060986994013358282 0.0042371376087896326 0 0.0067194690240369812 0.0048664468923630463 0 0.0068587084081453255 0.0042198230078460573 0 0.0060986994013358282 0.0042371376087896326 0 0.0009639046885454236 -0.0025628529450779144 0 0.0014309479424917534 -0.0036032103391402141 0 0.00092973774424405563 -0.0032216787799977387 0 0.00029556528427733796 -0.0031422681938798377 0 0.00092973774424405563 -0.0032216787799977387 0 0.0011333276899559948 -0.0038122076937735982 0 0.0014309479424917534 -0.0036032103391402141 0 0.00092973774424405563 -0.0032216787799977387 0 0.0011333276899559948 -0.0038122076937735982 0 -0.0046244869278025498 -0.0021558029328885243 0 0.00027388779921177212 -0.0013183730238024249 0 -0.0069990380660250205 -0.0072964818266409229 0 -0.0046070975156290248 -0.0074439564005786135 0 0.0086222718693811286 0.0055368005494458306 0 0.0077169528382811953 0.0051166008019312599 0 0.0085199627835278145 0.0047237518238822601 0 0.0086222718693811286 0.0055368005494458306 0 0.0077169528382811953 0.0051166008019312599 0 0.0077865337922097162 0.0058616566715359187 0 0.0067194690240369812 0.0048664468923630463 0 0.0077169528382811953 0.0051166008019312599 0 0.007783243185960389 0.006131987845789463 0 0.0047055199314906884 0.0058138161687231876 0 0.0030742267016397829 0.0048809268446812016 0 0.0035479417888188381 0.0051288651467068626 0 0.0030742267016397829 0.0048809268446812016 0 0.0068587084081453255 0.0042198230078460573 0 0.0077169528382811953 0.0051166008019312599 0 0.0076372250874425481 0.0039617861546290293 0 0.0067194690240369812 0.0048664468923630463 0 0.0068587084081453255 0.0042198230078460573 0 0.0077169528382811953 0.0051166008019312599 0 0.0085199627835278145 0.0047237518238822601 0 0.0084628158090062616 0.0040345181286514913 0 0.0091712345775874678 0.0042735875751986887 0 0.0085199627835278145 0.0047237518238822601 0 0.0084628158090062616 0.0040345181286514913 0 0.0076372250874425481 0.0039617861546290293 0 0.0077169528382811953 0.0051166008019312599 0 0.0085199627835278145 0.0047237518238822601 0 0.0076372250874425481 0.0039617861546290293 0 0.0087727266057552981 0.0032414721905166407 0 0.0076372250874425481 0.0039617861546290293 0 0.0076813344864230439 0.0023771807135781454 0 0.0087727266057552981 0.0032414721905166407 0 0.0084628158090062616 0.0040345181286514913 0 0.0091712345775874678 0.0042735875751986887 0 0.0087727266057552981 0.0032414721905166407 0 0.0084628158090062616 0.0040345181286514913 0 0.0076372250874425481 0.0039617861546290293 0 0.0068587084081453255 0.0042198230078460573 0 0.0076372250874425481 0.0039617861546290293 0 0.0065232996772366511 0.002817668318313234 0 0.0076372250874425481 0.0039617861546290293 0 0.0076813344864230439 0.0023771807135781454 0 0.0065232996772366511 0.002817668318313234 0 0.0076813344864230439 0.0023771807135781454 0 0.0065232996772366511 0.002817668318313234 0 0.0071045675364875939 0.00097779404031124342 0 0.0087727266057552981 0.0032414721905166407 0 0.0076813344864230439 0.0023771807135781454 0 0.0090427537130905334 0.0017624916816006819 0 0.0011333276899559948 -0.0038122076937735982 0 0.0019051000819060512 -0.0046048363029074363 0 0.0009579576926541652 -0.0044717067531296062 0 0.00046126487580676237 -0.0040556937589310664 0 0.00077136875226342075 -0.0039277264068255579 0 0.0009579576926541652 -0.0044717067531296062 0 0.00057386956763989133 -0.0036633001507977341 0 0.00077136875226342075 -0.0039277264068255579 0 0.0011333276899559948 -0.0038122076937735982 0 0.00077136875226342075 -0.0039277264068255579 0 0.0011333276899559948 -0.0038122076937735982 0 0.0009579576926541652 -0.0044717067531296062 0 0.0068587084081453255 0.0042198230078460573 0 0.0060986994013358282 0.0042371376087896326 0 0.0065232996772366511 0.002817668318313234 0 0.00027388779921177212 -0.0013183730238024249 0 0.0034012103328481028 -0.0013976607571764418 0 0.0014309479424917534 -0.0036032103391402141 0 0.0011333276899559948 -0.0038122076937735982 0 0.0019051000819060512 -0.0046048363029074363 0 0.0034012103328481028 -0.0013976607571764418 0 0.0061282100537107418 -0.0017820117376585859 0 0.0019051000819060512 -0.0046048363029074363 0 0.0014235590703783098 -0.0051590122781014812 0 0.0023885580227815807 -0.0056232840134415908 0 0.00055945742014053106 -0.0051568082906360002 0 0.0014235590703783098 -0.0051590122781014812 0 0.0009579576926541652 -0.0044717067531296062 0 0.0019051000819060512 -0.0046048363029074363 0 0.0014235590703783098 -0.0051590122781014812 0 0.0009579576926541652 -0.0044717067531296062 0 0.00055945742014053106 -0.0051568082906360002 0 0.0014235590703783098 -0.0051590122781014812 0 0.0013981577241428645 -0.0059004296060245886 0 0.0057932158689574147 -0.0045378743762390199 0 0.0085834959150449947 -0.0031599698250984135 0 0.015101122334906422 -0.0013130447386886053 0 0.015051525567512479 -0.001110990783474779 0 0.014816598406938011 -0.0010816089903354677 0 0.01515614238853528 -0.00086944442085217205 0 0.015051525567512479 -0.001110990783474779 0 0.014990128065908105 -0.00096971724180254775 0 0.014990128065908105 -0.00096971724180254775 0 0.014816598406938011 -0.0010816089903354677 0 0.014950685761316364 -0.00075336437302286874 0 0.015051525567512479 -0.001110990783474779 0 0.014990128065908105 -0.00096971724180254775 0 0.014816598406938011 -0.0010816089903354677 0 0.01515614238853528 -0.00086944442085217205 0 0.014990128065908105 -0.00096971724180254775 0 0.014950685761316364 -0.00075336437302286874 0 0.0013981577241428645 -0.0059004296060245886 0 0.0023885580227815807 -0.0056232840134415908 0 0.0022556067850484571 -0.0066553904111213607 0 0.014816598406938011 -0.0010816089903354677 0 0.014420929411368747 -0.00074731320336012192 0 0.014950685761316364 -0.00075336437302286874 0 0.0085834959150449947 -0.0031599698250984135 0 0.01187012989340039 -0.0018437249427101828 0 0.0014235590703783098 -0.0051590122781014812 0 0.0013981577241428645 -0.0059004296060245886 0 0.0023885580227815807 -0.0056232840134415908 0 0.0076813344864230439 0.0023771807135781454 0 0.0071045675364875939 0.00097779404031124342 0 0.0090427537130905334 0.0017624916816006819 0 0.0071045675364875939 0.00097779404031124342 0 0.0090427537130905334 0.0017624916816006819 0 0.0087470806310170537 0.00030052777259536272 0 0.0090427537130905334 0.0017624916816006819 0 0.0087470806310170537 0.00030052777259536272 0 0.010308210920445369 0.00086451529386179812 0 0.0087470806310170537 0.00030052777259536272 0 0.0079247699632742502 -0.0010316034555974149 0 0.0094181832727573498 -0.001076078340440746 0 0.0071045675364875939 0.00097779404031124342 0 0.0087470806310170537 0.00030052777259536272 0 0.0079247699632742502 -0.0010316034555974149 0 0.0023885580227815807 -0.0056232840134415908 0 0.0022556067850484571 -0.0066553904111213607 0 0.0028698955144263434 -0.0066662787844371596 0 0.0061282100537107418 -0.0017820117376585859 0 0.0095427355199813168 -0.0018392207589151442 0 0.011767316105310415 -0.0012752654910085459 0 0.011895020521950418 -0.0013667681411889028 0 0.011920799723732094 -0.0014155103692832889 0 0.011767316105310415 -0.0012752654910085459 0 0.011856769998462746 -0.0012775838889853457 0 0.011895020521950418 -0.0013667681411889028 0 0.01187012989340039 -0.0018437249427101828 0 0.0095427355199813168 -0.0018392207589151442 0 0.020350892296823964 -0.00010361311947101447 0 0.021424010527687502 -0.0011590055500238041 0 0.020368019037215964 -0.0010369652511969542 0 0.01187012989340039 -0.0018437249427101828 0 0.014207192753575043 -0.0015147678202845339 0 0.0095427355199813168 -0.0018392207589151442 0 0.013409125496824834 -2.361080768402478e-05 0 0.01185853176338118 -0.0012892925174367565 0 0.011971392587186405 -0.001289017253392883 0 0.011895020521950418 -0.0013667681411889028 0 0.021832178588574218 -0.00017394365120572386 0 0.021454266758170869 -0.0010688559323797338 0 0.021976183378827382 -0.00076834164014398694 0 0.011971392587186405 -0.001289017253392883 0 0.011895020521950418 -0.0013667681411889028 0 0.011920799723732094 -0.0014155103692832889 0 0.013409125496824834 -2.361080768402478e-05 0 0.014207192753575043 -0.0015147678202845339 0 0.0095427355199813168 -0.0018392207589151442 0 0.0097403784385158704 -0.0018798704061040647 0 0.021842734549608615 -0.0010144539548249979 0 0.021559754038833263 -0.0011637369845316026 0 0.021454266758170869 -0.0010688559323797338 0 0.021842734549608615 -0.0010144539548249979 0 0.021454266758170869 -0.0010688559323797338 0 0.021976183378827382 -0.00076834164014398694 0 0.021842734549608615 -0.0010144539548249979 0 0.021559754038833263 -0.0011637369845316026 0 0.021803490623365208 -0.0012726930887597076 0 0.014274715123960219 -0.0015505668326771735 0 0.014207192753575043 -0.0015147678202845339 0 0.014905561649793186 -0.001058952686120639 0 0.014207192753575043 -0.0015147678202845339 0 0.02118487861212455 -0.0017110313329199143 0 0.021424010527687502 -0.0011590055500238041 0 0.020893975188857911 -0.001417342822761119 0 0.02118487861212455 -0.0017110313329199143 0 0.021559754038833263 -0.0011637369845316026 0 0.021443723128161674 -0.0010605697973307593 0 0.02118487861212455 -0.0017110313329199143 0 0.021720190061135923 -0.0015927510974820481 0 0.021559754038833263 -0.0011637369845316026 0 0.021720190061135923 -0.0015927510974820481 0 0.021559754038833263 -0.0011637369845316026 0 0.021803490623365208 -0.0012726930887597076 0 0.020120077662458026 -0.0020309464285649271 0 0.02065255179077571 -0.0017280535368097596 0 0.020368019037215964 -0.0010369652511969542 0 0.021424010527687502 -0.0011590055500238041 0 0.020368019037215964 -0.0010369652511969542 0 0.020893975188857911 -0.001417342822761119 0 0.02065255179077571 -0.0017280535368097596 0 0.020368019037215964 -0.0010369652511969542 0 0.020893975188857911 -0.001417342822761119 0 0.02065255179077571 -0.0017280535368097596 0 0.02118487861212455 -0.0017110313329199143 0 0.020893975188857911 -0.001417342822761119 0 0.019570972992015132 -0.001621864865030993 0 0.020311602032853714 -0.001935019680374744 0 0.019550614706852588 -0.0010303019976871954 0 0.020120077662458026 -0.0020309464285649271 0 0.020368019037215964 -0.0010369652511969542 0 0.019550614706852588 -0.0010303019976871954 0 0.020339402058007456 -0.0021424618979136978 0 0.020099775601331908 -0.00168164492270859 0 0.020368019037215964 -0.0010369652511969542 0 0.019550614706852588 -0.0010303019976871954 0 0.019857564194521466 -0.00080459969417591914 0 0.019570972992015132 -0.001621864865030993 0 0.019550614706852588 -0.0010303019976871954 0 0.019282656706418263 -0.0013160552165440524 0 0.019570972992015132 -0.001621864865030993 0 0.019180732073264924 -0.0017539801256648332 0 0.019282656706418263 -0.0013160552165440524 0 0.016323106667200212 -0.0016909148877864968 0 0.016990675237379314 -0.0019651558800366925 0 0.017068105051734506 -0.0011506960607185045 0 0.01777865996515092 -0.00090431364940971005 0 0.017554957581703917 -1.9062967532731814e-05 0 0.019501508745787485 -0.00039098919885576357 0 0.019550614706852588 -0.0010303019976871954 0 0.019282656706418263 -0.0013160552165440524 0 0.019501508745787485 -0.00039098919885576357 0 0.016990675237379314 -0.0019651558800366925 0 0.01777865996515092 -0.00090431364940971005 0 0.019501508745787485 -0.00039098919885576357 0 0.018176397325228816 -0.001284025323545684 0 0.018810499730121638 -0.00075601812734421299 0 0.016990675237379314 -0.0019651558800366925 0 0.01777865996515092 -0.00090431364940971005 0 0.017068105051734506 -0.0011506960607185045 0 0.016424259838692546 -0.0010917636536680762 0 0.017068105051734506 -0.0011506960607185045 0 0.017554957581703917 -1.9062967532731814e-05 0 0.01777865996515092 -0.00090431364940971005 0 0.017068105051734506 -0.0011506960607185045 0 0.017554957581703917 -1.9062967532731814e-05 0 0.020350892296823964 -0.00010361311947101447 0 0.020368019037215964 -0.0010369652511969542 0 0.019857564194521466 -0.00080459969417591914 0 0.01187012989340039 -0.0018437249427101828 0 0.015327277008752306 -0.0013148186321962733 0 0.020350892296823964 -0.00010361311947101447 0 0.017554957581703917 -1.9062967532731814e-05 0 0.019501508745787485 -0.00039098919885576357 0 0.020350892296823964 -0.00010361311947101447 0 0.019501508745787485 -0.00039098919885576357 0 0.019857564194521466 -0.00080459969417591914 0 0.019550614706852588 -0.0010303019976871954 0 0.019501508745787485 -0.00039098919885576357 0 0.019857564194521466 -0.00080459969417591914 0 0.013414535603829192 0.001956099303299381 0 0.01406227324128553 0.0024026559530654439 0 0.013617501049096316 0.00081225716952715917 0 0.013414535603829192 0.001956099303299381 0 0.013617501049096316 0.00081225716952715917 0 0.012805915872359363 0.0019527775900069905 0 0.023939496408407687 -0.00099071501763508879 0 0.023140635281687354 -0.0010319643484067601 0 0.023215419412558513 -0.00046693602547066241 0 0.019638647519673504 -0.00023202386665726043 0 0.017760810929977409 0.00028845287681746116 0 0.013414535603829192 0.001956099303299381 0 0.012805915872359363 0.0019527775900069905 0 0.013269499607578186 0.0025579737184410578 0 0.013414535603829192 0.001956099303299381 0 0.01406227324128553 0.0024026559530654439 0 0.013269499607578186 0.0025579737184410578 0 0.015207335495585485 0.0020287197476832903 0 0.01406227324128553 0.0024026559530654439 0 0.014812292844562277 0.0028792905065277833 0 0.015207335495585485 0.0020287197476832903 0 0.01406227324128553 0.0024026559530654439 0 0.013617501049096316 0.00081225716952715917 0 0.022240265584073961 -0.0010879605292511869 0 0.023393913749731838 -0.0011827164357565009 0 0.024607252318851355 -0.0014618041108694529 0 0.023939496408407687 -0.00099071501763508879 0 0.023506876067235425 -0.0014642046080218744 0 0.022240265584073961 -0.0010879605292511869 0 0.019638647519673504 -0.00023202386665726043 0 0.015906764026190914 -0.0015969281386150299 0 0.015207335495585485 0.0020287197476832903 0 0.013617501049096316 0.00081225716952715917 0 0.023939496408407687 -0.00099071501763508879 0 0.023506876067235425 -0.0014642046080218744 0 0.023140635281687354 -0.0010319643484067601 0 0.023506876067235425 -0.0014642046080218744 0 0.022857527380925093 -0.0013476073841086457 0 0.023140635281687354 -0.0010319643484067601 0 0.022857527380925093 -0.0013476073841086457 0 0.022434515564675704 -0.0015383956806330327 0 0.022531105229820516 -0.0011001317049726381 0 0.023140635281687354 -0.0010319643484067601 0 0.022531105229820516 -0.0011001317049726381 0 0.022848598314793449 -0.00069438406546743208 0 0.022857527380925093 -0.0013476073841086457 0 0.023140635281687354 -0.0010319643484067601 0 0.022531105229820516 -0.0011001317049726381 0 0.021720190061135923 -0.0015927510974820481 0 0.021803490623365208 -0.0012726930887597076 0 0.022087914097656019 -0.0013236272433100611 0 0.022087914097656019 -0.0013236272433100611 0 0.022434515564675704 -0.0015383956806330327 0 0.022531105229820516 -0.0011001317049726381 0 0.022531105229820516 -0.0011001317049726381 0 0.022213405763231709 -0.00098165443360603431 0 0.022419101209012166 -0.00064021016954539758 0 0.022087914097656019 -0.0013236272433100611 0 0.022531105229820516 -0.0011001317049726381 0 0.022213405763231709 -0.00098165443360603431 0 0.021842734549608615 -0.0010144539548249979 0 0.022087914097656019 -0.0013236272433100611 0 0.022213405763231709 -0.00098165443360603431 0 0.021842734549608615 -0.0010144539548249979 0 0.022213405763231709 -0.00098165443360603431 0 0.021976183378827382 -0.00076834164014398694 0 0.021842734549608615 -0.0010144539548249979 0 0.021803490623365208 -0.0012726930887597076 0 0.022087914097656019 -0.0013236272433100611 0 0.021832178588574218 -0.00017394365120572386 0 0.022419101209012166 -0.00064021016954539758 0 0.022824991453231577 -0.00018856078944695594 0 0.013409125496824834 -2.361080768402478e-05 0 0.016805612284339546 0.00049682533998412386 0 0.022213405763231709 -0.00098165443360603431 0 0.021976183378827382 -0.00076834164014398694 0 0.022419101209012166 -0.00064021016954539758 0 0.021832178588574218 -0.00017394365120572386 0 0.021976183378827382 -0.00076834164014398694 0 0.022419101209012166 -0.00064021016954539758 0 0.023140635281687354 -0.0010319643484067601 0 0.022848598314793449 -0.00069438406546743208 0 0.023215419412558513 -0.00046693602547066241 0 0.022419101209012166 -0.00064021016954539758 0 0.022848598314793449 -0.00069438406546743208 0 0.022824991453231577 -0.00018856078944695594 0 0.022531105229820516 -0.0011001317049726381 0 0.022419101209012166 -0.00064021016954539758 0 0.022848598314793449 -0.00069438406546743208 0 0.012434484737184373 0.0023119895223725232 0 0.012805915872359363 0.0019527775900069905 0 0.012683058365032616 0.0026751684987320278 0 0.022848598314793449 -0.00069438406546743208 0 0.022824991453231577 -0.00018856078944695594 0 0.023215419412558513 -0.00046693602547066241 0 0.016805612284339546 0.00049682533998412386 0 0.017760810929977409 0.00028845287681746116 0 0.012805915872359363 0.0019527775900069905 0 0.012683058365032616 0.0026751684987320278 0 0.013269499607578186 0.0025579737184410578 0 0.012683058365032616 0.0026751684987320278 0 0.012958976920065845 0.0030695673240104765 0 0.013269499607578186 0.0025579737184410578 0 0.012683058365032616 0.0026751684987320278 0 0.012372084044851028 0.0031303846781120287 0 0.012045866816069877 0.0026170232848853098 0 0.012434484737184373 0.0023119895223725232 0 0.012683058365032616 0.0026751684987320278 0 0.012045866816069877 0.0026170232848853098 0 0.016805612284339546 0.00049682533998412386 0 0.01619557947289706 0.00087330342224464948 0 0.012683058365032616 0.0026751684987320278 0 0.012372084044851028 0.0031303846781120287 0 0.012958976920065845 0.0030695673240104765 0 0.011379199969180347 0.0023321917912603406 0 0.012045866816069877 0.0026170232848853098 0 0.011878913457214956 0.0035002925574377833 0 0.011379199969180347 0.0023321917912603406 0 0.01247344617968822 0.0023227605018780262 0 0.012045866816069877 0.0026170232848853098 0 0.013409125496824834 -2.361080768402478e-05 0 0.012576717298954902 0.001709207968118333 0 0.0087470806310170537 0.00030052777259536272 0 0.0094181832727573498 -0.001076078340440746 0 0.010308210920445369 0.00086451529386179812 0 0.012372084044851028 0.0031303846781120287 0 0.012045866816069877 0.0026170232848853098 0 0.011878913457214956 0.0035002925574377833 0 0.012372084044851028 0.0031303846781120287 0 0.011878913457214956 0.0035002925574377833 0 0.012709442456632915 0.0038385046209727615 0 0.011878913457214956 0.0035002925574377833 0 0.012709442456632915 0.0038385046209727615 0 0.012369340527057494 0.0046271896053263848 0 0.012372084044851028 0.0031303846781120287 0 0.012958976920065845 0.0030695673240104765 0 0.012709442456632915 0.0038385046209727615 0 0.012958976920065845 0.0030695673240104765 0 0.012709442456632915 0.0038385046209727615 0 0.013280266347805242 0.003662109857590445 0 0.013280266347805242 0.003662109857590445 0 0.01392528760941031 0.0033605059905650533 0 0.013525804422096999 0.0043375580434615157 0 0.012709442456632915 0.0038385046209727615 0 0.013280266347805242 0.003662109857590445 0 0.013525804422096999 0.0043375580434615157 0 0.012958976920065845 0.0030695673240104765 0 0.013280266347805242 0.003662109857590445 0 0.01392528760941031 0.0033605059905650533 0 0.012958976920065845 0.0030695673240104765 0 0.013269499607578186 0.0025579737184410578 0 0.01392528760941031 0.0033605059905650533 0 0.01406227324128553 0.0024026559530654439 0 0.013269499607578186 0.0025579737184410578 0 0.01392528760941031 0.0033605059905650533 0 0.01406227324128553 0.0024026559530654439 0 0.014812292844562277 0.0028792905065277833 0 0.01392528760941031 0.0033605059905650533 0 0.01392528760941031 0.0033605059905650533 0 0.014668236403660344 0.0038653985445099705 0 0.013525804422096999 0.0043375580434615157 0 0.014812292844562277 0.0028792905065277833 0 0.01392528760941031 0.0033605059905650533 0 0.014668236403660344 0.0038653985445099705 0 0.014660339553447489 0.0048611539655682 0 0.014668236403660344 0.0038653985445099705 0 0.013525804422096999 0.0043375580434615157 0 0.013525804422096999 0.0043375580434615157 0 0.01305219213796947 0.0049990981524252213 0 0.012369340527057494 0.0046271896053263848 0 0.013525804422096999 0.0043375580434615157 0 0.013755567844287457 0.0054442434665872555 0 0.01305219213796947 0.0049990981524252213 0 0.013755567844287457 0.0054442434665872555 0 0.01305219213796947 0.0049990981524252213 0 0.012634449832625065 0.0056184788211857085 0 0.014660339553447489 0.0048611539655682 0 0.013525804422096999 0.0043375580434615157 0 0.013755567844287457 0.0054442434665872555 0 0.014660339553447489 0.0048611539655682 0 0.015029203707167697 0.0057707602773373647 0 0.013755567844287457 0.0054442434665872555 0 0.0090427537130905334 0.0017624916816006819 0 0.010308210920445369 0.00086451529386179812 0 0.011439227741798208 0.0029924094551715781 0 0.0087727266057552981 0.0032414721905166407 0 0.0090427537130905334 0.0017624916816006819 0 0.011439227741798208 0.0029924094551715781 0 0.012576717298954902 0.001709207968118333 0 0.012598166221451412 0.0033602723403685108 0 0.012709442456632915 0.0038385046209727615 0 0.013525804422096999 0.0043375580434615157 0 0.012369340527057494 0.0046271896053263848 0 0.012598166221451412 0.0033602723403685108 0 0.012781802766803813 0.00424725759906987 0 0.01305219213796947 0.0049990981524252213 0 0.012369340527057494 0.0046271896053263848 0 0.012634449832625065 0.0056184788211857085 0 0.011439227741798208 0.0029924094551715781 0 0.010520207569418629 0.0053916217432407668 0 0.012634449832625065 0.0056184788211857085 0 0.0095188177343775975 0.0041759141561673197 0 0.010020742920543134 0.0047774843139525612 0 0.0087727266057552981 0.0032414721905166407 0 0.011439227741798208 0.0029924094551715781 0 0.010520207569418629 0.0053916217432407668 0 0.0091712345775874678 0.0042735875751986887 0 0.0096437050850012654 0.005097254247887653 0 0.0090946996114764922 0.0051298559497030055 0 0.0085199627835278145 0.0047237518238822601 0 0.0091712345775874678 0.0042735875751986887 0 0.0090946996114764922 0.0051298559497030055 0 0.010020742920543134 0.0047774843139525612 0 0.010929823593743816 0.0057910174386652993 0 0.012634449832625065 0.0056184788211857085 0 0.012242274937170202 0.0068961183742234774 0 0.013356370835046469 0.0060887985024465022 0 0.010520207569418629 0.0053916217432407668 0 0.012634449832625065 0.0056184788211857085 0 0.012242274937170202 0.0068961183742234774 0 0.010929823593743816 0.0057910174386652993 0 0.011867804426925047 0.0067518017039415439 0 0.0096437050850012654 0.005097254247887653 0 0.0093894184233301228 0.0054098931067255154 0 0.0097076458111566236 0.0057851397380250108 0 0.0096437050850012654 0.005097254247887653 0 0.0093894184233301228 0.0054098931067255154 0 0.0090946996114764922 0.0051298559497030055 0 0.0086222718693811286 0.0055368005494458306 0 0.0085199627835278145 0.0047237518238822601 0 0.0090946996114764922 0.0051298559497030055 0 0.0093894184233301228 0.0054098931067255154 0 0.0090946996114764922 0.0051298559497030055 0 0.0091191712683265768 0.0056339133682000346 0 0.0086222718693811286 0.0055368005494458306 0 0.0090946996114764922 0.0051298559497030055 0 0.0091191712683265768 0.0056339133682000346 0 0.015029203707167697 0.0057707602773373647 0 0.013755567844287457 0.0054442434665872555 0 0.014031761134475473 0.006405513393754469 0 0.013755567844287457 0.0054442434665872555 0 0.012634449832625065 0.0056184788211857085 0 0.013356370835046469 0.0060887985024465022 0 0.013755567844287457 0.0054442434665872555 0 0.014031761134475473 0.006405513393754469 0 0.013356370835046469 0.0060887985024465022 0 0.012242274937170202 0.0068961183742234774 0 0.013356370835046469 0.0060887985024465022 0 0.013293606805543305 0.0069272645897886917 0 0.014031761134475473 0.006405513393754469 0 0.013356370835046469 0.0060887985024465022 0 0.013293606805543305 0.0069272645897886917 0 0.012242274937170202 0.0068961183742234774 0 0.013293606805543305 0.0069272645897886917 0 0.013211669883039585 0.0077848063348258563 0 0.014766488558361608 0.0067555142329304273 0 0.014031761134475473 0.006405513393754469 0 0.014035246910057305 0.0073850010712367426 0 0.014766488558361608 0.0067555142329304273 0 0.014035246910057305 0.0073850010712367426 0 0.014890076020954197 0.007689286015615325 0 0.014031761134475473 0.006405513393754469 0 0.013293606805543305 0.0069272645897886917 0 0.014035246910057305 0.0073850010712367426 0 0.014035246910057305 0.0073850010712367426 0 0.013211669883039585 0.0077848063348258563 0 0.014036813711793184 0.0087732230893651127 0 0.014035246910057305 0.0073850010712367426 0 0.014036813711793184 0.0087732230893651127 0 0.014890076020954197 0.007689286015615325 0 0.013293606805543305 0.0069272645897886917 0 0.014035246910057305 0.0073850010712367426 0 0.013211669883039585 0.0077848063348258563 0 0.010376869128187848 0.0059503560671682687 0 0.010252238100628445 0.0071030751623721048 0 0.0097209494687657914 0.0065081065163601374 0 0.010252238100628445 0.0071030751623721048 0 0.011413135236068421 0.007178398898722833 0 0.010715348797978955 0.0080637102040453448 0 0.010376869128187848 0.0059503560671682687 0 0.010252238100628445 0.0071030751623721048 0 0.011413135236068421 0.007178398898722833 0 0.011867804426925047 0.0067518017039415439 0 0.012762724859818596 0.0075532759779500585 0 0.012762724859818596 0.0075532759779500585 0 0.013955178409958751 0.0070369455152562831 0 0.0044606712640063188 0.0043023501280280161 0 0.0071250654712073334 0.0041383703539622048 0 0.0086222718693811286 0.0055368005494458306 0 0.0087122564050412608 0.0061397576225537889 0 0.0091191712683265768 0.0056339133682000346 0 0.0087122564050412608 0.0061397576225537889 0 0.0091191712683265768 0.0056339133682000346 0 0.0097076458111566236 0.0057851397380250108 0 0.0077994094836251688 0.0064021013705734334 0 0.0097076458111566236 0.0057851397380250108 0 0.0089785593843234104 0.0065647231456351703 0 0.0096437050850012654 0.005097254247887653 0 0.010376869128187848 0.0059503560671682687 0 0.0097076458111566236 0.0057851397380250108 0 0.0093894184233301228 0.0054098931067255154 0 0.0091191712683265768 0.0056339133682000346 0 0.0097076458111566236 0.0057851397380250108 0 0.0097076458111566236 0.0057851397380250108 0 0.0097209494687657914 0.0065081065163601374 0 0.0089785593843234104 0.0065647231456351703 0 0.010376869128187848 0.0059503560671682687 0 0.0097076458111566236 0.0057851397380250108 0 0.0097209494687657914 0.0065081065163601374 0 0.010252238100628445 0.0071030751623721048 0 0.0097209494687657914 0.0065081065163601374 0 0.0093654535590140097 0.0071990168805569875 0 0.010252238100628445 0.0071030751623721048 0 0.0093654535590140097 0.0071990168805569875 0 0.0096262889226021182 0.0080561211048736318 0 0.0097209494687657914 0.0065081065163601374 0 0.0093654535590140097 0.0071990168805569875 0 0.0089785593843234104 0.0065647231456351703 0 0.0093654535590140097 0.0071990168805569875 0 0.0089785593843234104 0.0065647231456351703 0 0.0083218011339086153 0.0069156121103830116 0 0.0077994094836251688 0.0064021013705734334 0 0.0089785593843234104 0.0065647231456351703 0 0.0083218011339086153 0.0069156121103830116 0 0.0077994094836251688 0.0064021013705734334 0 0.0083218011339086153 0.0069156121103830116 0 0.0079557313272122596 0.007521142762038884 0 0.0044606712640063188 0.0043023501280280161 0 0.0034435178752299537 0.0046516849032093768 0 0.0083218011339086153 0.0069156121103830116 0 0.0079557313272122596 0.007521142762038884 0 0.0088195138621669639 0.0076753313724398711 0 0.0093654535590140097 0.0071990168805569875 0 0.0083218011339086153 0.0069156121103830116 0 0.0088195138621669639 0.0076753313724398711 0 0.0079557313272122596 0.007521142762038884 0 0.0088195138621669639 0.0076753313724398711 0 0.0088393337188746278 0.0086824436316725543 0 0.0034435178752299537 0.0046516849032093768 0 0.001504759253442061 0.004186701007111362 0 0.0017757868697027761 0.0036709433328336099 0 0.0017430924776693291 0.0034092932213813805 0 0.0019151517281320405 0.0037126819381903225 0 -0.00067475663811364514 -0.0013498171929744406 0 0.0028460499551678673 0.002878683300049529 0 -9.9469514250572375e-05 0.0030775858597842237 0 0.0034435178752299537 0.0046516849032093768 0 0.0054712060342794267 0.0064142318357179135 0 0.0096262889226021182 0.0080561211048736318 0 0.0088393337188746278 0.0086824436316725543 0 0.0099739542521151362 0.0089851241842568725 0 0.0088195138621669639 0.0076753313724398711 0 0.0096262889226021182 0.0080561211048736318 0 0.0088393337188746278 0.0086824436316725543 0 0.0093654535590140097 0.0071990168805569875 0 0.0088195138621669639 0.0076753313724398711 0 0.0096262889226021182 0.0080561211048736318 0 0.004176909483834818 0.006810615224719342 0 0.0028460499551678673 0.002878683300049529 0 0.0065341882737666281 0.0072508335481133862 0 0.0054712060342794267 0.0064142318357179135 0 0.0074994703784631378 0.0086071795359883244 0 0.0088393337188746278 0.0086824436316725543 0 0.0099739542521151362 0.0089851241842568725 0 0.0097185989256237289 0.010098724731489546 0 0.0040581588332433312 0.006737297073578106 0 -0.00043337996290630971 0.0028492976266471107 0 0.00042795983210779651 0.0094682708850120489 0 0.001504759253442061 0.004186701007111362 0 0.0011777700463281554 0.0084997183594218775 0 0.0039062318279767727 0.0064053111307013164 0 0.001504759253442061 0.004186701007111362 0 0.004176909483834818 0.006810615224719342 0 0.0028460499551678673 0.002878683300049529 0 -9.9469514250572375e-05 0.0030775858597842237 0 -0.0014001523585162191 0.0017639822561438582 0 -0.00043692558471874419 0.0084293562418553351 0 -0.0038056290861390282 0.0052766838632289995 0 0.012213132668527476 0.0080425715949886418 0 0.011013545377690951 0.0077435699971969288 0 0.011223978985049765 0.0090394748035158307 0 0.012213132668527476 0.0080425715949886418 0 0.013009775647536165 0.0086102160958170335 0 0.01353040831187643 0.0081428385780653052 0 0.012762724859818596 0.0075532759779500585 0 0.012915215185085826 0.0076891340144731668 0 0.012137030931228067 0.0063150877805971126 0 0.012213132668527476 0.0080425715949886418 0 0.01353040831187643 0.0081428385780653052 0 0.012137030931228067 0.0063150877805971126 0 0.012213132668527476 0.0080425715949886418 0 0.011013545377690951 0.0077435699971969288 0 0.012762724859818596 0.0075532759779500585 0 0.011922574196254542 0.0081115730033440095 0 0.010252238100628445 0.0071030751623721048 0 0.0096262889226021182 0.0080561211048736318 0 0.010715348797978955 0.0080637102040453448 0 0.011922574196254542 0.0081115730033440095 0 0.011549773636090296 0.0084235688724531941 0 0.0096262889226021182 0.0080561211048736318 0 0.010715348797978955 0.0080637102040453448 0 0.0099739542521151362 0.0089851241842568725 0 0.011013545377690951 0.0077435699971969288 0 0.011223978985049765 0.0090394748035158307 0 0.0099739542521151362 0.0089851241842568725 0 0.0099739542521151362 0.0089851241842568725 0 0.010530607091363747 0.0099628832036713685 0 0.0097185989256237289 0.010098724731489546 0 0.011223978985049765 0.0090394748035158307 0 0.010530607091363747 0.0099628832036713685 0 0.011379874482461602 0.010200449923165673 0 0.011223978985049765 0.0090394748035158307 0 0.0099739542521151362 0.0089851241842568725 0 0.010530607091363747 0.0099628832036713685 0 0.012385906170232072 0.0093574783530093932 0 0.012746976692488289 0.011261860546814597 0 0.013776966559819508 0.0088313290026411865 0 0.011223978985049765 0.0090394748035158307 0 0.012385906170232072 0.0093574783530093932 0 0.011379874482461602 0.010200449923165673 0 0.012213132668527476 0.0080425715949886418 0 0.011223978985049765 0.0090394748035158307 0 0.012385906170232072 0.0093574783530093932 0 0.013009775647536165 0.0086102160958170335 0 0.012385906170232072 0.0093574783530093932 0 0.013776966559819508 0.0088313290026411865 0 0.012213132668527476 0.0080425715949886418 0 0.013009775647536165 0.0086102160958170335 0 0.012385906170232072 0.0093574783530093932 0 0.012746976692488289 0.011261860546814597 0 0.011379874482461602 0.010200449923165673 0 0.010335250715586294 0.012113179829908649 0 0.012385906170232072 0.0093574783530093932 0 0.012746976692488289 0.011261860546814597 0 0.011379874482461602 0.010200449923165673 0 0.010026597533544948 0.010374582024003893 0 0.0060891748183807626 0.012556359062326083 0 0.01292645263738817 0.010150309178372049 0 0.012088710411267946 0.011627742216523691 0 0.013439300094087926 0.011445531265246132 0 0.012746976692488289 0.011261860546814597 0 0.010335250715586294 0.012113179829908649 0 0.010734453634727081 0.016909242610360704 0 0.0077727076082414739 0.013770780544811598 0 0.010335250715586294 0.012113179829908649 0 0.010734453634727081 0.016909242610360704 0 0.0077727076082414739 0.013770780544811598 0 0.010335250715586294 0.012113179829908649 0 0.0086869954649414268 0.010899762278169484 0 0.0077727076082414739 0.013770780544811598 0 0.0086869954649414268 0.010899762278169484 0 0.0063325776361864497 0.012206206373134566 0 0.010335250715586294 0.012113179829908649 0 0.0086869954649414268 0.010899762278169484 0 0.0065341882737666281 0.0072508335481133862 0 0.010530607091363747 0.0099628832036713685 0 0.011379874482461602 0.010200449923165673 0 0.010335250715586294 0.012113179829908649 0 0.0085819233493840321 0.0098890176539174774 0 0.0074994703784631378 0.0086071795359883244 0 0.010530607091363747 0.0099628832036713685 0 0.010335250715586294 0.012113179829908649 0 0.0097185989256237289 0.010098724731489546 0 0.0039062318279767727 0.0064053111307013164 0 0.0056191886022958762 0.0079401767321030381 0 0.0040581588332433312 0.006737297073578106 0 0.0086869954649414268 0.010899762278169484 0 0.0046936523143105138 0.010600196440981483 0 0.004176909483834818 0.006810615224719342 0 0.0086869954649414268 0.010899762278169484 0 0.0065341882737666281 0.0072508335481133862 0 0.0040581588332433312 0.006737297073578106 0 0.0046936523143105138 0.010600196440981483 0 0.00042795983210779651 0.0094682708850120489 0 0.00042795983210779651 0.0094682708850120489 0 0.0041525684784889487 0.013577263882630652 0 0.0010027290801400822 0.015797961036332898 0 0.0011777700463281554 0.0084997183594218775 0 0.0013276548999245387 0.01150295215816172 0 -0.00043692558471874419 0.0084293562418553351 0 0.0010027290801400822 0.015797961036332898 0 -0.0043777092317242002 0.013319676445825374 0 0.0046936523143105138 0.010600196440981483 0 0.00042795983210779651 0.0094682708850120489 0 0.0041525684784889487 0.013577263882630652 0 0.0046936523143105138 0.010600196440981483 0 0.0063325776361864497 0.012206206373134566 0 0.0041525684784889487 0.013577263882630652 0 0.0086869954649414268 0.010899762278169484 0 0.0046936523143105138 0.010600196440981483 0 0.0063325776361864497 0.012206206373134566 0 0.0077727076082414739 0.013770780544811598 0 0.0041525684784889487 0.013577263882630652 0 0.00634930146667441 0.016362909495531833 0 0.0077727076082414739 0.013770780544811598 0 0.0063325776361864497 0.012206206373134566 0 0.0041525684784889487 0.013577263882630652 0 0.00634930146667441 0.016362909495531833 0 0.0036800051941308937 0.016426375403679517 0 0.0045399613831469043 0.018608748078824906 0 0.0041525684784889487 0.013577263882630652 0 0.00634930146667441 0.016362909495531833 0 0.0036800051941308937 0.016426375403679517 0 0.0041525684784889487 0.013577263882630652 0 0.0036800051941308937 0.016426375403679517 0 0.0010027290801400822 0.015797961036332898 0 0.0036800051941308937 0.016426375403679517 0 0.0022774229601592749 0.017863552316823943 0 0.0010027290801400822 0.015797961036332898 0 0.0022774229601592749 0.017863552316823943 0 0.0025909657506397541 0.019431895074085805 0 0.0045399613831469043 0.018608748078824906 0 0.0036800051941308937 0.016426375403679517 0 0.0022774229601592749 0.017863552316823943 0 0.0045399613831469043 0.018608748078824906 0 0.00634930146667441 0.016362909495531833 0 0.0045399613831469043 0.018608748078824906 0 0.0071425889214508593 0.019007200460583375 0 0.0045399613831469043 0.018608748078824906 0 0.0051039915734857784 0.020644945669827389 0 0.0071425889214508593 0.019007200460583375 0 -0.00084604388753028645 0.017165398692899535 0 -0.0017333371779039367 0.019287369071803565 0 -0.0043777092317242002 0.013319676445825374 0 -0.00084604388753028645 0.017165398692899535 0 0.0010027290801400822 0.015797961036332898 0 -0.0043777092317242002 0.013319676445825374 0 -0.00084604388753028645 0.017165398692899535 0 0.0010027290801400822 0.015797961036332898 0 0.00062331276536144577 0.017960950557570857 0 0.0022774229601592749 0.017863552316823943 0 0.0010027290801400822 0.015797961036332898 0 0.00062331276536144577 0.017960950557570857 0 0.0022774229601592749 0.017863552316823943 0 0.001502354010779244 0.019207919851652676 0 0.00062331276536144577 0.017960950557570857 0 0.0022774229601592749 0.017863552316823943 0 0.0025909657506397541 0.019431895074085805 0 0.001502354010779244 0.019207919851652676 0 0.001502354010779244 0.019207919851652676 0 0.00062331276536144577 0.017960950557570857 0 -0.00028581305800257274 0.019370996544908706 0 -0.00084604388753028645 0.017165398692899535 0 0.00062331276536144577 0.017960950557570857 0 -0.00028581305800257274 0.019370996544908706 0 -0.00084604388753028645 0.017165398692899535 0 -0.00028581305800257274 0.019370996544908706 0 -0.0017333371779039367 0.019287369071803565 0 -0.0062955949256883349 0.017918978761217834 0 -0.0086104704758131981 0.016724932957942366 0 -0.00028581305800257274 0.019370996544908706 0 -0.0017333371779039367 0.019287369071803565 0 0.00053496262067734789 0.024653180637376173 0 -0.0031203388651173869 0.017451962233280046 0 -0.0041273129192105429 0.020312614680328755 0 -0.0016089813576142342 0.021513038248788127 0 -0.00028581305800257274 0.019370996544908706 0 0.0026534415358454183 0.021354586477465496 0 0.00053496262067734789 0.024653180637376173 0 -0.0047678626051902038 0.018097608766975377 0 -0.0060271749303473232 0.017361336787116214 0 0.001502354010779244 0.019207919851652676 0 -0.00028581305800257274 0.019370996544908706 0 0.0028177963863391859 0.021230646090486215 0 -0.0060271749303473232 0.017361336787116214 0 -0.0086104704758131981 0.016724932957942366 0 -0.015092579122869546 0.011303875653550172 0 -0.01388265059602036 0.012106820347855403 0 -0.014790235036647606 0.012364421031483117 0 0.0051039915734857784 0.020644945669827389 0 0.0028160165901951872 0.021166812966268499 0 0.0074912849145702919 0.024261047089974983 0 0.0051039915734857784 0.020644945669827389 0 0.0071425889214508593 0.019007200460583375 0 0.0074912849145702919 0.024261047089974983 0 -0.0060271749303473232 0.017361336787116214 0 -0.0021639715070331882 0.014728547615967721 0 0.0025909657506397541 0.019431895074085805 0 0.0045399613831469043 0.018608748078824906 0 0.0032342117412950794 0.020549855905414267 0 0.0051039915734857784 0.020644945669827389 0 0.0032342117412950794 0.020549855905414267 0 0.0028160165901951872 0.021166812966268499 0 0.0045399613831469043 0.018608748078824906 0 0.0051039915734857784 0.020644945669827389 0 0.0032342117412950794 0.020549855905414267 0 0.0025909657506397541 0.019431895074085805 0 0.001502354010779244 0.019207919851652676 0 0.0028177963863391859 0.021230646090486215 0 0.0025909657506397541 0.019431895074085805 0 0.0032342117412950794 0.020549855905414267 0 0.0028177963863391859 0.021230646090486215 0 -0.0059908953723891625 0.017356869241738185 0 -0.0060271749303473232 0.017361336787116214 0 -0.015092579122869546 0.011303875653550172 0 -0.014790235036647606 0.012364421031483117 0 -0.015637410873415823 0.01212660834216691 0 0.012621979819324509 0.012680235198869199 0 0.012088710411267946 0.011627742216523691 0 0.011320314091469993 0.013156134101999728 0 0.0060891748183807626 0.012556359062326083 0 -0.0021639715070331882 0.014728547615967721 0 0.010734453634727081 0.016909242610360704 0 0.0071425889214508593 0.019007200460583375 0 0.0074912849145702919 0.024261047089974983 0 0.012621979819324509 0.012680235198869199 0 0.012088710411267946 0.011627742216523691 0 0.013439300094087926 0.011445531265246132 0 0.0077727076082414739 0.013770780544811598 0 0.00634930146667441 0.016362909495531833 0 0.010734453634727081 0.016909242610360704 0 0.00634930146667441 0.016362909495531833 0 0.010734453634727081 0.016909242610360704 0 0.0071425889214508593 0.019007200460583375 0 -0.014260781498895429 0.015902955084882337 0 -0.011342103331065077 0.019703216034049332 0 -0.010862105071094903 0.01487151304962429 0 -0.014282795916686688 0.01537485210183941 0 -0.017180440113611802 0.013596223876113114 0 -0.018884141315980086 0.017862931689596264 0 -0.016507242807434278 0.020707546152143829 0 -0.018884141315980086 0.017862931689596264 0 -0.018219477411953292 0.024558329946923016 0 -0.014282795916686688 0.01537485210183941 0 -0.016507242807434278 0.020707546152143829 0 -0.018884141315980086 0.017862931689596264 0 -0.01396579140882015 0.014833006453994411 0 -0.014974639692572228 0.017149646672412439 0 -0.014260781498895429 0.015902955084882337 0 -0.016507242807434278 0.020707546152143829 0 -0.011342103331065077 0.019703216034049332 0 -0.011342103331065077 0.019703216034049332 0 -0.0080428661408352697 0.017276882795025126 0 -0.0065648706991969551 0.021553569410549926 0 -0.0052825491003736045 0.018434069287523443 0 -0.0080428661408352697 0.017276882795025126 0 -0.0065648706991969551 0.021553569410549926 0 -0.0041273129192105429 0.020312614680328755 0 -0.0052825491003736045 0.018434069287523443 0 -0.0065648706991969551 0.021553569410549926 0 -0.0031203388651173869 0.017451962233280046 0 -0.0041273129192105429 0.020312614680328755 0 -0.0052825491003736045 0.018434069287523443 0 -0.0062955949256883349 0.017918978761217834 0 -0.0061513164302115031 0.016930285382693613 0 -0.0053700384205022074 0.01593933447292871 0 -0.0080428661408352697 0.017276882795025126 0 -0.0080533876872183243 0.01318571455480977 0 -0.0031203388651173869 0.017451962233280046 0 -0.0053700384205022074 0.01593933447292871 0 -0.0043777092317242002 0.013319676445825374 0 -0.0031203388651173869 0.017451962233280046 0 -0.0052825491003736045 0.018434069287523443 0 -0.0053700384205022074 0.01593933447292871 0 -0.0052825491003736045 0.018434069287523443 0 -0.0053700384205022074 0.01593933447292871 0 -0.0080428661408352697 0.017276882795025126 0 -0.011342103331065077 0.019703216034049332 0 -0.010862105071094903 0.01487151304962429 0 -0.0080428661408352697 0.017276882795025126 0 -0.010862105071094903 0.01487151304962429 0 -0.0080428661408352697 0.017276882795025126 0 -0.0080533876872183243 0.01318571455480977 0 -0.010862105071094903 0.01487151304962429 0 -0.0080533876872183243 0.01318571455480977 0 -0.012156619094152013 0.010836036344696954 0 -0.0080533876872183243 0.01318571455480977 0 -0.0065523146678605065 0.0084831593191941335 0 -0.012156619094152013 0.010836036344696954 0 -0.0080533876872183243 0.01318571455480977 0 -0.0043777092317242002 0.013319676445825374 0 -0.0065523146678605065 0.0084831593191941335 0 -0.0053700384205022074 0.01593933447292871 0 -0.0080533876872183243 0.01318571455480977 0 -0.0043777092317242002 0.013319676445825374 0 -0.00043692558471874419 0.0084293562418553351 0 -0.0043777092317242002 0.013319676445825374 0 -0.0065523146678605065 0.0084831593191941335 0 -0.00043692558471874419 0.0084293562418553351 0 -0.0065523146678605065 0.0084831593191941335 0 -0.0038056290861390282 0.0052766838632289995 0 -0.0065523146678605065 0.0084831593191941335 0 -0.012156619094152013 0.010836036344696954 0 -0.0098545401491855443 0.0055493811171042247 0 -0.014011729399194846 0.0076330372600639717 0 -0.013026502798505637 0.0052231807854453936 0 -0.0099155166243739094 0.0052585029087558978 0 -0.0121036365056559 0.010542892278398932 0 -0.010256510800346421 0.0063131140021044111 0 -0.014011729399194846 0.0076330372600639717 0 -0.012117011609618995 0.010196440703137476 0 -0.016097354372410805 0.010371315246681669 0 -0.014011729399194846 0.0076330372600639717 0 -0.012117011609618995 0.010196440703137476 0 -0.0099155166243739094 0.0052585029087558978 0 -0.014011729399194846 0.0076330372600639717 0 -0.014803367356817849 0.0063392653537826952 0 -0.013026502798505637 0.0052231807854453936 0 -0.014282795916686688 0.01537485210183941 0 -0.012117011609618995 0.010196440703137476 0 -0.016097354372410805 0.010371315246681669 0 -0.01396579140882015 0.014833006453994411 0 -0.0121036365056559 0.010542892278398932 0 -0.014260781498895429 0.015902955084882337 0 -0.010862105071094903 0.01487151304962429 0 -0.012156619094152013 0.010836036344696954 0 -0.014282795916686688 0.01537485210183941 0 -0.017180440113611802 0.013596223876113114 0 -0.016097354372410805 0.010371315246681669 0 -0.017180440113611802 0.013596223876113114 0 -0.016097354372410805 0.010371315246681669 0 -0.019526673619191352 0.010820008135522193 0 -0.016097354372410805 0.010371315246681669 0 -0.018052761795729504 0.0080869583621641216 0 -0.019526673619191352 0.010820008135522193 0 -0.016097354372410805 0.010371315246681669 0 -0.018052761795729504 0.0080869583621641216 0 -0.016031676226682622 0.0073180714900367956 0 -0.014011729399194846 0.0076330372600639717 0 -0.016097354372410805 0.010371315246681669 0 -0.016031676226682622 0.0073180714900367956 0 -0.016031676226682622 0.0073180714900367956 0 -0.014803367356817849 0.0063392653537826952 0 -0.016159543887663299 0.0051809694050631242 0 -0.014011729399194846 0.0076330372600639717 0 -0.016031676226682622 0.0073180714900367956 0 -0.014803367356817849 0.0063392653537826952 0 -0.018052761795729504 0.0080869583621641216 0 -0.016031676226682622 0.0073180714900367956 0 -0.016159543887663299 0.0051809694050631242 0 -0.016074792317127225 0.0043392963118933188 0 -0.012751605352056959 0.0025485823862289006 0 -0.014712752152299741 0.0021744027600990685 0 -0.017105515739291553 0.0046889126558203875 0 -0.01565664814632698 0.0053641383135892675 0 -0.011131840874100159 0.0025728326466468226 0 -0.016074792317127225 0.0043392963118933188 0 -0.016270868923721649 0.0027266329956062421 0 -0.014712752152299741 0.0021744027600990685 0 -0.017079391477854967 0.0047568700346108418 0 -0.014197121151025841 0.0037276167078095696 0 -0.016074792317127225 0.0043392963118933188 0 -0.011131840874100159 0.0025728326466468226 0 -0.012751605352056959 0.0025485823862289006 0 -0.016159543887663299 0.0051809694050631242 0 -0.013026502798505637 0.0052231807854453936 0 -0.010658818846888848 0.0028210736304073447 0 -0.014803367356817849 0.0063392653537826952 0 -0.016159543887663299 0.0051809694050631242 0 -0.013026502798505637 0.0052231807854453936 0 -0.01565664814632698 0.0053641383135892675 0 -0.011131840874100159 0.0025728326466468226 0 -0.010658818846888848 0.0028210736304073447 0 -0.016516292075312869 0.005640259293202679 0 -0.014088528478294487 0.0044363624224512564 0 -0.013026502798505637 0.0052231807854453936 0 -0.0099155166243739094 0.0052585029087558978 0 -0.010658818846888848 0.0028210736304073447 0 -0.012751605352056959 0.0025485823862289006 0 -0.013279551461625278 -0.00034632579812255457 0 -0.014712752152299741 0.0021744027600990685 0 -0.012751605352056959 0.0025485823862289006 0 -0.011836594846535788 0.0011080332545346317 0 -0.013279551461625278 -0.00034632579812255457 0 -0.011131840874100159 0.0025728326466468226 0 -0.012751605352056959 0.0025485823862289006 0 -0.011704090886709186 0.0020157654377038728 0 -0.011082744725919538 0.0018184775295103301 0 -0.011836594846535788 0.0011080332545346317 0 -0.010218225214450854 0.0011555215769346522 0 -0.011131840874100159 0.0025728326466468226 0 -0.011082744725919538 0.0018184775295103301 0 -0.010242793625767882 0.0018270951892790082 0 -0.011131840874100159 0.0025728326466468226 0 -0.011082744725919538 0.0018184775295103301 0 -0.011704090886709186 0.0020157654377038728 0 -0.012751605352056959 0.0025485823862289006 0 -0.011704090886709186 0.0020157654377038728 0 -0.011836594846535788 0.0011080332545346317 0 -0.011082744725919538 0.0018184775295103301 0 -0.011704090886709186 0.0020157654377038728 0 -0.011836594846535788 0.0011080332545346317 0 -0.011836594846535788 0.0011080332545346317 0 -0.010218225214450854 0.0011555215769346522 0 -0.010487821727896956 -5.5933936989858133e-05 0 -0.011836594846535788 0.0011080332545346317 0 -0.013279551461625278 -0.00034632579812255457 0 -0.010487821727896956 -5.5933936989858133e-05 0 -0.013279551461625278 -0.00034632579812255457 0 -0.014712752152299741 0.0021744027600990685 0 -0.01719590967228115 0.0013173812267417301 0 -0.011676589278154896 -0.00065392909380667828 0 -0.014548079908007517 -0.0016760527404041711 0 -0.016444099238875548 0.0011581249503400191 0 -0.010002344925979541 0.0022200537562737845 0 -0.01500274116070475 0.0027432220873924926 0 -0.016270868923721649 0.0027266329956062421 0 -0.014712752152299741 0.0021744027600990685 0 -0.01719590967228115 0.0013173812267417301 0 -0.0065523146678605065 0.0084831593191941335 0 -0.0068865971729706946 0.0024842925047634037 0 -0.0038056290861390282 0.0052766838632289995 0 -0.0037129576090202858 0.0048837190622610209 0 -0.0032269648967041191 0.0032605949567027078 0 -0.0014001523585162191 0.0017639822561438582 0 -0.0068865971729706946 0.0024842925047634037 0 -0.0038056290861390282 0.0052766838632289995 0 -0.0099155166243739094 0.0052585029087558978 0 -0.010658818846888848 0.0028210736304073447 0 -0.0078250315483137291 0.00082129761718334731 0 -0.0071488459777909966 0.0035370477349929105 0 -0.0098545401491855443 0.0055493811171042247 0 -0.0078250315483137291 0.00082129761718334731 0 -0.010256510800346421 0.0063131140021044111 0 -0.0092930221264433954 0.0041193398883355645 0 -0.0065523146678605065 0.0084831593191941335 0 -0.0071488459777909966 0.0035370477349929105 0 -0.0098545401491855443 0.0055493811171042247 0 -0.0071488459777909966 0.0035370477349929105 0 -0.0078250315483137291 0.00082129761718334731 0 -0.0076171217034555405 -0.001099177216209153 0 -0.010242793625767882 0.0018270951892790082 0 -0.010218225214450854 0.0011555215769346522 0 -0.0078250315483137291 0.00082129761718334731 0 -0.010658818846888848 0.0028210736304073447 0 -0.010242793625767882 0.0018270951892790082 0 -0.0078250315483137291 0.00082129761718334731 0 -0.011131840874100159 0.0025728326466468226 0 -0.010658818846888848 0.0028210736304073447 0 -0.010242793625767882 0.0018270951892790082 0 -0.011082744725919538 0.0018184775295103301 0 -0.010242793625767882 0.0018270951892790082 0 -0.010218225214450854 0.0011555215769346522 0 -0.010218225214450854 0.0011555215769346522 0 -0.010487821727896956 -5.5933936989858133e-05 0 -0.0091366433128619116 0.00014643416306935137 0 -0.010487821727896956 -5.5933936989858133e-05 0 -0.0091366433128619116 0.00014643416306935137 0 -0.0090682698166691545 -0.00080270457869604606 0 -0.010218225214450854 0.0011555215769346522 0 -0.0091366433128619116 0.00014643416306935137 0 -0.0078250315483137291 0.00082129761718334731 0 -0.0091366433128619116 0.00014643416306935137 0 -0.0078250315483137291 0.00082129761718334731 0 -0.0076171217034555405 -0.001099177216209153 0 -0.0091366433128619116 0.00014643416306935137 0 -0.0076171217034555405 -0.001099177216209153 0 -0.0090682698166691545 -0.00080270457869604606 0 0.0017430924776693291 0.0034092932213813805 0 0.0019151517281320405 0.0037126819381903225 0 0.0020580277444227184 0.0036853790035364501 0 -0.0014001523585162191 0.0017639822561438582 0 -0.0068865971729706946 0.0024842925047634037 0 -0.0072902266360668905 -0.0033246275729979405 0 -0.0032269648967041191 0.0032605949567027078 0 -0.0012354106595256051 0.0023140769028335861 0 0.001504759253442061 0.004186701007111362 0 -0.0012354106595256051 0.0023140769028335861 0 0.0038477408473570592 0.0050905019479279287 0 0.0036836856151414828 0.0038396048856922209 0 0.0045045142405524766 0.0048356211090542726 0 0.0044606712640063188 0.0043023501280280161 0 0.0029952657606078276 0.0038958257049048002 0 0.0034435178752299537 0.0046516849032093768 0 0.0029952657606078276 0.0038958257049048002 0 0.0017757868697027761 0.0036709433328336099 0 0.0019295703333963299 0.0038603573633334285 0 0.0019151517281320405 0.0037126819381903225 0 0.0019151517281320405 0.0037126819381903225 0 0.0020669665855129896 0.0038057959911728359 0 0.0020580277444227184 0.0036853790035364501 0 0.0019295703333963299 0.0038603573633334285 0 0.0019151517281320405 0.0037126819381903225 0 0.0020669665855129896 0.0038057959911728359 0 0.0029952657606078276 0.0038958257049048002 0 7.5365517408798295e-05 0.0028022424431682598 0 -0.0017542229682892705 0.0020937035660125855 0 -0.0027675786868292464 0.00019469037190783777 0 0.0073488997817375791 0.0063326227989975569 0 0.0071234737452598373 0.0064191440696917818 0 0.0071113011266031433 0.0060401004312257102 0 7.5365517408798295e-05 0.0028022424431682598 0 -0.0017542229682892705 0.0020937035660125855 0 -0.00043254001953729401 0.0038059376540913905 0 -0.00056775752966875081 0.0019346402457699001 0 0.00096487791568912018 0.0032639075291243935 0 7.5365517408798295e-05 0.0028022424431682598 0 -0.0012354106595256051 0.0023140769028335861 0 -0.0076171217034555405 -0.001099177216209153 0 -0.0090682698166691545 -0.00080270457869604606 0 -0.0090077539178790231 -0.0022026261031973648 0 -0.0012354106595256051 0.0023140769028335861 0 -0.0017542229682892705 0.0020937035660125855 0 -0.010487821727896956 -5.5933936989858133e-05 0 -0.0090682698166691545 -0.00080270457869604606 0 -0.0090077539178790231 -0.0022026261031973648 0 0.0071234737452598373 0.0064191440696917818 0 0.0071113011266031433 0.0060401004312257102 0 0.0064713047545314224 0.0058799308674482844 0 0.0073288401766295717 0.005708506747160929 0 0.0071113011266031433 0.0060401004312257102 0 0.0064713047545314224 0.0058799308674482844 0 7.5365517408798295e-05 0.0028022424431682598 0 0.0030742267016397829 0.0048809268446812016 0 0.0073488997817375791 0.0063326227989975569 0 0.0073288401766295717 0.005708506747160929 0 0.0071113011266031433 0.0060401004312257102 0 0.0049185156840187367 0.0048845981471738863 0 0.0044606712640063188 0.0043023501280280161 0 0.0086222718693811286 0.0055368005494458306 0 0.0087092265509137526 0.0063178349622492434 0 0.0083483156930657595 0.0060006916692807019 0 0.00040559853697770375 0.0027767475986573281 0 0.0014993305443199581 0.0023520150378917425 0 0.0016400699567344797 0.0042772659988853145 0 0.0086222718693811286 0.0055368005494458306 0 0.0077865337922097162 0.0058616566715359187 0 0.0083483156930657595 0.0060006916692807019 0 0.008300726644490242 0.0064741780612461762 0 0.0077865337922097162 0.0058616566715359187 0 0.0083483156930657595 0.0060006916692807019 0 0.0029952657606078276 0.0038958257049048002 0 0.0030742267016397829 0.0048809268446812016 0 0.0087092265509137526 0.0063178349622492434 0 0.008300726644490242 0.0064741780612461762 0 0.0083483156930657595 0.0060006916692807019 0 -0.012590924665480068 -0.0034263966798036651 0 -0.014745511156042576 -0.0039049355870753298 0 -0.014548079908007517 -0.0016760527404041711 0 -0.014745511156042576 -0.0039049355870753298 0 -0.014548079908007517 -0.0016760527404041711 0 -0.017615696048814484 -0.001522084842530372 0 -0.011676589278154896 -0.00065392909380667828 0 -0.012590924665480068 -0.0034263966798036651 0 -0.014548079908007517 -0.0016760527404041711 0 -0.013279551461625278 -0.00034632579812255457 0 -0.010487821727896956 -5.5933936989858133e-05 0 -0.0090077539178790231 -0.0022026261031973648 0 -0.0069548051816789485 -0.0024741930535025565 0 -0.010393685669103802 -0.0030642927916955946 0 -0.010662941921494799 -0.0056679776633827552 0 -0.010002344925979541 0.0022200537562737845 0 -0.0017542229682892705 0.0020937035660125855 0 -0.011676589278154896 -0.00065392909380667828 0 -0.0069548051816789485 -0.0024741930535025565 0 -0.010393685669103802 -0.0030642927916955946 0 -0.011676589278154896 -0.00065392909380667828 0 -0.012590924665480068 -0.0034263966798036651 0 -0.010393685669103802 -0.0030642927916955946 0 -0.012590924665480068 -0.0034263966798036651 0 -0.010393685669103802 -0.0030642927916955946 0 -0.010662941921494799 -0.0056679776633827552 0 0.0063462777690859364 0.0053458861449092879 0 0.0073288401766295717 0.005708506747160929 0 0.0064713047545314224 0.0058799308674482844 0 -0.012590924665480068 -0.0034263966798036651 0 -0.010662941921494799 -0.0056679776633827552 0 -0.013524899071128135 -0.0055542972683116608 0 -0.0046244869278025498 -0.0021558029328885243 0 -0.0027675786868292464 0.00019469037190783777 0 -0.014326277347254496 -0.0088189689430957195 0 -0.010662941921494799 -0.0056679776633827552 0 -0.013524899071128135 -0.0055542972683116608 0 -0.012590924665480068 -0.0034263966798036651 0 -0.014745511156042576 -0.0039049355870753298 0 -0.013524899071128135 -0.0055542972683116608 0 -0.0081544004908487913 -0.0044651205535322274 0 -0.0077243793860581646 -0.0041210449072872184 0 -0.014745511156042576 -0.0039049355870753298 0 -0.013524899071128135 -0.0055542972683116608 0 -0.015595347214461068 -0.005909511786573114 0 -0.014326277347254496 -0.0088189689430957195 0 -0.013524899071128135 -0.0055542972683116608 0 -0.015595347214461068 -0.005909511786573114 0 -0.0046244869278025498 -0.0021558029328885243 0 -0.0077243793860581646 -0.0041210449072872184 0 -0.017987567393523116 -0.010981756270812744 0 -0.0157492441327787 -0.0058300159980240289 0 -0.019383063046269789 -0.0050314332681061173 0 -0.014745511156042576 -0.0039049355870753298 0 -0.015629774692448757 -0.0059596552413268165 0 -0.017615696048814484 -0.001522084842530372 0 -0.0077243793860581646 -0.0041210449072872184 0 -0.0099164355198291601 -0.0024663437187937352 0 -0.0157492441327787 -0.0058300159980240289 0 -0.017615696048814484 -0.001522084842530372 0 -0.019383063046269789 -0.0050314332681061173 0 -0.017615696048814484 -0.001522084842530372 0 -0.02188087398002049 -0.0018102484878402168 0 -0.019298271055356742 0.00016908120100907773 0 -0.017615696048814484 -0.001522084842530372 0 -0.02188087398002049 -0.0018102484878402168 0 -0.019383063046269789 -0.0050314332681061173 0 -0.02188087398002049 -0.0018102484878402168 0 -0.022505192196885501 -0.0071984382469395588 0 -0.019383063046269789 -0.0050314332681061173 0 -0.014650623963431081 -0.0084537516511148363 0 -0.021641184678921253 -0.0088236320725212126 0 -0.021306480178252776 -0.0027828706800460943 0 -0.016495728963397783 -0.0054277338526755991 0 -0.02334512851601343 -0.002071242663488852 0 -0.021641184678921253 -0.0088236320725212126 0 -0.021306480178252776 -0.0027828706800460943 0 -0.027908709184940761 -0.0032948375741877864 0 -0.02334512851601343 -0.002071242663488852 0 -0.02967137087911631 0.0019709191895140813 0 -0.02188087398002049 -0.0018102484878402168 0 -0.022505192196885501 -0.0071984382469395588 0 -0.027008038937184529 -0.0034035908866899408 0 -0.02188087398002049 -0.0018102484878402168 0 -0.027008038937184529 -0.0034035908866899408 0 -0.025951343213071808 0.00067402010424036363 0 -0.02188087398002049 -0.0018102484878402168 0 -0.025951343213071808 0.00067402010424036363 0 -0.021211358703737165 0.0028735284949485528 0 -0.027008038937184529 -0.0034035908866899408 0 -0.025951343213071808 0.00067402010424036363 0 -0.031470701169464911 0.00035221271594829113 0 -0.025951343213071808 0.00067402010424036363 0 -0.028141675152228429 0.0039627767401109642 0 -0.031470701169464911 0.00035221271594829113 0 -0.028141675152228429 0.0039627767401109642 0 -0.024748720222936591 0.0044604520387964437 0 -0.026853327354208603 0.008473873270866036 0 -0.025951343213071808 0.00067402010424036363 0 -0.028141675152228429 0.0039627767401109642 0 -0.024748720222936591 0.0044604520387964437 0 -0.025951343213071808 0.00067402010424036363 0 -0.024748720222936591 0.0044604520387964437 0 -0.021211358703737165 0.0028735284949485528 0 -0.021211358703737165 0.0028735284949485528 0 -0.018988874883845298 0.0041911468473929984 0 -0.021172834506630562 0.0063661783224496019 0 -0.024748720222936591 0.0044604520387964437 0 -0.021211358703737165 0.0028735284949485528 0 -0.021172834506630562 0.0063661783224496019 0 -0.021211358703737165 0.0028735284949485528 0 -0.018988874883845298 0.0041911468473929984 0 -0.017648987330243129 0.0031425127747961171 0 -0.017105515739291553 0.0046889126558203875 0 -0.01565664814632698 0.0053641383135892675 0 -0.020588090882915709 0.0078238565160665251 0 -0.016074792317127225 0.0043392963118933188 0 -0.018988874883845298 0.0041911468473929984 0 -0.021172834506630562 0.0063661783224496019 0 -0.017079391477854967 0.0047568700346108418 0 -0.022163840993164596 0.0065915806792016512 0 -0.016074792317127225 0.0043392963118933188 0 -0.016270868923721649 0.0027266329956062421 0 -0.017648987330243129 0.0031425127747961171 0 -0.016074792317127225 0.0043392963118933188 0 -0.018988874883845298 0.0041911468473929984 0 -0.017648987330243129 0.0031425127747961171 0 -0.017263922482960027 0.0032062483840450667 0 -0.01500274116070475 0.0027432220873924926 0 -0.021211358703737165 0.0028735284949485528 0 -0.016444099238875548 0.0011581249503400191 0 -0.019298271055356742 0.00016908120100907773 0 -0.021211358703737165 0.0028735284949485528 0 -0.017648987330243129 0.0031425127747961171 0 -0.01719590967228115 0.0013173812267417301 0 -0.016270868923721649 0.0027266329956062421 0 -0.017648987330243129 0.0031425127747961171 0 -0.01719590967228115 0.0013173812267417301 0 -0.014548079908007517 -0.0016760527404041711 0 -0.017615696048814484 -0.001522084842530372 0 -0.016444099238875548 0.0011581249503400191 0 -0.017615696048814484 -0.001522084842530372 0 -0.016444099238875548 0.0011581249503400191 0 -0.019298271055356742 0.00016908120100907773 0 -0.02188087398002049 -0.0018102484878402168 0 -0.021211358703737165 0.0028735284949485528 0 -0.019298271055356742 0.00016908120100907773 0 0.0054495948177332876 0.0034411426517582298 0 0.0044145645253089276 0.005613860642821742 0 0.0013665294811783793 0.0060146118556357805 0 0.0097548938291554046 0.0011037148200529129 0 0.0092005117220645208 0.0010167252326432064 0 0.0099701227196438147 0.00083973738917840382 0 0.0092005117220645208 0.0010167252326432064 0 0.0099701227196438147 0.00083973738917840382 0 0.0099928381985348157 0.0005670086813940598 0 0.0064602419999796688 0.0019545939622016076 0 0.0043263972686558641 0.0025552966091786284 0 0.0097548938291554046 0.0011037148200529129 0 0.0094538271038527074 0.001472572829395458 0 0.0092005117220645208 0.0010167252326432064 0 0.0097548938291554046 0.0011037148200529129 0 0.0098539144683570893 0.001308911085657572 0 0.0094538271038527074 0.001472572829395458 0 0.0098539144683570893 0.001308911085657572 0 0.0099708500663113833 0.001716629540806657 0 0.0094538271038527074 0.001472572829395458 0 0.009260221991632591 0.0020045885457631394 0 0.0099708500663113833 0.001716629540806657 0 0.0094538271038527074 0.001472572829395458 0 0.0094538271038527074 0.001472572829395458 0 0.0089675184751114769 0.0016701319262225293 0 0.0092005117220645208 0.0010167252326432064 0 0.0089675184751114769 0.0016701319262225293 0 0.0092005117220645208 0.0010167252326432064 0 0.008266175540067696 0.0018815519991729544 0 0.009260221991632591 0.0020045885457631394 0 0.0094538271038527074 0.001472572829395458 0 0.0089675184751114769 0.0016701319262225293 0 -0.034348524107148518 -0.0038391522618215902 0 -0.034677661239335016 0.0025126578524844868 0 -0.041238995260484364 0.0020137256739298612 0 0.0054495948177332876 0.0034411426517582298 0 0.0072567426997183753 0.0030234081813955657 0 0.0044145645253089276 0.005613860642821742 0 -0.013439569648634164 0.00038058749042967088 0 -0.01835501869814261 0.0042896987251096587 0 -0.027908709184940761 -0.0032948375741877864 0 -0.028223336147059609 0.0030628645729812469 0 -0.034677661239335016 0.0025126578524844868 0 -0.034348524107148518 -0.0038391522618215902 0 -0.027908709184940761 -0.0032948375741877864 0 -0.034677661239335016 0.0025126578524844868 0 0.0064602419999796688 0.0019545939622016076 0 0.0072241951583707871 0.0016926772140319125 0 0.0087177051155551376 0.0017920956896481004 0 0.0089675184751114769 0.0016701319262225293 0 0.008266175540067696 0.0018815519991729544 0 -0.008871999368877042 -0.0026799514618409351 0 -0.013439569648634164 0.00038058749042967088 0 0.008989867050277248 0.0015609334833455387 0 0.0072567426997183753 0.0030234081813955657 0 0.008266175540067696 0.0018815519991729544 0 0.0054495948177332876 0.0034411426517582298 0 0.0072567426997183753 0.0030234081813955657 0 0.008266175540067696 0.0018815519991729544 0 -0.027648695645850194 -0.0094942006829359122 0 -0.034348524107148518 -0.0038391522618215902 0 -0.027908709184940761 -0.0032948375741877864 0 -0.027648695645850194 -0.0094942006829359122 0 -0.021641184678921253 -0.0088236320725212126 0 -0.027908709184940761 -0.0032948375741877864 0 -0.021306480178252776 -0.0027828706800460943 0 -0.027908709184940761 -0.0032948375741877864 0 -0.028223336147059609 0.0030628645729812469 0 -0.028141675152228429 0.0039627767401109642 0 -0.031470701169464911 0.00035221271594829113 0 -0.031697083294475098 0.0058617483291245167 0 -0.031470701169464911 0.00035221271594829113 0 -0.035939059623271694 0.0041232517342845373 0 -0.031697083294475098 0.0058617483291245167 0 -0.02967137087911631 0.0019709191895140813 0 -0.035905459200008719 0.0062106207669638163 0 -0.028223336147059609 0.0030628645729812469 0 -0.035417294211213382 0.0090550898723793863 0 -0.034677661239335016 0.0025126578524844868 0 -0.035417294211213382 0.0090550898723793863 0 -0.034677661239335016 0.0025126578524844868 0 -0.041238995260484364 0.0020137256739298612 0 -0.035417294211213382 0.0090550898723793863 0 -0.042935038091213365 0.0092591723866933141 0 -0.041238995260484364 0.0020137256739298612 0 -0.035417294211213382 0.0090550898723793863 0 -0.042935038091213365 0.0092591723866933141 0 -0.042834246980101784 0.014983698081484623 0 -0.042935038091213365 0.0092591723866933141 0 -0.041238995260484364 0.0020137256739298612 0 -0.048231710885598918 0.0080751841722221385 0 -0.042935038091213365 0.0092591723866933141 0 -0.048231710885598918 0.0080751841722221385 0 -0.04698207724834489 0.012098387772560349 0 0.0044145645253089276 0.005613860642821742 0 0.0013665294811783793 0.0060146118556357805 0 0.00074543616313505205 0.0090166337650424196 0 -0.01835501869814261 0.0042896987251096587 0 -0.023367810415499242 0.0086007127421363697 0 -0.040271354876751334 0.0079159569877777711 0 -0.038415148393747156 0.012317412013319581 0 -0.044272571882692194 0.011444126831361237 0 -0.042244461959883219 0.010169559434541927 0 -0.048788755250898409 0.013077283390674814 0 -0.042935038091213365 0.0092591723866933141 0 -0.042834246980101784 0.014983698081484623 0 -0.04698207724834489 0.012098387772560349 0 -0.042834246980101784 0.014983698081484623 0 -0.04698207724834489 0.012098387772560349 0 -0.047555585332361087 0.015566445118077095 0 -0.035905459200008719 0.0062106207669638163 0 -0.042244461959883219 0.010169559434541927 0 -0.035939059623271694 0.0041232517342845373 0 -0.040271354876751334 0.0079159569877777711 0 -0.036423728823892748 0.0088609583251943735 0 -0.040271354876751334 0.0079159569877777711 0 -0.036423728823892748 0.0088609583251943735 0 -0.038415148393747156 0.012317412013319581 0 -0.033567390269046253 0.010634627058083945 0 -0.035880560755158684 0.013682565919319392 0 -0.038415148393747156 0.012317412013319581 0 -0.03257961276171463 0.010309851611813029 0 -0.035385010067229425 0.011287177132020439 0 -0.036423728823892748 0.0088609583251943735 0 -0.032647506769004908 0.010480065062326347 0 -0.038415148393747156 0.012317412013319581 0 -0.036423728823892748 0.0088609583251943735 0 -0.031697083294475098 0.0058617483291245167 0 -0.032647506769004908 0.010480065062326347 0 -0.035939059623271694 0.0041232517342845373 0 -0.036423728823892748 0.0088609583251943735 0 -0.031697083294475098 0.0058617483291245167 0 -0.031697083294475098 0.0058617483291245167 0 -0.032647506769004908 0.010480065062326347 0 -0.026853327354208603 0.008473873270866036 0 -0.03257961276171463 0.010309851611813029 0 -0.027551564996719551 0.0085288314189680171 0 -0.033567390269046253 0.010634627058083945 0 -0.031635205267778077 0.013857885789637764 0 -0.029877229821425298 0.01231831041210539 0 -0.033567390269046253 0.010634627058083945 0 -0.031635205267778077 0.013857885789637764 0 -0.033747491065330884 0.013971370546656562 0 -0.031635205267778077 0.013857885789637764 0 -0.032948107237673878 0.015448969084396146 0 -0.033747491065330884 0.013971370546656562 0 -0.031635205267778077 0.013857885789637764 0 -0.031189601014543732 0.015930812947034946 0 -0.032948107237673878 0.015448969084396146 0 -0.031635205267778077 0.013857885789637764 0 -0.031189601014543732 0.015930812947034946 0 -0.02936726077766388 0.014540060520936322 0 -0.045358586115476794 0.015280922774744566 0 -0.046096657200383737 0.015758840505566959 0 -0.031189601014543732 0.015930812947034946 0 -0.031974692022223417 0.017393846727791824 0 -0.029777462709794998 0.017133184784573641 0 -0.032013271395102322 0.017372136931853285 0 -0.033493577018333491 0.017092611437741871 0 -0.033173183758128673 0.019429108973908503 0 -0.031189601014543732 0.015930812947034946 0 -0.032013271395102322 0.017372136931853285 0 -0.033493577018333491 0.017092611437741871 0 -0.031189601014543732 0.015930812947034946 0 -0.033493577018333491 0.017092611437741871 0 -0.032948107237673878 0.015448969084396146 0 -0.033493577018333491 0.017092611437741871 0 -0.032948107237673878 0.015448969084396146 0 -0.034930289849013411 0.016183792071199521 0 -0.033493577018333491 0.017092611437741871 0 -0.034930289849013411 0.016183792071199521 0 -0.035208295303469112 0.018465078203859769 0 -0.034930289849013411 0.016183792071199521 0 -0.037591102679200739 0.01875996124653765 0 -0.035208295303469112 0.018465078203859769 0 -0.034930289849013411 0.016183792071199521 0 -0.035880560755158684 0.013682565919319392 0 -0.038158281695473688 0.015642039851938842 0 -0.033567390269046253 0.010634627058083945 0 -0.033747491065330884 0.013971370546656562 0 -0.035880560755158684 0.013682565919319392 0 -0.032948107237673878 0.015448969084396146 0 -0.034930289849013411 0.016183792071199521 0 -0.033747491065330884 0.013971370546656562 0 -0.034930289849013411 0.016183792071199521 0 -0.033747491065330884 0.013971370546656562 0 -0.035880560755158684 0.013682565919319392 0 -0.035880560755158684 0.013682565919319392 0 -0.038415148393747156 0.012317412013319581 0 -0.038158281695473688 0.015642039851938842 0 -0.034930289849013411 0.016183792071199521 0 -0.038158281695473688 0.015642039851938842 0 -0.037591102679200739 0.01875996124653765 0 -0.038158281695473688 0.015642039851938842 0 -0.037591102679200739 0.01875996124653765 0 -0.042600586943525628 0.016456614630356768 0 -0.038415148393747156 0.012317412013319581 0 -0.044272571882692194 0.011444126831361237 0 -0.042600586943525628 0.016456614630356768 0 -0.038415148393747156 0.012317412013319581 0 -0.038158281695473688 0.015642039851938842 0 -0.042600586943525628 0.016456614630356768 0 -0.022718422242301875 0.011016995632840011 0 -0.021456773789846541 0.0079426117509839057 0 -0.025779189629589267 0.010293176302046269 0 -0.022718422242301875 0.011016995632840011 0 -0.025779189629589267 0.010293176302046269 0 -0.024236373819211777 0.013272353085831867 0 -0.022718422242301875 0.011016995632840011 0 -0.019526673619191352 0.010820008135522193 0 -0.022017946408232021 0.013317681066989809 0 -0.022718422242301875 0.011016995632840011 0 -0.019526673619191352 0.010820008135522193 0 -0.021456773789846541 0.0079426117509839057 0 -0.018052761795729504 0.0080869583621641216 0 -0.016159543887663299 0.0051809694050631242 0 -0.021456773789846541 0.0079426117509839057 0 -0.016516292075312869 0.005640259293202679 0 -0.020811958270063213 0.0077937095805584652 0 -0.017105515739291553 0.0046889126558203875 0 -0.020588090882915709 0.0078238565160665251 0 -0.022920739265010367 0.0067587545896661367 0 -0.018052761795729504 0.0080869583621641216 0 -0.019526673619191352 0.010820008135522193 0 -0.021456773789846541 0.0079426117509839057 0 -0.020811958270063213 0.0077937095805584652 0 -0.024877105712995996 0.0098390561142400242 0 -0.020588090882915709 0.0078238565160665251 0 -0.022920739265010367 0.0067587545896661367 0 -0.025348724226469256 0.01015272904412115 0 -0.024748720222936591 0.0044604520387964437 0 -0.021172834506630562 0.0063661783224496019 0 -0.026853327354208603 0.008473873270866036 0 -0.022920739265010367 0.0067587545896661367 0 -0.02844185618899598 0.0087571093979448983 0 -0.025348724226469256 0.01015272904412115 0 -0.022163840993164596 0.0065915806792016512 0 -0.027551564996719551 0.0085288314189680171 0 -0.028141675152228429 0.0039627767401109642 0 -0.031697083294475098 0.0058617483291245167 0 -0.026853327354208603 0.008473873270866036 0 -0.02844185618899598 0.0087571093979448983 0 -0.029877229821425298 0.01231831041210539 0 -0.025348724226469256 0.01015272904412115 0 -0.033567390269046253 0.010634627058083945 0 -0.02844185618899598 0.0087571093979448983 0 -0.029877229821425298 0.01231831041210539 0 -0.029877229821425298 0.01231831041210539 0 -0.025779189629589267 0.010293176302046269 0 -0.027084669684096348 0.013897486381428299 0 -0.027025778636086593 0.010914452975929382 0 -0.024877105712995996 0.0098390561142400242 0 -0.025779189629589267 0.010293176302046269 0 -0.027084669684096348 0.013897486381428299 0 -0.024236373819211777 0.013272353085831867 0 -0.027084669684096348 0.013897486381428299 0 -0.025064242265362652 0.015325203408301055 0 -0.024236373819211777 0.013272353085831867 0 -0.031635205267778077 0.013857885789637764 0 -0.029877229821425298 0.01231831041210539 0 -0.02936726077766388 0.014540060520936322 0 -0.029877229821425298 0.01231831041210539 0 -0.027084669684096348 0.013897486381428299 0 -0.02936726077766388 0.014540060520936322 0 -0.027084669684096348 0.013897486381428299 0 -0.02936726077766388 0.014540060520936322 0 -0.028355275377212986 0.01616989371691387 0 -0.031189601014543732 0.015930812947034946 0 -0.029677170432829966 0.015973190094133442 0 -0.029777462709794998 0.017133184784573641 0 -0.031189601014543732 0.015930812947034946 0 -0.02936726077766388 0.014540060520936322 0 -0.029677170432829966 0.015973190094133442 0 -0.02936726077766388 0.014540060520936322 0 -0.029677170432829966 0.015973190094133442 0 -0.028355275377212986 0.01616989371691387 0 -0.029677170432829966 0.015973190094133442 0 -0.028355275377212986 0.01616989371691387 0 -0.029777462709794998 0.017133184784573641 0 -0.028355275377212986 0.01616989371691387 0 -0.028162232730763459 0.017744178459551875 0 -0.029777462709794998 0.017133184784573641 0 -0.028162232730763459 0.017744178459551875 0 -0.029777462709794998 0.017133184784573641 0 -0.029181529631895506 0.019298845746586173 0 -0.031974692022223417 0.017393846727791824 0 -0.029777462709794998 0.017133184784573641 0 -0.029181529631895506 0.019298845746586173 0 -0.027084669684096348 0.013897486381428299 0 -0.028355275377212986 0.01616989371691387 0 -0.026360985936636654 0.016909813748539025 0 -0.027084669684096348 0.013897486381428299 0 -0.025064242265362652 0.015325203408301055 0 -0.026360985936636654 0.016909813748539025 0 -0.025064242265362652 0.015325203408301055 0 -0.026360985936636654 0.016909813748539025 0 -0.024676835154212099 0.017446015931218424 0 -0.028355275377212986 0.01616989371691387 0 -0.028162232730763459 0.017744178459551875 0 -0.026360985936636654 0.016909813748539025 0 -0.028162232730763459 0.017744178459551875 0 -0.026360985936636654 0.016909813748539025 0 -0.026713102067192983 0.018783706414830226 0 -0.026360985936636654 0.016909813748539025 0 -0.024676835154212099 0.017446015931218424 0 -0.026713102067192983 0.018783706414830226 0 -0.024676835154212099 0.017446015931218424 0 -0.022534808801167126 0.017879743003549331 0 -0.022971609138405697 0.015584667179062619 0 -0.025064242265362652 0.015325203408301055 0 -0.024676835154212099 0.017446015931218424 0 -0.022971609138405697 0.015584667179062619 0 -0.025064242265362652 0.015325203408301055 0 -0.022971609138405697 0.015584667179062619 0 -0.024236373819211777 0.013272353085831867 0 -0.022971609138405697 0.015584667179062619 0 -0.022017946408232021 0.013317681066989809 0 -0.024236373819211777 0.013272353085831867 0 -0.022718422242301875 0.011016995632840011 0 -0.022017946408232021 0.013317681066989809 0 -0.024236373819211777 0.013272353085831867 0 -0.022364645980219346 0.01427474640814453 0 -0.02319054184097925 0.017157993400668658 0 -0.017180440113611802 0.013596223876113114 0 -0.019526673619191352 0.010820008135522193 0 -0.018884141315980086 0.017862931689596264 0 -0.019526673619191352 0.010820008135522193 0 -0.022017946408232021 0.013317681066989809 0 -0.019572571881952227 0.015798796306134798 0 -0.022971609138405697 0.015584667179062619 0 -0.022017946408232021 0.013317681066989809 0 -0.019572571881952227 0.015798796306134798 0 -0.022534808801167126 0.017879743003549331 0 -0.022971609138405697 0.015584667179062619 0 -0.019572571881952227 0.015798796306134798 0 -0.022534808801167126 0.017879743003549331 0 -0.019572571881952227 0.015798796306134798 0 -0.021501022720439977 0.01971219920486772 0 -0.019572571881952227 0.015798796306134798 0 -0.021501022720439977 0.01971219920486772 0 -0.019351111043733823 0.020710275379850259 0 -0.02319054184097925 0.017157993400668658 0 -0.026720825806259452 0.020853354837820706 0 -0.021501022720439977 0.01971219920486772 0 -0.022101659088899571 0.022171885464989563 0 -0.019351111043733823 0.020710275379850259 0 -0.022101659088899571 0.022171885464989563 0 -0.019351111043733823 0.020710275379850259 0 -0.01903714073807794 0.025574417699014189 0 -0.022101659088899571 0.022171885464989563 0 -0.024907892564801696 0.022451797122597029 0 -0.023236025456147145 0.024880667071210675 0 -0.022101659088899571 0.022171885464989563 0 -0.024907892564801696 0.022451797122597029 0 -0.024423868726898119 0.020160627249967263 0 -0.022534808801167126 0.017879743003549331 0 -0.021501022720439977 0.01971219920486772 0 -0.024423868726898119 0.020160627249967263 0 -0.021501022720439977 0.01971219920486772 0 -0.022101659088899571 0.022171885464989563 0 -0.024423868726898119 0.020160627249967263 0 -0.024676835154212099 0.017446015931218424 0 -0.022534808801167126 0.017879743003549331 0 -0.024423868726898119 0.020160627249967263 0 -0.024676835154212099 0.017446015931218424 0 -0.024423868726898119 0.020160627249967263 0 -0.026713102067192983 0.018783706414830226 0 -0.024423868726898119 0.020160627249967263 0 -0.026713102067192983 0.018783706414830226 0 -0.027282944429015993 0.020854276807586749 0 -0.026713102067192983 0.018783706414830226 0 -0.027282944429015993 0.020854276807586749 0 -0.029181529631895506 0.019298845746586173 0 -0.031974692022223417 0.017393846727791824 0 -0.029181529631895506 0.019298845746586173 0 -0.029516085698373294 0.021163367550570571 0 -0.028162232730763459 0.017744178459551875 0 -0.026713102067192983 0.018783706414830226 0 -0.029181529631895506 0.019298845746586173 0 -0.027282944429015993 0.020854276807586749 0 -0.029181529631895506 0.019298845746586173 0 -0.029484118749493762 0.021113957215742669 0 -0.046221461304876282 0.015958073771036061 0 -0.046932317253207394 0.015648028424133868 0 -0.048486655013649328 0.013490232369789404 0 -0.049133506470115149 0.01246203661025593 0 -0.048336858633279127 0.012601040948131605 0 -0.046932317253207394 0.015648028424133868 0 -0.049051278773718079 0.013677362884163002 0 -0.027282944429015993 0.020854276807586749 0 -0.029484118749493762 0.021113957215742669 0 -0.027519745858500592 0.02417891846805955 0 -0.048708573569603536 0.014546031515338278 0 -0.048750472544364563 0.014796985591485901 0 -0.048876340540740221 0.014640484891917566 0 -0.046932317253207394 0.015648028424133868 0 -0.051357347737427589 0.012656760659587528 0 -0.024907892564801696 0.022451797122597029 0 -0.027282944429015993 0.020854276807586749 0 -0.027519745858500592 0.02417891846805955 0 -0.024907892564801696 0.022451797122597029 0 -0.024423868726898119 0.020160627249967263 0 -0.027282944429015993 0.020854276807586749 0 -0.024907892564801696 0.022451797122597029 0 -0.027519745858500592 0.02417891846805955 0 -0.023236025456147145 0.024880667071210675 0 -0.059857753221915215 0.0095971393354736811 0 -0.061626785936974696 0.0068981665326427796 0 -0.062512776168040934 0.0091066411216249588 0 -0.049051278773718079 0.013677362884163002 0 -0.042637162342245884 0.014983311066241289 0 -0.049051278773718079 0.013677362884163002 0 -0.058126657726183056 0.0060461727533372943 0 -0.061745725426805759 0.0070924765717962088 0 -0.060967825203120843 0.0072301890937350828 0 -0.061555401699379543 0.0062355482235029623 0 -0.051357347737427589 0.012656760659587528 0 -0.055252180825337817 0.0083412006347159274 0 -0.060967825203120843 0.0072301890937350828 0 -0.061555401699379543 0.0062355482235029623 0 -0.060787613078638537 0.0059814225428526484 0 -0.049051278773718079 0.013677362884163002 0 -0.051357347737427589 0.012656760659587528 0 -0.061555401699379543 0.0062355482235029623 0 -0.060787613078638537 0.0059814225428526484 0 -0.061629811607474355 0.0052050018535006754 0 -0.061745725426805759 0.0070924765717962088 0 -0.061555401699379543 0.0062355482235029623 0 -0.062636129086280301 0.0056811801126682021 0 -0.061555401699379543 0.0062355482235029623 0 -0.062636129086280301 0.0056811801126682021 0 -0.061629811607474355 0.0052050018535006754 0 -0.061626785936974696 0.0068981665326427796 0 -0.063709001722648123 0.0070668121643054221 0 -0.062512776168040934 0.0091066411216249588 0 -0.063709001722648123 0.0070668121643054221 0 -0.06522559283596617 0.0057686766562320023 0 -0.065043055772628838 0.0086094254939039806 0 -0.042637162342245884 0.014983311066241289 0 -0.036355049968547166 0.015226581670529286 0 -0.022101659088899571 0.022171885464989563 0 -0.023236025456147145 0.024880667071210675 0 -0.01903714073807794 0.025574417699014189 0 -0.063709001722648123 0.0070668121643054221 0 -0.062512776168040934 0.0091066411216249588 0 -0.065043055772628838 0.0086094254939039806 0 -0.048602991977896477 0.015095332761647201 0 -0.048923864839628815 0.013058994509819732 0 -0.048602991977896477 0.015095332761647201 0 -0.048795050751846494 0.01432400912520617 0 -0.041037940010811742 0.021248315442330919 0 -0.037591102679200739 0.01875996124653765 0 -0.042600586943525628 0.016456614630356768 0 -0.041037940010811742 0.021248315442330919 0 -0.037591102679200739 0.01875996124653765 0 -0.037267111650192614 0.021189738802781095 0 -0.037591102679200739 0.01875996124653765 0 -0.037267111650192614 0.021189738802781095 0 -0.035235774760808442 0.020623455218555891 0 -0.041037940010811742 0.021248315442330919 0 -0.037267111650192614 0.021189738802781095 0 -0.039544922994787089 0.026001659731380574 0 -0.037267111650192614 0.021189738802781095 0 -0.035772202480281574 0.022839958330653651 0 -0.039544922994787089 0.026001659731380574 0 -0.05058769707745276 0.013587815874751342 0 -0.04688508934196281 0.014956652855733152 0 -0.035141831355248128 0.022935748307625136 0 -0.035235774760808442 0.020623455218555891 0 -0.033173183758128673 0.019429108973908503 0 -0.035772202480281574 0.022839958330653651 0 -0.035141831355248128 0.022935748307625136 0 -0.035943612164208681 0.021742668303015439 0 -0.050280607330699258 0.013668162131145564 0 -0.05058769707745276 0.013587815874751342 0 -0.035141831355248128 0.022935748307625136 0 -0.035943612164208681 0.021742668303015439 0 -0.035235774760808442 0.020623455218555891 0 -0.037267111650192614 0.021189738802781095 0 -0.035772202480281574 0.022839958330653651 0 -0.035943612164208681 0.021742668303015439 0 -0.037267111650192614 0.021189738802781095 0 -0.035943612164208681 0.021742668303015439 0 -0.035235774760808442 0.020623455218555891 0 -0.037591102679200739 0.01875996124653765 0 -0.035235774760808442 0.020623455218555891 0 -0.035208295303469112 0.018465078203859769 0 -0.033493577018333491 0.017092611437741871 0 -0.035208295303469112 0.018465078203859769 0 -0.033173183758128673 0.019429108973908503 0 -0.035235774760808442 0.020623455218555891 0 -0.035208295303469112 0.018465078203859769 0 -0.033173183758128673 0.019429108973908503 0 -0.048922565017551288 0.014218458668328271 0 -0.04901959411109013 0.014397642410684204 0 -0.048882407416475246 0.014486607525969043 0 -0.048922565017551288 0.014218458668328271 0 -0.048708573569603536 0.014546031515338278 0 -0.048882407416475246 0.014486607525969043 0 -0.046096657200383737 0.015758840505566959 0 -0.046932317253207394 0.015648028424133868 0 -0.046096657200383737 0.015758840505566959 0 -0.04688508934196281 0.014956652855733152 0 -0.048750472544364563 0.014796985591485901 0 -0.049218523931706275 0.014715096265911491 0 -0.048876340540740221 0.014640484891917566 0 -0.048708573569603536 0.014546031515338278 0 -0.048882407416475246 0.014486607525969043 0 -0.048876340540740221 0.014640484891917566 0 -0.049218523931706275 0.014715096265911491 0 -0.048882407416475246 0.014486607525969043 0 -0.048876340540740221 0.014640484891917566 0 -0.051357347737427589 0.012656760659587528 0 -0.05058769707745276 0.013587815874751342 0 -0.049185461362788264 0.014695562724931157 0 -0.04901959411109013 0.014397642410684204 0 -0.048882407416475246 0.014486607525969043 0 -0.05058769707745276 0.013587815874751342 0 -0.050052877630337271 0.013621055980531696 0 -0.061378784709959999 0.0085047825129748473 0 -0.061134829020936692 0.0069243849109193716 0 -0.059842103049457203 0.0074581447502559111 0 -0.061378784709959999 0.0085047825129748473 0 -0.05937064151974103 0.0088537587191866891 0 -0.059842103049457203 0.0074581447502559111 0 -0.061134829020936692 0.0069243849109193716 0 -0.059769141054186695 0.006256867901963393 0 -0.059842103049457203 0.0074581447502559111 0 -0.059769141054186695 0.006256867901963393 0 -0.059004354681614413 0.0066677788591249102 0 -0.059842103049457203 0.0074581447502559111 0 -0.059004354681614413 0.0066677788591249102 0 -0.059842103049457203 0.0074581447502559111 0 -0.058684862940168774 0.0075353513558008072 0 -0.05058769707745276 0.013587815874751342 0 -0.053562583056537862 0.010669072512692983 0 -0.05937064151974103 0.0088537587191866891 0 -0.059842103049457203 0.0074581447502559111 0 -0.058684862940168774 0.0075353513558008072 0 -0.05058769707745276 0.013587815874751342 0 -0.048923864839628815 0.013058994509819732 0 -0.05960686593823019 0.00980557635895179 0 -0.058847010903776184 0.0083320049954147581 0 -0.057648391069444103 0.0083909134619992304 0 -0.035772202480281574 0.022839958330653651 0 -0.035145847218314596 0.022933031879862328 0 -0.039544922994787089 0.026001659731380574 0 -0.058847010903776184 0.0083320049954147581 0 -0.057757895822491141 0.008042237302529712 0 -0.057648391069444103 0.0083909134619992304 0 -0.059004354681614413 0.0066677788591249102 0 -0.058684862940168774 0.0075353513558008072 0 -0.058013258020118724 0.0062397510441565465 0 -0.058847010903776184 0.0083320049954147581 0 -0.05810906365139927 0.0067923351655078262 0 -0.057757895822491141 0.008042237302529712 0 -0.053562583056537862 0.010669072512692983 0 -0.054701466507682997 0.0086644908343093477 0 -0.048923864839628815 0.013058994509819732 0 -0.051886218267288182 0.012193933365622071 0 -0.057105228818599404 0.0072499320932185108 0 -0.057642939678336266 0.0084098039063543253 0 -0.055581126221125397 0.0069550023733069427 0 -0.057757895822491141 0.008042237302529712 0 -0.057105228818599404 0.0072499320932185108 0 -0.057642939678336266 0.0084098039063543253 0 -0.05810906365139927 0.0067923351655078262 0 -0.057757895822491141 0.008042237302529712 0 -0.057105228818599404 0.0072499320932185108 0 -0.056721905046832506 0.010642675014823359 0 -0.057486208866279712 0.008409190278917315 0 -0.0557103572041283 0.0088828096364434589 0 -0.049040340368658342 0.01286449439042402 0 -0.048923864839628815 0.013058994509819732 0 -0.057288010735265696 0.0050773090816821709 0 -0.058000234178725796 0.00345198018535546 0 -0.056353525561032326 0.004301174661998846 0 -0.057288010735265696 0.0050773090816821709 0 -0.056424701865683886 0.0051725614352892985 0 -0.056353525561032326 0.004301174661998846 0 -0.057288010735265696 0.0050773090816821709 0 -0.056424701865683886 0.0051725614352892985 0 -0.056490191251959698 0.0060361810202526683 0 -0.05810906365139927 0.0067923351655078262 0 -0.057105228818599404 0.0072499320932185108 0 -0.056490191251959698 0.0060361810202526683 0 -0.054701466507682997 0.0086644908343093477 0 -0.054905726802430922 0.0078104142722822496 0 -0.057105228818599404 0.0072499320932185108 0 -0.056490191251959698 0.0060361810202526683 0 -0.055581126221125397 0.0069550023733069427 0 -0.05810906365139927 0.0067923351655078262 0 -0.057288010735265696 0.0050773090816821709 0 -0.056490191251959698 0.0060361810202526683 0 -0.058013258020118724 0.0062397510441565465 0 -0.057288010735265696 0.0050773090816821709 0 -0.058239616791264305 0.0052777622269481921 0 -0.059004354681614413 0.0066677788591249102 0 -0.058013258020118724 0.0062397510441565465 0 -0.058970534979419814 0.0057364736547658793 0 -0.058013258020118724 0.0062397510441565465 0 -0.058239616791264305 0.0052777622269481921 0 -0.058970534979419814 0.0057364736547658793 0 -0.058239616791264305 0.0052777622269481921 0 -0.05896496567306251 0.0046468482210693081 0 -0.058970534979419814 0.0057364736547658793 0 -0.057288010735265696 0.0050773090816821709 0 -0.058214942974666985 0.004489075133263758 0 -0.058000234178725796 0.00345198018535546 0 -0.058239616791264305 0.0052777622269481921 0 -0.058214942974666985 0.004489075133263758 0 -0.05896496567306251 0.0046468482210693081 0 -0.057288010735265696 0.0050773090816821709 0 -0.058239616791264305 0.0052777622269481921 0 -0.058214942974666985 0.004489075133263758 0 -0.058214942974666985 0.004489075133263758 0 -0.05896496567306251 0.0046468482210693081 0 -0.0585939732122948 0.0036786337575527316 0 -0.059870903061799145 0.0043640499784900364 0 -0.05896496567306251 0.0046468482210693081 0 -0.059363184364148516 0.0034455318560848011 0 -0.05896496567306251 0.0046468482210693081 0 -0.059363184364148516 0.0034455318560848011 0 -0.0585939732122948 0.0036786337575527316 0 -0.059870903061799145 0.0043640499784900364 0 -0.05896496567306251 0.0046468482210693081 0 -0.059802017777775218 0.0052723269687944092 0 -0.05896496567306251 0.0046468482210693081 0 -0.058970534979419814 0.0057364736547658793 0 -0.059802017777775218 0.0052723269687944092 0 -0.059769141054186695 0.006256867901963393 0 -0.059004354681614413 0.0066677788591249102 0 -0.058970534979419814 0.0057364736547658793 0 -0.059769141054186695 0.006256867901963393 0 -0.058970534979419814 0.0057364736547658793 0 -0.059802017777775218 0.0052723269687944092 0 -0.059769141054186695 0.006256867901963393 0 -0.059802017777775218 0.0052723269687944092 0 -0.06089748315170472 0.0053066785089594956 0 -0.055252180825337817 0.0083412006347159274 0 -0.057092969946815043 0.0062062964778908138 0 -0.061134829020936692 0.0069243849109193716 0 -0.059769141054186695 0.006256867901963393 0 -0.06089748315170472 0.0053066785089594956 0 -0.059870903061799145 0.0043640499784900364 0 -0.06089748315170472 0.0053066785089594956 0 -0.06052980684636023 0.0035798000345722272 0 -0.057092969946815043 0.0062062964778908138 0 -0.057599699259503034 0.0053690398907750301 0 -0.059870903061799145 0.0043640499784900364 0 -0.059802017777775218 0.0052723269687944092 0 -0.06089748315170472 0.0053066785089594956 0 -0.06052980684636023 0.0035798000345722272 0 -0.060618808807664043 0.0023198541797050652 0 -0.059931005495609237 0.0028692574930315583 0 -0.06052980684636023 0.0035798000345722272 0 -0.060618808807664043 0.0023198541797050652 0 -0.061325387798206017 0.0029828038543420034 0 -0.060991838985388472 0.0019887177888784275 0 -0.060143090066091566 0.0020322585462761206 0 -0.061478485249004892 0.0017802454641040522 0 -0.059162657950269239 0.0021548255561506906 0 -0.060837121255947424 0.00095081652432195949 0 -0.060618808807664043 0.0023198541797050652 0 -0.059162657950269239 0.0021548255561506906 0 -0.059931005495609237 0.0028692574930315583 0 -0.059162657950269239 0.0021548255561506906 0 -0.059450287709610999 0.0010416865057828266 0 -0.060837121255947424 0.00095081652432195949 0 -0.059162657950269239 0.0021548255561506906 0 -0.059363184364148516 0.0034455318560848011 0 -0.058759653769326785 0.0030039734618112902 0 -0.059870903061799145 0.0043640499784900364 0 -0.06052980684636023 0.0035798000345722272 0 -0.059363184364148516 0.0034455318560848011 0 -0.06052980684636023 0.0035798000345722272 0 -0.059931005495609237 0.0028692574930315583 0 -0.059363184364148516 0.0034455318560848011 0 -0.059162657950269239 0.0021548255561506906 0 -0.059931005495609237 0.0028692574930315583 0 -0.059363184364148516 0.0034455318560848011 0 -0.059363184364148516 0.0034455318560848011 0 -0.0585939732122948 0.0036786337575527316 0 -0.058759653769326785 0.0030039734618112902 0 -0.0585939732122948 0.0036786337575527316 0 -0.058000234178725796 0.00345198018535546 0 -0.058186877098628312 0.003032194902086506 0 -0.058214942974666985 0.004489075133263758 0 -0.0585939732122948 0.0036786337575527316 0 -0.058000234178725796 0.00345198018535546 0 -0.058186877098628312 0.003032194902086506 0 -0.05780864543350709 0.002728202202638311 0 -0.058676916292151868 0.0024179714312881771 0 -0.058186877098628312 0.003032194902086506 0 -0.05780864543350709 0.002728202202638311 0 -0.057626553864986343 0.0033566497174401457 0 -0.058000234178725796 0.00345198018535546 0 -0.058186877098628312 0.003032194902086506 0 -0.057626553864986343 0.0033566497174401457 0 -0.058186877098628312 0.003032194902086506 0 -0.058759653769326785 0.0030039734618112902 0 -0.058676916292151868 0.0024179714312881771 0 -0.0585939732122948 0.0036786337575527316 0 -0.058186877098628312 0.003032194902086506 0 -0.058759653769326785 0.0030039734618112902 0 -0.059162657950269239 0.0021548255561506906 0 -0.058759653769326785 0.0030039734618112902 0 -0.058676916292151868 0.0024179714312881771 0 -0.059162657950269239 0.0021548255561506906 0 -0.058676916292151868 0.0024179714312881771 0 -0.059450287709610999 0.0010416865057828266 0 -0.060551107190358271 0.0011941420217966188 0 -0.060540250329921767 0.00040458737846305292 0 -0.061013231685217446 0.00013178466099302916 0 -0.05780864543350709 0.002728202202638311 0 -0.058676916292151868 0.0024179714312881771 0 -0.059450287709610999 0.0010416865057828266 0 -0.058850801764182989 0.0021210813178624468 0 -0.059954567122443139 0.00094170077288075426 0 -0.060540250329921767 0.00040458737846305292 0 -0.060371637380821172 0.00091304563856089982 0 -0.060299242968448963 0.00048531364076440548 0 -0.060551107190358271 0.0011941420217966188 0 -0.060540250329921767 0.00040458737846305292 0 -0.060371637380821172 0.00091304563856089982 0 -0.060551107190358271 0.0011941420217966188 0 -0.06037858888058352 0.0011196760112002393 0 -0.060380961344636233 0.0012418256607680017 0 -0.06037858888058352 0.0011196760112002393 0 -0.060042457187214598 0.0011015300288517982 0 -0.060380961344636233 0.0012418256607680017 0 -0.060042457187214598 0.0011015300288517982 0 -0.060371637380821172 0.00091304563856089982 0 -0.059974166266064319 0.00057648564662513327 0 -0.06037858888058352 0.0011196760112002393 0 -0.060042457187214598 0.0011015300288517982 0 -0.060371637380821172 0.00091304563856089982 0 -0.060551107190358271 0.0011941420217966188 0 -0.06037858888058352 0.0011196760112002393 0 -0.060371637380821172 0.00091304563856089982 0 -0.059974166266064319 0.00057648564662513327 0 -0.060299242968448963 0.00048531364076440548 0 -0.060202461392116678 0.00011211514083329347 0 -0.060371637380821172 0.00091304563856089982 0 -0.059974166266064319 0.00057648564662513327 0 -0.060299242968448963 0.00048531364076440548 0 -0.059974166266064319 0.00057648564662513327 0 -0.059462021811077917 0.00090579614340373837 0 -0.059402278592056969 7.0163728359374631e-06 0 -0.060042457187214598 0.0011015300288517982 0 -0.059974166266064319 0.00057648564662513327 0 -0.059462021811077917 0.00090579614340373837 0 -0.060042457187214598 0.0011015300288517982 0 -0.059211848184920042 0.0015402758514734042 0 -0.059462021811077917 0.00090579614340373837 0 -0.060380961344636233 0.0012418256607680017 0 -0.058175736515450528 0.0027903155564621912 0 -0.059033329657552612 0.0030128770671249108 0 -0.060551107190358271 0.0011941420217966188 0 -0.060380961344636233 0.0012418256607680017 0 -0.059033329657552612 0.0030128770671249108 0 -0.058850801764182989 0.0021210813178624468 0 -0.057248108928839782 0.0037574535715977618 0 -0.057353631180611278 0.0037173040494066388 0 -0.057248108928839782 0.0037574535715977618 0 -0.05780864543350709 0.002728202202638311 0 -0.057626553864986343 0.0033566497174401457 0 -0.056543481966239074 0.0042147102807174545 0 -0.060380961344636233 0.0012418256607680017 0 -0.058889325057334886 0.0028357060835863851 0 -0.059211848184920042 0.0015402758514734042 0 -0.060042457187214598 0.0011015300288517982 0 -0.060380961344636233 0.0012418256607680017 0 -0.059211848184920042 0.0015402758514734042 0 -0.059283099501555039 0.0021924836750325206 0 -0.058161101330167157 0.0030035659388565009 0 -0.058000234178725796 0.00345198018535546 0 -0.057626553864986343 0.0033566497174401457 0 -0.056543481966239074 0.0042147102807174545 0 -0.063509580599977258 0.0043864248514140641 0 -0.062496011992896137 0.0045453252355512827 0 -0.062803928502282336 0.0029804516157662989 0 -0.063509580599977258 0.0043864248514140641 0 -0.064152010460068923 0.0028610413178925122 0 -0.065270832761623113 0.0034236408608169359 0 -0.063509580599977258 0.0043864248514140641 0 -0.065270832761623113 0.0034236408608169359 0 -0.06522559283596617 0.0057686766562320023 0 -0.063709001722648123 0.0070668121643054221 0 -0.063509580599977258 0.0043864248514140641 0 -0.06522559283596617 0.0057686766562320023 0 -0.058126657726183056 0.0060461727533372943 0 -0.060246237200555622 0.004520138873322299 0 -0.061626785936974696 0.0068981665326427796 0 -0.063709001722648123 0.0070668121643054221 0 -0.063509580599977258 0.0043864248514140641 0 -0.062636129086280301 0.0056811801126682021 0 -0.063509580599977258 0.0043864248514140641 0 -0.062496011992896137 0.0045453252355512827 0 -0.062636129086280301 0.0056811801126682021 0 -0.061629811607474355 0.0052050018535006754 0 -0.062496011992896137 0.0045453252355512827 0 -0.061629811607474355 0.0052050018535006754 0 -0.061740205913443057 0.0039559359226880135 0 -0.062496011992896137 0.0045453252355512827 0 -0.060635265562578387 0.0047380861170928708 0 -0.061629811607474355 0.0052050018535006754 0 -0.061740205913443057 0.0039559359226880135 0 -0.060787613078638537 0.0059814225428526484 0 -0.060635265562578387 0.0047380861170928708 0 -0.061629811607474355 0.0052050018535006754 0 -0.060635265562578387 0.0047380861170928708 0 -0.06052980684636023 0.0035798000345722272 0 -0.061740205913443057 0.0039559359226880135 0 -0.061740205913443057 0.0039559359226880135 0 -0.062496011992896137 0.0045453252355512827 0 -0.062803928502282336 0.0029804516157662989 0 -0.061325387798206017 0.0029828038543420034 0 -0.062012832352275872 0.0021658413610169979 0 -0.062803928502282336 0.0029804516157662989 0 -0.061740205913443057 0.0039559359226880135 0 -0.061325387798206017 0.0029828038543420034 0 -0.062803928502282336 0.0029804516157662989 0 -0.06052980684636023 0.0035798000345722272 0 -0.061740205913443057 0.0039559359226880135 0 -0.061325387798206017 0.0029828038543420034 0 -0.060991838985388472 0.0019887177888784275 0 -0.062261683125632974 0.0019088718261552999 0 -0.061478485249004892 0.0017802454641040522 0 -0.062656438127952366 0.001524022051403896 0 -0.061958592909374346 0.00061179562861703575 0 -0.060618808807664043 0.0023198541797050652 0 -0.061325387798206017 0.0029828038543420034 0 -0.062012832352275872 0.0021658413610169979 0 -0.062261683125632974 0.0019088718261552999 0 -0.062993640334168738 0.0018678576605930478 0 -0.062656438127952366 0.001524022051403896 0 -0.063714552135136743 0.0017505068245559261 0 -0.063155789496332992 0.0009864401920475403 0 -0.062803928502282336 0.0029804516157662989 0 -0.064013061996429255 0.0022504746836680563 0 -0.063714552135136743 0.0017505068245559261 0 -0.062012832352275872 0.0021658413610169979 0 -0.062803928502282336 0.0029804516157662989 0 -0.063714552135136743 0.0017505068245559261 0 -0.063509580599977258 0.0043864248514140641 0 -0.062803928502282336 0.0029804516157662989 0 -0.064152010460068923 0.0028610413178925122 0 -0.064152010460068923 0.0028610413178925122 0 -0.064367443595173088 0.0016839148926851566 0 -0.065270832761623113 0.0034236408608169359 0 -0.062803928502282336 0.0029804516157662989 0 -0.064152010460068923 0.0028610413178925122 0 -0.064013061996429255 0.0022504746836680563 0 -0.064152010460068923 0.0028610413178925122 0 -0.064013061996429255 0.0022504746836680563 0 -0.064367443595173088 0.0016839148926851566 0 -0.064013061996429255 0.0022504746836680563 0 -0.063714552135136743 0.0017505068245559261 0 -0.064367443595173088 0.0016839148926851566 0 -0.04861052719080141 0.0051289082774162095 0 -0.048177612499642294 0.0057692360013840652 0 -0.048287579088512139 0.004491158346440355 0 -0.063786230530092067 0.00090219218097219102 0 -0.064059904479688998 0.001068115754683816 0 -0.064106025829720109 0.0006428559825754752 0 -0.053160438405209794 0.0045765902014683734 0 -0.055054837382190712 0.0039976753109650385 0 -0.048177612499642294 0.0057692360013840652 0 -0.048704593157824057 0.0055610108327349105 0 -0.04889066851794998 0.0059387378793075698 0 -0.04861052719080141 0.0051289082774162095 0 -0.048177612499642294 0.0057692360013840652 0 -0.048704593157824057 0.0055610108327349105 0 -0.048929625610851291 0.0047237120432309506 0 -0.049222806365811028 0.0054787723519390532 0 -0.049656947099526325 0.0044105582535255185 0 -0.045361790102485387 0.0070424907212183682 0 -0.049903151864462481 0.003868235937084847 0 -0.048929625610851291 0.0047237120432309506 0 -0.049656947099526325 0.0044105582535255185 0 -0.049335738177406913 0.0040091181143920539 0 -0.050636370257383587 0.005102044519121501 0 -0.053191092712901435 0.002994516787204673 0 -0.04861052719080141 0.0051289082774162095 0 -0.049159281831745824 0.0054737213459097366 0 -0.048736196925044314 0.0043915591223668013 0 -0.050636370257383587 0.005102044519121501 0 -0.054363728294181214 0.0034725258587641221 0 -0.04861052719080141 0.0051289082774162095 0 -0.048704593157824057 0.0055610108327349105 0 -0.049159281831745824 0.0054737213459097366 0 -0.04889066851794998 0.0059387378793075698 0 -0.049148409763618492 0.0054802501746916196 0 -0.04953432148357257 0.0064631806030726073 0 -0.048704593157824057 0.0055610108327349105 0 -0.04889066851794998 0.0059387378793075698 0 -0.049159281831745824 0.0054737213459097366 0 -0.05056079024929469 0.0051890521101096996 0 -0.050636370257383587 0.005102044519121501 0 -0.050636370257383587 0.005102044519121501 0 -0.045361790102485387 0.0070424907212183682 0 -0.04889066851794998 0.0059387378793075698 0 -0.04953432148357257 0.0064631806030726073 0 -0.048676497795960769 0.0067394516301334155 0 -0.053160438405209794 0.0045765902014683734 0 -0.050407550906174943 0.0067298899470910178 0 -0.048177612499642294 0.0057692360013840652 0 -0.048066129897486314 0.0070402352544598097 0 -0.048676497795960769 0.0067394516301334155 0 -0.063786230530092067 0.00090219218097219102 0 -0.064059904479688998 0.001068115754683816 0 -0.063984571226783471 0.0015103803545722381 0 -0.05678913941608147 0.0044472778435404071 0 -0.050407550906174943 0.0067298899470910178 0 -0.048177612499642294 0.0057692360013840652 0 -0.04889066851794998 0.0059387378793075698 0 -0.048676497795960769 0.0067394516301334155 0 -0.043684974001100572 0.0072794913937439011 0 -0.044919997568671731 0.010003516027127339 0 -0.043375208581511233 0.01091244291040982 0 -0.050407550906174943 0.0067298899470910178 0 -0.041187469968022972 0.010902520727901426 0 -0.050407550906174943 0.0067298899470910178 0 -0.046085567472609917 0.0089831284312981725 0 -0.048066129897486314 0.0070402352544598097 0 -0.048676497795960769 0.0067394516301334155 0 -0.048712646970886155 0.0084867276998492665 0 -0.04953432148357257 0.0064631806030726073 0 -0.048676497795960769 0.0067394516301334155 0 -0.048712646970886155 0.0084867276998492665 0 -0.035077661906177983 0.011016938496477207 0 -0.035088680060451821 0.010932309460811094 0 -0.03500158753559178 0.010938684571754499 0 -0.045361790102485387 0.0070424907212183682 0 -0.041187469968022972 0.010902520727901426 0 -0.036034430799499459 0.014200821073623771 0 -0.035535351221990856 0.015445776565359177 0 -0.03652893356584154 0.015304965370924174 0 -0.035088680060451821 0.010932309460811094 0 -0.03500158753559178 0.010938684571754499 0 -0.035049296626849857 0.010881312169702353 0 -0.041187469968022972 0.010902520727901426 0 -0.034040877172103599 0.013907717693411399 0 -0.044919997568671731 0.010003516027127339 0 -0.043375208581511233 0.01091244291040982 0 -0.044031062265550154 0.012219425527111099 0 -0.041187469968022972 0.010902520727901426 0 -0.038921749811036174 0.013186514284271375 0 -0.038248665544532393 0.0061476032599508948 0 -0.039299509219379851 0.006692456241317573 0 -0.038464020007536098 0.0080740790482725939 0 -0.038248665544532393 0.0061476032599508948 0 -0.038464020007536098 0.0080740790482725939 0 -0.037401561501416512 0.0068158748777525239 0 -0.038248665544532393 0.0061476032599508948 0 -0.039299509219379851 0.006692456241317573 0 -0.038652626783878513 0.005159932704270594 0 -0.036737071574310394 0.0092979985072285751 0 -0.028245071348504219 0.012997441438779605 0 -0.03500158753559178 0.010938684571754499 0 -0.035049296626849857 0.010881312169702353 0 -0.034964474360449735 0.010853118683264062 0 -0.0399460806306636 0.0082213173041179033 0 -0.039299509219379851 0.006692456241317573 0 -0.038464020007536098 0.0080740790482725939 0 -0.045361790102485387 0.0070424907212183682 0 -0.036737071574310394 0.0092979985072285751 0 -0.044133137280616755 0.0048700750833119222 0 -0.039341984744017622 0.0058189569569108085 0 -0.0399460806306636 0.0082213173041179033 0 -0.038464020007536098 0.0080740790482725939 0 -0.039521500580838774 0.0093231416704058073 0 -0.044133137280616755 0.0048700750833119222 0 -0.049903151864462481 0.003868235937084847 0 -0.04789878309167795 0.0028857156803289521 0 -0.049151891272774834 0.0044015474833612794 0 -0.047855523978661697 0.004498395901697652 0 -0.04789878309167795 0.0028857156803289521 0 -0.047855523978661697 0.004498395901697652 0 -0.04653328950296047 0.0043295838076546833 0 -0.054092371387845901 0.00075483560567950702 0 -0.050754181089175336 0.0012219562180683411 0 -0.061228345659931925 -0.001766718526542375 0 -0.060910176319475928 -0.0016813506429676462 0 -0.061014699042778259 -0.0023879525253503071 0 -0.059799470805461871 -0.001432656680768498 0 -0.060069378443531427 -0.0019394726497310576 0 -0.060910176319475928 -0.0016813506429676462 0 -0.061014699042778259 -0.0023879525253503071 0 -0.060414901153844944 -0.0022920222378901771 0 -0.061014699042778259 -0.0023879525253503071 0 -0.060414901153844944 -0.0022920222378901771 0 -0.060644712278061209 -0.0026180581574181869 0 -0.04789878309167795 0.0028857156803289521 0 -0.04653328950296047 0.0043295838076546833 0 -0.045900900149102711 0.0028789927091887593 0 -0.060535670093325722 -0.0026250097890521541 0 -0.060581399802961206 -0.002502553045872523 0 -0.060402083602775859 -0.0025800248978888642 0 -0.060535670093325722 -0.0026250097890521541 0 -0.060682849010975398 -0.002474175913800693 0 -0.060581399802961206 -0.002502553045872523 0 -0.060867169553917959 -0.0025074886634292555 0 -0.060734849218611602 -0.0025216730748686277 0 -0.06068299042376693 -0.0026922834576854002 0 -0.060535670093325722 -0.0026250097890521541 0 -0.060734849218611602 -0.0025216730748686277 0 -0.060682849010975398 -0.002474175913800693 0 -0.060535670093325722 -0.0026250097890521541 0 -0.060734849218611602 -0.0025216730748686277 0 -0.06068299042376693 -0.0026922834576854002 0 -0.060414901153844944 -0.0022920222378901771 0 -0.060257480778078056 -0.002731835849093246 0 -0.060644712278061209 -0.0026180581574181869 0 -0.060069378443531427 -0.0019394726497310576 0 -0.060090592331597345 -0.0021484441360339925 0 -0.06068299042376693 -0.0026922834576854002 0 -0.060433475118712603 -0.0027312249380128184 0 -0.060304392216965388 -0.0027844669577672398 0 -0.060535670093325722 -0.0026250097890521541 0 -0.060433475118712603 -0.0027312249380128184 0 -0.060376011714583101 -0.0027044444776774417 0 -0.060535670093325722 -0.0026250097890521541 0 -0.06068299042376693 -0.0026922834576854002 0 -0.060433475118712603 -0.0027312249380128184 0 -0.060304392216965388 -0.0027844669577672398 0 -0.060257480778078056 -0.002731835849093246 0 -0.060349636890288716 -0.002830171366623167 0 -0.060257480778078056 -0.002731835849093246 0 -0.059057971046473187 -0.0036538773631699128 0 -0.057387016703233762 -0.0029647511715090689 0 -0.058338650917542346 -0.001308000831254602 0 -0.055887127962447172 -0.001165459492556329 0 -0.060433475118712603 -0.0027312249380128184 0 -0.060304392216965388 -0.0027844669577672398 0 -0.060365340475485869 -0.0027775578676896241 0 -0.060414901153844944 -0.0022920222378901771 0 -0.060304392216965388 -0.0027844669577672398 0 -0.060257480778078056 -0.002731835849093246 0 -0.060257480778078056 -0.002731835849093246 0 -0.060222227710718827 -0.0036085173197429581 0 -0.059057971046473187 -0.0036538773631699128 0 -0.060257480778078056 -0.002731835849093246 0 -0.060644712278061209 -0.0026180581574181869 0 -0.060947415706174221 -0.0032054819077139284 0 -0.060257480778078056 -0.002731835849093246 0 -0.060222227710718827 -0.0036085173197429581 0 -0.060947415706174221 -0.0032054819077139284 0 -0.060222227710718827 -0.0036085173197429581 0 -0.060947415706174221 -0.0032054819077139284 0 -0.060501219064635493 -0.0049574067073242878 0 -0.060222227710718827 -0.0036085173197429581 0 -0.059057971046473187 -0.0036538773631699128 0 -0.060501219064635493 -0.0049574067073242878 0 -0.059057971046473187 -0.0036538773631699128 0 -0.057387016703233762 -0.0029647511715090689 0 -0.057849179234918974 -0.0047447342249312243 0 -0.059057971046473187 -0.0036538773631699128 0 -0.060501219064635493 -0.0049574067073242878 0 -0.057849179234918974 -0.0047447342249312243 0 -0.04789878309167795 0.0028857156803289521 0 -0.045900900149102711 0.0028789927091887593 0 -0.04662872327706738 0.0013548857473407053 0 -0.050754181089175336 0.0012219562180683411 0 -0.046192545569189038 0.0020393651582739447 0 -0.061014699042778259 -0.0023879525253503071 0 -0.060644712278061209 -0.0026180581574181869 0 -0.060947415706174221 -0.0032054819077139284 0 -0.045900900149102711 0.0028789927091887593 0 -0.04662872327706738 0.0013548857473407053 0 -0.045250706177559538 0.0014116040507892982 0 -0.045250706177559538 0.0014116040507892982 0 -0.045330610169315548 -0.0002113585595715849 0 -0.044600349606791677 -8.6459052082919554e-05 0 -0.04662872327706738 0.0013548857473407053 0 -0.045250706177559538 0.0014116040507892982 0 -0.045330610169315548 -0.0002113585595715849 0 -0.039341984744017622 0.0058189569569108085 0 -0.03189770004999818 0.0070504796946588011 0 -0.046192545569189038 0.0020393651582739447 0 -0.038808200752736957 0.0046332291292619588 0 -0.037401561501416512 0.0068158748777525239 0 -0.037504218150945123 0.0053483475256004389 0 -0.036342709573365876 0.0055437223615254034 0 -0.038248665544532393 0.0061476032599508948 0 -0.037401561501416512 0.0068158748777525239 0 -0.037504218150945123 0.0053483475256004389 0 -0.028689202639842353 0.010307405350599196 0 -0.03189770004999818 0.0070504796946588011 0 -0.016553446946105117 0.016370634188617644 0 -0.014707372272516176 0.016648321687976458 0 -0.014641849671993541 0.014994403224970042 0 -0.03189770004999818 0.0070504796946588011 0 -0.038808200752736957 0.0046332291292619588 0 -0.014707372272516176 0.016648321687976458 0 -0.014641849671993541 0.014994403224970042 0 -0.013281953970871759 0.014848081921807857 0 -0.016553446946105117 0.016370634188617644 0 -0.014641849671993541 0.014994403224970042 0 -0.016184676101815312 0.014612621212990317 0 -0.016553446946105117 0.016370634188617644 0 -0.016184676101815312 0.014612621212990317 0 -0.017368732538276623 0.015249005337019653 0 -0.016184676101815312 0.014612621212990317 0 -0.017504284848167784 0.013751945044733323 0 -0.017368732538276623 0.015249005337019653 0 -0.020639376032505072 0.0053002525793339698 0 -0.018415171370977746 0.0058246788012075081 0 -0.018433875746686097 0.0079676411260621877 0 -0.038808200752736957 0.0046332291292619588 0 -0.038338880554566829 0.0018995352008801818 0 -0.023138469653750392 0.0072354129370565514 0 -0.020639376032505072 0.0053002525793339698 0 -0.018433875746686097 0.0079676411260621877 0 -0.024835721932418526 0.0069990019239009509 0 -0.022424370771176354 0.0055423243317261964 0 -0.022129378550827344 0.0037500875233384074 0 -0.03189770004999818 0.0070504796946588011 0 -0.019234651000315531 0.0080156871805929127 0 -0.022424370771176354 0.0055423243317261964 0 -0.023138469653750392 0.0072354129370565514 0 -0.020639376032505072 0.0053002525793339698 0 -0.03775085064494034 0.0041213079850874745 0 -0.038808200752736957 0.0046332291292619588 0 -0.024835721932418526 0.0069990019239009509 0 -0.022424370771176354 0.0055423243317261964 0 -0.023161046263676342 0.0072947254855978494 0 -0.014641849671993541 0.014994403224970042 0 -0.013281953970871759 0.014848081921807857 0 -0.014115532191592528 0.013899384234823019 0 -0.022424370771176354 0.0055423243317261964 0 -0.022129378550827344 0.0037500875233384074 0 -0.020639376032505072 0.0053002525793339698 0 -0.022129378550827344 0.0037500875233384074 0 -0.020639376032505072 0.0053002525793339698 0 -0.020415869038129798 0.0032358052658719213 0 -0.020639376032505072 0.0053002525793339698 0 -0.020415869038129798 0.0032358052658719213 0 -0.018996937563007996 0.0038901690523747792 0 -0.020415869038129798 0.0032358052658719213 0 -0.018996937563007996 0.0038901690523747792 0 -0.019258242936919384 0.0025788551356245928 0 -0.020639376032505072 0.0053002525793339698 0 -0.018996937563007996 0.0038901690523747792 0 -0.018415171370977746 0.0058246788012075081 0 -0.019234651000315531 0.0080156871805929127 0 -0.0072944362435953371 0.0080531420005504149 0 -0.020415869038129798 0.0032358052658719213 0 -0.019513101723550835 0.0006180094995219288 0 -0.019258242936919384 0.0025788551356245928 0 -0.019513101723550835 0.0006180094995219288 0 -0.019258242936919384 0.0025788551356245928 0 -0.017790636754696915 0.0032152013136298799 0 -0.022129378550827344 0.0037500875233384074 0 -0.020415869038129798 0.0032358052658719213 0 -0.019513101723550835 0.0006180094995219288 0 -0.013281953970871759 0.014848081921807857 0 -0.011983589975343109 0.013237960835900699 0 -0.013394819527045831 0.013335657575442163 0 -0.013281953970871759 0.014848081921807857 0 -0.013394819527045831 0.013335657575442163 0 -0.014115532191592528 0.013899384234823019 0 -0.013394819527045831 0.013335657575442163 0 -0.014115532191592528 0.013899384234823019 0 -0.014225096419138156 0.012829441793416231 0 -0.013394819527045831 0.013335657575442163 0 -0.013838979629942494 0.012013616735932119 0 -0.014225096419138156 0.012829441793416231 0 -0.011983589975343109 0.013237960835900699 0 -0.013394819527045831 0.013335657575442163 0 -0.013838979629942494 0.012013616735932119 0 0.012595906605914571 0.014012785938176177 0 0.011320314091469993 0.013156134101999728 0 0.012061138134150603 0.013474390346122368 0 -0.0072944362435953371 0.0080531420005504149 0 -0.0021639715070331882 0.014728547615967721 0 0.012621979819324509 0.012680235198869199 0 0.011320314091469993 0.013156134101999728 0 0.012061138134150603 0.013474390346122368 0 -0.0021639715070331882 0.014728547615967721 0 -0.0028927839250083775 0.014975855967577284 0 0.012621979819324509 0.012680235198869199 0 0.012061138134150603 0.013474390346122368 0 0.012924762319743353 0.013795389201622939 0 3.5682119408620817e-05 0.009549010044782074 0 -0.0047639282298538761 0.007853377244960642 0 0.012595906605914571 0.014012785938176177 0 0.012061138134150603 0.013474390346122368 0 0.012794872460676008 0.013748751153671392 0 -0.0072944362435953371 0.0080531420005504149 0 -0.0047639282298538761 0.007853377244960642 0 -0.016184676101815312 0.014612621212990317 0 -0.01535853970830315 0.013269454865121409 0 -0.017504284848167784 0.013751945044733323 0 -0.01535853970830315 0.013269454865121409 0 -0.016054082985179949 0.011564469565864734 0 -0.017504284848167784 0.013751945044733323 0 -0.014641849671993541 0.014994403224970042 0 -0.014115532191592528 0.013899384234823019 0 -0.015130542919093522 0.013493211134980506 0 -0.014641849671993541 0.014994403224970042 0 -0.016184676101815312 0.014612621212990317 0 -0.01535853970830315 0.013269454865121409 0 -0.012022882303899092 0.013841498776965826 0 -0.01143857348448993 0.014008699537483665 0 -0.014115532191592528 0.013899384234823019 0 -0.015130542919093522 0.013493211134980506 0 -0.014225096419138156 0.012829441793416231 0 -0.015130542919093522 0.013493211134980506 0 -0.014790235036647606 0.012364421031483117 0 -0.015637410873415823 0.01212660834216691 0 -0.015130542919093522 0.013493211134980506 0 -0.014225096419138156 0.012829441793416231 0 -0.014790235036647606 0.012364421031483117 0 -0.01388265059602036 0.012106820347855403 0 -0.014225096419138156 0.012829441793416231 0 -0.014790235036647606 0.012364421031483117 0 -0.0016089813576142342 0.021513038248788127 0 -0.0043126864739555472 0.022463085427665393 0 -0.0049575380584473477 0.026419084040625294 0 -0.01143857348448993 0.014008699537483665 0 -0.0086104704758131981 0.016724932957942366 0 -0.0086104704758131981 0.016724932957942366 0 -0.015455840672738726 0.017088595396527292 0 -0.0041273129192105429 0.020312614680328755 0 -0.0016089813576142342 0.021513038248788127 0 -0.0043126864739555472 0.022463085427665393 0 -0.0043126864739555472 0.022463085427665393 0 -0.0065648706991969551 0.021553569410549926 0 -0.0049575380584473477 0.026419084040625294 0 -0.0041273129192105429 0.020312614680328755 0 -0.0043126864739555472 0.022463085427665393 0 -0.0065648706991969551 0.021553569410549926 0 -0.0065648706991969551 0.021553569410549926 0 -0.0049575380584473477 0.026419084040625294 0 -0.0087289280039294058 0.026158306627947044 0 -0.011342103331065077 0.019703216034049332 0 -0.0065648706991969551 0.021553569410549926 0 -0.010099803027520619 0.023101020036210191 0 -0.0090831974279164032 0.026814963032471578 0 -0.010099803027520619 0.023101020036210191 0 -0.013387710759935549 0.024344076101771764 0 -0.01605427536254482 0.020468108133159819 0 -0.018970221719477227 0.021018786753102727 0 -0.0065648706991969551 0.021553569410549926 0 -0.0090831974279164032 0.026814963032471578 0 -0.010099803027520619 0.023101020036210191 0 -0.016507242807434278 0.020707546152143829 0 -0.011342103331065077 0.019703216034049332 0 -0.013387710759935549 0.024344076101771764 0 -0.011342103331065077 0.019703216034049332 0 -0.010099803027520619 0.023101020036210191 0 -0.013387710759935549 0.024344076101771764 0 -0.016507242807434278 0.020707546152143829 0 -0.013387710759935549 0.024344076101771764 0 -0.018219477411953292 0.024558329946923016 0 -0.018219477411953292 0.024558329946923016 0 -0.015514791119144654 0.027040035052619992 0 -0.017707546963825885 0.030930615842301952 0 -0.026720825806259452 0.020853354837820706 0 -0.036355049968547166 0.015226581670529286 0 -0.013387710759935549 0.024344076101771764 0 -0.018219477411953292 0.024558329946923016 0 -0.015514791119144654 0.027040035052619992 0 -0.0090831974279164032 0.026814963032471578 0 -0.013387710759935549 0.024344076101771764 0 -0.012731472264857943 0.028301823531455331 0 -0.013387710759935549 0.024344076101771764 0 -0.015514791119144654 0.027040035052619992 0 -0.012731472264857943 0.028301823531455331 0 -0.012731472264857943 0.028301823531455331 0 -0.011552788686920362 0.031993005157235049 0 -0.017707546963825885 0.030930615842301952 0 -0.026538432453780268 0.017084349798433079 0 -0.036355049968547166 0.015226581670529286 0 -0.0090831974279164032 0.026814963032471578 0 -0.012731472264857943 0.028301823531455331 0 -0.011552788686920362 0.031993005157235049 0 -0.015514791119144654 0.027040035052619992 0 -0.012731472264857943 0.028301823531455331 0 -0.017707546963825885 0.030930615842301952 0 -0.036355049968547166 0.015226581670529286 0 -0.038921749811036174 0.013186514284271375 0 -0.037022817420650701 0.016405584675783024 0 -0.035006002811001885 0.016755556182580764 0 -0.035535351221990856 0.015445776565359177 0 -0.046085567472609917 0.0089831284312981725 0 -0.036355049968547166 0.015226581670529286 0 -0.043375208581511233 0.01091244291040982 0 -0.043058470057777798 0.014572136223596471 0 -0.044031062265550154 0.012219425527111099 0 -0.037022817420650701 0.016405584675783024 0 -0.035535351221990856 0.015445776565359177 0 -0.03652893356584154 0.015304965370924174 0 -0.035004251331000595 0.010824032883529903 0 -0.035049296626849857 0.010881312169702353 0 -0.034964474360449735 0.010853118683264062 0 -0.026538432453780268 0.017084349798433079 0 -0.034040877172103599 0.013907717693411399 0 -0.03500158753559178 0.010938684571754499 0 -0.034964474360449735 0.010853118683264062 0 -0.034910860960758655 0.010834211581275567 0 -0.026538432453780268 0.017084349798433079 0 -0.024905535639057112 0.014747135105054723 0 -0.035004251331000595 0.010824032883529903 0 -0.034964474360449735 0.010853118683264062 0 -0.034942628402897212 0.010832764891236035 0 -0.034964474360449735 0.010853118683264062 0 -0.034940814930254124 0.010826122617624367 0 -0.034910860960758655 0.010834211581275567 0 -0.024905535639057112 0.014747135105054723 0 -0.028245071348504219 0.012997441438779605 0 -0.025129952828749878 0.01476901188452283 0 -0.024905535639057112 0.014747135105054723 0 -0.028689202639842353 0.010307405350599196 0 -0.028245071348504219 0.012997441438779605 0 -0.038248665544532393 0.0061476032599508948 0 -0.037504218150945123 0.0053483475256004389 0 -0.038652626783878513 0.005159932704270594 0 -0.016553446946105117 0.016370634188617644 0 -0.018431941260520265 0.016066957473159386 0 -0.017368732538276623 0.015249005337019653 0 -0.018984517494242285 0.015973648152563164 0 -0.01843594444729877 0.016071844097704041 0 -0.018176362669300162 0.015444477869514351 0 -0.017504284848167784 0.013751945044733323 0 -0.018176362669300162 0.015444477869514351 0 -0.017368732538276623 0.015249005337019653 0 -0.018431941260520265 0.016066957473159386 0 -0.018176362669300162 0.015444477869514351 0 -0.017368732538276623 0.015249005337019653 0 -0.017504284848167784 0.013751945044733323 0 -0.018984517494242285 0.015973648152563164 0 -0.018176362669300162 0.015444477869514351 0 -0.028245071348504219 0.012997441438779605 0 -0.028019418158129267 0.012984745266141479 0 -0.015455840672738726 0.017088595396527292 0 -0.024905535639057112 0.014747135105054723 0 -0.018970221719477227 0.021018786753102727 0 -0.026538432453780268 0.017084349798433079 0 -0.0087289280039294058 0.026158306627947044 0 -0.010891005289929825 0.030703190884943131 0 -0.0081540137340762979 0.031183450810690641 0 -0.0049575380584473477 0.026419084040625294 0 -0.0087289280039294058 0.026158306627947044 0 -0.0081540137340762979 0.031183450810690641 0 -0.008589330946328121 0.00025207106335558736 0 -0.012831032440792279 -1.9464503004437894e-06 0 -0.010656091956035401 0.0019493332045086391 0 -0.012831032440792279 -1.9464503004437894e-06 0 -0.010656091956035401 0.0019493332045086391 0 -0.016726160212868782 8.1624539076541076e-06 0 -0.015483570958894605 0.0014691316994374739 0 -0.012765106587330646 0.0024950212636055315 0 -0.008589330946328121 0.00025207106335558736 0 -0.010656091956035401 0.0019493332045086391 0 -0.00711205108086239 0.0018175672476091506 0 -0.015483570958894605 0.0014691316994374739 0 -0.017913746158705633 0.0040157373386178795 0 -0.014070274302261732 0.0042567539092006291 0 -0.015586835086271835 0.0049210434153008345 0 -0.016050163243286179 0.0045643271507648086 0 -0.012765106587330646 0.0024950212636055315 0 -0.012554240636286478 0.0039610806031081646 0 -0.015586835086271835 0.0049210434153008345 0 -0.016050163243286179 0.0045643271507648086 0 -0.01710493449767796 0.0055806304237666533 0 -0.00711205108086239 0.0018175672476091506 0 -0.0062291966750090558 0.0007077613274842551 0 -0.0055247576308535109 0.0011866163631702911 0 -0.008589330946328121 0.00025207106335558736 0 -0.00711205108086239 0.0018175672476091506 0 -0.0062291966750090558 0.0007077613274842551 0 -0.008589330946328121 0.00025207106335558736 0 -0.0053832702002473733 0.00032679655812805849 0 -0.006244576138538278 -0.00010444119405932586 0 -0.008589330946328121 0.00025207106335558736 0 -0.0062291966750090558 0.0007077613274842551 0 -0.0053832702002473733 0.00032679655812805849 0 -0.0062291966750090558 0.0007077613274842551 0 -0.0053832702002473733 0.00032679655812805849 0 -0.0053495012491027449 0.0004380974888374708 0 -0.0057561176015930261 0.003125901085854023 0 -0.0060156377054298342 0.0038530959842128106 0 -0.0053832702002473733 0.00032679655812805849 0 -0.0032739827244334112 -0.00041392433742681102 0 -0.0024361917176325036 5.6272962666877778e-05 0 -0.0053832702002473733 0.00032679655812805849 0 -0.006244576138538278 -0.00010444119405932586 0 -0.0040613733315691576 -0.00051670506372761683 0 -0.008589330946328121 0.00025207106335558736 0 -0.006244576138538278 -0.00010444119405932586 0 -0.0089254928496560713 -2.7532614431407527e-07 0 -0.008589330946328121 0.00025207106335558736 0 -0.012831032440792279 -1.9464503004437894e-06 0 -0.0089254928496560713 -2.7532614431407527e-07 0 -0.0089254928496560713 -2.7532614431407527e-07 0 -0.0044606908570664931 -0.00048664365865720287 0 -0.0050222736700623986 -1.0317970470464229e-06 0 -0.006244576138538278 -0.00010444119405932586 0 -0.0089254928496560713 -2.7532614431407527e-07 0 -0.0044606908570664931 -0.00048664365865720287 0 -0.0050222736700623986 -1.0317970470464229e-06 0 -0.0011434688274262451 -0.00062728338011193462 0 -0.0011183651853886442 -8.2008874324672315e-07 0 -0.0044606908570664931 -0.00048664365865720287 0 -0.0050222736700623986 -1.0317970470464229e-06 0 -0.0011434688274262451 -0.00062728338011193462 0 -0.0044606908570664931 -0.00048664365865720287 0 -0.0011434688274262451 -0.00062728338011193462 0 -0.0024378954555680154 -0.00084929218056439663 0 -4.6678008854839567e-05 -0.00077644770910139651 0 -0.00064688161880117889 -0.00087594765033780907 0 -0.00090900837397123212 -0.00098974426759881429 0 -0.00064688161880117889 -0.00087594765033780907 0 -0.0016951354343323452 -0.00096173823082090955 0 -0.00090900837397123212 -0.00098974426759881429 0 0.00030249773316907015 -0.0007400491391051702 0 -0.0011434688274262451 -0.00062728338011193462 0 -0.00064688161880117889 -0.00087594765033780907 0 -0.0011434688274262451 -0.00062728338011193462 0 -0.00064688161880117889 -0.00087594765033780907 0 -0.0024378954555680154 -0.00084929218056439663 0 -0.0024378954555680154 -0.00084929218056439663 0 -0.0016951354343323452 -0.00096173823082090955 0 -0.0025250844292821232 -0.00080913704787405512 0 -0.00064688161880117889 -0.00087594765033780907 0 -0.0024378954555680154 -0.00084929218056439663 0 -0.0016951354343323452 -0.00096173823082090955 0 -0.0024378954555680154 -0.00084929218056439663 0 -0.0025250844292821232 -0.00080913704787405512 0 -0.0040613733315691576 -0.00051670506372761683 0 -0.0044606908570664931 -0.00048664365865720287 0 -0.0024378954555680154 -0.00084929218056439663 0 -0.0040613733315691576 -0.00051670506372761683 0 -0.006244576138538278 -0.00010444119405932586 0 -0.0044606908570664931 -0.00048664365865720287 0 -0.0040613733315691576 -0.00051670506372761683 0 -0.0025250844292821232 -0.00080913704787405512 0 -0.0040613733315691576 -0.00051670506372761683 0 -0.0032739827244334112 -0.00041392433742681102 0 -0.0053832702002473733 0.00032679655812805849 0 -0.0040613733315691576 -0.00051670506372761683 0 -0.0032739827244334112 -0.00041392433742681102 0 -0.0032739827244334112 -0.00041392433742681102 0 -0.0020363044780579345 -0.00069759669270966836 0 -0.0024361917176325036 5.6272962666877778e-05 0 -0.0017315607706713078 -0.00031511437389868124 0 -0.0015051020219915092 0.00020913492468254053 0 -0.0024361917176325036 5.6272962666877778e-05 0 -0.0017315607706713078 -0.00031511437389868124 0 -0.0020363044780579345 -0.00069759669270966836 0 -0.0013708874626402402 -0.00064374796750118644 0 -0.0017315607706713078 -0.00031511437389868124 0 -0.0020363044780579345 -0.00069759669270966836 0 -0.0024361917176325036 5.6272962666877778e-05 0 -0.0017315607706713078 -0.00031511437389868124 0 -0.0013250986963644926 -0.00031985612494810946 0 -0.0015051020219915092 0.00020913492468254053 0 -0.0017315607706713078 -0.00031511437389868124 0 -0.0013708874626402402 -0.00064374796750118644 0 -0.0013250986963644926 -0.00031985612494810946 0 -0.0014003998783901027 -0.0008809759590674421 0 -0.0020363044780579345 -0.00069759669270966836 0 -0.0013708874626402402 -0.00064374796750118644 0 -0.0014003998783901027 -0.0008809759590674421 0 -0.0020363044780579345 -0.00069759669270966836 0 -0.0016369460541290216 -0.00095760814129667367 0 -0.0025250844292821232 -0.00080913704787405512 0 -0.0032739827244334112 -0.00041392433742681102 0 -0.0020363044780579345 -0.00069759669270966836 0 -0.0025250844292821232 -0.00080913704787405512 0 -0.0020363044780579345 -0.00069759669270966836 0 -0.0016369460541290216 -0.00095760814129667367 0 -0.0016951354343323452 -0.00096173823082090955 0 -0.0025250844292821232 -0.00080913704787405512 0 -0.0016369460541290216 -0.00095760814129667367 0 -0.0016951354343323452 -0.00096173823082090955 0 -0.0016369460541290216 -0.00095760814129667367 0 -0.00090900837397123212 -0.00098974426759881429 0 -0.0016369460541290216 -0.00095760814129667367 0 -0.0012563983120469498 -0.00099023474164461702 0 -0.00090900837397123212 -0.00098974426759881429 0 -0.0014003998783901027 -0.0008809759590674421 0 -0.0016369460541290216 -0.00095760814129667367 0 -0.0012563983120469498 -0.00099023474164461702 0 -0.0014003998783901027 -0.0008809759590674421 0 -0.0012563983120469498 -0.00099023474164461702 0 -0.0011290845239846073 -0.00090031635413583206 0 -0.0012563983120469498 -0.00099023474164461702 0 -0.0010705889892445536 -0.00094486279846299774 0 -0.0011290845239846073 -0.00090031635413583206 0 -0.0012563983120469498 -0.00099023474164461702 0 -0.0010705889892445536 -0.00094486279846299774 0 -0.00090900837397123212 -0.00098974426759881429 0 -4.6678008854839567e-05 -0.00077644770910139651 0 -0.0010705889892445536 -0.00094486279846299774 0 -0.00090900837397123212 -0.00098974426759881429 0 -0.00092119049569399053 -0.00097009418034053711 0 -0.00023954786218902181 -0.0006426337138467728 0 -0.0010127771808315247 -0.00073756669211338434 0 -0.00023954786218902181 -0.0006426337138467728 0 -0.0010127771808315247 -0.00073756669211338434 0 -0.00026591116834600822 -1.5610718106236149e-06 0 -0.00023954786218902181 -0.0006426337138467728 0 -0.00026591116834600822 -1.5610718106236149e-06 0 0.00022686638497526566 -9.0591697493215271e-05 0 -0.00092119049569399053 -0.00097009418034053711 0 -0.0010705889892445536 -0.00094486279846299774 0 -0.0010127771808315247 -0.00073756669211338434 0 -0.0010705889892445536 -0.00094486279846299774 0 -0.0010127771808315247 -0.00073756669211338434 0 -0.0011290845239846073 -0.00090031635413583206 0 -0.0010127771808315247 -0.00073756669211338434 0 -0.0011290845239846073 -0.00090031635413583206 0 -0.00099669865342373772 -0.00085142522988540092 0 -0.0014003998783901027 -0.0008809759590674421 0 -0.0011290845239846073 -0.00090031635413583206 0 -0.0011126126499021239 -0.00078769337314963414 0 -0.0011290845239846073 -0.00090031635413583206 0 -0.00099669865342373772 -0.00085142522988540092 0 -0.0011126126499021239 -0.00078769337314963414 0 -0.0010127771808315247 -0.00073756669211338434 0 -0.00099669865342373772 -0.00085142522988540092 0 -0.00092012222958281239 -0.00087632391067759782 0 -0.00026591116834600822 -1.5610718106236149e-06 0 -0.00062523112000621435 0.0011148014053400147 0 0.00019099161915297569 0.00050264952004067337 0 -0.0010127771808315247 -0.00073756669211338434 0 -0.00026591116834600822 -1.5610718106236149e-06 0 -0.00062523112000621435 0.0011148014053400147 0 -0.0012889070141385672 0.00030205488576473506 0 -0.0011277002289261085 0.0012185769157151997 0 -0.00099669865342373772 -0.00085142522988540092 0 -0.00092047406713395953 -0.00086888174007087357 0 -0.00092012222958281239 -0.00087632391067759782 0 -0.00099669865342373772 -0.00085142522988540092 0 -0.00092047406713395953 -0.00086888174007087357 0 -0.00099458525275205093 -0.00082610686662902522 0 -0.00079885571970233311 -0.00086550964870419082 0 -0.00091028151426243774 -0.00065821247253167636 0 -0.00028180496550415522 -0.00016926656745291764 0 -0.0011277002289261085 0.0012185769157151997 0 -0.0017316700857893856 0.0021588423940191561 0 -0.0011284695780556812 0.0012124737679764697 0 -0.0011277002289261085 0.0012185769157151997 0 -0.00092047406713395953 -0.00086888174007087357 0 -0.00091028151426243774 -0.00065821247253167636 0 -0.00099458525275205093 -0.00082610686662902522 0 -0.00092047406713395953 -0.00086888174007087357 0 -0.00079885571970233311 -0.00086550964870419082 0 -0.00091028151426243774 -0.00065821247253167636 0 -0.0014003998783901027 -0.0008809759590674421 0 -0.0011126126499021239 -0.00078769337314963414 0 -0.0013708874626402402 -0.00064374796750118644 0 -0.00091028151426243774 -0.00065821247253167636 0 -0.0011126126499021239 -0.00078769337314963414 0 -0.00099458525275205093 -0.00082610686662902522 0 -0.00099669865342373772 -0.00085142522988540092 0 -0.0011126126499021239 -0.00078769337314963414 0 -0.00099458525275205093 -0.00082610686662902522 0 -0.00091028151426243774 -0.00065821247253167636 0 -0.0011126126499021239 -0.00078769337314963414 0 -0.0011249496331230129 -0.00056296511469747874 0 -0.00091028151426243774 -0.00065821247253167636 0 -0.0011249496331230129 -0.00056296511469747874 0 -0.00090151265709139956 -0.00031326028809684336 0 -0.0011249496331230129 -0.00056296511469747874 0 -0.0013708874626402402 -0.00064374796750118644 0 -0.0013250986963644926 -0.00031985612494810946 0 -0.0011126126499021239 -0.00078769337314963414 0 -0.0011249496331230129 -0.00056296511469747874 0 -0.0013708874626402402 -0.00064374796750118644 0 -0.0013250986963644926 -0.00031985612494810946 0 -0.00081635221631084587 0.00026143134624240596 0 -0.0015051020219915092 0.00020913492468254053 0 -0.0011249496331230129 -0.00056296511469747874 0 -0.0013250986963644926 -0.00031985612494810946 0 -0.00090151265709139956 -0.00031326028809684336 0 -0.0013250986963644926 -0.00031985612494810946 0 -0.00090151265709139956 -0.00031326028809684336 0 -0.00081635221631084587 0.00026143134624240596 0 -0.00090151265709139956 -0.00031326028809684336 0 -0.00081635221631084587 0.00026143134624240596 0 -0.00028180496550415522 -0.00016926656745291764 0 -0.00091028151426243774 -0.00065821247253167636 0 -0.00090151265709139956 -0.00031326028809684336 0 -0.00028180496550415522 -0.00016926656745291764 0 -0.00081635221631084587 0.00026143134624240596 0 -0.00037789143689596498 0.00047084961038972061 0 -0.00028180496550415522 -0.00016926656745291764 0 -0.00081635221631084587 0.00026143134624240596 0 -0.00037789143689596498 0.00047084961038972061 0 -0.00058107676763008984 0.0010947325945281634 0 -0.00081635221631084587 0.00026143134624240596 0 -0.00058107676763008984 0.0010947325945281634 0 -0.0011616471563903681 0.00082246519321551594 0 -0.0093102625378311613 0.0091899347764370885 0 -0.012614106472203859 0.010625273238373195 0 -0.0078063968062881952 0.012208944083192163 0 -0.0093102625378311613 0.0091899347764370885 0 -0.0078063968062881952 0.012208944083192163 0 -0.0069976333271935358 0.0100866264954539 0 -0.0056479934510163844 0.0048128188145663206 0 -0.0095868078820874215 0.0055610345643496584 0 -0.00058107676763008984 0.0010947325945281634 0 -0.0013441233391749243 0.0015756189511423148 0 -0.0011616471563903681 0.00082246519321551594 0 -0.0013441233391749243 0.0015756189511423148 0 -0.0011616471563903681 0.00082246519321551594 0 -0.0017881990455511428 0.00083993464070318525 0 -0.00081635221631084587 0.00026143134624240596 0 -0.0011616471563903681 0.00082246519321551594 0 -0.0015051020219915092 0.00020913492468254053 0 -0.0011616471563903681 0.00082246519321551594 0 -0.0015051020219915092 0.00020913492468254053 0 -0.0017881990455511428 0.00083993464070318525 0 -0.0015051020219915092 0.00020913492468254053 0 -0.0017881990455511428 0.00083993464070318525 0 -0.0024361917176325036 5.6272962666877778e-05 0 -0.0017881990455511428 0.00083993464070318525 0 -0.0024361917176325036 5.6272962666877778e-05 0 -0.0027267754018426363 0.0014069935343838835 0 -0.0053832702002473733 0.00032679655812805849 0 -0.0024361917176325036 5.6272962666877778e-05 0 -0.0027267754018426363 0.0014069935343838835 0 -0.0095868078820874215 0.0055610345643496584 0 -0.0060156377054298342 0.0038530959842128106 0 -0.0013441233391749243 0.0015756189511423148 0 -0.0017881990455511428 0.00083993464070318525 0 -0.0027267754018426363 0.0014069935343838835 0 -0.0045717647220797335 0.00072228468302230463 0 -0.0053495012491027449 0.0004380974888374708 0 -0.0048473506539763681 0.0008359229683292472 0 -0.015321845727984278 0.0067637930957373787 0 -0.012554240636286478 0.0039610806031081646 0 -0.020806116448808809 0.0094926589115657736 0 -0.020205476806963364 0.0080711625972736852 0 -0.02173986758519349 0.008299905890900296 0 -0.018614776307644593 0.0062430885689151155 0 -0.01710493449767796 0.0055806304237666533 0 -0.018031477221002904 0.0048700726296293335 0 -0.015321845727984278 0.0067637930957373787 0 -0.023072419594259701 0.0079781871437674227 0 -0.0053495012491027449 0.0004380974888374708 0 -0.0048473506539763681 0.0008359229683292472 0 -0.0055247576308535109 0.0011866163631702911 0 -0.0062291966750090558 0.0007077613274842551 0 -0.0053495012491027449 0.0004380974888374708 0 -0.0055247576308535109 0.0011866163631702911 0 -0.017913746158705633 0.0040157373386178795 0 -0.023072419594259701 0.0079781871437674227 0 -0.016050163243286179 0.0045643271507648086 0 -0.01710493449767796 0.0055806304237666533 0 -0.018031477221002904 0.0048700726296293335 0 -0.023072419594259701 0.0079781871437674227 0 -0.028840175452945347 0.0099805462550395432 0 -0.040616618710073091 0.014842074055897185 0 -0.042986378997777408 0.013380915714409466 0 -0.040863001961531899 0.012918997388664782 0 -0.03762367949332638 0.014480442478927194 0 -0.040616618710073091 0.014842074055897185 0 -0.040863001961531899 0.012918997388664782 0 -0.028840175452945347 0.0099805462550395432 0 -0.029947588441037499 0.010796034789940829 0 -0.040616618710073091 0.014842074055897185 0 -0.043505880016596873 0.015085372921776344 0 -0.042986378997777408 0.013380915714409466 0 -0.012742024703958497 0.010606980080196249 0 -0.009314704185725704 0.01218123836844953 0 -0.0078063968062881952 0.012208944083192163 0 -0.02173986758519349 0.008299905890900296 0 -0.023278242146277189 0.008520717250441897 0 -0.022817474998146639 0.0091232405397430917 0 -0.0095868078820874215 0.0055610345643496584 0 -0.0087147503650266498 0.0074666084806972437 0 -0.012742024703958497 0.010606980080196249 0 -0.014310718723898348 0.01126420531301864 0 -0.009314704185725704 0.01218123836844953 0 -0.015321845727984278 0.0067637930957373787 0 -0.017213791514025797 0.0094411024579945952 0 -0.020806116448808809 0.0094926589115657736 0 -0.02173986758519349 0.008299905890900296 0 -0.022817474998146639 0.0091232405397430917 0 -0.0095868078820874215 0.0055610345643496584 0 -0.015321845727984278 0.0067637930957373787 0 -0.024496039672364411 0.010421795897328445 0 -0.021838102084044412 0.0097080527078303377 0 -0.004375978314326524 0.013099138781267805 0 -0.0031462801568024105 0.011247966596503659 0 -0.0048685667786016887 0.010234738021046975 0 -0.025311826310930468 0.010475627969527935 0 -0.024984502624728743 0.01052426083065164 0 -0.024693632107107601 0.010359791715783983 0 -0.004375978314326524 0.013099138781267805 0 -0.0031462801568024105 0.011247966596503659 0 -0.0014546108074784015 0.012647957405637279 0 -0.024496039672364411 0.010421795897328445 0 -0.026913037979710445 0.010854440847453413 0 -0.026913037979710445 0.010854440847453413 0 -0.027668960359321808 0.011184082697816221 0 -0.046219188374002913 0.015263816589282931 0 -0.04730275191712225 0.015014126830113004 0 -0.046729842838386139 0.014712811726501926 0 -0.004375978314326524 0.013099138781267805 0 -0.0060127210212174466 0.01140764709306588 0 -0.0048685667786016887 0.010234738021046975 0 -0.029947588441037499 0.010796034789940829 0 -0.024496039672364411 0.010421795897328445 0 -0.023278242146277189 0.008520717250441897 0 -0.022817474998146639 0.0091232405397430917 0 -0.024819086362895787 0.0087368519375328225 0 -0.004375978314326524 0.013099138781267805 0 -0.0060127210212174466 0.01140764709306588 0 -0.0078063968062881952 0.012208944083192163 0 -0.017213791514025797 0.0094411024579945952 0 -0.024496039672364411 0.010421795897328445 0 -0.009314704185725704 0.01218123836844953 0 -0.004375978314326524 0.013099138781267805 0 -0.0078063968062881952 0.012208944083192163 0 -0.0060127210212174466 0.01140764709306588 0 -0.0078063968062881952 0.012208944083192163 0 -0.0069976333271935358 0.0100866264954539 0 -0.042986378997777408 0.013380915714409466 0 -0.045321204986115464 0.013948081328117957 0 -0.04505492504040419 0.012096842731567836 0 -0.043505880016596873 0.015085372921776344 0 -0.046219188374002913 0.015263816589282931 0 -0.045321204986115464 0.013948081328117957 0 -0.043505880016596873 0.015085372921776344 0 -0.042986378997777408 0.013380915714409466 0 -0.045321204986115464 0.013948081328117957 0 -0.045321204986115464 0.013948081328117957 0 -0.046662203414122708 0.013171644920476577 0 -0.04505492504040419 0.012096842731567836 0 -0.046219188374002913 0.015263816589282931 0 -0.045321204986115464 0.013948081328117957 0 -0.046729842838386139 0.014712811726501926 0 -0.045321204986115464 0.013948081328117957 0 -0.046662203414122708 0.013171644920476577 0 -0.046729842838386139 0.014712811726501926 0 -0.047298836245225927 0.014935724268007088 0 -0.046729842838386139 0.014712811726501926 0 -0.047511843732082289 0.013867583427546116 0 -0.046662203414122708 0.013171644920476577 0 -0.046729842838386139 0.014712811726501926 0 -0.047511843732082289 0.013867583427546116 0 -0.046662203414122708 0.013171644920476577 0 -0.047511843732082289 0.013867583427546116 0 -0.048182065532199107 0.012726028193638729 0 -0.047298836245225927 0.014935724268007088 0 -0.048455344027847833 0.013704091226645034 0 -0.049601169594417578 0.014198360951299694 0 -0.026913037979710445 0.010854440847453413 0 -0.032705747211529926 0.010327056653659752 0 -0.047511843732082289 0.013867583427546116 0 -0.048455344027847833 0.013704091226645034 0 -0.048182065532199107 0.012726028193638729 0 -0.048455344027847833 0.013704091226645034 0 -0.049638757142090026 0.012838475260904793 0 -0.048182065532199107 0.012726028193638729 0 -0.048455344027847833 0.013704091226645034 0 -0.049638757142090026 0.012838475260904793 0 -0.049601169594417578 0.014198360951299694 0 -0.047298836245225927 0.014935724268007088 0 -0.047511843732082289 0.013867583427546116 0 -0.048455344027847833 0.013704091226645034 0 -0.032705747211529926 0.010327056653659752 0 -0.03240191420977262 0.0098095409424146952 0 -0.024367024760112613 0.011375107147444184 0 -0.024168519333137968 0.011314424090071936 0 -0.023974653249787082 0.011410399731865023 0 -0.050953349571700376 0.012894510050656447 0 -0.049601169594417578 0.014198360951299694 0 -0.051641401973140988 0.013405109169901088 0 -0.050953349571700376 0.012894510050656447 0 -0.049638757142090026 0.012838475260904793 0 -0.050652822781030477 0.012248374944514832 0 -0.050953349571700376 0.012894510050656447 0 -0.049638757142090026 0.012838475260904793 0 -0.049601169594417578 0.014198360951299694 0 -0.021838102084044412 0.0097080527078303377 0 -0.013909434788236696 0.0080456502986416267 0 -0.024758165521149067 0.011168187298755296 0 -0.024450877557414791 0.011100586596870035 0 -0.023938835508781741 0.010655159438141016 0 -0.024190107196272743 0.011103017580571757 0 -0.024450877557414791 0.011100586596870035 0 -0.023938835508781741 0.010655159438141016 0 -0.024168519333137968 0.011314424090071936 0 -0.024190107196272743 0.011103017580571757 0 -0.023993025795715713 0.011004593117115258 0 -0.024168519333137968 0.011314424090071936 0 -0.023993025795715713 0.011004593117115258 0 -0.023628235748497817 0.010928278323477311 0 -0.024367024760112613 0.011375107147444184 0 -0.024168519333137968 0.011314424090071936 0 -0.024190107196272743 0.011103017580571757 0 -0.024367024760112613 0.011375107147444184 0 -0.024190107196272743 0.011103017580571757 0 -0.024450877557414791 0.011100586596870035 0 -0.024190107196272743 0.011103017580571757 0 -0.023993025795715713 0.011004593117115258 0 -0.023938835508781741 0.010655159438141016 0 -0.0031462801568024105 0.011247966596503659 0 -0.0014546108074784015 0.012647957405637279 0 -0.0016853608893471405 0.0093980508968165635 0 -0.025003276985582357 0.011291660916897053 0 -0.024367024760112613 0.011375107147444184 0 -0.024755856306919989 0.011150970448922267 0 -0.026913037979710445 0.010854440847453413 0 -0.021838102084044412 0.0097080527078303377 0 -0.024367024760112613 0.011375107147444184 0 -0.024755856306919989 0.011150970448922267 0 -0.024450877557414791 0.011100586596870035 0 -0.021838102084044412 0.0097080527078303377 0 -0.022247686877854451 0.0098096753928487157 0 -0.0014546108074784015 0.012647957405637279 0 -0.0016853608893471405 0.0093980508968165635 0 0.0032797940215534647 0.010120767162599563 0 -0.0016853608893471405 0.0093980508968165635 0 0.0032797940215534647 0.010120767162599563 0 0.00092872078370671493 0.0072929671182795034 0 0.00092872078370671493 0.0072929671182795034 0 0.0013181227313330934 0.004715794176583946 0 0.0039912983050091784 0.0060099696086938345 0 0.0032797940215534647 0.010120767162599563 0 0.00092872078370671493 0.0072929671182795034 0 0.0039912983050091784 0.0060099696086938345 0 -0.00096341471551635288 0.0041164758731975027 0 0.0011612843742681066 0.0035582561381296502 0 -0.0016853608893471405 0.0093980508968165635 0 0.00092872078370671493 0.0072929671182795034 0 -0.002311177747013162 0.0062073388998803653 0 0.00092872078370671493 0.0072929671182795034 0 -0.002311177747013162 0.0062073388998803653 0 0.0013181227313330934 0.004715794176583946 0 -0.002311177747013162 0.0062073388998803653 0 -0.003633656090666459 0.0086416552878068858 0 -0.0059155528115492802 0.0077465230890711636 0 -0.00096341471551635288 0.0041164758731975027 0 -0.0025504977761366759 0.0042060767340187395 0 0.00021964455266886159 0.0032361417149792695 0 -0.00065617717748906552 0.0036154253928623648 0 -0.00035279654940708667 0.0028365134086334315 0 -0.0016853608893471405 0.0093980508968165635 0 -0.002311177747013162 0.0062073388998803653 0 -0.003633656090666459 0.0086416552878068858 0 -0.003633656090666459 0.0086416552878068858 0 -0.0048685667786016887 0.010234738021046975 0 -0.0059155528115492802 0.0077465230890711636 0 -0.0031462801568024105 0.011247966596503659 0 -0.003633656090666459 0.0086416552878068858 0 -0.0048685667786016887 0.010234738021046975 0 -0.0031462801568024105 0.011247966596503659 0 -0.0016853608893471405 0.0093980508968165635 0 -0.003633656090666459 0.0086416552878068858 0 -0.0093102625378311613 0.0091899347764370885 0 -0.0069976333271935358 0.0100866264954539 0 -0.00595739188441441 0.0077100462984750302 0 -0.0056479934510163844 0.0048128188145663206 0 -0.0025504977761366759 0.0042060767340187395 0 -0.0060127210212174466 0.01140764709306588 0 -0.0048685667786016887 0.010234738021046975 0 -0.0069976333271935358 0.0100866264954539 0 -0.0048685667786016887 0.010234738021046975 0 -0.0069976333271935358 0.0100866264954539 0 -0.00595739188441441 0.0077100462984750302 0 -0.002474885179934651 0.0053726099778499325 0 -0.0025504977761366759 0.0042060767340187395 0 -0.00065617717748906552 0.0036154253928623648 0 -0.0010584831657717269 0.0026697233582089887 0 -0.00035279654940708667 0.0028365134086334315 0 -0.00037789143689596498 0.00047084961038972061 0 -0.00058107676763008984 0.0010947325945281634 0 0.00015882679833220916 0.00072624642227464358 0 -0.00037789143689596498 0.00047084961038972061 0 0.00015882679833220916 0.00072624642227464358 0 -0.00028180496550415522 -0.00016926656745291764 0 -0.0025504977761366759 0.0042060767340187395 0 -0.0017316700857893856 0.0021588423940191561 0 -0.0010584831657717269 0.0026697233582089887 0 -0.00035279654940708667 0.0028365134086334315 0 -0.00032069812874418324 0.0019752680431332605 0 0.00021964455266886159 0.0032361417149792695 0 -0.00035279654940708667 0.0028365134086334315 0 0.00016211429063512365 0.0025138501488656808 0 -0.00035279654940708667 0.0028365134086334315 0 0.00016211429063512365 0.0025138501488656808 0 -0.00032069812874418324 0.0019752680431332605 0 0.0011565946230890133 0.001700565738407592 0 0.00066347834358446958 0.0011022232009259112 0 0.0027469621426589219 0.00078622396914878299 0 0.00016211429063512365 0.0025138501488656808 0 -0.00032069812874418324 0.0019752680431332605 0 0.00082904495995659157 0.002221693273925907 0 -0.00062523112000621435 0.0011148014053400147 0 0.0011565946230890133 0.001700565738407592 0 0.00066347834358446958 0.0011022232009259112 0 -0.0014620582908595999 0.0017270683378895208 0 -0.0010584831657717269 0.0026697233582089887 0 -0.00032069812874418324 0.0019752680431332605 0 -0.0011277002289261085 0.0012185769157151997 0 0.00047737946756626527 0.0017993260597206049 0 -0.00062523112000621435 0.0011148014053400147 0 0.00066347834358446958 0.0011022232009259112 0 0.00019099161915297569 0.00050264952004067337 0 -0.00026591116834600822 -1.5610718106236149e-06 0 0.00019099161915297569 0.00050264952004067337 0 0.00022686638497526566 -9.0591697493215271e-05 0 0.00019099161915297569 0.00050264952004067337 0 0.00071615019204576127 0.00022656215411419363 0 0.00022686638497526566 -9.0591697493215271e-05 0 0.00066347834358446958 0.0011022232009259112 0 0.00071615019204576127 0.00022656215411419363 0 0.00154036730556703 0.00026404174859822308 0 0.00066347834358446958 0.0011022232009259112 0 0.00019099161915297569 0.00050264952004067337 0 0.00071615019204576127 0.00022656215411419363 0 0.001799904498543268 0.00087072602771195995 0 0.0030200613648385414 0.00061832464206512596 0 0.00066347834358446958 0.0011022232009259112 0 0.00154036730556703 0.00026404174859822308 0 0.0027169356058524643 0.00068129546172740712 0 0.00071615019204576127 0.00022656215411419363 0 0.00154036730556703 0.00026404174859822308 0 0.0012705202172247731 -0.00026929525625927407 0 0.0012705202172247731 -0.00026929525625927407 0 0.0012744482279344331 -0.00085386136144147899 0 0.0006791934904761029 -0.00056239927698596877 0 0.0019679823323386449 -0.0015604507342708717 0 0.0021272582320011114 -0.00052939951365260445 0 0.0012744482279344331 -0.00085386136144147899 0 0.0012705202172247731 -0.00026929525625927407 0 0.0021272582320011114 -0.00052939951365260445 0 0.0012744482279344331 -0.00085386136144147899 0 0.00154036730556703 0.00026404174859822308 0 0.0012705202172247731 -0.00026929525625927407 0 0.0021272582320011114 -0.00052939951365260445 0 0.00054199993015552068 -0.0014971502178390997 0 0.0012744482279344331 -0.00085386136144147899 0 0.0006791934904761029 -0.00056239927698596877 0 -0.00035552857617109817 -0.0011177146731660608 0 -0.00023954786218902181 -0.0006426337138467728 0 0.0006791934904761029 -0.00056239927698596877 0 -0.00023954786218902181 -0.0006426337138467728 0 0.0006791934904761029 -0.00056239927698596877 0 0.00022686638497526566 -9.0591697493215271e-05 0 0.00071615019204576127 0.00022656215411419363 0 0.0006791934904761029 -0.00056239927698596877 0 0.00022686638497526566 -9.0591697493215271e-05 0 0.00071615019204576127 0.00022656215411419363 0 0.0012705202172247731 -0.00026929525625927407 0 0.0006791934904761029 -0.00056239927698596877 0 0.004537201807425219 -0.0016859932704261977 0 0.0034815151276740334 -0.0004302008397534154 0 0.0046664109631741535 0.00028015675636306782 0 0.0027088700383820917 -0.0014449196319446605 0 0.0021272582320011114 -0.00052939951365260445 0 0.0034815151276740334 -0.0004302008397534154 0 0.0021272582320011114 -0.00052939951365260445 0 0.0034815151276740334 -0.0004302008397534154 0 0.0027169356058524643 0.00068129546172740712 0 0.00154036730556703 0.00026404174859822308 0 0.0021272582320011114 -0.00052939951365260445 0 0.0027169356058524643 0.00068129546172740712 0 0.0030200613648385414 0.00061832464206512596 0 0.0056300715238199435 5.3686822226879919e-05 0 0.0027469621426589219 0.00078622396914878299 0 0.00442003042786282 0.0015769773630411881 0 0.0052943667641664064 0.00019488667356763167 0 0.0034815151276740334 -0.0004302008397534154 0 0.0027169356058524643 0.00068129546172740712 0 0.0046664109631741535 0.00028015675636306782 0 0.00442003042786282 0.0015769773630411881 0 0.0031081060434018782 0.0023769208401752356 0 0.0054723666706753254 0.0032192140918192013 0 0.0027469621426589219 0.00078622396914878299 0 0.00442003042786282 0.0015769773630411881 0 0.0031081060434018782 0.0023769208401752356 0 0.0011565946230890133 0.001700565738407592 0 0.0027469621426589219 0.00078622396914878299 0 0.0031081060434018782 0.0023769208401752356 0 0.00047737946756626527 0.0017993260597206049 0 0.0020246427967610726 0.0023319992355428595 0 0.00021964455266886159 0.0032361417149792695 0 0.00016211429063512365 0.0025138501488656808 0 0.0011014002831265647 0.0028555106251093127 0 0.00016211429063512365 0.0025138501488656808 0 0.00082904495995659157 0.002221693273925907 0 0.0011014002831265647 0.0028555106251093127 0 0.0020246427967610726 0.0023319992355428595 0 0.0034151148144143956 0.0028395491669971577 0 0.00082904495995659157 0.002221693273925907 0 0.0011014002831265647 0.0028555106251093127 0 0.0019882166046559071 0.0024706867975074149 0 0.0011612843742681066 0.0035582561381296502 0 0.0034151148144143956 0.0028395491669971577 0 0.0013181227313330934 0.004715794176583946 0 0.0048827914152741137 0.0033381489201968627 0 0.0039912983050091784 0.0060099696086938345 0 0.005397952582489025 0.0048147984110107692 0 0.0048827914152741137 0.0033381489201968627 0 0.0039912983050091784 0.0060099696086938345 0 0.0061202912769981388 0.0030899959939096689 0 0.0051610501446092459 0.003505787148941513 0 0.0064641996748857058 0.0038302583547902571 0 0.005397952582489025 0.0048147984110107692 0 0.0048827914152741137 0.0033381489201968627 0 0.0064641996748857058 0.0038302583547902571 0 0.0034151148144143956 0.0028395491669971577 0 0.0037519740725734459 0.0029233176029724623 0 0.003585467183384245 0.0027939829375962701 0 0.0034151148144143956 0.0028395491669971577 0 0.0064641996748857058 0.0038302583547902571 0 0.0079244544590743107 0.0017181199210811219 0 0.0068329338808302449 0.0054284099885502845 0 0.0086192069305777701 0.0029225481792732101 0 0.0087282986211769595 0.0039246579939586817 0 0.0068329338808302449 0.0054284099885502845 0 0.0083062936468574142 0.002642265017309691 0 0.0076943204625677733 0.0040293804066514581 0 0.0087282986211769595 0.0039246579939586817 0 0.0089785181988868562 0.0045297405580521843 0 0.0068329338808302449 0.0054284099885502845 0 0.005397952582489025 0.0048147984110107692 0 0.0064641996748857058 0.0038302583547902571 0 0.0068329338808302449 0.0054284099885502845 0 0.0061202912769981388 0.0030899959939096689 0 0.006404707197084223 0.0017219263135538009 0 0.0079244544590743107 0.0017181199210811219 0 0.0061202912769981388 0.0030899959939096689 0 0.0064641996748857058 0.0038302583547902571 0 0.0079244544590743107 0.0017181199210811219 0 0.006404707197084223 0.0017219263135538009 0 0.0079244544590743107 0.0017181199210811219 0 0.0063925855483845323 0.00081067168363580541 0 0.00442003042786282 0.0015769773630411881 0 0.0054723666706753254 0.0032192140918192013 0 0.0054929842102920436 0.0021278617231581263 0 0.0061202912769981388 0.0030899959939096689 0 0.0054723666706753254 0.0032192140918192013 0 0.0054929842102920436 0.0021278617231581263 0 0.0061202912769981388 0.0030899959939096689 0 0.006404707197084223 0.0017219263135538009 0 0.0054929842102920436 0.0021278617231581263 0 0.006404707197084223 0.0017219263135538009 0 0.0054929842102920436 0.0021278617231581263 0 0.0053602613641103442 0.00097535734573841852 0 0.00442003042786282 0.0015769773630411881 0 0.0054929842102920436 0.0021278617231581263 0 0.0053602613641103442 0.00097535734573841852 0 0.00442003042786282 0.0015769773630411881 0 0.0053602613641103442 0.00097535734573841852 0 0.0052943667641664064 0.00019488667356763167 0 0.0056247497697569232 0.000125870405782947 0 0.0056300715238199435 5.3686822226879919e-05 0 0.0053104643743956542 -2.8745859136359328e-05 0 0.0063925855483845323 0.00081067168363580541 0 0.0069904558199836847 -0.0003519886637182129 0 0.0056300715238199435 5.3686822226879919e-05 0 0.00659978906364511 -0.00016756095521529399 0 0.006404707197084223 0.0017219263135538009 0 0.0053602613641103442 0.00097535734573841852 0 0.0063925855483845323 0.00081067168363580541 0 0.0053602613641103442 0.00097535734573841852 0 0.0053104643743956542 -2.8745859136359328e-05 0 0.0063925855483845323 0.00081067168363580541 0 0.0079244544590743107 0.0017181199210811219 0 0.0069904558199836847 -0.0003519886637182129 0 0.0085574864182277454 -0.00063174199697615745 0 0.0079244544590743107 0.0017181199210811219 0 0.0063925855483845323 0.00081067168363580541 0 0.0069904558199836847 -0.0003519886637182129 0 0.0073922678218654525 -0.00042629688769716903 0 0.0082869538049668151 -0.001167226387940428 0 0.0085574864182277454 -0.00063174199697615745 0 0.00659978906364511 -0.00016756095521529399 0 0.0070562744774464092 -0.00026647763221320783 0 0.0073922678218654525 -0.00042629688769716903 0 0.0078021090444358367 -0.0015640843455222357 0 0.0082869538049668151 -0.001167226387940428 0 0.0073922678218654525 -0.00042629688769716903 0 0.0078021090444358367 -0.0015640843455222357 0 0.0069527058429060991 -0.0014491451966378098 0 0.0062235566594786209 -0.0001923609185851589 0 0.0073922678218654525 -0.00042629688769716903 0 0.0069527058429060991 -0.0014491451966378098 0 0.0064210698913847184 -0.00075921437875881893 0 0.0056300715238199435 5.3686822226879919e-05 0 0.0060789218598835499 -0.00246231286137905 0 0.0062235566594786209 -0.0001923609185851589 0 0.0069527058429060991 -0.0014491451966378098 0 0.0098539144683570893 0.001308911085657572 0 0.0099708500663113833 0.001716629540806657 0 0.010235977986669694 0.00080212358232514282 0 0.0099708500663113833 0.001716629540806657 0 0.010096256226918791 0.0019786407336484196 0 0.010121335267971607 0.0024149219833392646 0 0.0072822534769782232 0.00070066209466147626 0 0.0060101098660573608 0.00079226032295873932 0 0.010096256226918791 0.0019786407336484196 0 0.010038042117019296 0.0017888907603335563 0 0.0098078046147943524 0.0020322208369470689 0 0.0099708500663113833 0.001716629540806657 0 0.010096256226918791 0.0019786407336484196 0 0.010399674119197289 0.0017590389347643129 0 0.010096256226918791 0.0019786407336484196 0 0.010399674119197289 0.0017590389347643129 0 0.010038042117019296 0.0017888907603335563 0 0.010179103045199802 0.0013718162704267143 0 0.010399674119197289 0.0017590389347643129 0 0.010038042117019296 0.0017888907603335563 0 0.010179103045199802 0.0013718162704267143 0 0.010038042117019296 0.0017888907603335563 0 0.0095344420708482133 0.0019733240087978442 0 0.0084630889717248903 -0.0018544856025173072 0 0.0082869538049668151 -0.001167226387940428 0 0.0088252071457164388 -0.00092247283269401988 0 0.0084630889717248903 -0.0018544856025173072 0 0.0078021090444358367 -0.0015640843455222357 0 0.0082869538049668151 -0.001167226387940428 0 0.0082869538049668151 -0.001167226387940428 0 0.0085574864182277454 -0.00063174199697615745 0 0.0088252071457164388 -0.00092247283269401988 0 0.0095344420708482133 0.0019733240087978442 0 0.0098078046147943524 0.0020322208369470689 0 0.0096241379523514248 0.0023416766000691406 0 0.010038042117019296 0.0017888907603335563 0 0.0095344420708482133 0.0019733240087978442 0 0.0098078046147943524 0.0020322208369470689 0 0.0086192069305777701 0.0029225481792732101 0 0.0095344420708482133 0.0019733240087978442 0 0.0096241379523514248 0.0023416766000691406 0 0.010096256226918791 0.0019786407336484196 0 0.0098078046147943524 0.0020322208369470689 0 0.0096241379523514248 0.0023416766000691406 0 0.0079244544590743107 0.0017181199210811219 0 0.0085574864182277454 -0.00063174199697615745 0 0.0088252071457164388 -0.00092247283269401988 0 0.0083062936468574142 0.002642265017309691 0 0.0092225891425292209 0.00074985132163765656 0 0.0086192069305777701 0.0029225481792732101 0 0.0096241379523514248 0.0023416766000691406 0 0.0093806808159663073 0.0027851445688980964 0 0.0096241379523514248 0.0023416766000691406 0 0.010121335267971607 0.0024149219833392646 0 0.0093806808159663073 0.0027851445688980964 0 0.0097548938291554046 0.0011037148200529129 0 0.0098539144683570893 0.001308911085657572 0 0.010235977986669694 0.00080212358232514282 0 0.0097548938291554046 0.0011037148200529129 0 0.010235977986669694 0.00080212358232514282 0 0.0099701227196438147 0.00083973738917840382 0 0.010096256226918791 0.0019786407336484196 0 0.0096241379523514248 0.0023416766000691406 0 0.010121335267971607 0.0024149219833392646 0 0.010235977986669694 0.00080212358232514282 0 0.0099701227196438147 0.00083973738917840382 0 0.0099928381985348157 0.0005670086813940598 0 0.010235977986669694 0.00080212358232514282 0 0.0099928381985348157 0.0005670086813940598 0 0.010475693382726291 0.00022441783478361227 0 0.0043263972686558641 0.0025552966091786284 0 -0.00014409977429097085 0.0036444237949626746 0 0.010121335267971607 0.0024149219833392646 0 0.0092314245384270324 0.0032625102582017809 0 0.009221204492774181 0.0042896514565218249 0 0.0060101098660573608 0.00079226032295873932 0 -0.00014409977429097085 0.0036444237949626746 0 0.0086192069305777701 0.0029225481792732101 0 0.0093806808159663073 0.0027851445688980964 0 0.0092314245384270324 0.0032625102582017809 0 0.010121335267971607 0.0024149219833392646 0 0.0093806808159663073 0.0027851445688980964 0 0.0092314245384270324 0.0032625102582017809 0 0.0092314245384270324 0.0032625102582017809 0 0.0087282986211769595 0.0039246579939586817 0 0.009221204492774181 0.0042896514565218249 0 0.0086192069305777701 0.0029225481792732101 0 0.0092314245384270324 0.0032625102582017809 0 0.0087282986211769595 0.0039246579939586817 0 -0.0033125982904117497 0.0092267840856141356 0 0.00074543616313505205 0.0090166337650424196 0 -0.0033116304050881122 0.0127174538415611 0 0.0093334171295959278 0.0042492664421393284 0 0.0089785181988868562 0.0045297405580521843 0 0.0077988710445057599 0.007532682264800983 0 0.0087282986211769595 0.0039246579939586817 0 0.009221204492774181 0.0042896514565218249 0 0.0089785181988868562 0.0045297405580521843 0 -0.00014409977429097085 0.0036444237949626746 0 -2.6310205700971028e-05 0.0035934373995432892 0 -0.023367810415499242 0.0086007127421363697 0 -0.027395713131467173 0.012248937904666976 0 0.0013665294811783793 0.0060146118556357805 0 -0.0033125982904117497 0.0092267840856141356 0 0.00074543616313505205 0.0090166337650424196 0 -0.048231710885598918 0.0080751841722221385 0 -0.050561245340196605 0.011948449585306081 0 -0.055264611127342336 0.014493527330556371 0 -0.048231710885598918 0.0080751841722221385 0 -0.050561245340196605 0.011948449585306081 0 -0.04698207724834489 0.012098387772560349 0 -0.049546743386148166 0.014398604624334411 0 -0.049924568208555016 0.020563419483115387 0 -0.051862741280550149 0.012887082807707834 0 -0.04698207724834489 0.012098387772560349 0 -0.049546743386148166 0.014398604624334411 0 -0.047555585332361087 0.015566445118077095 0 -0.050561245340196605 0.011948449585306081 0 -0.04698207724834489 0.012098387772560349 0 -0.049546743386148166 0.014398604624334411 0 -0.050561245340196605 0.011948449585306081 0 -0.049546743386148166 0.014398604624334411 0 -0.051862741280550149 0.012887082807707834 0 -0.049546743386148166 0.014398604624334411 0 -0.047555585332361087 0.015566445118077095 0 -0.049924568208555016 0.020563419483115387 0 -0.042834246980101784 0.014983698081484623 0 -0.047555585332361087 0.015566445118077095 0 -0.049924568208555016 0.020563419483115387 0 -0.048788755250898409 0.013077283390674814 0 -0.049349046017576156 0.01337145608713914 0 -0.052651615766088913 0.014146640202409647 0 -0.053175854271325915 0.014011218988468953 0 -0.051862741280550149 0.012887082807707834 0 -0.053175854271325915 0.014011218988468953 0 -0.053132908867242867 0.013262798444567304 0 -0.053206249341602903 0.014124446157653354 0 -0.053175854271325915 0.014011218988468953 0 -0.053223947112443354 0.014026358715196282 0 -0.053643170728147095 0.014110411409926004 0 -0.052651615766088913 0.014146640202409647 0 -0.053175854271325915 0.014011218988468953 0 -0.053643170728147095 0.014110411409926004 0 -0.053175854271325915 0.014011218988468953 0 -0.051862741280550149 0.012887082807707834 0 -0.053132908867242867 0.013262798444567304 0 -0.0033125982904117497 0.0092267840856141356 0 -0.0033116304050881122 0.0127174538415611 0 -0.005954096307785036 0.014119170181709049 0 -0.00014409977429097085 0.0036444237949626746 0 -0.017194507075450477 0.0089396272377510466 0 -0.027395713131467173 0.012248937904666976 0 -0.017194507075450477 0.0089396272377510466 0 -0.033340299205972423 0.014352252818395311 0 -0.027395713131467173 0.012248937904666976 0 -0.050561245340196605 0.011948449585306081 0 -0.051862741280550149 0.012887082807707834 0 -0.053132908867242867 0.013262798444567304 0 -0.027395713131467173 0.012248937904666976 0 -0.024807611617026042 0.012303671300232738 0 -0.024672276003225621 0.010546248412808372 0 -0.023346751717679401 0.0098780502522996371 0 -0.022837939181835663 0.0089656554835769418 0 0.0068329338808302449 0.0054284099885502845 0 0.0077988710445057599 0.007532682264800983 0 0.0039912983050091784 0.0060099696086938345 0 0.0089785181988868562 0.0045297405580521843 0 0.0068329338808302449 0.0054284099885502845 0 0.0077988710445057599 0.007532682264800983 0 0.0032797940215534647 0.010120767162599563 0 0.0077988710445057599 0.007532682264800983 0 0.0039912983050091784 0.0060099696086938345 0 0.005397952582489025 0.0048147984110107692 0 0.0068329338808302449 0.0054284099885502845 0 0.0039912983050091784 0.0060099696086938345 0 -0.023938835508781741 0.010655159438141016 0 -0.022879340780636383 0.010048869431235173 0 -0.023072475731021919 0.010426541247832755 0 -0.013909434788236696 0.0080456502986416267 0 -0.017194507075450477 0.0089396272377510466 0 -0.023938835508781741 0.010655159438141016 0 -0.023072475731021919 0.010426541247832755 0 -0.023628235748497817 0.010928278323477311 0 -0.024807611617026042 0.012303671300232738 0 -0.024145984453291316 0.011601296257755489 0 -0.053175854271325915 0.014011218988468953 0 -0.053206249341602903 0.014124446157653354 0 -0.053223947112443354 0.014026358715196282 0 -0.017194507075450477 0.0089396272377510466 0 -0.024807611617026042 0.012303671300232738 0 -0.053206249341602903 0.014124446157653354 0 -0.053223947112443354 0.014026358715196282 0 -0.052548165672640736 0.013857507047243671 0 -0.024807611617026042 0.012303671300232738 0 -0.030302381245782068 0.012444518951702755 0 -0.053223947112443354 0.014026358715196282 0 -0.053156694364223406 0.01349161095031594 0 -0.052548165672640736 0.013857507047243671 0 -0.053156694364223406 0.01349161095031594 0 -0.052548165672640736 0.013857507047243671 0 -0.05253158979163864 0.01339485667041548 0 -0.023993025795715713 0.011004593117115258 0 -0.023938835508781741 0.010655159438141016 0 -0.023628235748497817 0.010928278323477311 0 -0.023870006266756179 0.011078478052136938 0 -0.023963525178211938 0.011168724130418134 0 -0.023915874292812399 0.011195582782297531 0 -0.023963525178211938 0.011168724130418134 0 -0.023915874292812399 0.011195582782297531 0 -0.024000037446738808 0.011270812611658172 0 -0.052548165672640736 0.013857507047243671 0 -0.051906747760004208 0.013115964728905439 0 -0.05253158979163864 0.01339485667041548 0 -0.030302381245782068 0.012444518951702755 0 -0.03240191420977262 0.0098095409424146952 0 -0.024168519333137968 0.011314424090071936 0 -0.023963525178211938 0.011168724130418134 0 -0.024000037446738808 0.011270812611658172 0 -0.023915874292812399 0.011195582782297531 0 -0.024000037446738808 0.011270812611658172 0 -0.023974653249787082 0.011410399731865023 0 -0.024063057746720684 0.011491566898703844 0 -0.024145984453291316 0.011601296257755489 0 -0.024168519333137968 0.011314424090071936 0 -0.024000037446738808 0.011270812611658172 0 -0.023974653249787082 0.011410399731865023 0 -0.051641401973140988 0.013405109169901088 0 -0.052223349546750363 0.013065230732075868 0 -0.051770696566019458 0.013066445279031828 0 -0.051906747760004208 0.013115964728905439 0 -0.05253158979163864 0.01339485667041548 0 -0.052223349546750363 0.013065230732075868 0 -0.05253158979163864 0.01339485667041548 0 -0.052223349546750363 0.013065230732075868 0 -0.052789749235953039 0.012957564498114155 0 -0.03240191420977262 0.0098095409424146952 0 -0.033458418196795042 0.0097189855243853748 0 -0.052223349546750363 0.013065230732075868 0 -0.052381770293843784 0.012581527094304872 0 -0.052789749235953039 0.012957564498114155 0 -0.052381770293843784 0.012581527094304872 0 -0.051985995778731572 0.012785330824878366 0 -0.051868022355801249 0.012467724119235397 0 -0.052223349546750363 0.013065230732075868 0 -0.052381770293843784 0.012581527094304872 0 -0.051985995778731572 0.012785330824878366 0 -0.052223349546750363 0.013065230732075868 0 -0.051985995778731572 0.012785330824878366 0 -0.051770696566019458 0.013066445279031828 0 -0.051985995778731572 0.012785330824878366 0 -0.051770696566019458 0.013066445279031828 0 -0.05161217835676684 0.012789511504392264 0 -0.051641401973140988 0.013405109169901088 0 -0.051770696566019458 0.013066445279031828 0 -0.051481018405305411 0.013014148539267065 0 -0.051770696566019458 0.013066445279031828 0 -0.05161217835676684 0.012789511504392264 0 -0.051481018405305411 0.013014148539267065 0 -0.051868022355801249 0.012467724119235397 0 -0.05161217835676684 0.012789511504392264 0 -0.051486906382134448 0.012515850891635155 0 -0.051985995778731572 0.012785330824878366 0 -0.051868022355801249 0.012467724119235397 0 -0.05161217835676684 0.012789511504392264 0 -0.050953349571700376 0.012894510050656447 0 -0.051486906382134448 0.012515850891635155 0 -0.051418874804398856 0.012080842151974559 0 -0.050953349571700376 0.012894510050656447 0 -0.05161217835676684 0.012789511504392264 0 -0.051486906382134448 0.012515850891635155 0 -0.050953349571700376 0.012894510050656447 0 -0.051641401973140988 0.013405109169901088 0 -0.051481018405305411 0.013014148539267065 0 -0.050953349571700376 0.012894510050656447 0 -0.05161217835676684 0.012789511504392264 0 -0.051481018405305411 0.013014148539267065 0 -0.053156694364223406 0.01349161095031594 0 -0.052789749235953039 0.012957564498114155 0 -0.053561293492929485 0.01253630348682855 0 -0.053156694364223406 0.01349161095031594 0 -0.05253158979163864 0.01339485667041548 0 -0.052789749235953039 0.012957564498114155 0 -0.052381770293843784 0.012581527094304872 0 -0.052789749235953039 0.012957564498114155 0 -0.05298954843708898 0.012196286887708296 0 -0.052789749235953039 0.012957564498114155 0 -0.053561293492929485 0.01253630348682855 0 -0.05298954843708898 0.012196286887708296 0 -0.053156694364223406 0.01349161095031594 0 -0.053561293492929485 0.01253630348682855 0 -0.05410709256198807 0.012969267752595515 0 -0.053561293492929485 0.01253630348682855 0 -0.05410709256198807 0.012969267752595515 0 -0.054699078947423652 0.011886664220688032 0 -0.05410709256198807 0.012969267752595515 0 -0.05581064091169239 0.012819443312583757 0 -0.053643170728147095 0.014110411409926004 0 -0.05410709256198807 0.012969267752595515 0 -0.05581064091169239 0.012819443312583757 0 -0.054699078947423652 0.011886664220688032 0 -0.048788755250898409 0.013077283390674814 0 -0.048795050751846494 0.01432400912520617 0 -0.05481531773728944 0.015114722735971938 0 -0.05581064091169239 0.012819443312583757 0 -0.053643170728147095 0.014110411409926004 0 -0.048788755250898409 0.013077283390674814 0 -0.049943990086305692 0.013780612618797931 0 -0.053223947112443354 0.014026358715196282 0 -0.053156694364223406 0.01349161095031594 0 -0.053643170728147095 0.014110411409926004 0 -0.053156694364223406 0.01349161095031594 0 -0.05410709256198807 0.012969267752595515 0 -0.053643170728147095 0.014110411409926004 0 -0.054706057206814304 0.010336141456028933 0 -0.053752462933039265 0.01068678777768977 0 -0.05380038314393569 0.011497508205452089 0 -0.054706057206814304 0.010336141456028933 0 -0.053752462933039265 0.01068678777768977 0 -0.053883444308232109 0.0096767669918529538 0 -0.054706057206814304 0.010336141456028933 0 -0.053883444308232109 0.0096767669918529538 0 -0.05456809626405007 0.0090563566933794318 0 -0.056721905046832506 0.010642675014823359 0 -0.054706057206814304 0.010336141456028933 0 -0.0557103572041283 0.0088828096364434589 0 -0.056721905046832506 0.010642675014823359 0 -0.05581064091169239 0.012819443312583757 0 -0.054699078947423652 0.011886664220688032 0 -0.056721905046832506 0.010642675014823359 0 -0.054706057206814304 0.010336141456028933 0 -0.054699078947423652 0.011886664220688032 0 -0.054706057206814304 0.010336141456028933 0 -0.054699078947423652 0.011886664220688032 0 -0.05380038314393569 0.011497508205452089 0 -0.053561293492929485 0.01253630348682855 0 -0.054699078947423652 0.011886664220688032 0 -0.05380038314393569 0.011497508205452089 0 -0.05380038314393569 0.011497508205452089 0 -0.05298954843708898 0.012196286887708296 0 -0.05300513293565811 0.011433966333822607 0 -0.053561293492929485 0.01253630348682855 0 -0.05380038314393569 0.011497508205452089 0 -0.05298954843708898 0.012196286887708296 0 -0.052381770293843784 0.012581527094304872 0 -0.05298954843708898 0.012196286887708296 0 -0.052545402549986013 0.011955777687911539 0 -0.05298954843708898 0.012196286887708296 0 -0.052545402549986013 0.011955777687911539 0 -0.05300513293565811 0.011433966333822607 0 -0.05300513293565811 0.011433966333822607 0 -0.052375344086801986 0.011400069944938645 0 -0.052628570632958296 0.010809424091299447 0 -0.052545402549986013 0.011955777687911539 0 -0.05300513293565811 0.011433966333822607 0 -0.052375344086801986 0.011400069944938645 0 -0.053752462933039265 0.01068678777768977 0 -0.05380038314393569 0.011497508205452089 0 -0.05300513293565811 0.011433966333822607 0 -0.051868022355801249 0.012467724119235397 0 -0.051486906382134448 0.012515850891635155 0 -0.051418874804398856 0.012080842151974559 0 -0.051868022355801249 0.012467724119235397 0 -0.051418874804398856 0.012080842151974559 0 -0.052087974178683348 0.01201349796966499 0 -0.051418874804398856 0.012080842151974559 0 -0.052087974178683348 0.01201349796966499 0 -0.051863833280796676 0.011563013721968187 0 -0.052381770293843784 0.012581527094304872 0 -0.051868022355801249 0.012467724119235397 0 -0.052087974178683348 0.01201349796966499 0 -0.052381770293843784 0.012581527094304872 0 -0.052545402549986013 0.011955777687911539 0 -0.052087974178683348 0.01201349796966499 0 -0.052545402549986013 0.011955777687911539 0 -0.052087974178683348 0.01201349796966499 0 -0.052375344086801986 0.011400069944938645 0 -0.052375344086801986 0.011400069944938645 0 -0.051969191987806557 0.010825883959068899 0 -0.052628570632958296 0.010809424091299447 0 -0.052375344086801986 0.011400069944938645 0 -0.051863833280796676 0.011563013721968187 0 -0.051969191987806557 0.010825883959068899 0 -0.052087974178683348 0.01201349796966499 0 -0.052375344086801986 0.011400069944938645 0 -0.051863833280796676 0.011563013721968187 0 -0.051403696247344803 0.011405264657417308 0 -0.051272099780605103 0.010890452562995846 0 -0.051969191987806557 0.010825883959068899 0 -0.051418874804398856 0.012080842151974559 0 -0.051863833280796676 0.011563013721968187 0 -0.051403696247344803 0.011405264657417308 0 -0.051863833280796676 0.011563013721968187 0 -0.051403696247344803 0.011405264657417308 0 -0.051969191987806557 0.010825883959068899 0 -0.051403696247344803 0.011405264657417308 0 -0.051272099780605103 0.010890452562995846 0 -0.05085502537701056 0.011511677590243373 0 -0.051418874804398856 0.012080842151974559 0 -0.051403696247344803 0.011405264657417308 0 -0.05085502537701056 0.011511677590243373 0 -0.051336685873633742 0.010196337855812679 0 -0.051272099780605103 0.010890452562995846 0 -0.051969191987806557 0.010825883959068899 0 -0.051336685873633742 0.010196337855812679 0 -0.051969191987806557 0.010825883959068899 0 -0.051956308035395436 0.0098962231828322294 0 -0.051969191987806557 0.010825883959068899 0 -0.052538387080151183 0.010094684084502025 0 -0.051956308035395436 0.0098962231828322294 0 -0.051969191987806557 0.010825883959068899 0 -0.052538387080151183 0.010094684084502025 0 -0.052628570632958296 0.010809424091299447 0 -0.051956308035395436 0.0098962231828322294 0 -0.051602088256020036 0.0092019099140944159 0 -0.052324960726443881 0.0093847682620023434 0 -0.052538387080151183 0.010094684084502025 0 -0.051956308035395436 0.0098962231828322294 0 -0.052324960726443881 0.0093847682620023434 0 -0.051336685873633742 0.010196337855812679 0 -0.051956308035395436 0.0098962231828322294 0 -0.051602088256020036 0.0092019099140944159 0 -0.051336685873633742 0.010196337855812679 0 -0.051602088256020036 0.0092019099140944159 0 -0.050818028941861722 0.0097192259274627314 0 -0.053752462933039265 0.01068678777768977 0 -0.053883444308232109 0.0096767669918529538 0 -0.053164970503422566 0.010273467115839043 0 -0.053752462933039265 0.01068678777768977 0 -0.05300513293565811 0.011433966333822607 0 -0.053164970503422566 0.010273467115839043 0 -0.052538387080151183 0.010094684084502025 0 -0.053164970503422566 0.010273467115839043 0 -0.052628570632958296 0.010809424091299447 0 -0.05300513293565811 0.011433966333822607 0 -0.053164970503422566 0.010273467115839043 0 -0.052628570632958296 0.010809424091299447 0 -0.052538387080151183 0.010094684084502025 0 -0.053031376558780645 0.0093107150448146145 0 -0.052324960726443881 0.0093847682620023434 0 -0.052538387080151183 0.010094684084502025 0 -0.053164970503422566 0.010273467115839043 0 -0.053031376558780645 0.0093107150448146145 0 -0.053883444308232109 0.0096767669918529538 0 -0.053164970503422566 0.010273467115839043 0 -0.053031376558780645 0.0093107150448146145 0 -0.053883444308232109 0.0096767669918529538 0 -0.053031376558780645 0.0093107150448146145 0 -0.053838483325283605 0.0086567045026101786 0 -0.053031376558780645 0.0093107150448146145 0 -0.053190892003243374 0.0083019258057324061 0 -0.053838483325283605 0.0086567045026101786 0 -0.053031376558780645 0.0093107150448146145 0 -0.053190892003243374 0.0083019258057324061 0 -0.052455208376648639 0.0084250145926795424 0 -0.053190892003243374 0.0083019258057324061 0 -0.052455208376648639 0.0084250145926795424 0 -0.053035112975254102 0.0074682637873698578 0 -0.053190892003243374 0.0083019258057324061 0 -0.053677156116829376 0.0078170678817772506 0 -0.053838483325283605 0.0086567045026101786 0 -0.053031376558780645 0.0093107150448146145 0 -0.052324960726443881 0.0093847682620023434 0 -0.052455208376648639 0.0084250145926795424 0 -0.051602088256020036 0.0092019099140944159 0 -0.052324960726443881 0.0093847682620023434 0 -0.052455208376648639 0.0084250145926795424 0 -0.052455208376648639 0.0084250145926795424 0 -0.052426786777596872 0.007543071023614358 0 -0.0514615522334506 0.0080227176091961019 0 -0.051602088256020036 0.0092019099140944159 0 -0.052455208376648639 0.0084250145926795424 0 -0.0514615522334506 0.0080227176091961019 0 -0.052426786777596872 0.007543071023614358 0 -0.052225496352464131 0.0069316236774606844 0 -0.0514615522334506 0.0080227176091961019 0 -0.052455208376648639 0.0084250145926795424 0 -0.052426786777596872 0.007543071023614358 0 -0.053035112975254102 0.0074682637873698578 0 -0.052426786777596872 0.007543071023614358 0 -0.052225496352464131 0.0069316236774606844 0 -0.052572430651146571 0.0066640787272576269 0 -0.054400728246085765 0.0055481261375834512 0 -0.054725818500590828 0.0053255447652493836 0 -0.052426786777596872 0.007543071023614358 0 -0.053035112975254102 0.0074682637873698578 0 -0.052572430651146571 0.0066640787272576269 0 -0.053677156116829376 0.0078170678817772506 0 -0.053035112975254102 0.0074682637873698578 0 -0.053825844036585017 0.0070098429032378305 0 -0.053190892003243374 0.0083019258057324061 0 -0.053677156116829376 0.0078170678817772506 0 -0.053035112975254102 0.0074682637873698578 0 -0.053035112975254102 0.0074682637873698578 0 -0.053355152287935602 0.0068634001159255387 0 -0.052572430651146571 0.0066640787272576269 0 -0.053035112975254102 0.0074682637873698578 0 -0.053355152287935602 0.0068634001159255387 0 -0.053825844036585017 0.0070098429032378305 0 -0.053825844036585017 0.0070098429032378305 0 -0.054550555712778677 0.0078240266483245394 0 -0.054630258243367244 0.006511171446380597 0 -0.054550555712778677 0.0078240266483245394 0 -0.055581126221125397 0.0069550023733069427 0 -0.054630258243367244 0.006511171446380597 0 -0.053677156116829376 0.0078170678817772506 0 -0.053825844036585017 0.0070098429032378305 0 -0.054550555712778677 0.0078240266483245394 0 -0.054550555712778677 0.0078240266483245394 0 -0.053838483325283605 0.0086567045026101786 0 -0.05456809626405007 0.0090563566933794318 0 -0.053677156116829376 0.0078170678817772506 0 -0.054550555712778677 0.0078240266483245394 0 -0.053838483325283605 0.0086567045026101786 0 -0.054550555712778677 0.0078240266483245394 0 -0.05456809626405007 0.0090563566933794318 0 -0.0557103572041283 0.0088828096364434589 0 -0.053883444308232109 0.0096767669918529538 0 -0.053838483325283605 0.0086567045026101786 0 -0.05456809626405007 0.0090563566933794318 0 -0.054706057206814304 0.010336141456028933 0 -0.05456809626405007 0.0090563566933794318 0 -0.0557103572041283 0.0088828096364434589 0 -0.057486208866279712 0.008409190278917315 0 -0.0557103572041283 0.0088828096364434589 0 -0.055581126221125397 0.0069550023733069427 0 -0.054550555712778677 0.0078240266483245394 0 -0.0557103572041283 0.0088828096364434589 0 -0.055581126221125397 0.0069550023733069427 0 -0.056490191251959698 0.0060361810202526683 0 -0.055581126221125397 0.0069550023733069427 0 -0.055570971251826126 0.0052786699329540583 0 -0.055581126221125397 0.0069550023733069427 0 -0.054630258243367244 0.006511171446380597 0 -0.055570971251826126 0.0052786699329540583 0 -0.056424701865683886 0.0051725614352892985 0 -0.056490191251959698 0.0060361810202526683 0 -0.055570971251826126 0.0052786699329540583 0 -0.054630258243367244 0.006511171446380597 0 -0.054286017072512349 0.0055923583362517629 0 -0.053801167307741177 0.0064555114459796418 0 -0.053825844036585017 0.0070098429032378305 0 -0.054630258243367244 0.006511171446380597 0 -0.053801167307741177 0.0064555114459796418 0 -0.054630258243367244 0.006511171446380597 0 -0.054286017072512349 0.0055923583362517629 0 -0.055570971251826126 0.0052786699329540583 0 -0.057095989538173492 0.0031384665704136997 0 -0.058889325057334886 0.0028357060835863851 0 -0.057976167041708063 0.0023876256946061434 0 -0.056790280855567601 0.0041813513859721178 0 -0.058175736515450528 0.0027903155564621912 0 -0.055937303867538153 0.00434660970284365 0 -0.058161101330167157 0.0030035659388565009 0 -0.056037275129746704 0.0044749188634824666 0 -0.057095989538173492 0.0031384665704136997 0 -0.058889325057334886 0.0028357060835863851 0 -0.056220637696907771 0.0049489256506430558 0 -0.054286017072512349 0.0055923583362517629 0 -0.055570971251826126 0.0052786699329540583 0 -0.056282730510883963 0.0043835279392643086 0 -0.056790280855567601 0.0041813513859721178 0 -0.058175736515450528 0.0027903155564621912 0 -0.059033329657552612 0.0030128770671249108 0 -0.055712110226696927 0.0047129156411357623 0 -0.057248108928839782 0.0037574535715977618 0 -0.056424701865683886 0.0051725614352892985 0 -0.055570971251826126 0.0052786699329540583 0 -0.056353525561032326 0.004301174661998846 0 -0.05695019946708503 0.004071505388639653 0 -0.057248108928839782 0.0037574535715977618 0 -0.059211848184920042 0.0015402758514734042 0 -0.058143830380986639 0.0017358626323859423 0 -0.058604216703706254 0.00078808833261318043 0 -0.059211848184920042 0.0015402758514734042 0 -0.058583174179135993 0.0021322865648911657 0 -0.058143830380986639 0.0017358626323859423 0 -0.058889325057334886 0.0028357060835863851 0 -0.058583174179135993 0.0021322865648911657 0 -0.057976167041708063 0.0023876256946061434 0 -0.058889325057334886 0.0028357060835863851 0 -0.059211848184920042 0.0015402758514734042 0 -0.058583174179135993 0.0021322865648911657 0 -0.057976167041708063 0.0023876256946061434 0 -0.05709650045884504 0.0021102161963782754 0 -0.058143830380986639 0.0017358626323859423 0 -0.058583174179135993 0.0021322865648911657 0 -0.057976167041708063 0.0023876256946061434 0 -0.058143830380986639 0.0017358626323859423 0 -0.057095989538173492 0.0031384665704136997 0 -0.05709650045884504 0.0021102161963782754 0 -0.055632256383847306 0.0027087161512419542 0 -0.057095989538173492 0.0031384665704136997 0 -0.057976167041708063 0.0023876256946061434 0 -0.05709650045884504 0.0021102161963782754 0 -0.05709650045884504 0.0021102161963782754 0 -0.057264576506897362 0.0011226938972729705 0 -0.056048773156624404 0.0015846188465819817 0 -0.05709650045884504 0.0021102161963782754 0 -0.058143830380986639 0.0017358626323859423 0 -0.057264576506897362 0.0011226938972729705 0 -0.057264576506897362 0.0011226938972729705 0 -0.057681276207451934 0.00014817901772375082 0 -0.058604216703706254 0.00078808833261318043 0 -0.058143830380986639 0.0017358626323859423 0 -0.057264576506897362 0.0011226938972729705 0 -0.058604216703706254 0.00078808833261318043 0 -0.057681276207451934 0.00014817901772375082 0 -0.058604216703706254 0.00078808833261318043 0 -0.058480710877890411 -0.00025096888289738472 0 -0.059462021811077917 0.00090579614340373837 0 -0.058604216703706254 0.00078808833261318043 0 -0.059402278592056969 7.0163728359374631e-06 0 -0.059211848184920042 0.0015402758514734042 0 -0.059462021811077917 0.00090579614340373837 0 -0.058604216703706254 0.00078808833261318043 0 -0.053097417648277828 0.00082479431842990593 0 -0.055869240363075147 0.00020270402767091119 0 -0.053307728137883093 -0.00058485025767702299 0 -0.053097417648277828 0.00082479431842990593 0 -0.055869240363075147 0.00020270402767091119 0 -0.05417073682911798 0.0018229150909573606 0 -0.055869240363075147 0.00020270402767091119 0 -0.056048773156624404 0.0015846188465819817 0 -0.05417073682911798 0.0018229150909573606 0 -0.057264576506897362 0.0011226938972729705 0 -0.057681276207451934 0.00014817901772375082 0 -0.055869240363075147 0.00020270402767091119 0 -0.057264576506897362 0.0011226938972729705 0 -0.055869240363075147 0.00020270402767091119 0 -0.056048773156624404 0.0015846188465819817 0 -0.05709650045884504 0.0021102161963782754 0 -0.056048773156624404 0.0015846188465819817 0 -0.055632256383847306 0.0027087161512419542 0 -0.056048773156624404 0.0015846188465819817 0 -0.055632256383847306 0.0027087161512419542 0 -0.05417073682911798 0.0018229150909573606 0 -0.05417073682911798 0.0018229150909573606 0 -0.052615212592703596 0.0028141976214550359 0 -0.051602441095478707 0.0017582354609348171 0 -0.055632256383847306 0.0027087161512419542 0 -0.05417073682911798 0.0018229150909573606 0 -0.05395331644792685 0.0030345587324680226 0 -0.053097417648277828 0.00082479431842990593 0 -0.05417073682911798 0.0018229150909573606 0 -0.051602441095478707 0.0017582354609348171 0 -0.05417073682911798 0.0018229150909573606 0 -0.052615212592703596 0.0028141976214550359 0 -0.05395331644792685 0.0030345587324680226 0 -0.052615212592703596 0.0028141976214550359 0 -0.05395331644792685 0.0030345587324680226 0 -0.053173670300459275 0.0041803830209605824 0 -0.05395331644792685 0.0030345587324680226 0 -0.053173670300459275 0.0041803830209605824 0 -0.054907939224627465 0.0036260778791909229 0 -0.053173670300459275 0.0041803830209605824 0 -0.054907939224627465 0.0036260778791909229 0 -0.054919932268496188 0.0044562575637531214 0 -0.057095989538173492 0.0031384665704136997 0 -0.055632256383847306 0.0027087161512419542 0 -0.055867703273572267 0.0037334634801132801 0 -0.055632256383847306 0.0027087161512419542 0 -0.054907939224627465 0.0036260778791909229 0 -0.055867703273572267 0.0037334634801132801 0 -0.055632256383847306 0.0027087161512419542 0 -0.05395331644792685 0.0030345587324680226 0 -0.054907939224627465 0.0036260778791909229 0 -0.054907939224627465 0.0036260778791909229 0 -0.054919932268496188 0.0044562575637531214 0 -0.055867703273572267 0.0037334634801132801 0 -0.054919932268496188 0.0044562575637531214 0 -0.055867703273572267 0.0037334634801132801 0 -0.056220637696907771 0.0049489256506430558 0 -0.057095989538173492 0.0031384665704136997 0 -0.055867703273572267 0.0037334634801132801 0 -0.056220637696907771 0.0049489256506430558 0 -0.056790280855567601 0.0041813513859721178 0 -0.055937303867538153 0.00434660970284365 0 -0.05452828423317934 0.0053264459458824062 0 -0.053355152287935602 0.0068634001159255387 0 -0.053801167307741177 0.0064555114459796418 0 -0.052572430651146571 0.0066640787272576269 0 -0.056220637696907771 0.0049489256506430558 0 -0.053884018280871297 0.0052414544629078531 0 -0.053909748777622744 0.0062801422758548536 0 -0.054919932268496188 0.0044562575637531214 0 -0.056220637696907771 0.0049489256506430558 0 -0.053884018280871297 0.0052414544629078531 0 -0.055712110226696927 0.0047129156411357623 0 -0.054725818500590828 0.0053255447652493836 0 -0.054286017072512349 0.0055923583362517629 0 -0.053801167307741177 0.0064555114459796418 0 -0.052572430651146571 0.0066640787272576269 0 -0.056037275129746704 0.0044749188634824666 0 -0.054725818500590828 0.0053255447652493836 0 -0.053355152287935602 0.0068634001159255387 0 -0.053825844036585017 0.0070098429032378305 0 -0.053801167307741177 0.0064555114459796418 0 -0.053173670300459275 0.0041803830209605824 0 -0.052509858719815179 0.0056188687537304573 0 -0.051270892839842715 0.0052546394686905805 0 -0.053173670300459275 0.0041803830209605824 0 -0.053884018280871297 0.0052414544629078531 0 -0.052509858719815179 0.0056188687537304573 0 -0.053173670300459275 0.0041803830209605824 0 -0.054919932268496188 0.0044562575637531214 0 -0.053884018280871297 0.0052414544629078531 0 -0.052225496352464131 0.0069316236774606844 0 -0.053884018280871297 0.0052414544629078531 0 -0.053909748777622744 0.0062801422758548536 0 -0.052225496352464131 0.0069316236774606844 0 -0.052509858719815179 0.0056188687537304573 0 -0.051270892839842715 0.0052546394686905805 0 -0.052225496352464131 0.0069316236774606844 0 -0.053884018280871297 0.0052414544629078531 0 -0.052509858719815179 0.0056188687537304573 0 -0.051270892839842715 0.0052546394686905805 0 -0.049441322662483446 0.0053731003739086233 0 -0.050798607423531594 0.0034708988443149847 0 -0.051270892839842715 0.0052546394686905805 0 -0.049441322662483446 0.0053731003739086233 0 -0.050552649611815895 0.0068168136272827914 0 -0.049441322662483446 0.0053731003739086233 0 -0.048148151751471933 0.0034941247049672945 0 -0.047074871600490231 0.0056514385779372362 0 -0.049441322662483446 0.0053731003739086233 0 -0.050798607423531594 0.0034708988443149847 0 -0.048148151751471933 0.0034941247049672945 0 -0.050798607423531594 0.0034708988443149847 0 -0.049279832738921621 0.0016716214583713061 0 -0.048148151751471933 0.0034941247049672945 0 -0.053173670300459275 0.0041803830209605824 0 -0.051270892839842715 0.0052546394686905805 0 -0.050798607423531594 0.0034708988443149847 0 -0.052615212592703596 0.0028141976214550359 0 -0.053173670300459275 0.0041803830209605824 0 -0.050798607423531594 0.0034708988443149847 0 -0.050798607423531594 0.0034708988443149847 0 -0.051602441095478707 0.0017582354609348171 0 -0.049279832738921621 0.0016716214583713061 0 -0.052615212592703596 0.0028141976214550359 0 -0.050798607423531594 0.0034708988443149847 0 -0.051602441095478707 0.0017582354609348171 0 -0.051602441095478707 0.0017582354609348171 0 -0.049279832738921621 0.0016716214583713061 0 -0.05056309626853564 -0.00012385254555458283 0 -0.049279832738921621 0.0016716214583713061 0 -0.05056309626853564 -0.00012385254555458283 0 -0.047832435874065639 -0.0003245086909633023 0 -0.053097417648277828 0.00082479431842990593 0 -0.051602441095478707 0.0017582354609348171 0 -0.05056309626853564 -0.00012385254555458283 0 -0.053097417648277828 0.00082479431842990593 0 -0.05056309626853564 -0.00012385254555458283 0 -0.053307728137883093 -0.00058485025767702299 0 -0.045960310421386597 -0.00012820439112883525 0 -0.047832435874065639 -0.0003245086909633023 0 -0.046850179586543785 0.0016325147054027146 0 -0.049279832738921621 0.0016716214583713061 0 -0.047832435874065639 -0.0003245086909633023 0 -0.046850179586543785 0.0016325147054027146 0 -0.049279832738921621 0.0016716214583713061 0 -0.046850179586543785 0.0016325147054027146 0 -0.048148151751471933 0.0034941247049672945 0 -0.046850179586543785 0.0016325147054027146 0 -0.045442623775275935 0.0036609658128895742 0 -0.044693032363617755 0.001378556289242694 0 -0.045960310421386597 -0.00012820439112883525 0 -0.046850179586543785 0.0016325147054027146 0 -0.044693032363617755 0.001378556289242694 0 -0.044920430547696732 0.0021061858455532745 0 -0.044280080091250403 0.00058628166969412396 0 -0.046850179586543785 0.0016325147054027146 0 -0.048148151751471933 0.0034941247049672945 0 -0.045442623775275935 0.0036609658128895742 0 -0.048148151751471933 0.0034941247049672945 0 -0.047074871600490231 0.0056514385779372362 0 -0.045442623775275935 0.0036609658128895742 0 -0.047074871600490231 0.0056514385779372362 0 -0.045442623775275935 0.0036609658128895742 0 -0.043857924196938645 0.0066563746830904536 0 -0.047074871600490231 0.0056514385779372362 0 -0.043857924196938645 0.0066563746830904536 0 -0.046522142638527983 0.0077912273219039119 0 -0.044538357825807014 0.0087798077898941732 0 -0.046522142638527983 0.0077912273219039119 0 -0.045700214136607714 0.010013488496192215 0 -0.043857924196938645 0.0066563746830904536 0 -0.044538357825807014 0.0087798077898941732 0 -0.046522142638527983 0.0077912273219039119 0 -0.046522142638527983 0.0077912273219039119 0 -0.048686791413793333 0.0070955947050372675 0 -0.048295003053270912 0.0087245769971755448 0 -0.046522142638527983 0.0077912273219039119 0 -0.045700214136607714 0.010013488496192215 0 -0.04720940294059546 0.0095539508265426159 0 -0.046522142638527983 0.0077912273219039119 0 -0.048295003053270912 0.0087245769971755448 0 -0.04720940294059546 0.0095539508265426159 0 -0.047074871600490231 0.0056514385779372362 0 -0.046522142638527983 0.0077912273219039119 0 -0.048686791413793333 0.0070955947050372675 0 -0.049441322662483446 0.0053731003739086233 0 -0.048686791413793333 0.0070955947050372675 0 -0.050552649611815895 0.0068168136272827914 0 -0.049441322662483446 0.0053731003739086233 0 -0.047074871600490231 0.0056514385779372362 0 -0.048686791413793333 0.0070955947050372675 0 -0.048686791413793333 0.0070955947050372675 0 -0.050552649611815895 0.0068168136272827914 0 -0.049995815257713745 0.0084192006641513398 0 -0.050552649611815895 0.0068168136272827914 0 -0.0514615522334506 0.0080227176091961019 0 -0.049995815257713745 0.0084192006641513398 0 -0.052225496352464131 0.0069316236774606844 0 -0.051270892839842715 0.0052546394686905805 0 -0.050552649611815895 0.0068168136272827914 0 -0.052225496352464131 0.0069316236774606844 0 -0.050552649611815895 0.0068168136272827914 0 -0.0514615522334506 0.0080227176091961019 0 -0.0514615522334506 0.0080227176091961019 0 -0.049995815257713745 0.0084192006641513398 0 -0.050827369073644275 0.0089594015720535058 0 -0.049995815257713745 0.0084192006641513398 0 -0.050217779202475964 0.0093977480207169777 0 -0.050827369073644275 0.0089594015720535058 0 -0.049995815257713745 0.0084192006641513398 0 -0.050217779202475964 0.0093977480207169777 0 -0.049318938171944639 0.0096809965632660422 0 -0.051602088256020036 0.0092019099140944159 0 -0.0514615522334506 0.0080227176091961019 0 -0.050827369073644275 0.0089594015720535058 0 -0.051602088256020036 0.0092019099140944159 0 -0.050827369073644275 0.0089594015720535058 0 -0.050818028941861722 0.0097192259274627314 0 -0.050217779202475964 0.0093977480207169777 0 -0.050827369073644275 0.0089594015720535058 0 -0.050818028941861722 0.0097192259274627314 0 -0.048686791413793333 0.0070955947050372675 0 -0.049995815257713745 0.0084192006641513398 0 -0.048295003053270912 0.0087245769971755448 0 -0.049995815257713745 0.0084192006641513398 0 -0.048295003053270912 0.0087245769971755448 0 -0.049318938171944639 0.0096809965632660422 0 -0.048295003053270912 0.0087245769971755448 0 -0.048133097529744609 0.010553085711888316 0 -0.04720940294059546 0.0095539508265426159 0 -0.048295003053270912 0.0087245769971755448 0 -0.049318938171944639 0.0096809965632660422 0 -0.048133097529744609 0.010553085711888316 0 -0.049318938171944639 0.0096809965632660422 0 -0.049224360207236501 0.010818932128825695 0 -0.050091358562377765 0.010206019914522248 0 -0.049318938171944639 0.0096809965632660422 0 -0.049224360207236501 0.010818932128825695 0 -0.048133097529744609 0.010553085711888316 0 -0.049224360207236501 0.010818932128825695 0 -0.048133097529744609 0.010553085711888316 0 -0.048337079166029473 0.011528972058552991 0 -0.051336685873633742 0.010196337855812679 0 -0.050818028941861722 0.0097192259274627314 0 -0.050768859366077834 0.010553953924347837 0 -0.050818028941861722 0.0097192259274627314 0 -0.050091358562377765 0.010206019914522248 0 -0.050768859366077834 0.010553953924347837 0 -0.050217779202475964 0.0093977480207169777 0 -0.049318938171944639 0.0096809965632660422 0 -0.050091358562377765 0.010206019914522248 0 -0.050217779202475964 0.0093977480207169777 0 -0.050818028941861722 0.0097192259274627314 0 -0.050091358562377765 0.010206019914522248 0 -0.049224360207236501 0.010818932128825695 0 -0.050091358562377765 0.010206019914522248 0 -0.050152624766179633 0.011048424195906407 0 -0.050091358562377765 0.010206019914522248 0 -0.050768859366077834 0.010553953924347837 0 -0.050152624766179633 0.011048424195906407 0 -0.051336685873633742 0.010196337855812679 0 -0.051272099780605103 0.010890452562995846 0 -0.050768859366077834 0.010553953924347837 0 -0.051272099780605103 0.010890452562995846 0 -0.050768859366077834 0.010553953924347837 0 -0.05085502537701056 0.011511677590243373 0 -0.050768859366077834 0.010553953924347837 0 -0.05085502537701056 0.011511677590243373 0 -0.050152624766179633 0.011048424195906407 0 -0.05085502537701056 0.011511677590243373 0 -0.050144921933776586 0.011791356997194576 0 -0.050152624766179633 0.011048424195906407 0 -0.050144921933776586 0.011791356997194576 0 -0.050152624766179633 0.011048424195906407 0 -0.049256402499784205 0.011855574299031335 0 -0.049638757142090026 0.012838475260904793 0 -0.050144921933776586 0.011791356997194576 0 -0.049256402499784205 0.011855574299031335 0 -0.049638757142090026 0.012838475260904793 0 -0.050144921933776586 0.011791356997194576 0 -0.050652822781030477 0.012248374944514832 0 -0.05085502537701056 0.011511677590243373 0 -0.050144921933776586 0.011791356997194576 0 -0.050652822781030477 0.012248374944514832 0 -0.050953349571700376 0.012894510050656447 0 -0.051418874804398856 0.012080842151974559 0 -0.050652822781030477 0.012248374944514832 0 -0.051418874804398856 0.012080842151974559 0 -0.05085502537701056 0.011511677590243373 0 -0.050652822781030477 0.012248374944514832 0 -0.048133097529744609 0.010553085711888316 0 -0.048337079166029473 0.011528972058552991 0 -0.047057282784620479 0.011543755012390352 0 -0.048337079166029473 0.011528972058552991 0 -0.048182065532199107 0.012726028193638729 0 -0.047057282784620479 0.011543755012390352 0 -0.049224360207236501 0.010818932128825695 0 -0.048337079166029473 0.011528972058552991 0 -0.049256402499784205 0.011855574299031335 0 -0.049224360207236501 0.010818932128825695 0 -0.050152624766179633 0.011048424195906407 0 -0.049256402499784205 0.011855574299031335 0 -0.049638757142090026 0.012838475260904793 0 -0.049256402499784205 0.011855574299031335 0 -0.048182065532199107 0.012726028193638729 0 -0.048337079166029473 0.011528972058552991 0 -0.049256402499784205 0.011855574299031335 0 -0.048182065532199107 0.012726028193638729 0 -0.046662203414122708 0.013171644920476577 0 -0.047057282784620479 0.011543755012390352 0 -0.04505492504040419 0.012096842731567836 0 -0.046662203414122708 0.013171644920476577 0 -0.048182065532199107 0.012726028193638729 0 -0.047057282784620479 0.011543755012390352 0 -0.047057282784620479 0.011543755012390352 0 -0.04505492504040419 0.012096842731567836 0 -0.045700214136607714 0.010013488496192215 0 -0.04505492504040419 0.012096842731567836 0 -0.043989855467321808 0.010303260330588596 0 -0.042369479992623534 0.011415978458489417 0 -0.04505492504040419 0.012096842731567836 0 -0.043989855467321808 0.010303260330588596 0 -0.045700214136607714 0.010013488496192215 0 -0.044538357825807014 0.0087798077898941732 0 -0.043989855467321808 0.010303260330588596 0 -0.045700214136607714 0.010013488496192215 0 -0.048133097529744609 0.010553085711888316 0 -0.047057282784620479 0.011543755012390352 0 -0.04720940294059546 0.0095539508265426159 0 -0.047057282784620479 0.011543755012390352 0 -0.045700214136607714 0.010013488496192215 0 -0.04720940294059546 0.0095539508265426159 0 -0.040809466420296425 0.0095830320584339313 0 -0.039377891731030151 0.011153887336305549 0 -0.03929838898714199 0.0082134150785965719 0 -0.040809466420296425 0.0095830320584339313 0 -0.042369479992623534 0.011415978458489417 0 -0.039377891731030151 0.011153887336305549 0 -0.040809466420296425 0.0095830320584339313 0 -0.042540172355113662 0.0091194095633093768 0 -0.042369479992623534 0.011415978458489417 0 -0.043989855467321808 0.010303260330588596 0 -0.042540172355113662 0.0091194095633093768 0 -0.042369479992623534 0.011415978458489417 0 -0.044538357825807014 0.0087798077898941732 0 -0.043989855467321808 0.010303260330588596 0 -0.042540172355113662 0.0091194095633093768 0 -0.042986378997777408 0.013380915714409466 0 -0.04505492504040419 0.012096842731567836 0 -0.042369479992623534 0.011415978458489417 0 -0.042986378997777408 0.013380915714409466 0 -0.042369479992623534 0.011415978458489417 0 -0.040863001961531899 0.012918997388664782 0 -0.042369479992623534 0.011415978458489417 0 -0.040863001961531899 0.012918997388664782 0 -0.039377891731030151 0.011153887336305549 0 -0.03762367949332638 0.014480442478927194 0 -0.040863001961531899 0.012918997388664782 0 -0.039377891731030151 0.011153887336305549 0 -0.03762367949332638 0.014480442478927194 0 -0.039377891731030151 0.011153887336305549 0 -0.035793741848737688 0.010658906017847476 0 -0.023072419594259701 0.0079781871437674227 0 -0.026036239521258286 0.0057667749401289128 0 -0.018933374983931221 0.00056963454196411883 0 -0.019591931788658142 0.00064647542223152023 0 -0.019212710748716735 0.00012590180072931381 0 -0.019591931788658142 0.00064647542223152023 0 -0.019212710748716735 0.00012590180072931381 0 -0.01925802179121465 7.168483095403678e-05 0 -0.039377891731030151 0.011153887336305549 0 -0.03929838898714199 0.0082134150785965719 0 -0.037004781293567129 0.0085283385299018064 0 -0.039377891731030151 0.011153887336305549 0 -0.035793741848737688 0.010658906017847476 0 -0.037004781293567129 0.0085283385299018064 0 -0.03929838898714199 0.0082134150785965719 0 -0.036556795287496585 0.0058977877640600772 0 -0.039260968678399587 0.0060086034197268188 0 -0.03929838898714199 0.0082134150785965719 0 -0.037004781293567129 0.0085283385299018064 0 -0.036556795287496585 0.0058977877640600772 0 -0.037004781293567129 0.0085283385299018064 0 -0.036556795287496585 0.0058977877640600772 0 -0.033826560531121076 0.0064896972119348048 0 -0.026036239521258286 0.0057667749401289128 0 -0.027294836871746771 0.0027922589377786479 0 -0.035793741848737688 0.010658906017847476 0 -0.037004781293567129 0.0085283385299018064 0 -0.033826560531121076 0.0064896972119348048 0 -0.036556795287496585 0.0058977877640600772 0 -0.034543258689716111 0.004175055823014538 0 -0.033547468412562183 0.0060446833316156771 0 -0.03031570791893895 0.0027772149913133761 0 -0.027294836871746771 0.0027922589377786479 0 -0.036556795287496585 0.0058977877640600772 0 -0.038194653068373413 0.0040420423107998538 0 -0.035771547389458987 0.003382665313735047 0 -0.036556795287496585 0.0058977877640600772 0 -0.034543258689716111 0.004175055823014538 0 -0.035771547389458987 0.003382665313735047 0 -0.036556795287496585 0.0058977877640600772 0 -0.039260968678399587 0.0060086034197268188 0 -0.038194653068373413 0.0040420423107998538 0 -0.039260968678399587 0.0060086034197268188 0 -0.041209592008226756 0.007223684940722252 0 -0.040946088017463432 0.0047298546978921073 0 -0.039260968678399587 0.0060086034197268188 0 -0.040946088017463432 0.0047298546978921073 0 -0.038194653068373413 0.0040420423107998538 0 -0.040809466420296425 0.0095830320584339313 0 -0.042540172355113662 0.0091194095633093768 0 -0.041209592008226756 0.007223684940722252 0 -0.040809466420296425 0.0095830320584339313 0 -0.03929838898714199 0.0082134150785965719 0 -0.041209592008226756 0.007223684940722252 0 -0.03929838898714199 0.0082134150785965719 0 -0.039260968678399587 0.0060086034197268188 0 -0.041209592008226756 0.007223684940722252 0 -0.043857924196938645 0.0066563746830904536 0 -0.044538357825807014 0.0087798077898941732 0 -0.042540172355113662 0.0091194095633093768 0 -0.043857924196938645 0.0066563746830904536 0 -0.042540172355113662 0.0091194095633093768 0 -0.041209592008226756 0.007223684940722252 0 -0.043857924196938645 0.0066563746830904536 0 -0.041209592008226756 0.007223684940722252 0 -0.040946088017463432 0.0047298546978921073 0 -0.045442623775275935 0.0036609658128895742 0 -0.040946088017463432 0.0047298546978921073 0 -0.041260857466929493 0.001932354775593945 0 -0.045442623775275935 0.0036609658128895742 0 -0.043857924196938645 0.0066563746830904536 0 -0.040946088017463432 0.0047298546978921073 0 -0.040946088017463432 0.0047298546978921073 0 -0.041260857466929493 0.001932354775593945 0 -0.039034008648739488 0.0022596191761094613 0 -0.040946088017463432 0.0047298546978921073 0 -0.039034008648739488 0.0022596191761094613 0 -0.038194653068373413 0.0040420423107998538 0 -0.041260857466929493 0.001932354775593945 0 -0.039084454465208265 4.6273482932781566e-06 0 -0.039034008648739488 0.0022596191761094613 0 -0.045442623775275935 0.0036609658128895742 0 -0.041260857466929493 0.001932354775593945 0 -0.042655849222446682 -0.00046876603730339791 0 -0.041260857466929493 0.001932354775593945 0 -0.042655849222446682 -0.00046876603730339791 0 -0.039084454465208265 4.6273482932781566e-06 0 -0.039084454465208265 4.6273482932781566e-06 0 -0.037697630998491848 -0.001961620870788779 0 -0.040539380768197936 -0.0031348958712537111 0 -0.042655849222446682 -0.00046876603730339791 0 -0.039084454465208265 4.6273482932781566e-06 0 -0.040539380768197936 -0.0031348958712537111 0 -0.044280080091250403 0.00058628166969412396 0 -0.044388221292019206 -0.00037914845074516021 0 -0.045960310421386597 -0.00012820439112883525 0 -0.044693032363617755 0.001378556289242694 0 -0.043204080253433169 -0.0014670573176164253 0 -0.037697630998491848 -0.001961620870788779 0 -0.03680628756657945 -0.00056079383949218136 0 -0.036214963952270612 -0.0012774475440334504 0 -0.039084454465208265 4.6273482932781566e-06 0 -0.037697630998491848 -0.001961620870788779 0 -0.03680628756657945 -0.00056079383949218136 0 -0.039084454465208265 4.6273482932781566e-06 0 -0.03680628756657945 -0.00056079383949218136 0 -0.036316580423376259 0.0014002927524056294 0 -0.03680628756657945 -0.00056079383949218136 0 -0.036316580423376259 0.0014002927524056294 0 -0.035177373736809195 -7.8517106409531435e-05 0 -0.03680628756657945 -0.00056079383949218136 0 -0.035177373736809195 -7.8517106409531435e-05 0 -0.036214963952270612 -0.0012774475440334504 0 -0.039084454465208265 4.6273482932781566e-06 0 -0.036316580423376259 0.0014002927524056294 0 -0.039034008648739488 0.0022596191761094613 0 -0.036316580423376259 0.0014002927524056294 0 -0.039034008648739488 0.0022596191761094613 0 -0.038194653068373413 0.0040420423107998538 0 -0.036316580423376259 0.0014002927524056294 0 -0.035771547389458987 0.003382665313735047 0 -0.033767772911417707 0.002311720045395415 0 -0.036316580423376259 0.0014002927524056294 0 -0.038194653068373413 0.0040420423107998538 0 -0.035771547389458987 0.003382665313735047 0 -0.034543258689716111 0.004175055823014538 0 -0.035771547389458987 0.003382665313735047 0 -0.033767772911417707 0.002311720045395415 0 -0.033767772911417707 0.002311720045395415 0 -0.031820803235430906 0.0018107732119754952 0 -0.032641257329232391 0.0034003423620719286 0 -0.033767772911417707 0.002311720045395415 0 -0.031820803235430906 0.0018107732119754952 0 -0.033431097417765947 0.00083804851488680418 0 -0.031820803235430906 0.0018107732119754952 0 -0.033431097417765947 0.00083804851488680418 0 -0.030250397637969766 0.00053742097329856386 0 -0.031820803235430906 0.0018107732119754952 0 -0.030250397637969766 0.00053742097329856386 0 -0.029671810709820418 0.0019004182796656583 0 -0.031820803235430906 0.0018107732119754952 0 -0.029671810709820418 0.0019004182796656583 0 -0.032641257329232391 0.0034003423620719286 0 -0.033431097417765947 0.00083804851488680418 0 -0.03370324152720313 -0.00043834939227929784 0 -0.030250397637969766 0.00053742097329856386 0 -0.036316580423376259 0.0014002927524056294 0 -0.033767772911417707 0.002311720045395415 0 -0.033431097417765947 0.00083804851488680418 0 -0.036316580423376259 0.0014002927524056294 0 -0.033431097417765947 0.00083804851488680418 0 -0.035177373736809195 -7.8517106409531435e-05 0 -0.035177373736809195 -7.8517106409531435e-05 0 -0.03370324152720313 -0.00043834939227929784 0 -0.036214963952270612 -0.0012774475440334504 0 -0.033431097417765947 0.00083804851488680418 0 -0.035177373736809195 -7.8517106409531435e-05 0 -0.03370324152720313 -0.00043834939227929784 0 -0.03370324152720313 -0.00043834939227929784 0 -0.035388046470742007 -0.0010031730196095861 0 -0.034564004479625259 -0.0007718978425897675 0 -0.03370324152720313 -0.00043834939227929784 0 -0.035388046470742007 -0.0010031730196095861 0 -0.036214963952270612 -0.0012774475440334504 0 -0.032057281221820194 -1.2048241104115793e-06 0 -0.031532679579121002 -0.00026573559835248297 0 -0.034564004479625259 -0.0007718978425897675 0 -0.03370324152720313 -0.00043834939227929784 0 -0.031532679579121002 -0.00026573559835248297 0 -0.034564004479625259 -0.0007718978425897675 0 -0.03370324152720313 -0.00043834939227929784 0 -0.031532679579121002 -0.00026573559835248297 0 -0.030250397637969766 0.00053742097329856386 0 -0.032057281221820194 -1.2048241104115793e-06 0 -0.031532679579121002 -0.00026573559835248297 0 -0.028308663409444591 2.7412263156299393e-07 0 -0.030250397637969766 0.00053742097329856386 0 -0.024556809618494459 -1.31458451448e-06 0 -0.029671810709820418 0.0019004182796656583 0 -0.028308663409444591 2.7412263156299393e-07 0 -0.030250397637969766 0.00053742097329856386 0 -0.024556809618494459 -1.31458451448e-06 0 -0.031532679579121002 -0.00026573559835248297 0 -0.028308663409444591 2.7412263156299393e-07 0 -0.030250397637969766 0.00053742097329856386 0 -0.024556809618494459 -1.31458451448e-06 0 -0.028249675016192903 0.0033437160467580307 0 -0.029671810709820418 0.0019004182796656583 0 -0.024556809618494459 -1.31458451448e-06 0 -0.020817261472215531 9.7315455674288262e-06 0 -0.028249675016192903 0.0033437160467580307 0 -0.020811743012068642 2.7773921035596174e-06 0 -0.024296297122013907 0.0013873861922986343 0 -0.02080018854945723 -5.2111557101802743e-07 0 -0.019287314789360663 0.00028976611761818456 0 -0.019350943530678788 -0.0001500996741454414 0 -0.028249675016192903 0.0033437160467580307 0 -0.029671810709820418 0.0019004182796656583 0 -0.032641257329232391 0.0034003423620719286 0 -0.028249675016192903 0.0033437160467580307 0 -0.032641257329232391 0.0034003423620719286 0 -0.033101127119148491 0.0045786072699001605 0 -0.034543258689716111 0.004175055823014538 0 -0.033767772911417707 0.002311720045395415 0 -0.032641257329232391 0.0034003423620719286 0 -0.027824751950973271 0.0033416579072615303 0 -0.027294836871746771 0.0027922589377786479 0 -0.034543258689716111 0.004175055823014538 0 -0.032641257329232391 0.0034003423620719286 0 -0.033547468412562183 0.0060446833316156771 0 -0.024296297122013907 0.0013873861922986343 0 -0.027294836871746771 0.0027922589377786479 0 -0.019287314789360663 0.00028976611761818456 0 -0.019237102845977776 0.00018534012709085009 0 -0.019256299201316565 9.6565593133638052e-05 0 -0.019287314789360663 0.00028976611761818456 0 -0.019309418434477879 2.2851417477896947e-05 0 -0.019256299201316565 9.6565593133638052e-05 0 -0.019309418434477879 2.2851417477896947e-05 0 -0.019256299201316565 9.6565593133638052e-05 0 -0.019373414657350534 1.2919360464552219e-05 0 -0.019212710748716735 0.00012590180072931381 0 -0.01925802179121465 7.168483095403678e-05 0 -0.019256299201316565 9.6565593133638052e-05 0 -0.01925802179121465 7.168483095403678e-05 0 -0.019237102845977776 0.00018534012709085009 0 -0.019256299201316565 9.6565593133638052e-05 0 -0.019212710748716735 0.00012590180072931381 0 -0.019256299201316565 9.6565593133638052e-05 0 -0.019373414657350534 1.2919360464552219e-05 0 -0.018978787353741894 0.00012507421237411165 0 -0.018640276438382695 0.00016616910687996294 0 -0.018933374983931221 0.00056963454196411883 0 -0.019212710748716735 0.00012590180072931381 0 -0.018527722311670897 0.00020398788008831747 0 -0.018215238825181463 0.00047628948702667384 0 -0.018933374983931221 0.00056963454196411883 0 -0.018527722311670897 0.00020398788008831747 0 -0.018640276438382695 0.00016616910687996294 0 -0.01723758917292947 0.00034361158045000123 0 -0.018215238825181463 0.00047628948702667384 0 -0.018527722311670897 0.00020398788008831747 0 -0.017809740246919122 0.00030268805139722004 0 -0.019373414657350534 1.2919360464552219e-05 0 -0.019119438549668136 0.00028295867958338467 0 -0.019350943530678788 -0.0001500996741454414 0 -0.015483570958894605 0.0014691316994374739 0 -0.01723758917292947 0.00034361158045000123 0 -0.015483570958894605 0.0014691316994374739 0 -0.016732655266002348 2.8017279727260674e-06 0 -0.017338262997413464 0.00011763310942453226 0 -0.016971563652910623 -5.7484208792702129e-05 0 -0.01673903458716593 -1.3640522620076633e-07 0 -0.01723758917292947 0.00034361158045000123 0 -0.016939777288678865 1.8022243998427317e-06 0 -0.017114298837644319 -4.5980847013607695e-07 0 -0.016942641827376367 5.6816705690625274e-10 0 -0.017658891198776831 -1.2008865023751326e-09 0 -0.016971563652910623 -5.7484208792702129e-05 0 -0.01673903458716593 -1.3640522620076633e-07 0 -0.016935185375372971 1.3903529836975092e-07 0 -0.019119438549668136 0.00028295867958338467 0 -0.017669991471936836 5.9901182845816248e-07 0 -0.019308588212970743 -0.00015812776610554005 0 -0.01723758917292947 0.00034361158045000123 0 -0.017661173196258588 1.800576794889268e-06 0 -0.02080018854945723 -5.2111557101802743e-07 0 -0.017669991471936836 5.9901182845816248e-07 0 -0.019308588212970743 -0.00015812776610554005 0 -0.02080018854945723 -5.2111557101802743e-07 0 -0.019308588212970743 -0.00015812776610554005 0 -0.019350943530678788 -0.0001500996741454414 0 -0.019119438549668136 0.00028295867958338467 0 -0.019308588212970743 -0.00015812776610554005 0 -0.019350943530678788 -0.0001500996741454414 0 -0.019287314789360663 0.00028976611761818456 0 -0.019309418434477879 2.2851417477896947e-05 0 -0.019350943530678788 -0.0001500996741454414 0 -0.019309418434477879 2.2851417477896947e-05 0 -0.019373414657350534 1.2919360464552219e-05 0 -0.019350943530678788 -0.0001500996741454414 0 -0.045471864788868749 0.00053216649541934632 0 -0.046917171343969923 0.00018904408275155054 0 -0.047322874978740631 0.00051872335824491357 0 -0.045471864788868749 0.00053216649541934632 0 -0.045255837947564478 0.00015074906773800958 0 -0.046917171343969923 0.00018904408275155054 0 -0.045255837947564478 0.00015074906773800958 0 -0.047056331239118024 -2.7546368645703657e-07 0 -0.046917171343969923 0.00018904408275155054 0 -0.045255837947564478 0.00015074906773800958 0 -0.047056331239118024 -2.7546368645703657e-07 0 -0.043305314204076378 4.4377923529403679e-07 0 -0.047056331239118024 -2.7546368645703657e-07 0 -0.046917171343969923 0.00018904408275155054 0 -0.048523981183951771 -0.00014824482869979296 0 -0.046917171343969923 0.00018904408275155054 0 -0.048509129477501085 2.1728087483568095e-05 0 -0.048523981183951771 -0.00014824482869979296 0 -0.046917171343969923 0.00018904408275155054 0 -0.047322874978740631 0.00051872335824491357 0 -0.048509129477501085 2.1728087483568095e-05 0 -0.047322874978740631 0.00051872335824491357 0 -0.050137138598223961 7.1458482478582849e-05 0 -0.048509129477501085 2.1728087483568095e-05 0 -0.047322874978740631 0.00051872335824491357 0 -0.047771437932210087 0.0010793600681538082 0 -0.050137138598223961 7.1458482478582849e-05 0 -0.047771437932210087 0.0010793600681538082 0 -0.050457414662423795 0.0004490387245569971 0 -0.050137138598223961 7.1458482478582849e-05 0 -0.047411819136555795 0.00088352919893665998 0 -0.047407586025453113 0.00084665070862136862 0 -0.047771437932210087 0.0010793600681538082 0 -0.04523598867851044 0.00091038136604031398 0 -0.045708686608743755 0.00099706280703917784 0 -0.047322874978740631 0.00051872335824491357 0 -0.047771437932210087 0.0010793600681538082 0 -0.046092598048860858 0.00083229386414795882 0 -0.047771437932210087 0.0010793600681538082 0 -0.046092598048860858 0.00083229386414795882 0 -0.04523598867851044 0.00091038136604031398 0 -0.045471864788868749 0.00053216649541934632 0 -0.047322874978740631 0.00051872335824491357 0 -0.046092598048860858 0.00083229386414795882 0 -0.045471864788868749 0.00053216649541934632 0 -0.046092598048860858 0.00083229386414795882 0 -0.044408551792162396 0.00082016214598119841 0 -0.044408551792162396 0.00082016214598119841 0 -0.042647970884588278 0.0010897262063930819 0 -0.042922982948963115 0.00041027039404477084 0 -0.045471864788868749 0.00053216649541934632 0 -0.044408551792162396 0.00082016214598119841 0 -0.042922982948963115 0.00041027039404477084 0 -0.04523598867851044 0.00091038136604031398 0 -0.042647970884588278 0.0010897262063930819 0 -0.045690238174780406 0.0011103842458026461 0 -0.045773820865886446 0.0013362640952211521 0 -0.047029418338353113 0.00084274350099040646 0 -0.04523598867851044 0.00091038136604031398 0 -0.045690238174780406 0.0011103842458026461 0 -0.045708686608743755 0.00099706280703917784 0 -0.046092598048860858 0.00083229386414795882 0 -0.044408551792162396 0.00082016214598119841 0 -0.04523598867851044 0.00091038136604031398 0 -0.044408551792162396 0.00082016214598119841 0 -0.04523598867851044 0.00091038136604031398 0 -0.042647970884588278 0.0010897262063930819 0 -0.042647970884588278 0.0010897262063930819 0 -0.039344429155333323 -0.00057959136763776297 0 -0.040434796935306869 0.0024136444065074925 0 -0.042647970884588278 0.0010897262063930819 0 -0.040826881281364961 -0.00010851914506212327 0 -0.039344429155333323 -0.00057959136763776297 0 -0.042647970884588278 0.0010897262063930819 0 -0.042922982948963115 0.00041027039404477084 0 -0.040826881281364961 -0.00010851914506212327 0 -0.042922982948963115 0.00041027039404477084 0 -0.039889355136861086 -0.00035452718552764174 0 -0.040986442972036588 -2.5201345989016691e-05 0 -0.045471864788868749 0.00053216649541934632 0 -0.045255837947564478 0.00015074906773800958 0 -0.042922982948963115 0.00041027039404477084 0 -0.045255837947564478 0.00015074906773800958 0 -0.042922982948963115 0.00041027039404477084 0 -0.043305314204076378 4.4377923529403679e-07 0 -0.042922982948963115 0.00041027039404477084 0 -0.043305314204076378 4.4377923529403679e-07 0 -0.040986442972036588 -2.5201345989016691e-05 0 -0.043305314204076378 4.4377923529403679e-07 0 -0.039556524733231888 -3.5347261744145766e-07 0 -0.040986442972036588 -2.5201345989016691e-05 0 -0.039556524733231888 -3.5347261744145766e-07 0 -0.040986442972036588 -2.5201345989016691e-05 0 -0.03841323806576534 -0.00030103261062809167 0 -0.039889355136861086 -0.00035452718552764174 0 -0.040986442972036588 -2.5201345989016691e-05 0 -0.03841323806576534 -0.00030103261062809167 0 -0.039889355136861086 -0.00035452718552764174 0 -0.03841323806576534 -0.00030103261062809167 0 -0.037043778041238262 -0.00075445295511792417 0 -0.039556524733231888 -3.5347261744145766e-07 0 -0.03841323806576534 -0.00030103261062809167 0 -0.03580693641949332 -9.0119487577973405e-07 0 -0.03580693641949332 -9.0119487577973405e-07 0 -0.037043778041238262 -0.00075445295511792417 0 -0.034822887246096668 -0.00042891530086111828 0 -0.03841323806576534 -0.00030103261062809167 0 -0.03580693641949332 -9.0119487577973405e-07 0 -0.037043778041238262 -0.00075445295511792417 0 -0.037043778041238262 -0.00075445295511792417 0 -0.034564004479625259 -0.0007718978425897675 0 -0.034822887246096668 -0.00042891530086111828 0 -0.032057281221820194 -1.2048241104115793e-06 0 -0.034564004479625259 -0.0007718978425897675 0 -0.034822887246096668 -0.00042891530086111828 0 -0.032057281221820194 -1.2048241104115793e-06 0 -0.03580693641949332 -9.0119487577973405e-07 0 -0.034822887246096668 -0.00042891530086111828 0 -0.035388046470742007 -0.0010031730196095861 0 -0.036214963952270612 -0.0012774475440334504 0 -0.037064695975278977 -0.0013634737442150032 0 -0.036214963952270612 -0.0012774475440334504 0 -0.037064695975278977 -0.0013634737442150032 0 -0.037507621682956557 -0.0016979626202833142 0 -0.035388046470742007 -0.0010031730196095861 0 -0.034564004479625259 -0.0007718978425897675 0 -0.037064695975278977 -0.0013634737442150032 0 -0.037043778041238262 -0.00075445295511792417 0 -0.034564004479625259 -0.0007718978425897675 0 -0.037064695975278977 -0.0013634737442150032 0 -0.037043778041238262 -0.00075445295511792417 0 -0.037064695975278977 -0.0013634737442150032 0 -0.038790486275772085 -0.0010048038131209558 0 -0.037064695975278977 -0.0013634737442150032 0 -0.038790486275772085 -0.0010048038131209558 0 -0.038155646105703246 -0.001349843444486371 0 -0.038790486275772085 -0.0010048038131209558 0 -0.039344429155333323 -0.00057959136763776297 0 -0.038155646105703246 -0.001349843444486371 0 -0.039889355136861086 -0.00035452718552764174 0 -0.037043778041238262 -0.00075445295511792417 0 -0.038790486275772085 -0.0010048038131209558 0 -0.042922982948963115 0.00041027039404477084 0 -0.039889355136861086 -0.00035452718552764174 0 -0.040826881281364961 -0.00010851914506212327 0 -0.039889355136861086 -0.00035452718552764174 0 -0.038790486275772085 -0.0010048038131209558 0 -0.040826881281364961 -0.00010851914506212327 0 -0.038790486275772085 -0.0010048038131209558 0 -0.040826881281364961 -0.00010851914506212327 0 -0.039344429155333323 -0.00057959136763776297 0 -0.039344429155333323 -0.00057959136763776297 0 -0.037960100863374369 -0.00044865849898870452 0 -0.038155646105703246 -0.001349843444486371 0 -0.051223466130204239 -0.0011060719951922048 0 -0.051123044169659966 -0.0010852525740245008 0 -0.051233909383582805 -0.001066813521517912 0 -0.051201620291222438 -0.0011496112741663069 0 -0.051223466130204239 -0.0011060719951922048 0 -0.051270944222360164 -0.0011210091755528677 0 -0.051201620291222438 -0.0011496112741663069 0 -0.051223466130204239 -0.0011060719951922048 0 -0.051123044169659966 -0.0010852525740245008 0 -0.051123044169659966 -0.0010852525740245008 0 -0.051216030594665167 -0.0010349461864575518 0 -0.051233909383582805 -0.001066813521517912 0 -0.045339183386770975 -0.000801817534088729 0 -0.044566322428661084 -0.0010505671102123103 0 -0.051123044169659966 -0.0010852525740245008 0 -0.051213189645297919 -0.00097231191049013089 0 -0.051216030594665167 -0.0010349461864575518 0 -0.037960100863374369 -0.00044865849898870452 0 -0.038155646105703246 -0.001349843444486371 0 -0.037415343130577816 -0.0014673959257223692 0 -0.037697630998491848 -0.001961620870788779 0 -0.037507621682956557 -0.0016979626202833142 0 -0.037415343130577816 -0.0014673959257223692 0 -0.037064695975278977 -0.0013634737442150032 0 -0.038155646105703246 -0.001349843444486371 0 -0.037507621682956557 -0.0016979626202833142 0 -0.038155646105703246 -0.001349843444486371 0 -0.037507621682956557 -0.0016979626202833142 0 -0.037415343130577816 -0.0014673959257223692 0 -0.037697630998491848 -0.001961620870788779 0 -0.036214963952270612 -0.0012774475440334504 0 -0.037507621682956557 -0.0016979626202833142 0 -0.037697630998491848 -0.001961620870788779 0 -0.037307196878051174 -0.0018705991457962116 0 -0.037415343130577816 -0.0014673959257223692 0 -0.044388221292019206 -0.00037914845074516021 0 -0.048269084719176014 -0.0011805025058273476 0 -0.05125829177897142 -0.00084052284990610178 0 -0.051308171016104805 -0.00093692824348347585 0 -0.051400254440497735 -0.00086263400726318044 0 -0.045960310421386597 -0.00012820439112883525 0 -0.043204080253433169 -0.0014670573176164253 0 -0.045876213282605917 -0.0022462243011971239 0 -0.041269086132985751 -0.00020189565724592644 0 -0.044388221292019206 -0.00037914845074516021 0 -0.051308171016104805 -0.00093692824348347585 0 -0.051213189645297919 -0.00097231191049013089 0 -0.051279033017807139 -0.0010018867483500068 0 -0.044388221292019206 -0.00037914845074516021 0 -0.044566322428661084 -0.0010505671102123103 0 -0.05125829177897142 -0.00084052284990610178 0 -0.051308171016104805 -0.00093692824348347585 0 -0.051213189645297919 -0.00097231191049013089 0 -0.051308171016104805 -0.00093692824348347585 0 -0.051358313134767429 -0.00099135748880933568 0 -0.051368886346154247 -0.00093635370818522998 0 -0.051308171016104805 -0.00093692824348347585 0 -0.051358313134767429 -0.00099135748880933568 0 -0.051279033017807139 -0.0010018867483500068 0 -0.051341228758228823 -0.0010364352769269651 0 -0.051279033017807139 -0.0010018867483500068 0 -0.051247959594251311 -0.0010579303177128397 0 -0.051358313134767429 -0.00099135748880933568 0 -0.051341228758228823 -0.0010364352769269651 0 -0.051279033017807139 -0.0010018867483500068 0 -0.051213189645297919 -0.00097231191049013089 0 -0.051279033017807139 -0.0010018867483500068 0 -0.051239676399474951 -0.0010240921345607236 0 -0.051279033017807139 -0.0010018867483500068 0 -0.051239676399474951 -0.0010240921345607236 0 -0.051247959594251311 -0.0010579303177128397 0 -0.051213189645297919 -0.00097231191049013089 0 -0.051239676399474951 -0.0010240921345607236 0 -0.051216030594665167 -0.0010349461864575518 0 -0.051239676399474951 -0.0010240921345607236 0 -0.051216030594665167 -0.0010349461864575518 0 -0.051242627538658811 -0.0010574202007718457 0 -0.051216030594665167 -0.0010349461864575518 0 -0.051233909383582805 -0.001066813521517912 0 -0.051242627538658811 -0.0010574202007718457 0 -0.051239676399474951 -0.0010240921345607236 0 -0.051242627538658811 -0.0010574202007718457 0 -0.051247959594251311 -0.0010579303177128397 0 -0.051928096378224091 -0.0011426657417174177 0 -0.05193108832796519 -0.0011428629262645947 0 -0.051895370191000711 -0.0011498036666973918 0 -0.05193108832796519 -0.0011428629262645947 0 -0.051233909383582805 -0.001066813521517912 0 -0.05128903720615164 -0.001051940231167966 0 -0.051278899626189249 -0.0010807993904986078 0 -0.051233909383582805 -0.001066813521517912 0 -0.051242627538658811 -0.0010574202007718457 0 -0.051246357988571939 -0.0010561891710408407 0 -0.05193108832796519 -0.0011428629262645947 0 -0.052203612913347089 -0.0011191780612170299 0 -0.05128903720615164 -0.001051940231167966 0 -0.051278899626189249 -0.0010807993904986078 0 -0.05136226444837181 -0.001056682976646815 0 -0.051869058644989238 -0.00082334671769327219 0 -0.051930108857189725 -0.00082633862053681337 0 -0.051630895724269273 -0.0011070486471831279 0 -0.051792899978876289 -0.0012553576300626231 0 -0.052203612913347089 -0.0011191780612170299 0 -0.052392099564777687 -0.0011142039977403108 0 -0.052064044843571529 -0.001240927428867695 0 -0.051278899626189249 -0.0010807993904986078 0 -0.051270944222360164 -0.0011210091755528677 0 -0.05136226444837181 -0.001056682976646815 0 -0.051529273681157804 -0.0010465416999920296 0 -0.051869058644989238 -0.00082334671769327219 0 -0.051630895724269273 -0.0011070486471831279 0 -0.051223466130204239 -0.0011060719951922048 0 -0.051233909383582805 -0.001066813521517912 0 -0.051278899626189249 -0.0010807993904986078 0 -0.051223466130204239 -0.0011060719951922048 0 -0.051278899626189249 -0.0010807993904986078 0 -0.051270944222360164 -0.0011210091755528677 0 -0.052132455450472001 -0.0011468634952718996 0 -0.05193108832796519 -0.0011428629262645947 0 -0.052135557331140135 -0.0011168817354143005 0 -0.052077397007368416 -0.001134024723938566 0 -0.05210743446192475 -0.0011358328095469664 0 -0.052392099564777687 -0.0011142039977403108 0 -0.054552772574565339 -0.0011330883220925854 0 -0.052131760035959269 -0.0006266968044204204 0 -0.052126481038934622 -0.00094691087998914777 0 -0.052640984249483991 -0.00065243848790358762 0 -0.053381003101548551 -0.0011153832224945661 0 -0.053280756482745682 -0.0012077562853328942 0 -0.053478685597808225 -0.0012190682390438832 0 -0.052132455450472001 -0.0011468634952718996 0 -0.052392099564777687 -0.0011142039977403108 0 -0.05212196954126358 -0.0011912297429473755 0 -0.052430165001027929 -0.00097369229480813706 0 -0.052352849989364514 -0.00097029183337442857 0 -0.052132455450472001 -0.0011468634952718996 0 -0.052203612913347089 -0.0011191780612170299 0 -0.052203612913347089 -0.0011191780612170299 0 -0.052392099564777687 -0.0011142039977403108 0 -0.052131760035959269 -0.0006266968044204204 0 -0.052126481038934622 -0.00094691087998914777 0 -0.051715128694943061 -0.0010143003708595751 0 -0.05381606268882215 -0.0011629813701315498 0 -0.054552772574565339 -0.0011330883220925854 0 -0.056745493315400249 -0.0017627341871611611 0 -0.05704845936359966 -0.0018973682908748318 0 -0.057043610964462345 -0.0015910456129611845 0 -0.05381606268882215 -0.0011629813701315498 0 -0.055221185571728441 -0.0017520985054550384 0 -0.056745493315400249 -0.0017627341871611611 0 -0.056937154283282998 -0.0023063867230674732 0 -0.05704845936359966 -0.0018973682908748318 0 -0.052047403803632618 -0.00097446635397637773 0 -0.052327357625127587 -0.0017427812719057923 0 -0.051712030783740606 -0.0016771986879432824 0 -0.052327357625127587 -0.0017427812719057923 0 -0.051712030783740606 -0.0016771986879432824 0 -0.051996612807658119 -0.0020606665188366907 0 -0.051712030783740606 -0.0016771986879432824 0 -0.051312256423042879 -0.0017122393856055867 0 -0.051405642170555377 -0.0020813050246265806 0 -0.051712030783740606 -0.0016771986879432824 0 -0.051332357588024874 -0.0013868092418660807 0 -0.051312256423042879 -0.0017122393856055867 0 -0.051712030783740606 -0.0016771986879432824 0 -0.05162924563807237 -0.001223261053617196 0 -0.051332357588024874 -0.0013868092418660807 0 -0.052047403803632618 -0.00097446635397637773 0 -0.051712030783740606 -0.0016771986879432824 0 -0.05162924563807237 -0.001223261053617196 0 -0.05381606268882215 -0.0011629813701315498 0 -0.053234859145010104 -0.0013754375580678198 0 -0.052126481038934622 -0.00094691087998914777 0 -0.051715128694943061 -0.0010143003708595751 0 -0.05162924563807237 -0.001223261053617196 0 -0.052064044843571529 -0.001240927428867695 0 -0.05191803650027884 -0.0013224771401764627 0 -0.051529273681157804 -0.0010465416999920296 0 -0.051630895724269273 -0.0011070486471831279 0 -0.051332357588024874 -0.0013868092418660807 0 -0.051715128694943061 -0.0010143003708595751 0 -0.05162924563807237 -0.001223261053617196 0 -0.051332357588024874 -0.0013868092418660807 0 -0.051529273681157804 -0.0010465416999920296 0 -0.051176362425468837 -0.0012835310304572069 0 -0.051332357588024874 -0.0013868092418660807 0 -0.051201620291222438 -0.0011496112741663069 0 -0.051270944222360164 -0.0011210091755528677 0 -0.051176362425468837 -0.0012835310304572069 0 -0.051123044169659966 -0.0010852525740245008 0 -0.051176362425468837 -0.0012835310304572069 0 -0.051077458992237458 -0.0015064669659764856 0 -0.051792899978876289 -0.0012553576300626231 0 -0.051644128035184429 -0.0013136705262894264 0 -0.051201620291222438 -0.0011496112741663069 0 -0.051123044169659966 -0.0010852525740245008 0 -0.051176362425468837 -0.0012835310304572069 0 -0.051176362425468837 -0.0012835310304572069 0 -0.051332357588024874 -0.0013868092418660807 0 -0.051077458992237458 -0.0015064669659764856 0 -0.037960100863374369 -0.00044865849898870452 0 -0.039073726384358305 0.0014535137426846807 0 -0.038968363527356879 0.0015169170135195585 0 -0.045339183386770975 -0.000801817534088729 0 -0.047379065634521232 0.00063663683655225281 0 -0.039344429155333323 -0.00057959136763776297 0 -0.037960100863374369 -0.00044865849898870452 0 -0.039073726384358305 0.0014535137426846807 0 -0.051123044169659966 -0.0010852525740245008 0 -0.050776733400078371 -0.0016483811037047587 0 -0.051077458992237458 -0.0015064669659764856 0 -0.044981904480544836 0.00068150675410571637 0 -0.047029418338353113 0.00084274350099040646 0 -0.047618338606299791 -0.00099605016619438232 0 -0.046673144911652559 -0.00043236207835396339 0 -0.047341283143138214 0.00089294278315842914 0 -0.047029418338353113 0.00084274350099040646 0 -0.047379065634521232 0.00063663683655225281 0 -0.054252968562187094 0.004665308313384766 0 -0.054161279615860161 0.0044776525477302816 0 -0.055059413170922722 0.003327154808911052 0 -0.047379065634521232 0.00063663683655225281 0 -0.047407586025453113 0.00084665070862136862 0 -0.047029418338353113 0.00084274350099040646 0 -0.047407586025453113 0.00084665070862136862 0 -0.050776733400078371 -0.0016483811037047587 0 -0.051312256423042879 -0.0017122393856055867 0 -0.051405642170555377 -0.0020813050246265806 0 -0.050776733400078371 -0.0016483811037047587 0 -0.051077458992237458 -0.0015064669659764856 0 -0.051312256423042879 -0.0017122393856055867 0 -0.047379065634521232 0.00063663683655225281 0 -0.052824512441627398 -0.00025693037905263482 0 -0.051332357588024874 -0.0013868092418660807 0 -0.051077458992237458 -0.0015064669659764856 0 -0.051312256423042879 -0.0017122393856055867 0 -0.054252968562187094 0.004665308313384766 0 -0.0565257847604793 0.0033330354471919053 0 -0.055059413170922722 0.003327154808911052 0 -0.0565257847604793 0.0033330354471919053 0 -0.055863935753247301 0.0022387770814893278 0 -0.05759094049619231 0.0019123528160698952 0 -0.0565257847604793 0.0033330354471919053 0 -0.055059413170922722 0.003327154808911052 0 -0.055863935753247301 0.0022387770814893278 0 -0.047771437932210087 0.0010793600681538082 0 -0.04886998592903239 0.0034138011960645216 0 -0.050457414662423795 0.0004490387245569971 0 -0.054161279615860161 0.0044776525477302816 0 -0.055059413170922722 0.003327154808911052 0 -0.054543950777742503 0.0019159848952504462 0 -0.047407586025453113 0.00084665070862136862 0 -0.050275242075889362 0.00030835367041833378 0 -0.055059413170922722 0.003327154808911052 0 -0.054543950777742503 0.0019159848952504462 0 -0.055863935753247301 0.0022387770814893278 0 -0.054543950777742503 0.0019159848952504462 0 -0.055863935753247301 0.0022387770814893278 0 -0.056146515906789887 0.00082712391181877047 0 -0.055863935753247301 0.0022387770814893278 0 -0.05759094049619231 0.0019123528160698952 0 -0.056146515906789887 0.00082712391181877047 0 -0.05759094049619231 0.0019123528160698952 0 -0.058231336895931615 0.00038894665204004548 0 -0.056146515906789887 0.00082712391181877047 0 -0.0565257847604793 0.0033330354471919053 0 -0.05759094049619231 0.0019123528160698952 0 -0.05887853221239972 0.0018762354303154577 0 -0.058731110241948895 0.0017074986056173675 0 -0.059367361394376206 0.00054323750119822096 0 -0.058231336895931615 0.00038894665204004548 0 -0.058731110241948895 0.0017074986056173675 0 -0.060075126411866908 0.0015566232242576301 0 -0.059367361394376206 0.00054323750119822096 0 -0.05759094049619231 0.0019123528160698952 0 -0.058731110241948895 0.0017074986056173675 0 -0.058231336895931615 0.00038894665204004548 0 -0.055698235386266115 -0.0007291769372516785 0 -0.056975317949795622 -0.0018839256012218341 0 -0.056214938467766713 -0.00056073028742911215 0 -0.055698235386266115 -0.0007291769372516785 0 -0.052327357625127587 -0.0017427812719057923 0 -0.051996612807658119 -0.0020606665188366907 0 -0.052621555281599869 -0.0025214741396850666 0 -0.052115985333783019 -0.0025103391612939967 0 -0.051996612807658119 -0.0020606665188366907 0 -0.052621555281599869 -0.0025214741396850666 0 -0.051712030783740606 -0.0016771986879432824 0 -0.051405642170555377 -0.0020813050246265806 0 -0.051996612807658119 -0.0020606665188366907 0 -0.052824512441627398 -0.00025693037905263482 0 -0.055698235386266115 -0.0007291769372516785 0 -0.051405642170555377 -0.0020813050246265806 0 -0.052115985333783019 -0.0025103391612939967 0 -0.051996612807658119 -0.0020606665188366907 0 -0.057362650551492943 -0.0024985749035626977 0 -0.057127843752478952 -0.0028742140281927068 0 -0.057582852321426951 -0.0028988529555220473 0 -0.057362650551492943 -0.0024985749035626977 0 -0.057582852321426951 -0.0028988529555220473 0 -0.057673025812569036 -0.0025194568659363172 0 -0.056937154283282998 -0.0023063867230674732 0 -0.057362650551492943 -0.0024985749035626977 0 -0.057127843752478952 -0.0028742140281927068 0 -0.055221185571728441 -0.0017520985054550384 0 -0.056975317949795622 -0.0018839256012218341 0 -0.056975317949795622 -0.0018839256012218341 0 -0.058399011517994891 -0.0023647573409946695 0 -0.060906755890962651 -0.0031204743723406512 0 -0.060279184372042216 -0.0031079285261009213 0 -0.060707087098185203 -0.0025165479436333989 0 -0.058399011517994891 -0.0023647573409946695 0 -0.058745858002212797 -0.0025785618059521102 0 -0.057582852321426951 -0.0028988529555220473 0 -0.058087283405383605 -0.0029280590142078482 0 -0.057673025812569036 -0.0025194568659363172 0 -0.060279184372042216 -0.0031079285261009213 0 -0.059613007643097356 -0.0030624589249327221 0 -0.059771251920195827 -0.002635716980761614 0 -0.059613007643097356 -0.0030624589249327221 0 -0.058839059205549327 -0.0028574614379618161 0 -0.059339565135953454 -0.0025867302411365111 0 -0.058745858002212797 -0.0025785618059521102 0 -0.058810679354270083 -0.0026327633854971778 0 -0.058087283405383605 -0.0029280590142078482 0 -0.058021856746084823 -0.0023841605633367255 0 -0.058440822191891777 -0.0025812282132765983 0 -0.058087283405383605 -0.0029280590142078482 0 -0.057673025812569036 -0.0025194568659363172 0 -0.058021856746084823 -0.0023841605633367255 0 -0.057673025812569036 -0.0025194568659363172 0 -0.057630379822370001 -0.0021548727809185238 0 -0.058021856746084823 -0.0023841605633367255 0 -0.057630379822370001 -0.0021548727809185238 0 -0.058021856746084823 -0.0023841605633367255 0 -0.057993328811921124 -0.0019602849885678232 0 -0.058021856746084823 -0.0023841605633367255 0 -0.058331810992499213 -0.0022818347572318327 0 -0.058440822191891777 -0.0025812282132765983 0 -0.058021856746084823 -0.0023841605633367255 0 -0.057993328811921124 -0.0019602849885678232 0 -0.058331810992499213 -0.0022818347572318327 0 -0.057993328811921124 -0.0019602849885678232 0 -0.057688330784994066 -0.0018515211117220002 0 -0.057860663092058437 -0.0016788579776429336 0 -0.057630379822370001 -0.0021548727809185238 0 -0.057993328811921124 -0.0019602849885678232 0 -0.057688330784994066 -0.0018515211117220002 0 -0.057630379822370001 -0.0021548727809185238 0 -0.057688330784994066 -0.0018515211117220002 0 -0.057460252971699079 -0.0018759367566225898 0 -0.057630379822370001 -0.0021548727809185238 0 -0.057460252971699079 -0.0018759367566225898 0 -0.057264401530354912 -0.0020398895375624035 0 -0.057460252971699079 -0.0018759367566225898 0 -0.057264401530354912 -0.0020398895375624035 0 -0.057248621687329596 -0.0017891471620992885 0 -0.057362650551492943 -0.0024985749035626977 0 -0.057673025812569036 -0.0025194568659363172 0 -0.057630379822370001 -0.0021548727809185238 0 -0.057362650551492943 -0.0024985749035626977 0 -0.057630379822370001 -0.0021548727809185238 0 -0.057264401530354912 -0.0020398895375624035 0 -0.056937154283282998 -0.0023063867230674732 0 -0.057362650551492943 -0.0024985749035626977 0 -0.057264401530354912 -0.0020398895375624035 0 -0.056937154283282998 -0.0023063867230674732 0 -0.057264401530354912 -0.0020398895375624035 0 -0.05704845936359966 -0.0018973682908748318 0 -0.057264401530354912 -0.0020398895375624035 0 -0.05704845936359966 -0.0018973682908748318 0 -0.057248621687329596 -0.0017891471620992885 0 -0.054552772574565339 -0.0011330883220925854 0 -0.056782350695937372 -0.0013966492903423713 0 -0.05704845936359966 -0.0018973682908748318 0 -0.057248621687329596 -0.0017891471620992885 0 -0.057043610964462345 -0.0015910456129611845 0 -0.057248621687329596 -0.0017891471620992885 0 -0.057043610964462345 -0.0015910456129611845 0 -0.057473721705713833 -0.0016244089756325987 0 -0.057456860039587519 -0.0016620394938592147 0 -0.057671246800728437 -0.0016710063796002077 0 -0.057642534078779846 -0.0015665043140023463 0 -0.057688330784994066 -0.0018515211117220002 0 -0.057460252971699079 -0.0018759367566225898 0 -0.057473721705713833 -0.0016244089756325987 0 -0.057460252971699079 -0.0018759367566225898 0 -0.057248621687329596 -0.0017891471620992885 0 -0.057473721705713833 -0.0016244089756325987 0 -0.053723092576371839 -0.0010814582863707353 0 -0.053681150280218567 -0.0010276319330377558 0 -0.053967571764816917 -0.00094723443598984116 0 -0.052858350169353321 -0.0011839630675690106 0 -0.053998568222469893 -0.0011739727932774068 0 -0.051505596868274627 -0.0010582668351526384 0 -0.051624794734005719 -0.00097771789564626843 0 -0.051690178429927833 -0.0010152718322716289 0 -0.054807690551492455 -0.00099825178474855988 0 -0.053998568222469893 -0.0011739727932774068 0 -0.057671246800728437 -0.0016710063796002077 0 -0.057642534078779846 -0.0015665043140023463 0 -0.057761739869974453 -0.0015961423436617334 0 -0.051505596868274627 -0.0010582668351526384 0 -0.051455264544788888 -0.0010406237159336631 0 -0.051553416365706206 -0.00096651047499599074 0 -0.051360565267176167 -0.0010982903512971659 0 -0.051505596868274627 -0.0010582668351526384 0 -0.051455264544788888 -0.0010406237159336631 0 -0.052132455450472001 -0.0011468634952718996 0 -0.052858350169353321 -0.0011839630675690106 0 -0.054552772574565339 -0.0011330883220925854 0 -0.054807690551492455 -0.00099825178474855988 0 -0.053381003101548551 -0.0011153832224945661 0 -0.053478685597808225 -0.0012190682390438832 0 -0.053681150280218567 -0.0010276319330377558 0 -0.053478685597808225 -0.0012190682390438832 0 -0.053723092576371839 -0.0010814582863707353 0 -0.053681150280218567 -0.0010276319330377558 0 -0.052132455450472001 -0.0011468634952718996 0 -0.051820774702783304 -0.0012035545720226236 0 -0.051358313134767429 -0.00099135748880933568 0 -0.051417228758239106 -0.00098648878418752047 0 -0.051386932816653123 -0.00096767232203822534 0 -0.052132455450472001 -0.0011468634952718996 0 -0.051848357106790824 -0.0011853121419151168 0 -0.051358313134767429 -0.00099135748880933568 0 -0.051341228758228823 -0.0010364352769269651 0 -0.051417228758239106 -0.00098648878418752047 0 -0.051371792026049176 -0.0010903407257826811 0 -0.051454870918278557 -0.0010323863417323902 0 -0.051444529888896466 -0.0010123529971549378 0 -0.051358313134767429 -0.00099135748880933568 0 -0.051386932816653123 -0.00096767232203822534 0 -0.051368886346154247 -0.00093635370818522998 0 -0.051403203964564707 -0.0009555542735612784 0 -0.051368886346154247 -0.00093635370818522998 0 -0.051443861695357147 -0.00092439695598781166 0 -0.051308171016104805 -0.00093692824348347585 0 -0.051368886346154247 -0.00093635370818522998 0 -0.051400254440497735 -0.00086263400726318044 0 -0.051417228758239106 -0.00098648878418752047 0 -0.051386932816653123 -0.00096767232203822534 0 -0.051403203964564707 -0.0009555542735612784 0 -0.051386932816653123 -0.00096767232203822534 0 -0.051403203964564707 -0.0009555542735612784 0 -0.051368886346154247 -0.00093635370818522998 0 -0.051368886346154247 -0.00093635370818522998 0 -0.051443861695357147 -0.00092439695598781166 0 -0.051400254440497735 -0.00086263400726318044 0 -0.051443861695357147 -0.00092439695598781166 0 -0.051532659677338319 -0.00091314097153945089 0 -0.051400254440497735 -0.00086263400726318044 0 -0.051417228758239106 -0.00098648878418752047 0 -0.051443861695357147 -0.00092439695598781166 0 -0.051532659677338319 -0.00091314097153945089 0 -0.051417228758239106 -0.00098648878418752047 0 -0.051403203964564707 -0.0009555542735612784 0 -0.051443861695357147 -0.00092439695598781166 0 -0.051454870918278557 -0.0010323863417323902 0 -0.051444529888896466 -0.0010123529971549378 0 -0.051553416365706206 -0.00096651047499599074 0 -0.051848357106790824 -0.0011853121419151168 0 -0.051792676248485006 -0.0011680971985786157 0 -0.051820774702783304 -0.0012035545720226236 0 -0.051765209670455836 -0.0011985330642607839 0 -0.051532659677338319 -0.00091314097153945089 0 -0.051400254440497735 -0.00086263400726318044 0 -0.051613490477507018 -0.00090498483154188261 0 -0.051444529888896466 -0.0010123529971549378 0 -0.051553416365706206 -0.00096651047499599074 0 -0.051532659677338319 -0.00091314097153945089 0 -0.051505596868274627 -0.0010582668351526384 0 -0.051553416365706206 -0.00096651047499599074 0 -0.051624794734005719 -0.00097771789564626843 0 -0.051553416365706206 -0.00096651047499599074 0 -0.051613490477507018 -0.00090498483154188261 0 -0.051624794734005719 -0.00097771789564626843 0 -0.051553416365706206 -0.00096651047499599074 0 -0.051532659677338319 -0.00091314097153945089 0 -0.051613490477507018 -0.00090498483154188261 0 -0.048269084719176014 -0.0011805025058273476 0 -0.050665374992165425 -0.0014267557075985263 0 -0.047832435874065639 -0.0003245086909633023 0 -0.045876213282605917 -0.0022462243011971239 0 -0.048842666863553041 -0.0030812639847402202 0 -0.045960310421386597 -0.00012820439112883525 0 -0.047832435874065639 -0.0003245086909633023 0 -0.045876213282605917 -0.0022462243011971239 0 -0.05056309626853564 -0.00012385254555458283 0 -0.051487844916870029 -0.0019369819085069137 0 -0.053307728137883093 -0.00058485025767702299 0 -0.051487844916870029 -0.0019369819085069137 0 -0.053307728137883093 -0.00058485025767702299 0 -0.053482987250737607 -0.0020430134413864398 0 -0.05056309626853564 -0.00012385254555458283 0 -0.051487844916870029 -0.0019369819085069137 0 -0.048842666863553041 -0.0030812639847402202 0 -0.05056309626853564 -0.00012385254555458283 0 -0.047832435874065639 -0.0003245086909633023 0 -0.048842666863553041 -0.0030812639847402202 0 -0.051487844916870029 -0.0019369819085069137 0 -0.048842666863553041 -0.0030812639847402202 0 -0.05234613104676894 -0.0040758849853336299 0 -0.050665374992165425 -0.0014267557075985263 0 -0.05380895247363561 -0.0014860064697791036 0 -0.051613490477507018 -0.00090498483154188261 0 -0.051733139856121456 -0.00099431334416575116 0 -0.051858306769069905 -0.00096855855215631384 0 -0.051613490477507018 -0.00090498483154188261 0 -0.051624794734005719 -0.00097771789564626843 0 -0.051733139856121456 -0.00099431334416575116 0 -0.051624794734005719 -0.00097771789564626843 0 -0.051690178429927833 -0.0010152718322716289 0 -0.051733139856121456 -0.00099431334416575116 0 -0.053998568222469893 -0.0011739727932774068 0 -0.053932244359371072 -0.0011987487480698774 0 -0.051691599144667158 -0.0010183634324867836 0 -0.051733139856121456 -0.00099431334416575116 0 -0.051858306769069905 -0.00096855855215631384 0 -0.053998568222469893 -0.0011739727932774068 0 -0.05380895247363561 -0.0014860064697791036 0 -0.051487844916870029 -0.0019369819085069137 0 -0.05234613104676894 -0.0040758849853336299 0 -0.053482987250737607 -0.0020430134413864398 0 -0.05794930862668881 -0.0015953006588104819 0 -0.057936722609808741 -0.0015755599181249216 0 -0.057888862940619477 -0.0015256686629341975 0 -0.053861713336982614 -0.0014968154297399028 0 -0.05380895247363561 -0.0014860064697791036 0 -0.057811344741387057 -0.0015118035768800951 0 -0.057936722609808741 -0.0015755599181249216 0 -0.057878572018942628 -0.0015540692762067224 0 -0.057936722609808741 -0.0015755599181249216 0 -0.057888862940619477 -0.0015256686629341975 0 -0.057878572018942628 -0.0015540692762067224 0 -0.057888862940619477 -0.0015256686629341975 0 -0.057878572018942628 -0.0015540692762067224 0 -0.057926782509280579 -0.0015709082954817309 0 -0.057878572018942628 -0.0015540692762067224 0 -0.057926782509280579 -0.0015709082954817309 0 -0.057828514332895313 -0.0016642011815109043 0 -0.057642534078779846 -0.0015665043140023463 0 -0.057811344741387057 -0.0015118035768800951 0 -0.057761739869974453 -0.0015961423436617334 0 -0.057811344741387057 -0.0015118035768800951 0 -0.057878572018942628 -0.0015540692762067224 0 -0.057761739869974453 -0.0015961423436617334 0 -0.057878572018942628 -0.0015540692762067224 0 -0.057761739869974453 -0.0015961423436617334 0 -0.057828514332895313 -0.0016642011815109043 0 -0.057671246800728437 -0.0016710063796002077 0 -0.057761739869974453 -0.0015961423436617334 0 -0.057828514332895313 -0.0016642011815109043 0 -0.057688330784994066 -0.0018515211117220002 0 -0.057473721705713833 -0.0016244089756325987 0 -0.057860663092058437 -0.0016788579776429336 0 -0.056782350695937372 -0.0013966492903423713 0 -0.057546209441388642 -0.001510648116093336 0 -0.057926782509280579 -0.0015709082954817309 0 -0.057828514332895313 -0.0016642011815109043 0 -0.058064987414041827 -0.0016817314014883203 0 -0.057993328811921124 -0.0019602849885678232 0 -0.057860663092058437 -0.0016788579776429336 0 -0.058064987414041827 -0.0016817314014883203 0 -0.057546209441388642 -0.001510648116093336 0 -0.057765995967985095 -0.0015442999112146396 0 -0.058064987414041827 -0.0016817314014883203 0 -0.058137729611497803 -0.0016074495718919339 0 -0.058482731917697789 -0.0019510389443346096 0 -0.058064987414041827 -0.0016817314014883203 0 -0.058137729611497803 -0.0016074495718919339 0 -0.057887018716065788 -0.0015309003663570454 0 -0.058137729611497803 -0.0016074495718919339 0 -0.058591104904448459 -0.0015942509250160073 0 -0.058482731917697789 -0.0019510389443346096 0 -0.058137729611497803 -0.0016074495718919339 0 -0.057691724604229423 -0.0015140196504355883 0 -0.058591104904448459 -0.0015942509250160073 0 -0.058137729611497803 -0.0016074495718919339 0 -0.057691724604229423 -0.0015140196504355883 0 -0.057887018716065788 -0.0015309003663570454 0 -0.057926782509280579 -0.0015709082954817309 0 -0.058064987414041827 -0.0016817314014883203 0 -0.057887018716065788 -0.0015309003663570454 0 -0.057888862940619477 -0.0015256686629341975 0 -0.057926782509280579 -0.0015709082954817309 0 -0.057887018716065788 -0.0015309003663570454 0 -0.057691724604229423 -0.0015140196504355883 0 -0.057887018716065788 -0.0015309003663570454 0 -0.05763360803182959 -0.0015090209666377811 0 -0.057888862940619477 -0.0015256686629341975 0 -0.057887018716065788 -0.0015309003663570454 0 -0.05763360803182959 -0.0015090209666377811 0 -0.05794930862668881 -0.0015953006588104819 0 -0.057888862940619477 -0.0015256686629341975 0 -0.05763360803182959 -0.0015090209666377811 0 -0.05794930862668881 -0.0015953006588104819 0 -0.05763360803182959 -0.0015090209666377811 0 -0.056886015442273681 -0.0017026991298599535 0 -0.05380895247363561 -0.0014860064697791036 0 -0.055213109273309954 -0.0013853411525811691 0 -0.05234613104676894 -0.0040758849853336299 0 -0.056886015442273681 -0.0017026991298599535 0 -0.053482987250737607 -0.0020430134413864398 0 -0.05794930862668881 -0.0015953006588104819 0 -0.058076741237494546 -0.0016526240416354595 0 -0.056886015442273681 -0.0017026991298599535 0 -0.057691724604229423 -0.0015140196504355883 0 -0.056886015442273681 -0.0017026991298599535 0 -0.05772171022867887 -0.00096810261555117241 0 -0.057691724604229423 -0.0015140196504355883 0 -0.05763360803182959 -0.0015090209666377811 0 -0.056886015442273681 -0.0017026991298599535 0 -0.055869240363075147 0.00020270402767091119 0 -0.056886015442273681 -0.0017026991298599535 0 -0.05772171022867887 -0.00096810261555117241 0 -0.057681276207451934 0.00014817901772375082 0 -0.055869240363075147 0.00020270402767091119 0 -0.05772171022867887 -0.00096810261555117241 0 -0.056886015442273681 -0.0017026991298599535 0 -0.053307728137883093 -0.00058485025767702299 0 -0.053482987250737607 -0.0020430134413864398 0 -0.055869240363075147 0.00020270402767091119 0 -0.056886015442273681 -0.0017026991298599535 0 -0.053307728137883093 -0.00058485025767702299 0 -0.059402278592056969 7.0163728359374631e-06 0 -0.058480710877890411 -0.00025096888289738472 0 -0.058772279162400992 -0.00092710648192529819 0 -0.058604216703706254 0.00078808833261318043 0 -0.059402278592056969 7.0163728359374631e-06 0 -0.058480710877890411 -0.00025096888289738472 0 -0.058480710877890411 -0.00025096888289738472 0 -0.05772171022867887 -0.00096810261555117241 0 -0.058772279162400992 -0.00092710648192529819 0 -0.057681276207451934 0.00014817901772375082 0 -0.058480710877890411 -0.00025096888289738472 0 -0.05772171022867887 -0.00096810261555117241 0 -0.057691724604229423 -0.0015140196504355883 0 -0.05772171022867887 -0.00096810261555117241 0 -0.058772279162400992 -0.00092710648192529819 0 -0.059402278592056969 7.0163728359374631e-06 0 -0.058772279162400992 -0.00092710648192529819 0 -0.059942290438213787 -0.00070117365339884483 0 -0.058772279162400992 -0.00092710648192529819 0 -0.059616887708395017 -0.0013900119319934241 0 -0.059942290438213787 -0.00070117365339884483 0 -0.058772279162400992 -0.00092710648192529819 0 -0.058591104904448459 -0.0015942509250160073 0 -0.059616887708395017 -0.0013900119319934241 0 -0.057691724604229423 -0.0015140196504355883 0 -0.058772279162400992 -0.00092710648192529819 0 -0.058591104904448459 -0.0015942509250160073 0 -0.058591104904448459 -0.0015942509250160073 0 -0.059616887708395017 -0.0013900119319934241 0 -0.059404927987770563 -0.0020020352531371485 0 -0.059616887708395017 -0.0013900119319934241 0 -0.059404927987770563 -0.0020020352531371485 0 -0.060566665648144245 -0.0018868221827624788 0 -0.060533961904604805 -0.0023259957596711059 0 -0.060566665648144245 -0.0018868221827624788 0 -0.061126078390843344 -0.0022494129024493831 0 -0.059404927987770563 -0.0020020352531371485 0 -0.060533961904604805 -0.0023259957596711059 0 -0.060566665648144245 -0.0018868221827624788 0 -0.059404927987770563 -0.0020020352531371485 0 -0.058785837732068462 -0.0025435531555754744 0 -0.059154295974726365 -0.0025666751736999499 0 -0.05992424585997045 -0.0018765544037343492 0 -0.060071538487686926 -0.0020490351599398858 0 -0.058591104904448459 -0.0015942509250160073 0 -0.059404927987770563 -0.0020020352531371485 0 -0.058482731917697789 -0.0019510389443346096 0 -0.057993328811921124 -0.0019602849885678232 0 -0.058064987414041827 -0.0016817314014883203 0 -0.058482731917697789 -0.0019510389443346096 0 -0.057993328811921124 -0.0019602849885678232 0 -0.058482731917697789 -0.0019510389443346096 0 -0.058331810992499213 -0.0022818347572318327 0 -0.058482731917697789 -0.0019510389443346096 0 -0.058331810992499213 -0.0022818347572318327 0 -0.058785837732068462 -0.0025435531555754744 0 -0.059404927987770563 -0.0020020352531371485 0 -0.058482731917697789 -0.0019510389443346096 0 -0.058785837732068462 -0.0025435531555754744 0 -0.058785837732068462 -0.0025435531555754744 0 -0.058440822191891777 -0.0025812282132765983 0 -0.058839059205549327 -0.0028574614379618161 0 -0.058331810992499213 -0.0022818347572318327 0 -0.058785837732068462 -0.0025435531555754744 0 -0.058440822191891777 -0.0025812282132765983 0 -0.058087283405383605 -0.0029280590142078482 0 -0.058440822191891777 -0.0025812282132765983 0 -0.058839059205549327 -0.0028574614379618161 0 -0.058839059205549327 -0.0028574614379618161 0 -0.058905578912417093 -0.0027354176766361277 0 -0.059033587313443756 -0.0025991739788339312 0 -0.058785837732068462 -0.0025435531555754744 0 -0.058839059205549327 -0.0028574614379618161 0 -0.058905578912417093 -0.0027354176766361277 0 -0.058905578912417093 -0.0027354176766361277 0 -0.058883832840995014 -0.0026802697240461957 0 -0.059154295974726365 -0.0025666751736999499 0 -0.06038941829317717 -0.0021488888606616542 0 -0.060071538487686926 -0.0020490351599398858 0 -0.061436888475919105 -0.0025359887120932024 0 -0.060533961904604805 -0.0023259957596711059 0 -0.061126078390843344 -0.0022494129024493831 0 -0.058785837732068462 -0.0025435531555754744 0 -0.058905578912417093 -0.0027354176766361277 0 -0.059154295974726365 -0.0025666751736999499 0 -0.058895898509599656 -0.002324310631026756 0 -0.05865443157858409 -0.0023774788775482543 0 -0.058876991030417825 -0.0025478321599354463 0 -0.058895898509599656 -0.002324310631026756 0 -0.058876991030417825 -0.0025478321599354463 0 -0.058985623511826325 -0.0024678918512087466 0 -0.06038941829317717 -0.0021488888606616542 0 -0.060831157957322655 -0.0019049804085308254 0 -0.058883832840995014 -0.0026802697240461957 0 -0.05865443157858409 -0.0023774788775482543 0 -0.058876991030417825 -0.0025478321599354463 0 -0.061436888475919105 -0.0025359887120932024 0 -0.062378854519419519 -0.0023846716898364871 0 -0.062000181013571937 -0.0025050380094651975 0 -0.058905578912417093 -0.0027354176766361277 0 -0.058883832840995014 -0.0026802697240461957 0 -0.058876991030417825 -0.0025478321599354463 0 -0.058905578912417093 -0.0027354176766361277 0 -0.058876991030417825 -0.0025478321599354463 0 -0.058985623511826325 -0.0024678918512087466 0 -0.058905578912417093 -0.0027354176766361277 0 -0.059033587313443756 -0.0025991739788339312 0 -0.058985623511826325 -0.0024678918512087466 0 -0.059033587313443756 -0.0025991739788339312 0 -0.059275611465820922 -0.0022473593887658832 0 -0.059339565135953454 -0.0025867302411365111 0 -0.058839059205549327 -0.0028574614379618161 0 -0.059033587313443756 -0.0025991739788339312 0 -0.059339565135953454 -0.0025867302411365111 0 -0.059033587313443756 -0.0025991739788339312 0 -0.059275611465820922 -0.0022473593887658832 0 -0.058985623511826325 -0.0024678918512087466 0 -0.059275611465820922 -0.0022473593887658832 0 -0.058985623511826325 -0.0024678918512087466 0 -0.05907253130759603 -0.002191701477364188 0 -0.058895898509599656 -0.002324310631026756 0 -0.058985623511826325 -0.0024678918512087466 0 -0.05907253130759603 -0.002191701477364188 0 -0.05907253130759603 -0.002191701477364188 0 -0.059181897495303878 -0.0019639507556444623 0 -0.058886971943460382 -0.0020825858160137198 0 -0.059538000363841631 -0.0020582025693126767 0 -0.059263275072488478 -0.0020787474105363403 0 -0.059181897495303878 -0.0019639507556444623 0 -0.059406720728055869 -0.002034262853628913 0 -0.059654273072120199 -0.0018401775731962944 0 -0.059275611465820922 -0.0022473593887658832 0 -0.059237221454349717 -0.0021055262193800071 0 -0.059406720728055869 -0.002034262853628913 0 -0.05907253130759603 -0.002191701477364188 0 -0.059237221454349717 -0.0021055262193800071 0 -0.059181897495303878 -0.0019639507556444623 0 -0.059275611465820922 -0.0022473593887658832 0 -0.05907253130759603 -0.002191701477364188 0 -0.059237221454349717 -0.0021055262193800071 0 -0.059237221454349717 -0.0021055262193800071 0 -0.059181897495303878 -0.0019639507556444623 0 -0.059406720728055869 -0.002034262853628913 0 -0.059538000363841631 -0.0020582025693126767 0 -0.06007458819838931 -0.0020421416336263744 0 -0.059596942166009033 -0.0020669740775283892 0 -0.059646740760922613 -0.0017957685430263306 0 -0.060074154241825752 -0.0017311551661466119 0 -0.062003972615266578 -0.0013814373157153828 0 -0.062522610442591331 -0.00092392210625140316 0 -0.059646740760922613 -0.0017957685430263306 0 -0.059962521030649689 -0.001320061395675792 0 -0.060074154241825752 -0.0017311551661466119 0 -0.059596942166009033 -0.0020669740775283892 0 -0.059216971468546549 -0.0018499348051560249 0 -0.058886971943460382 -0.0020825858160137198 0 -0.059646740760922613 -0.0017957685430263306 0 -0.059216971468546549 -0.0018499348051560249 0 -0.059108420000296751 -0.0013498115633239773 0 -0.059596942166009033 -0.0020669740775283892 0 -0.059646740760922613 -0.0017957685430263306 0 -0.059216971468546549 -0.0018499348051560249 0 -0.058827511937530746 -0.0016849663829590828 0 -0.058886971943460382 -0.0020825858160137198 0 -0.058520309204164296 -0.0018741153668633567 0 -0.059216971468546549 -0.0018499348051560249 0 -0.058827511937530746 -0.0016849663829590828 0 -0.059108420000296751 -0.0013498115633239773 0 -0.059216971468546549 -0.0018499348051560249 0 -0.058827511937530746 -0.0016849663829590828 0 -0.058886971943460382 -0.0020825858160137198 0 -0.058895898509599656 -0.002324310631026756 0 -0.05907253130759603 -0.002191701477364188 0 -0.058886971943460382 -0.0020825858160137198 0 -0.058895898509599656 -0.002324310631026756 0 -0.05865443157858409 -0.0023774788775482543 0 -0.058886971943460382 -0.0020825858160137198 0 -0.060831157957322655 -0.0019049804085308254 0 -0.061456396191331898 -0.0014229417183143623 0 -0.05865443157858409 -0.0023774788775482543 0 -0.058886971943460382 -0.0020825858160137198 0 -0.058520309204164296 -0.0018741153668633567 0 -0.062378854519419519 -0.0023846716898364871 0 -0.063409814506207696 -0.0012993807793587186 0 -0.062561974816308458 -0.00198565025735977 0 -0.061456396191331898 -0.0014229417183143623 0 -0.062463980620220683 -0.0012769825071566013 0 -0.063409814506207696 -0.0012993807793587186 0 -0.063944484440326313 -0.0005494096812416557 0 -0.063707995358110558 -0.00073853553130472939 0 -0.058827511937530746 -0.0016849663829590828 0 -0.058520309204164296 -0.0018741153668633567 0 -0.058428413572318601 -0.0012501311140699091 0 -0.062156304174017823 -0.00095578637126880663 0 -0.062463980620220683 -0.0012769825071566013 0 -0.058827511937530746 -0.0016849663829590828 0 -0.059108420000296751 -0.0013498115633239773 0 -0.058428413572318601 -0.0012501311140699091 0 -0.064975321044995552 -9.724199607950745e-05 0 -0.064955045994813693 -8.5722465581908466e-05 0 -0.064981188425976055 -6.1157616117414205e-05 0 -0.064975321044995552 -9.724199607950745e-05 0 -0.064946173734274026 -9.8532923399953287e-05 0 -0.064955045994813693 -8.5722465581908466e-05 0 -0.064946173734274026 -9.8532923399953287e-05 0 -0.064955045994813693 -8.5722465581908466e-05 0 -0.064922458263499822 -9.3226141626024932e-05 0 -0.062463980620220683 -0.0012769825071566013 0 -0.063074079276057959 -0.00061571864088878065 0 -0.064955045994813693 -8.5722465581908466e-05 0 -0.064971097037310965 -6.0621970260080675e-05 0 -0.064922458263499822 -9.3226141626024932e-05 0 -0.064955045994813693 -8.5722465581908466e-05 0 -0.064971097037310965 -6.0621970260080675e-05 0 -0.064981188425976055 -6.1157616117414205e-05 0 -0.064971097037310965 -6.0621970260080675e-05 0 -0.064981188425976055 -6.1157616117414205e-05 0 -0.064991465580966398 -2.9025293588399838e-05 0 -0.064991465580966398 -2.9025293588399838e-05 0 -0.064999996522177181 -3.8341985707444616e-08 0 -0.064999994923700122 -3.1021065089565186e-08 0 -0.064971097037310965 -6.0621970260080675e-05 0 -0.064999996522177181 -3.8341985707444616e-08 0 -0.064922458263499822 -9.3226141626024932e-05 0 -0.064971097037310965 -6.0621970260080675e-05 0 -0.064991465580966398 -2.9025293588399838e-05 0 -0.064999996522177181 -3.8341985707444616e-08 0 -0.065002766273339396 -3.7691037455619746e-06 0 -0.064999994923700122 -3.1021065089565186e-08 0 -0.065000016870634281 -4.370326611090091e-09 0 -0.065014169290196086 -3.0921173420446654e-05 0 -0.065002766273339396 -3.7691037455619746e-06 0 -0.065000246013164328 -2.9026110559637938e-05 0 -0.065014169290196086 -3.0921173420446654e-05 0 -0.065002766273339396 -3.7691037455619746e-06 0 -0.065034812623876448 -2.4671144757860502e-05 0 -0.064991465580966398 -2.9025293588399838e-05 0 -0.064999994923700122 -3.1021065089565186e-08 0 -0.065000246013164328 -2.9026110559637938e-05 0 -0.065002766273339396 -3.7691037455619746e-06 0 -0.064999994923700122 -3.1021065089565186e-08 0 -0.065000246013164328 -2.9026110559637938e-05 0 -0.064981188425976055 -6.1157616117414205e-05 0 -0.064991465580966398 -2.9025293588399838e-05 0 -0.065000246013164328 -2.9026110559637938e-05 0 -0.064981188425976055 -6.1157616117414205e-05 0 -0.065000246013164328 -2.9026110559637938e-05 0 -0.064993177871376179 -6.5088687294580363e-05 0 -0.065000246013164328 -2.9026110559637938e-05 0 -0.06501124681797657 -5.4557079221546112e-05 0 -0.064993177871376179 -6.5088687294580363e-05 0 -0.065014169290196086 -3.0921173420446654e-05 0 -0.065000246013164328 -2.9026110559637938e-05 0 -0.06501124681797657 -5.4557079221546112e-05 0 -0.065014169290196086 -3.0921173420446654e-05 0 -0.06501124681797657 -5.4557079221546112e-05 0 -0.06503074631003522 -4.7192476854931204e-05 0 -0.06501124681797657 -5.4557079221546112e-05 0 -0.065004707815389001 -7.7967927551474641e-05 0 -0.065035365044075477 -7.2048758125313976e-05 0 -0.065004707815389001 -7.7967927551474641e-05 0 -0.065012831260065254 -0.00010169662103821898 0 -0.065035365044075477 -7.2048758125313976e-05 0 -0.06501124681797657 -5.4557079221546112e-05 0 -0.065004707815389001 -7.7967927551474641e-05 0 -0.064993177871376179 -6.5088687294580363e-05 0 -0.064975321044995552 -9.724199607950745e-05 0 -0.065004707815389001 -7.7967927551474641e-05 0 -0.064993177871376179 -6.5088687294580363e-05 0 -0.064975321044995552 -9.724199607950745e-05 0 -0.064981188425976055 -6.1157616117414205e-05 0 -0.064993177871376179 -6.5088687294580363e-05 0 -0.062156304174017823 -0.00095578637126880663 0 -0.062522610442591331 -0.00092392210625140316 0 -0.059646740760922613 -0.0017957685430263306 0 -0.059108420000296751 -0.0013498115633239773 0 -0.059876856238105326 -0.0014622259768911653 0 -0.064975321044995552 -9.724199607950745e-05 0 -0.065004707815389001 -7.7967927551474641e-05 0 -0.065012831260065254 -0.00010169662103821898 0 -0.062522610442591331 -0.00092392210625140316 0 -0.063612511206205757 -0.00042407939686736769 0 -0.063090550515064542 -0.00076344594640796498 0 -0.063202608139743252 -0.00078364942992558773 0 -0.063166879500943601 -0.00065223558423698825 0 -0.062522610442591331 -0.00092392210625140316 0 -0.062340467621096879 -0.00086690361133314126 0 -0.059962521030649689 -0.001320061395675792 0 -0.060672151390331282 -0.0014480702391163579 0 -0.060074154241825752 -0.0017311551661466119 0 -0.063202608139743252 -0.00078364942992558773 0 -0.063241154443235123 -0.00070959425068577891 0 -0.063313786615550233 -0.00080400544713463108 0 -0.063202608139743252 -0.00078364942992558773 0 -0.063241154443235123 -0.00070959425068577891 0 -0.063166879500943601 -0.00065223558423698825 0 -0.063241154443235123 -0.00070959425068577891 0 -0.063253644948443641 -0.00063393643443884035 0 -0.063313264806707362 -0.0006917123504893303 0 -0.063241154443235123 -0.00070959425068577891 0 -0.063253644948443641 -0.00063393643443884035 0 -0.063166879500943601 -0.00065223558423698825 0 -0.06503074631003522 -4.7192476854931204e-05 0 -0.065057620636217048 -3.9836737778295287e-05 0 -0.065034812623876448 -2.4671144757860502e-05 0 -0.065035365044075477 -7.2048758125313976e-05 0 -0.06503074631003522 -4.7192476854931204e-05 0 -0.065057620636217048 -3.9836737778295287e-05 0 -0.06501124681797657 -5.4557079221546112e-05 0 -0.065035365044075477 -7.2048758125313976e-05 0 -0.06503074631003522 -4.7192476854931204e-05 0 -0.065014169290196086 -3.0921173420446654e-05 0 -0.06503074631003522 -4.7192476854931204e-05 0 -0.065034812623876448 -2.4671144757860502e-05 0 -0.063612511206205757 -0.00042407939686736769 0 -0.064119206451141345 -0.00047932070832228964 0 -0.063253644948443641 -0.00063393643443884035 0 -0.063243053133940103 -0.0005411747047063941 0 -0.063313068944676615 -0.00057842957813427959 0 -0.063253644948443641 -0.00063393643443884035 0 -0.063166879500943601 -0.00065223558423698825 0 -0.063243053133940103 -0.0005411747047063941 0 -0.064119206451141345 -0.00047932070832228964 0 -0.063626710916855025 -0.00068533276354986784 0 -0.064119206451141345 -0.00047932070832228964 0 -0.064521886638397044 -0.00044613376982655589 0 -0.064119206451141345 -0.00047932070832228964 0 -0.064877073464712984 -4.3568166665405598e-05 0 -0.065000016870634281 -4.370326611090091e-09 0 -0.064999258015885228 -1.6506195090886567e-07 0 -0.064999870855767125 -2.6449339240203912e-08 0 -0.065000016870634281 -4.370326611090091e-09 0 -0.064999870855767125 -2.6449339240203912e-08 0 -0.064999988024320943 1.7385155181296226e-09 0 -0.064998528187059451 -6.639687237514969e-07 0 -0.064999258015885228 -1.6506195090886567e-07 0 -0.064999870855767125 -2.6449339240203912e-08 0 -0.064623758604192907 -0.00042416300232699978 0 -0.064521886638397044 -0.00044613376982655589 0 -0.065002766273339396 -3.7691037455619746e-06 0 -0.065000016870634281 -4.370326611090091e-09 0 -0.064999258015885228 -1.6506195090886567e-07 0 -0.0649999955092979 -1.8892653373380004e-09 0 -0.064996538474471774 -2.5806425495853806e-06 0 -0.064999989187514012 -2.5084378594306814e-09 0 -0.0649999955092979 -1.8892653373380004e-09 0 -0.064996538474471774 -2.5806425495853806e-06 0 -0.064995967067574087 -3.6716462684147584e-06 0 -0.064101217029452096 -0.00056848372885618856 0 -0.064249849941813167 -0.00035003922991085962 0 -0.064252946601113525 -0.00064840301507621359 0 -0.064996538474471774 -2.5806425495853806e-06 0 -0.064999386728821426 -3.6648350473075606e-07 0 -0.064992393688559025 -5.3316065082242683e-06 0 -0.064996538474471774 -2.5806425495853806e-06 0 -0.064999386728821426 -3.6648350473075606e-07 0 -0.064999989187514012 -2.5084378594306814e-09 0 -0.064877073464712984 -4.3568166665405598e-05 0 -0.063626710916855025 -0.00068533276354986784 0 -0.064877073464712984 -4.3568166665405598e-05 0 -0.064996041386424563 -7.4313426235373696e-07 0 -0.064996538474471774 -2.5806425495853806e-06 0 -0.064992393688559025 -5.3316065082242683e-06 0 -0.06499185510650321 -7.0413744997060892e-06 0 -0.063626710916855025 -0.00068533276354986784 0 -0.062917586516418419 -0.00099162172971269959 0 -0.06499185510650321 -7.0413744997060892e-06 0 -0.06499074080635571 -9.7916402025874338e-06 0 -0.064995967067574087 -3.6716462684147584e-06 0 -0.064996538474471774 -2.5806425495853806e-06 0 -0.06499185510650321 -7.0413744997060892e-06 0 -0.064995967067574087 -3.6716462684147584e-06 0 -0.062917586516418419 -0.00099162172971269959 0 -0.061953692970067697 -0.0014113114149571001 0 -0.061892309004583125 -0.00060274993695908754 0 -0.061842941177609502 -0.00098175271916696124 0 -0.062384938915871338 -0.00086119981004078151 0 -0.063253644948443641 -0.00063393643443884035 0 -0.063313068944676615 -0.00057842957813427959 0 -0.063313264806707362 -0.0006917123504893303 0 -0.063626710916855025 -0.00068533276354986784 0 -0.063060158518797024 -0.00078017401067020508 0 -0.061402233750733254 -0.00034551171124084742 0 -0.061892309004583125 -0.00060274993695908754 0 -0.06140669397512203 -0.00096704597682234375 0 -0.061892309004583125 -0.00060274993695908754 0 -0.061842941177609502 -0.00098175271916696124 0 -0.06140669397512203 -0.00096704597682234375 0 -0.063241154443235123 -0.00070959425068577891 0 -0.063313264806707362 -0.0006917123504893303 0 -0.063313786615550233 -0.00080400544713463108 0 -0.06140669397512203 -0.00096704597682234375 0 -0.061613328751492981 -0.0013032843511683742 0 -0.061405479902003041 -0.0016015146626257642 0 -0.063060158518797024 -0.00078017401067020508 0 -0.062720848103802726 -0.00080771737868090868 0 -0.061842941177609502 -0.00098175271916696124 0 -0.06140669397512203 -0.00096704597682234375 0 -0.061613328751492981 -0.0013032843511683742 0 -0.061613328751492981 -0.0013032843511683742 0 -0.061932427014532401 -0.0013555552799812713 0 -0.061476947452262273 -0.0016157705218062281 0 -0.061613328751492981 -0.0013032843511683742 0 -0.061405479902003041 -0.0016015146626257642 0 -0.061476947452262273 -0.0016157705218062281 0 -0.061842941177609502 -0.00098175271916696124 0 -0.061932427014532401 -0.0013555552799812713 0 -0.062384938915871338 -0.00086119981004078151 0 -0.061039451060879518 -0.0020031357719023845 0 -0.061953692970067697 -0.0014113114149571001 0 -0.061842941177609502 -0.00098175271916696124 0 -0.061613328751492981 -0.0013032843511683742 0 -0.061932427014532401 -0.0013555552799812713 0 -0.059912534839013286 -0.0027461629810398825 0 -0.059407962563873561 -0.0025328284435062087 0 -0.059193766041726832 -0.0031653903433113756 0 -0.059831479026475891 -0.0033703019750716064 0 -0.059912534839013286 -0.0027461629810398825 0 -0.059193766041726832 -0.0031653903433113756 0 -0.059831479026475891 -0.0033703019750716064 0 -0.059912534839013286 -0.0027461629810398825 0 -0.060529058724597698 -0.0026721662001807059 0 -0.059912534839013286 -0.0027461629810398825 0 -0.060150715811654543 -0.002166627680983981 0 -0.059407962563873561 -0.0025328284435062087 0 -0.060150715811654543 -0.002166627680983981 0 -0.059503732852650384 -0.0018437045585948395 0 -0.059407962563873561 -0.0025328284435062087 0 -0.060150715811654543 -0.002166627680983981 0 -0.059503732852650384 -0.0018437045585948395 0 -0.060030701768066463 -0.0014568242054756933 0 -0.060520538999471032 -0.0018712753662019784 0 -0.060404306393952417 -0.0020678336868235575 0 -0.060309412206721598 -0.0018652539145514655 0 -0.060150715811654543 -0.002166627680983981 0 -0.060520538999471032 -0.0018712753662019784 0 -0.060030701768066463 -0.0014568242054756933 0 -0.060150715811654543 -0.002166627680983981 0 -0.060520538999471032 -0.0018712753662019784 0 -0.060404306393952417 -0.0020678336868235575 0 -0.060150715811654543 -0.002166627680983981 0 -0.060404306393952417 -0.0020678336868235575 0 -0.060444001842802145 -0.0024285101166608342 0 -0.060508261171085605 -0.0021098786043006429 0 -0.06023727167818943 -0.0022135133271779933 0 -0.060404306393952417 -0.0020678336868235575 0 -0.060444001842802145 -0.0024285101166608342 0 -0.060309412206721598 -0.0018652539145514655 0 -0.059912534839013286 -0.0027461629810398825 0 -0.060150715811654543 -0.002166627680983981 0 -0.060444001842802145 -0.0024285101166608342 0 -0.060369998715566364 -0.0021630412690038263 0 -0.060508261171085605 -0.0021098786043006429 0 -0.061932427014532401 -0.0013555552799812713 0 -0.061466129570784268 -0.0018730726846117175 0 -0.061476947452262273 -0.0016157705218062281 0 -0.061039451060879518 -0.0020031357719023845 0 -0.060508261171085605 -0.0021098786043006429 0 -0.062711861282852915 -0.00083187885803252272 0 -0.062720848103802726 -0.00080771737868090868 0 -0.061466129570784268 -0.0018730726846117175 0 -0.061400807831971653 -0.0017386231153899883 0 -0.061476947452262273 -0.0016157705218062281 0 -0.061400807831971653 -0.0017386231153899883 0 -0.06140259934049197 -0.0016013767098210379 0 -0.061476947452262273 -0.0016157705218062281 0 -0.062720848103802726 -0.00080771737868090868 0 -0.062711627579100024 -0.00080812978687716552 0 -0.060508261171085605 -0.0021098786043006429 0 -0.06007458819838931 -0.0020421416336263744 0 -0.062340467621096879 -0.00086690361133314126 0 -0.062720848103802726 -0.00080771737868090868 0 -0.060672151390331282 -0.0014480702391163579 0 -0.061400807831971653 -0.0017386231153899883 0 -0.06139862441754608 -0.0015819347350036813 0 -0.061466129570784268 -0.0018730726846117175 0 -0.061400807831971653 -0.0017386231153899883 0 -0.060513204055988541 -0.0019909624279906236 0 -0.060672151390331282 -0.0014480702391163579 0 -0.061400807831971653 -0.0017386231153899883 0 -0.060513204055988541 -0.0019909624279906236 0 -0.060672151390331282 -0.0014480702391163579 0 -0.060074154241825752 -0.0017311551661466119 0 -0.060513204055988541 -0.0019909624279906236 0 -0.059596942166009033 -0.0020669740775283892 0 -0.060074154241825752 -0.0017311551661466119 0 -0.060513204055988541 -0.0019909624279906236 0 -0.059275611465820922 -0.0022473593887658832 0 -0.059406720728055869 -0.002034262853628913 0 -0.05963929514792303 -0.0020528108755548946 0 -0.059406720728055869 -0.002034262853628913 0 -0.059654273072120199 -0.0018401775731962944 0 -0.05963929514792303 -0.0020528108755548946 0 -0.060074194023270369 -0.0017919614475898306 0 -0.059654273072120199 -0.0018401775731962944 0 -0.059862008469023363 -0.0020202733739528964 0 -0.059654273072120199 -0.0018401775731962944 0 -0.05963929514792303 -0.0020528108755548946 0 -0.059862008469023363 -0.0020202733739528964 0 -0.05963929514792303 -0.0020528108755548946 0 -0.059862008469023363 -0.0020202733739528964 0 -0.059693253781565786 -0.0022181222122133609 0 -0.06023727167818943 -0.0022135133271779933 0 -0.060121028183212528 -0.0022697139430660953 0 -0.060520538999471032 -0.0018712753662019784 0 -0.060309412206721598 -0.0018652539145514655 0 -0.060197997572246302 -0.0023612465038870089 0 -0.060309412206721598 -0.0018652539145514655 0 -0.060197997572246302 -0.0023612465038870089 0 -0.059693253781565786 -0.0022181222122133609 0 -0.059275611465820922 -0.0022473593887658832 0 -0.05963929514792303 -0.0020528108755548946 0 -0.059693253781565786 -0.0022181222122133609 0 -0.059275611465820922 -0.0022473593887658832 0 -0.059693253781565786 -0.0022181222122133609 0 -0.059339565135953454 -0.0025867302411365111 0 -0.059613007643097356 -0.0030624589249327221 0 -0.059339565135953454 -0.0025867302411365111 0 -0.059771251920195827 -0.002635716980761614 0 -0.059693253781565786 -0.0022181222122133609 0 -0.059339565135953454 -0.0025867302411365111 0 -0.059771251920195827 -0.002635716980761614 0 -0.060197997572246302 -0.0023612465038870089 0 -0.059693253781565786 -0.0022181222122133609 0 -0.059771251920195827 -0.002635716980761614 0 -0.060279184372042216 -0.0031079285261009213 0 -0.060197997572246302 -0.0023612465038870089 0 -0.059771251920195827 -0.002635716980761614 0 -0.060279184372042216 -0.0031079285261009213 0 -0.060197997572246302 -0.0023612465038870089 0 -0.060707087098185203 -0.0025165479436333989 0 -0.056975317949795622 -0.0018839256012218341 0 -0.058369552114228437 -0.0018884620313530539 0 -0.060515176552581845 -0.00022406027043452955 0 -0.059413197520597524 -0.00070774316744347786 0 -0.059367361394376206 0.00054323750119822096 0 -0.060075126411866908 0.0015566232242576301 0 -0.060515176552581845 -0.00022406027043452955 0 -0.059367361394376206 0.00054323750119822096 0 -0.059503732852650384 -0.0018437045585948395 0 -0.059413197520597524 -0.00070774316744347786 0 -0.060030701768066463 -0.0014568242054756933 0 -0.060515176552581845 -0.00022406027043452955 0 -0.059413197520597524 -0.00070774316744347786 0 -0.060030701768066463 -0.0014568242054756933 0 -0.060520538999471032 -0.0018712753662019784 0 -0.060197997572246302 -0.0023612465038870089 0 -0.060707087098185203 -0.0025165479436333989 0 -0.058782487269289141 -0.001955553573894449 0 -0.058369552114228437 -0.0018884620313530539 0 -0.060520538999471032 -0.0018712753662019784 0 -0.060515176552581845 -0.00022406027043452955 0 -0.060030701768066463 -0.0014568242054756933 0 -0.05708555758527193 -0.0005652750452510225 0 -0.058434277128383984 -0.0011987148307456969 0 -0.057359156064122334 -0.0020838857558712529 0 -0.059503732852650384 -0.0018437045585948395 0 -0.059413197520597524 -0.00070774316744347786 0 -0.058434277128383984 -0.0011987148307456969 0 -0.059413197520597524 -0.00070774316744347786 0 -0.058434277128383984 -0.0011987148307456969 0 -0.058231336895931615 0.00038894665204004548 0 -0.059413197520597524 -0.00070774316744347786 0 -0.059367361394376206 0.00054323750119822096 0 -0.058231336895931615 0.00038894665204004548 0 -0.05708555758527193 -0.0005652750452510225 0 -0.058434277128383984 -0.0011987148307456969 0 -0.058231336895931615 0.00038894665204004548 0 -0.05708555758527193 -0.0005652750452510225 0 -0.058231336895931615 0.00038894665204004548 0 -0.056146515906789887 0.00082712391181877047 0 -0.05708555758527193 -0.0005652750452510225 0 -0.056146515906789887 0.00082712391181877047 0 -0.054577375350885977 -0.00067902611962735848 0 -0.050457414662423795 0.0004490387245569971 0 -0.054577375350885977 -0.00067902611962735848 0 -0.050137138598223961 7.1458482478582849e-05 0 -0.054543950777742503 0.0019159848952504462 0 -0.056146515906789887 0.00082712391181877047 0 -0.054577375350885977 -0.00067902611962735848 0 -0.050275242075889362 0.00030835367041833378 0 -0.051382072731787992 -0.00080765851667562204 0 -0.054577375350885977 -0.00067902611962735848 0 -0.05570036598456507 -0.0019693003334553222 0 -0.053071802815209415 -0.00110845126183329 0 -0.054577375350885977 -0.00067902611962735848 0 -0.053071802815209415 -0.00110845126183329 0 -0.050137138598223961 7.1458482478582849e-05 0 -0.054577375350885977 -0.00067902611962735848 0 -0.057359156064122334 -0.0020838857558712529 0 -0.05570036598456507 -0.0019693003334553222 0 -0.05708555758527193 -0.0005652750452510225 0 -0.054577375350885977 -0.00067902611962735848 0 -0.057359156064122334 -0.0020838857558712529 0 -0.057359156064122334 -0.0020838857558712529 0 -0.05570036598456507 -0.0019693003334553222 0 -0.057316197530087307 -0.0030628223363268572 0 -0.05570036598456507 -0.0019693003334553222 0 -0.055735607628147027 -0.0026455844696918907 0 -0.057316197530087307 -0.0030628223363268572 0 -0.05570036598456507 -0.0019693003334553222 0 -0.055735607628147027 -0.0026455844696918907 0 -0.053071802815209415 -0.00110845126183329 0 -0.057345100337780716 -0.003504755663137966 0 -0.057316197530087307 -0.0030628223363268572 0 -0.058510773648992917 -0.0035619546417388591 0 -0.055735607628147027 -0.0026455844696918907 0 -0.057345100337780716 -0.003504755663137966 0 -0.057316197530087307 -0.0030628223363268572 0 -0.055735607628147027 -0.0026455844696918907 0 -0.057345100337780716 -0.003504755663137966 0 -0.056031830798519651 -0.0032511132958685713 0 -0.057359156064122334 -0.0020838857558712529 0 -0.057316197530087307 -0.0030628223363268572 0 -0.058391657153515422 -0.0033772593341286601 0 -0.057316197530087307 -0.0030628223363268572 0 -0.058391657153515422 -0.0033772593341286601 0 -0.058510773648992917 -0.0035619546417388591 0 -0.058391657153515422 -0.0033772593341286601 0 -0.058784020514844812 -0.0025456154343295768 0 -0.059193766041726832 -0.0031653903433113756 0 -0.057359156064122334 -0.0020838857558712529 0 -0.058391657153515422 -0.0033772593341286601 0 -0.058784020514844812 -0.0025456154343295768 0 -0.058434277128383984 -0.0011987148307456969 0 -0.057359156064122334 -0.0020838857558712529 0 -0.058784020514844812 -0.0025456154343295768 0 -0.059503732852650384 -0.0018437045585948395 0 -0.058434277128383984 -0.0011987148307456969 0 -0.058784020514844812 -0.0025456154343295768 0 -0.059503732852650384 -0.0018437045585948395 0 -0.058784020514844812 -0.0025456154343295768 0 -0.059407962563873561 -0.0025328284435062087 0 -0.058784020514844812 -0.0025456154343295768 0 -0.059407962563873561 -0.0025328284435062087 0 -0.059193766041726832 -0.0031653903433113756 0 -0.059831479026475891 -0.0033703019750716064 0 -0.059193766041726832 -0.0031653903433113756 0 -0.059299063445579406 -0.0038157213895612398 0 -0.059193766041726832 -0.0031653903433113756 0 -0.058867718288801343 -0.0035074613664515101 0 -0.059299063445579406 -0.0038157213895612398 0 -0.058391657153515422 -0.0033772593341286601 0 -0.059193766041726832 -0.0031653903433113756 0 -0.058867718288801343 -0.0035074613664515101 0 -0.058391657153515422 -0.0033772593341286601 0 -0.058867718288801343 -0.0035074613664515101 0 -0.059874439242059714 -0.0032811467184901836 0 -0.058867718288801343 -0.0035074613664515101 0 -0.059568302086873588 -0.0018029913892206276 0 -0.059874439242059714 -0.0032811467184901836 0 -0.058867718288801343 -0.0035074613664515101 0 -0.058030391738882629 -0.0029851210405914363 0 -0.059568302086873588 -0.0018029913892206276 0 -0.061953692970067697 -0.0014113114149571001 0 -0.062883376339064628 -0.0011374976762250821 0 -0.06104336600629983 -0.0014560433627289111 0 -0.061953692970067697 -0.0014113114149571001 0 -0.06499074080635571 -9.7916402025874338e-06 0 -0.064995967067574087 -3.6716462684147584e-06 0 -0.064996728008311286 -4.3138482781419179e-06 0 -0.064996728008311286 -4.3138482781419179e-06 0 -0.06499999511058456 -3.0110907216670581e-09 0 -0.065000000217005416 1.6323118840618564e-09 0 -0.064995967067574087 -3.6716462684147584e-06 0 -0.064996728008311286 -4.3138482781419179e-06 0 -0.06499999511058456 -3.0110907216670581e-09 0 -0.0649999955092979 -1.8892653373380004e-09 0 -0.064995967067574087 -3.6716462684147584e-06 0 -0.06499999511058456 -3.0110907216670581e-09 0 -0.063952369692089658 -0.00069632795751981198 0 -0.064988452986049855 4.7364806147287686e-07 0 -0.062639622510193421 -0.0015432102656863036 0 -0.063952369692089658 -0.00069632795751981198 0 -0.064988452986049855 4.7364806147287686e-07 0 -0.065003706314578275 -1.0172142907788781e-06 0 -0.064988452986049855 4.7364806147287686e-07 0 -0.061653598080650969 -0.0019222180707472974 0 -0.062639622510193421 -0.0015432102656863036 0 -0.059568302086873588 -0.0018029913892206276 0 -0.064988452986049855 4.7364806147287686e-07 0 -0.061653598080650969 -0.0019222180707472974 0 -0.062883376339064628 -0.0011374976762250821 0 -0.064997010882977088 -1.0333686633326862e-06 0 -0.059568302086873588 -0.0018029913892206276 0 -0.061653598080650969 -0.0019222180707472974 0 -0.059874439242059714 -0.0032811467184901836 0 -0.061653598080650969 -0.0019222180707472974 0 -0.061470492078680175 -0.0024457937334611793 0 -0.062639622510193421 -0.0015432102656863036 0 -0.063952369692089658 -0.00069632795751981198 0 -0.062639622510193421 -0.0015432102656863036 0 -0.063500123742208772 -0.0015963124606553321 0 -0.061470492078680175 -0.0024457937334611793 0 -0.062639622510193421 -0.0015432102656863036 0 -0.063500123742208772 -0.0015963124606553321 0 -0.061470492078680175 -0.0024457937334611793 0 -0.060034798975368384 -0.0032269649823547285 0 -0.059874439242059714 -0.0032811467184901836 0 -0.061470492078680175 -0.0024457937334611793 0 -0.060034798975368384 -0.0032269649823547285 0 -0.063500123742208772 -0.0015963124606553321 0 -0.061653598080650969 -0.0019222180707472974 0 -0.061470492078680175 -0.0024457937334611793 0 -0.059874439242059714 -0.0032811467184901836 0 -0.058391657153515422 -0.0033772593341286601 0 -0.059874439242059714 -0.0032811467184901836 0 -0.058510773648992917 -0.0035619546417388591 0 -0.060034798975368384 -0.0032269649823547285 0 -0.059874439242059714 -0.0032811467184901836 0 -0.058510773648992917 -0.0035619546417388591 0 -0.060034798975368384 -0.0032269649823547285 0 -0.058510773648992917 -0.0035619546417388591 0 -0.05839016142067982 -0.0037150586862672408 0 -0.057345100337780716 -0.003504755663137966 0 -0.058510773648992917 -0.0035619546417388591 0 -0.05839016142067982 -0.0037150586862672408 0 -0.05839016142067982 -0.0037150586862672408 0 -0.057536357464833932 -0.0040671873363842884 0 -0.058744251735991404 -0.0038447401514988592 0 -0.057345100337780716 -0.003504755663137966 0 -0.05839016142067982 -0.0037150586862672408 0 -0.057536357464833932 -0.0040671873363842884 0 -0.055772328523182819 -0.0047737103451959834 0 -0.054177625904634701 -0.003286924875353528 0 -0.055531306121602807 -0.0038162961564905066 0 -0.057536357464833932 -0.0040671873363842884 0 -0.056077878989466472 -0.0042856354504394933 0 -0.055531306121602807 -0.0038162961564905066 0 -0.056077878989466472 -0.0042856354504394933 0 -0.055772328523182819 -0.0047737103451959834 0 -0.055531306121602807 -0.0038162961564905066 0 -0.061449729163382961 -0.0026071079941413144 0 -0.0615888600617523 -0.0025224609633172313 0 -0.056077878989466472 -0.0042856354504394933 0 -0.055929414856509284 -0.0047403212118703854 0 -0.055772328523182819 -0.0047737103451959834 0 -0.057536357464833932 -0.0040671873363842884 0 -0.056077878989466472 -0.0042856354504394933 0 -0.055929414856509284 -0.0047403212118703854 0 -0.060034798975368384 -0.0032269649823547285 0 -0.05839016142067982 -0.0037150586862672408 0 -0.058744251735991404 -0.0038447401514988592 0 -0.055772328523182819 -0.0047737103451959834 0 -0.055080988124556064 -0.0041163414478774625 0 -0.055085388947635976 -0.0051119652503252557 0 -0.0615888600617523 -0.0025224609633172313 0 -0.060755380474534527 -0.0022545772565801974 0 -0.055772328523182819 -0.0047737103451959834 0 -0.055080988124556064 -0.0041163414478774625 0 -0.055403185312338663 -0.0023081904489300675 0 -0.055929414856509284 -0.0047403212118703854 0 -0.055772328523182819 -0.0047737103451959834 0 -0.055085388947635976 -0.0051119652503252557 0 -0.064929400803452705 -0.00013089758149054242 0 -0.064982728447718269 -8.5268231187151478e-05 0 -0.064952708182310373 -4.6359063296189939e-05 0 -0.0615888600617523 -0.0025224609633172313 0 -0.063401412357172768 -0.00066342646272437862 0 -0.063398485793450116 -0.0019025806313867414 0 -0.063926608352372308 -0.0013174002327575229 0 -0.060034798975368384 -0.0032269649823547285 0 -0.058744251735991404 -0.0038447401514988592 0 -0.062392983990276429 -0.0021382305475012181 0 -0.062392983990276429 -0.0021382305475012181 0 -0.062165758926908975 -0.001551513621881403 0 -0.065002662854833373 7.1130997821477712e-07 0 -0.060034798975368384 -0.0032269649823547285 0 -0.062392983990276429 -0.0021382305475012181 0 -0.062165758926908975 -0.001551513621881403 0 -0.064952708182310373 -4.6359063296189939e-05 0 -0.064990030632598145 -2.7265177177222936e-05 0 -0.064999933259618517 6.3838070803236083e-09 0 -0.064982728447718269 -8.5268231187151478e-05 0 -0.064952708182310373 -4.6359063296189939e-05 0 -0.064990030632598145 -2.7265177177222936e-05 0 -0.064990030632598145 -2.7265177177222936e-05 0 -0.065000003384631591 -1.6968033034840547e-08 0 -0.064999933259618517 6.3838070803236083e-09 0 -0.063926608352372308 -0.0013174002327575229 0 -0.064997495599496136 -1.8330457412004807e-06 0 -0.062165758926908975 -0.001551513621881403 0 -0.065002662854833373 7.1130997821477712e-07 0 -0.064995179162022021 -9.8491030369460565e-07 0 -0.063401412357172768 -0.00066342646272437862 0 -0.064997264760553175 -6.184600415681854e-08 0 -0.063952369692089658 -0.00069632795751981198 0 -0.063500123742208772 -0.0015963124606553321 0 -0.065003706314578275 -1.0172142907788781e-06 0 -0.064050937186380982 1.8273888292053564e-05 0 -0.064998938154796404 -1.1571241253915684e-06 0 -0.064188480432812917 0.00076236275636454808 0 -0.064050937186380982 1.8273888292053564e-05 0 -0.064997959838538399 -3.933426125973523e-07 0 -0.062743069754036374 1.9392343138140061e-06 0 -0.064994504554515303 -3.6805997542533896e-07 0 -0.061382367245841521 -0.00097651710122999107 0 -0.064050937186380982 1.8273888292053564e-05 0 -0.064997959838538399 -3.933426125973523e-07 0 -0.064998938154796404 -1.1571241253915684e-06 0 -0.065000024612897736 1.8745205326918475e-09 0 -0.065000010215610846 -1.6703190629453062e-05 0 -0.065014112280614586 -4.6502785678229842e-05 0 -0.064990030632598145 -2.7265177177222936e-05 0 -0.065000003384631591 -1.6968033034840547e-08 0 -0.065000010215610846 -1.6703190629453062e-05 0 -0.065000003384631591 -1.6968033034840547e-08 0 -0.065000024612897736 1.8745205326918475e-09 0 -0.065000010215610846 -1.6703190629453062e-05 0 -0.064982728447718269 -8.5268231187151478e-05 0 -0.064990030632598145 -2.7265177177222936e-05 0 -0.065014112280614586 -4.6502785678229842e-05 0 -0.064990030632598145 -2.7265177177222936e-05 0 -0.065000010215610846 -1.6703190629453062e-05 0 -0.065014112280614586 -4.6502785678229842e-05 0 -0.059703781211405779 0.00023543041827061274 0 -0.062734111859936686 1.646434085641603e-06 0 -0.059754535283490999 -5.6981201133292628e-07 0 -0.064050937186380982 1.8273888292053564e-05 0 -0.064188480432812917 0.00076236275636454808 0 -0.062743069754036374 1.9392343138140061e-06 0 -0.061382367245841521 -0.00097651710122999107 0 -0.062735981562822715 -1.2369056348358454e-06 0 -0.059703781211405779 0.00023543041827061274 0 -0.059754535283490999 -5.6981201133292628e-07 0 -0.057180823408908239 -0.00016378953224368116 0 -0.060755380474534527 -0.0022545772565801974 0 -0.061382367245841521 -0.00097651710122999107 0 -0.061382367245841521 -0.00097651710122999107 0 -0.058365601228618579 -0.002316167674420454 0 -0.055085388947635976 -0.0051119652503252557 0 -0.053726283048491606 -0.0061126760319732383 0 -0.053768167308385011 -0.0039827558105961789 0 -0.055080988124556064 -0.0041163414478774625 0 -0.053768167308385011 -0.0039827558105961789 0 -0.055403185312338663 -0.0023081904489300675 0 -0.055080988124556064 -0.0041163414478774625 0 -0.055085388947635976 -0.0051119652503252557 0 -0.053768167308385011 -0.0039827558105961789 0 -0.059754535283490999 -5.6981201133292628e-07 0 -0.057180823408908239 -0.00016378953224368116 0 -0.056771626669869464 -3.9639454919020173e-07 0 -0.057180823408908239 -0.00016378953224368116 0 -0.055795410135803823 -0.0002564269843178285 0 -0.05453557925957471 -0.00051585690176608246 0 -0.056771626669869464 -3.9639454919020173e-07 0 -0.055795410135803823 -0.0002564269843178285 0 -0.054770289045663362 -0.00027783022353909805 0 -0.057180823408908239 -0.00016378953224368116 0 -0.056771626669869464 -3.9639454919020173e-07 0 -0.055795410135803823 -0.0002564269843178285 0 -0.056771626669869464 -3.9639454919020173e-07 0 -0.053787770446883786 -9.6885547651337948e-07 0 -0.054770289045663362 -0.00027783022353909805 0 -0.053787770446883786 -9.6885547651337948e-07 0 -0.054770289045663362 -0.00027783022353909805 0 -0.054406990075161879 3.6923305325335875e-05 0 -0.055795410135803823 -0.0002564269843178285 0 -0.054770289045663362 -0.00027783022353909805 0 -0.05453557925957471 -0.00051585690176608246 0 -0.054770289045663362 -0.00027783022353909805 0 -0.054406990075161879 3.6923305325335875e-05 0 -0.05453557925957471 -0.00051585690176608246 0 -0.050433383331640942 -0.0010485055551909834 0 -0.049065857934454039 -0.00071563008364705226 0 -0.051365705744877733 -0.0031443144959602764 0 -0.051988889066220498 -0.0011034498172761277 0 -0.053006207047180391 -0.0021611229591521832 0 -0.054406990075161879 3.6923305325335875e-05 0 -0.05453557925957471 -0.00051585690176608246 0 -0.055403185312338663 -0.0023081904489300675 0 -0.050433383331640942 -0.0010485055551909834 0 -0.049065857934454039 -0.00071563008364705226 0 -0.049518194820725406 -0.0005209172073592813 0 -0.058365601228618579 -0.002316167674420454 0 -0.057445019064383457 -0.0019967047514889255 0 -0.053768167308385011 -0.0039827558105961789 0 -0.05453557925957471 -0.00051585690176608246 0 -0.055403185312338663 -0.0023081904489300675 0 -0.053748955168943 -0.0029388540072448656 0 -0.053006207047180391 -0.0021611229591521832 0 -0.055772328523182819 -0.0047737103451959834 0 -0.054177625904634701 -0.003286924875353528 0 -0.051365705744877733 -0.0031443144959602764 0 -0.054177625904634701 -0.003286924875353528 0 -0.051365705744877733 -0.0031443144959602764 0 -0.052065334961368261 -0.0019548020658172989 0 -0.057536357464833932 -0.0040671873363842884 0 -0.056031830798519651 -0.0032511132958685713 0 -0.055531306121602807 -0.0038162961564905066 0 -0.057345100337780716 -0.003504755663137966 0 -0.057536357464833932 -0.0040671873363842884 0 -0.056031830798519651 -0.0032511132958685713 0 -0.054177625904634701 -0.003286924875353528 0 -0.056031830798519651 -0.0032511132958685713 0 -0.055531306121602807 -0.0038162961564905066 0 -0.054177625904634701 -0.003286924875353528 0 -0.056031830798519651 -0.0032511132958685713 0 -0.053573944216146765 -0.0020506433621056254 0 -0.055735607628147027 -0.0026455844696918907 0 -0.056031830798519651 -0.0032511132958685713 0 -0.053573944216146765 -0.0020506433621056254 0 -0.053573944216146765 -0.0020506433621056254 0 -0.051269141952035947 -0.00092758637465758912 0 -0.053071802815209415 -0.00110845126183329 0 -0.055735607628147027 -0.0026455844696918907 0 -0.053573944216146765 -0.0020506433621056254 0 -0.053071802815209415 -0.00110845126183329 0 -0.050433383331640942 -0.0010485055551909834 0 -0.051365705744877733 -0.0031443144959602764 0 -0.052065334961368261 -0.0019548020658172989 0 -0.054177625904634701 -0.003286924875353528 0 -0.053573944216146765 -0.0020506433621056254 0 -0.052065334961368261 -0.0019548020658172989 0 -0.053573944216146765 -0.0020506433621056254 0 -0.052065334961368261 -0.0019548020658172989 0 -0.051269141952035947 -0.00092758637465758912 0 -0.050433383331640942 -0.0010485055551909834 0 -0.052065334961368261 -0.0019548020658172989 0 -0.051269141952035947 -0.00092758637465758912 0 -0.050433383331640942 -0.0010485055551909834 0 -0.051269141952035947 -0.00092758637465758912 0 -0.049417347255859764 -0.00029248037840316787 0 -0.051269141952035947 -0.00092758637465758912 0 -0.050303638102031908 -0.00032891224136565733 0 -0.049417347255859764 -0.00029248037840316787 0 -0.051269141952035947 -0.00092758637465758912 0 -0.053071802815209415 -0.00110845126183329 0 -0.050303638102031908 -0.00032891224136565733 0 -0.053071802815209415 -0.00110845126183329 0 -0.050137138598223961 7.1458482478582849e-05 0 -0.050303638102031908 -0.00032891224136565733 0 -0.050137138598223961 7.1458482478582849e-05 0 -0.050303638102031908 -0.00032891224136565733 0 -0.048509129477501085 2.1728087483568095e-05 0 -0.050303638102031908 -0.00032891224136565733 0 -0.048509129477501085 2.1728087483568095e-05 0 -0.049417347255859764 -0.00029248037840316787 0 -0.048509129477501085 2.1728087483568095e-05 0 -0.048523981183951771 -0.00014824482869979296 0 -0.049417347255859764 -0.00029248037840316787 0 -0.048523981183951771 -0.00014824482869979296 0 -0.049417347255859764 -0.00029248037840316787 0 -0.049290378244824989 -0.00025889039264293526 0 -0.047056331239118024 -2.7546368645703657e-07 0 -0.048523981183951771 -0.00014824482869979296 0 -0.050797723929785772 2.7037927649128349e-07 0 -0.048523981183951771 -0.00014824482869979296 0 -0.050797723929785772 2.7037927649128349e-07 0 -0.049290378244824989 -0.00025889039264293526 0 -0.051988889066220498 -0.0011034498172761277 0 -0.050806790304607254 -1.647346837792443e-06 0 -0.049065857934454039 -0.00071563008364705226 0 -0.050797723929785772 2.7037927649128349e-07 0 -0.049290378244824989 -0.00025889039264293526 0 -0.053787770446883786 -9.6885547651337948e-07 0 -0.054406990075161879 3.6923305325335875e-05 0 -0.05080843120636102 1.4123703904198892e-06 0 -0.049065857934454039 -0.00071563008364705226 0 -0.049518194820725406 -0.0005209172073592813 0 -0.049290378244824989 -0.00025889039264293526 0 -0.050433383331640942 -0.0010485055551909834 0 -0.049518194820725406 -0.0005209172073592813 0 -0.049417347255859764 -0.00029248037840316787 0 -0.049518194820725406 -0.0005209172073592813 0 -0.049417347255859764 -0.00029248037840316787 0 -0.049290378244824989 -0.00025889039264293526 0 -0.062716991896581364 -0.0013161716711728147 0 -0.06174686969928303 -0.0013632275335788554 0 -0.062647395093624311 -0.0018367033298379463 0 -0.062648364214523494 -0.0018673214897266645 0 -0.062536740250584463 -0.0020720743126461001 0 -0.062648364214523494 -0.0018673214897266645 0 -0.062536740250584463 -0.0020720743126461001 0 -0.062661855808995429 -0.0019501485894496153 0 -0.06426045053549613 -0.0012723518588627287 0 -0.063937718203015095 -0.0013754226054170531 0 -0.064114912555775699 -0.0016382029251768625 0 -0.063937718203015095 -0.0013754226054170531 0 -0.063941564473921908 -0.0010396973790702149 0 -0.063618246378008156 -0.0013102509513466803 0 -0.064114912555775699 -0.0016382029251768625 0 -0.063792002753661439 -0.0016637853685615702 0 -0.063889362893971416 -0.0018421243888461327 0 -0.063937718203015095 -0.0013754226054170531 0 -0.063750247204248156 -0.0014767554620196285 0 -0.063792002753661439 -0.0016637853685615702 0 -0.063937718203015095 -0.0013754226054170531 0 -0.064114912555775699 -0.0016382029251768625 0 -0.063792002753661439 -0.0016637853685615702 0 -0.062536740250584463 -0.0020720743126461001 0 -0.062691625918495322 -0.002003462610012427 0 -0.062661855808995429 -0.0019501485894496153 0 -0.062536740250584463 -0.0020720743126461001 0 -0.062691625918495322 -0.002003462610012427 0 -0.062657839119582392 -0.0021475936852413582 0 -0.062691625918495322 -0.002003462610012427 0 -0.062849792847958053 -0.0019390752452568248 0 -0.062657839119582392 -0.0021475936852413582 0 -0.062398893826286959 -0.0012764144378845106 0 -0.061633888573484667 -0.001049708339726048 0 -0.063240319045319821 -0.0015112684360631555 0 -0.063208775844627543 -0.0014176847012851716 0 -0.06325776557283426 -0.0014108035573144467 0 -0.063240319045319821 -0.0015112684360631555 0 -0.063208775844627543 -0.0014176847012851716 0 -0.063167101349202046 -0.0014639985277853881 0 -0.063240319045319821 -0.0015112684360631555 0 -0.063167101349202046 -0.0014639985277853881 0 -0.063060290066827202 -0.0017069982744930248 0 -0.062398893826286959 -0.0012764144378845106 0 -0.062593019129610808 -0.0013554886324979737 0 -0.062849792847958053 -0.0019390752452568248 0 -0.062752918150288162 -0.0018280664101572234 0 -0.062852965962631568 -0.0017395456560483646 0 -0.062648364214523494 -0.0018673214897266645 0 -0.062661855808995429 -0.0019501485894496153 0 -0.062698481673982856 -0.0018898005037136384 0 -0.062691625918495322 -0.002003462610012427 0 -0.062730945826715775 -0.001921486931694348 0 -0.062661855808995429 -0.0019501485894496153 0 -0.062730945826715775 -0.001921486931694348 0 -0.062661855808995429 -0.0019501485894496153 0 -0.062698481673982856 -0.0018898005037136384 0 -0.062691625918495322 -0.002003462610012427 0 -0.062849792847958053 -0.0019390752452568248 0 -0.062730945826715775 -0.001921486931694348 0 -0.062849792847958053 -0.0019390752452568248 0 -0.062730945826715775 -0.001921486931694348 0 -0.062752918150288162 -0.0018280664101572234 0 -0.062730945826715775 -0.001921486931694348 0 -0.062752918150288162 -0.0018280664101572234 0 -0.062698481673982856 -0.0018898005037136384 0 -0.062648364214523494 -0.0018673214897266645 0 -0.062752918150288162 -0.0018280664101572234 0 -0.062698481673982856 -0.0018898005037136384 0 -0.062752918150288162 -0.0018280664101572234 0 -0.062852965962631568 -0.0017395456560483646 0 -0.062746288762651134 -0.0016301934340726136 0 -0.062648364214523494 -0.0018673214897266645 0 -0.062752918150288162 -0.0018280664101572234 0 -0.062746288762651134 -0.0016301934340726136 0 -0.062647395093624311 -0.0018367033298379463 0 -0.062648364214523494 -0.0018673214897266645 0 -0.062766114667688583 -0.0015838165890268493 0 -0.063010598561372172 -0.0016556550378707773 0 -0.063245136836919263 -0.0012613049019051822 0 -0.062716991896581364 -0.0013161716711728147 0 -0.063245136836919263 -0.0012613049019051822 0 -0.062849792847958053 -0.0019390752452568248 0 -0.062852965962631568 -0.0017395456560483646 0 -0.063060290066827202 -0.0017069982744930248 0 -0.062852965962631568 -0.0017395456560483646 0 -0.062894949670114858 -0.0016190693001245004 0 -0.063060290066827202 -0.0017069982744930248 0 -0.062852965962631568 -0.0017395456560483646 0 -0.062894949670114858 -0.0016190693001245004 0 -0.062746288762651134 -0.0016301934340726136 0 -0.062894949670114858 -0.0016190693001245004 0 -0.063018231574802477 -0.0016294006121786331 0 -0.062915105662576659 -0.0015001047508673435 0 -0.062894949670114858 -0.0016190693001245004 0 -0.062746288762651134 -0.0016301934340726136 0 -0.062771255320000913 -0.0015053197769721006 0 -0.063245136836919263 -0.0012613049019051822 0 -0.063777533508995315 -0.00075768223951296347 0 -0.064396647136733556 -0.00091970061477043505 0 -0.064246413668385474 -0.00077094862941977772 0 -0.064473663331309564 -0.00069260264147097774 0 -0.064246413668385474 -0.00077094862941977772 0 -0.064195105522778767 -0.0010222978605633683 0 -0.063941564473921908 -0.0010396973790702149 0 -0.064396647136733556 -0.00091970061477043505 0 -0.064246413668385474 -0.00077094862941977772 0 -0.064195105522778767 -0.0010222978605633683 0 -0.064361153742194088 -0.0003393259329564195 0 -0.0643093757693734 -0.00045216306851395173 0 -0.06426045053549613 -0.0012723518588627287 0 -0.064195105522778767 -0.0010222978605633683 0 -0.063941564473921908 -0.0010396973790702149 0 -0.06426045053549613 -0.0012723518588627287 0 -0.064396647136733556 -0.00091970061477043505 0 -0.064195105522778767 -0.0010222978605633683 0 -0.06426045053549613 -0.0012723518588627287 0 -0.063937718203015095 -0.0013754226054170531 0 -0.063941564473921908 -0.0010396973790702149 0 -0.064797903020081593 9.2756445889213712e-06 0 -0.064847966486509701 4.3761162831761194e-05 0 -0.064846496612334451 3.1988383209692135e-06 0 -0.064847966486509701 4.3761162831761194e-05 0 -0.064877339591613903 2.2327004753949392e-05 0 -0.064846496612334451 3.1988383209692135e-06 0 -0.06486472702120534 3.6598202815984985e-05 0 -0.064867563153402835 3.8979363990127217e-05 0 -0.064855755881232768 2.0723936167368793e-05 0 -0.064093414788735162 0.00085353979496508123 0 -0.064070006862234144 0.00077333881459342325 0 -0.064171614263093354 0.00077790299531809663 0 -0.064070006862234144 0.00077333881459342325 0 -0.063706247256307719 0.0006961818351496321 0 -0.064426445567938986 0.0008019450004123173 0 -0.063706247256307719 0.0006961818351496321 0 -0.062815725824836702 0.00098447203729159225 0 -0.062911009225167111 0.0017551995097861309 0 -0.063706247256307719 0.0006961818351496321 0 -0.062973512260000336 0.0018273707476955882 0 -0.062911009225167111 0.0017551995097861309 0 -0.063860930433842139 0.0008930864453398444 0 -0.06380536151396772 0.0010922953499065816 0 -0.064070006862234144 0.00077333881459342325 0 -0.064195806772299968 0.00077011725785854329 0 -0.064171614263093354 0.00077790299531809663 0 -0.064070006862234144 0.00077333881459342325 0 -0.064238215828772802 0.00077502796740864881 0 -0.064195806772299968 0.00077011725785854329 0 -0.064093414788735162 0.00085353979496508123 0 -0.064070006862234144 0.00077333881459342325 0 -0.063706247256307719 0.0006961818351496321 0 -0.063706247256307719 0.0006961818351496321 0 -0.062815725824836702 0.00098447203729159225 0 -0.063013087893545788 3.9158846038678405e-05 0 -0.063706247256307719 0.0006961818351496321 0 -0.063720134274901488 0.00026755840608920831 0 -0.063013087893545788 3.9158846038678405e-05 0 -0.064847966486509701 4.3761162831761194e-05 0 -0.064870944591165158 5.9577476000972453e-05 0 -0.064877540026449632 6.6584399266186571e-05 0 -0.064867563153402835 3.8979363990127217e-05 0 -0.064870944591165158 5.9577476000972453e-05 0 -0.064877540026449632 6.6584399266186571e-05 0 -0.064702747681780817 8.7677407567089962e-05 0 -0.064733888740505355 6.782690626664136e-05 0 -0.0643093757693734 -0.00045216306851395173 0 -0.06414351482188535 -0.00058966203662463759 0 -0.064847966486509701 4.3761162831761194e-05 0 -0.064877339591613903 2.2327004753949392e-05 0 -0.064870944591165158 5.9577476000972453e-05 0 -0.064425774568214217 0.00018335775371381064 0 -0.06414351482188535 -0.00058966203662463759 0 -0.064093414788735162 0.00085353979496508123 0 -0.063720134274901488 0.00026755840608920831 0 -0.063932901201385062 -6.7934740260891306e-06 0 -0.064093414788735162 0.00085353979496508123 0 -0.063706247256307719 0.0006961818351496321 0 -0.063720134274901488 0.00026755840608920831 0 -0.06486472702120534 3.6598202815984985e-05 0 -0.064867563153402835 3.8979363990127217e-05 0 -0.064870944591165158 5.9577476000972453e-05 0 -0.062699531086168173 0.0013259852707099183 0 -0.062715514597382893 0.0016794360778533918 0 -0.06247815941971329 0.0015566354159525799 0 -0.061671864051111046 0.0013894234847949692 0 -0.062099340518017465 0.0016359121444151096 0 -0.062815725824836702 0.00098447203729159225 0 -0.061943006711577972 0.0008040855145547152 0 -0.062911009225167111 0.0017551995097861309 0 -0.062699531086168173 0.0013259852707099183 0 -0.062715514597382893 0.0016794360778533918 0 -0.062911009225167111 0.0017551995097861309 0 -0.062815725824836702 0.00098447203729159225 0 -0.061943006711577972 0.0008040855145547152 0 -0.062163675518168447 7.0170018020791091e-05 0 -0.062815725824836702 0.00098447203729159225 0 -0.062163675518168447 7.0170018020791091e-05 0 -0.063013087893545788 3.9158846038678405e-05 0 -0.061943006711577972 0.0008040855145547152 0 -0.062163675518168447 7.0170018020791091e-05 0 -0.060991047882021837 -0.0002230360744145106 0 -0.061671864051111046 0.0013894234847949692 0 -0.060644454523817615 0.0011303127222482838 0 -0.062163675518168447 7.0170018020791091e-05 0 -0.06236047653918067 -0.00070205963176032493 0 -0.060991047882021837 -0.0002230360744145106 0 -0.062163675518168447 7.0170018020791091e-05 0 -0.06236047653918067 -0.00070205963176032493 0 -0.063013087893545788 3.9158846038678405e-05 0 -0.06236047653918067 -0.00070205963176032493 0 -0.063013087893545788 3.9158846038678405e-05 0 -0.063151012808467397 -0.00054486469268149034 0 -0.06236047653918067 -0.00070205963176032493 0 -0.063069710130390394 -0.0011624106375765985 0 -0.062517120357789391 -0.0015760059868715564 0 -0.06236047653918067 -0.00070205963176032493 0 -0.061531889208343619 -0.0013665670439865676 0 -0.062517120357789391 -0.0015760059868715564 0 -0.06236047653918067 -0.00070205963176032493 0 -0.063151012808467397 -0.00054486469268149034 0 -0.063069710130390394 -0.0011624106375765985 0 -0.06236047653918067 -0.00070205963176032493 0 -0.061531889208343619 -0.0013665670439865676 0 -0.060991047882021837 -0.0002230360744145106 0 -0.063937718203015095 -0.0013754226054170531 0 -0.063750247204248156 -0.0014767554620196285 0 -0.063618246378008156 -0.0013102509513466803 0 -0.063945546683543103 -2.3539566754682986e-05 0 -0.06382754909483504 -0.00011948555133035423 0 -0.063673847294323779 -0.0011873183589286276 0 -0.063720134274901488 0.00026755840608920831 0 -0.063932901201385062 -6.7934740260891306e-06 0 -0.06382754909483504 -0.00011948555133035423 0 -0.06414351482188535 -0.00058966203662463759 0 -0.064143084720017701 -0.00058745208737935768 0 -0.063720134274901488 0.00026755840608920831 0 -0.063458356231017116 -0.00016148131400639458 0 -0.063013087893545788 3.9158846038678405e-05 0 -0.063720134274901488 0.00026755840608920831 0 -0.06382754909483504 -0.00011948555133035423 0 -0.063458356231017116 -0.00016148131400639458 0 -0.063458356231017116 -0.00016148131400639458 0 -0.063013087893545788 3.9158846038678405e-05 0 -0.063151012808467397 -0.00054486469268149034 0 -0.06382754909483504 -0.00011948555133035423 0 -0.063458356231017116 -0.00016148131400639458 0 -0.063485089622206448 -0.00041555541002345016 0 -0.06382754909483504 -0.00011948555133035423 0 -0.063485089622206448 -0.00041555541002345016 0 -0.063470984982845022 -0.00076427925178376309 0 -0.063458356231017116 -0.00016148131400639458 0 -0.063485089622206448 -0.00041555541002345016 0 -0.063151012808467397 -0.00054486469268149034 0 -0.06382754909483504 -0.00011948555133035423 0 -0.063470984982845022 -0.00076427925178376309 0 -0.063673847294323779 -0.0011873183589286276 0 -0.063485089622206448 -0.00041555541002345016 0 -0.063470984982845022 -0.00076427925178376309 0 -0.063151012808467397 -0.00054486469268149034 0 -0.063470984982845022 -0.00076427925178376309 0 -0.063151012808467397 -0.00054486469268149034 0 -0.063069710130390394 -0.0011624106375765985 0 -0.063470984982845022 -0.00076427925178376309 0 -0.063069710130390394 -0.0011624106375765985 0 -0.063673847294323779 -0.0011873183589286276 0 -0.06414351482188535 -0.00058966203662463759 0 -0.063861098060792418 -0.0013452299266905152 0 -0.063750247204248156 -0.0014767554620196285 0 -0.063618246378008156 -0.0013102509513466803 0 -0.06352131330240883 -0.0017285538865991444 0 -0.063750247204248156 -0.0014767554620196285 0 -0.06352131330240883 -0.0017285538865991444 0 -0.063792002753661439 -0.0016637853685615702 0 -0.06352131330240883 -0.0017285538865991444 0 -0.063792002753661439 -0.0016637853685615702 0 -0.063730925996209387 -0.0020024534246764402 0 -0.063792002753661439 -0.0016637853685615702 0 -0.063730925996209387 -0.0020024534246764402 0 -0.064022397711120241 -0.001972390949441967 0 -0.06352131330240883 -0.0017285538865991444 0 -0.063730925996209387 -0.0020024534246764402 0 -0.063397787783798898 -0.0023445754652283552 0 -0.063730925996209387 -0.0020024534246764402 0 -0.063755367719785572 -0.0023015240747715038 0 -0.063948775201468896 -0.0022001169092841916 0 -0.063673847294323779 -0.0011873183589286276 0 -0.063100072313189828 -0.0017645246794003643 0 -0.063397787783798898 -0.0023445754652283552 0 -0.063861098060792418 -0.0013452299266905152 0 -0.063748154410157659 -0.001747776967527285 0 -0.063100072313189828 -0.0017645246794003643 0 -0.062848431155643661 -0.0024824784914642293 0 -0.062517120357789391 -0.0015760059868715564 0 -0.063069710130390394 -0.0011624106375765985 0 -0.063673847294323779 -0.0011873183589286276 0 -0.063100072313189828 -0.0017645246794003643 0 -0.063069710130390394 -0.0011624106375765985 0 -0.063100072313189828 -0.0017645246794003643 0 -0.062517120357789391 -0.0015760059868715564 0 -0.062848431155643661 -0.0024824784914642293 0 -0.062235854298410956 -0.0026922406905239542 0 -0.063219093504854718 -0.0028675407825283598 0 -0.063100072313189828 -0.0017645246794003643 0 -0.063397787783798898 -0.0023445754652283552 0 -0.062848431155643661 -0.0024824784914642293 0 -0.062848431155643661 -0.0024824784914642293 0 -0.063307361048426228 -0.0025937936517858844 0 -0.063219093504854718 -0.0028675407825283598 0 -0.063397787783798898 -0.0023445754652283552 0 -0.062848431155643661 -0.0024824784914642293 0 -0.063307361048426228 -0.0025937936517858844 0 -0.063307361048426228 -0.0025937936517858844 0 -0.063660009479900442 -0.0026523455930697166 0 -0.063219093504854718 -0.0028675407825283598 0 -0.063397787783798898 -0.0023445754652283552 0 -0.063307361048426228 -0.0025937936517858844 0 -0.063660009479900442 -0.0026523455930697166 0 -0.063397787783798898 -0.0023445754652283552 0 -0.063660009479900442 -0.0026523455930697166 0 -0.063755367719785572 -0.0023015240747715038 0 -0.063660009479900442 -0.0026523455930697166 0 -0.063900490255571402 -0.0025012966587387741 0 -0.063755367719785572 -0.0023015240747715038 0 -0.063660009479900442 -0.0026523455930697166 0 -0.063900490255571402 -0.0025012966587387741 0 -0.063855600440071478 -0.0027313459231280029 0 -0.063900490255571402 -0.0025012966587387741 0 -0.063755367719785572 -0.0023015240747715038 0 -0.063948775201468896 -0.0022001169092841916 0 -0.063730925996209387 -0.0020024534246764402 0 -0.063397787783798898 -0.0023445754652283552 0 -0.063755367719785572 -0.0023015240747715038 0 -0.061531889208343619 -0.0013665670439865676 0 -0.061952016143276174 -0.0019933623773527526 0 -0.060990014793151484 -0.0022293144339689853 0 -0.061531889208343619 -0.0013665670439865676 0 -0.062517120357789391 -0.0015760059868715564 0 -0.061952016143276174 -0.0019933623773527526 0 -0.062848431155643661 -0.0024824784914642293 0 -0.061952016143276174 -0.0019933623773527526 0 -0.062235854298410956 -0.0026922406905239542 0 -0.062848431155643661 -0.0024824784914642293 0 -0.062517120357789391 -0.0015760059868715564 0 -0.061952016143276174 -0.0019933623773527526 0 -0.061952016143276174 -0.0019933623773527526 0 -0.062235854298410956 -0.0026922406905239542 0 -0.060990014793151484 -0.0022293144339689853 0 -0.060784216569971419 -0.0023323215918906893 0 -0.060990014793151484 -0.0022293144339689853 0 -0.060806196579624133 -0.0023165832601853469 0 -0.061302574506148462 -0.0021363771826183823 0 -0.06124699614218089 -0.0021545531599787074 0 -0.060990014793151484 -0.0022293144339689853 0 -0.060806196579624133 -0.0023165832601853469 0 -0.060625108194083413 -0.0023968338069324658 0 -0.060806196579624133 -0.0023165832601853469 0 -0.060700620327044909 -0.0024068432433561335 0 -0.060625108194083413 -0.0023968338069324658 0 -0.060806196579624133 -0.0023165832601853469 0 -0.060763705431494418 -0.0023591901239949733 0 -0.060700620327044909 -0.0024068432433561335 0 -0.061302574506148462 -0.0021363771826183823 0 -0.060941895580224045 -0.0018898505894847345 0 -0.060784216569971419 -0.0023323215918906893 0 -0.060806196579624133 -0.0023165832601853469 0 -0.060763705431494418 -0.0023591901239949733 0 -0.060784216569971419 -0.0023323215918906893 0 -0.060763705431494418 -0.0023591901239949733 0 -0.060800020955458424 -0.0023439737128057459 0 -0.060763705431494418 -0.0023591901239949733 0 -0.060784988222067633 -0.0023791481410144165 0 -0.060800020955458424 -0.0023439737128057459 0 -0.060763705431494418 -0.0023591901239949733 0 -0.060784988222067633 -0.0023791481410144165 0 -0.060769144207239015 -0.0024262433423204214 0 -0.060784988222067633 -0.0023791481410144165 0 -0.060769144207239015 -0.0024262433423204214 0 -0.06081162956695129 -0.0023965007274379902 0 -0.060734849218611602 -0.0025216730748686277 0 -0.060769144207239015 -0.0024262433423204214 0 -0.060682849010975398 -0.002474175913800693 0 -0.060734849218611602 -0.0025216730748686277 0 -0.060769144207239015 -0.0024262433423204214 0 -0.060821171690808813 -0.0024465791848451504 0 -0.060763705431494418 -0.0023591901239949733 0 -0.060769144207239015 -0.0024262433423204214 0 -0.060682849010975398 -0.002474175913800693 0 -0.060763705431494418 -0.0023591901239949733 0 -0.060682849010975398 -0.002474175913800693 0 -0.060700620327044909 -0.0024068432433561335 0 -0.060682849010975398 -0.002474175913800693 0 -0.060700620327044909 -0.0024068432433561335 0 -0.060581399802961206 -0.002502553045872523 0 -0.060700620327044909 -0.0024068432433561335 0 -0.060581399802961206 -0.002502553045872523 0 -0.060625108194083413 -0.0023968338069324658 0 -0.063660009479900442 -0.0026523455930697166 0 -0.063855027272350429 -0.0029849278732074942 0 -0.063219093504854718 -0.0028675407825283598 0 -0.060764966679576086 -0.0023193636864649115 0 -0.060759001395259651 -0.0023246556027356384 0 -0.060794843616819534 -0.0023435252286147122 0 -0.058659907381701439 -0.00091705915842748556 0 -0.060941895580224045 -0.0018898505894847345 0 -0.055196398054567962 -0.0025777000141606584 0 -0.058963516007415999 -0.0034137687353389679 0 -0.058100262167616018 0.00083837119139545566 0 -0.058670492673297402 -0.00091220623919468027 0 -0.057258992461598192 -0.00058358464710909911 0 -0.057258992461598192 -0.00058358464710909911 0 -0.057904896997052792 -0.00066752655144911249 0 -0.058963516007415999 -0.0034137687353389679 0 -0.058100262167616018 0.00083837119139545566 0 -0.060422449921508803 0.00013267384950393834 0 -0.058659907381701439 -0.00091705915842748556 0 -0.057904896997052792 -0.00066752655144911249 0 -0.058670492673297402 -0.00091220623919468027 0 -0.058659907381701439 -0.00091705915842748556 0 -0.063855027272350429 -0.0029849278732074942 0 -0.063855600440071478 -0.0027313459231280029 0 -0.064006800737544806 -0.0027883292869664488 0 -0.063660009479900442 -0.0026523455930697166 0 -0.063855027272350429 -0.0029849278732074942 0 -0.063855600440071478 -0.0027313459231280029 0 -0.060784216569971419 -0.0023323215918906893 0 -0.060794843616819534 -0.0023435252286147122 0 -0.060800020955458424 -0.0023439737128057459 0 -0.060764966679576086 -0.0023193636864649115 0 -0.060794843616819534 -0.0023435252286147122 0 -0.060800020955458424 -0.0023439737128057459 0 -0.060964317218851899 -0.0023665897244520809 0 -0.060800020955458424 -0.0023439737128057459 0 -0.060874594237303917 -0.0024028979405003267 0 -0.058670492673297402 -0.00091220623919468027 0 -0.05999867601049292 -0.0014029375010839453 0 -0.060784988222067633 -0.0023791481410144165 0 -0.060800020955458424 -0.0023439737128057459 0 -0.06081162956695129 -0.0023965007274379902 0 -0.060800020955458424 -0.0023439737128057459 0 -0.060874594237303917 -0.0024028979405003267 0 -0.06081162956695129 -0.0023965007274379902 0 -0.060769144207239015 -0.0024262433423204214 0 -0.06081162956695129 -0.0023965007274379902 0 -0.060821171690808813 -0.0024465791848451504 0 -0.060874594237303917 -0.0024028979405003267 0 -0.06081162956695129 -0.0023965007274379902 0 -0.060821171690808813 -0.0024465791848451504 0 -0.060867169553917959 -0.0025074886634292555 0 -0.060734849218611602 -0.0025216730748686277 0 -0.060821171690808813 -0.0024465791848451504 0 -0.060867169553917959 -0.0025074886634292555 0 -0.060874594237303917 -0.0024028979405003267 0 -0.060821171690808813 -0.0024465791848451504 0 -0.060867169553917959 -0.0025074886634292555 0 -0.060964317218851899 -0.0023665897244520809 0 -0.060874594237303917 -0.0024028979405003267 0 -0.059799470805461871 -0.001432656680768498 0 -0.058670492673297402 -0.00091220623919468027 0 -0.061228345659931925 -0.001766718526542375 0 -0.060910176319475928 -0.0016813506429676462 0 -0.061347758155162413 -0.0011484470808151587 0 -0.047855523978661697 0.004498395901697652 0 -0.04653328950296047 0.0043295838076546833 0 -0.047154099005401851 0.0057740983518767067 0 -0.054092371387845901 0.00075483560567950702 0 -0.057258992461598192 -0.00058358464710909911 0 -0.061228345659931925 -0.001766718526542375 0 -0.061347758155162413 -0.0011484470808151587 0 -0.061455361796784805 -0.0011722054881986256 0 -0.047855523978661697 0.004498395901697652 0 -0.047154099005401851 0.0057740983518767067 0 -0.048750023573873293 0.0054224040386584571 0 -0.057258992461598192 -0.00058358464710909911 0 -0.054073858946714973 0.0017626770439076638 0 -0.057141081662495166 0.00037257567417031315 0 -0.055590510523040551 0.00055943426521821722 0 -0.055519377940932264 0.00073725585708843693 0 -0.049151891272774834 0.0044015474833612794 0 -0.047855523978661697 0.004498395901697652 0 -0.048750023573873293 0.0054224040386584571 0 -0.049903151864462481 0.003868235937084847 0 -0.054073858946714973 0.0017626770439076638 0 -0.05152389747018029 0.0028161443423502523 0 -0.051427775685291964 0.002347167699967232 0 -0.051312749614452563 0.0025515360542456094 0 -0.05152389747018029 0.0028161443423502523 0 -0.051741766327117321 0.0022758013271027742 0 -0.051427775685291964 0.002347167699967232 0 -0.049903151864462481 0.003868235937084847 0 -0.053191092712901435 0.002994516787204673 0 -0.054931490052061334 0.0011759132031094934 0 -0.054073858946714973 0.0017626770439076638 0 -0.054073858946714973 0.0017626770439076638 0 -0.054596987047144843 0.002055081797582597 0 -0.054931490052061334 0.0011759132031094934 0 -0.055170038511186681 0.0015933630261335025 0 -0.053633853386898071 0.0018724167416673987 0 -0.055698842564763422 0.0018517392602006002 0 -0.055977944030462717 0.0013553978232713068 0 -0.05335995815105786 0.0025590839661630174 0 -0.053633853386898071 0.0018724167416673987 0 -0.055698842564763422 0.0018517392602006002 0 -0.055170038511186681 0.0015933630261335025 0 -0.054596987047144843 0.002055081797582597 0 -0.054931490052061334 0.0011759132031094934 0 -0.058969855637779789 -0.0011083798415193803 0 -0.057105870584181304 0.0014308686157069172 0 -0.057033362894195458 0.00023534758841077633 0 -0.058070910931688417 -0.00098516041938044585 0 -0.063226240669511657 -0.0012749081687016455 0 -0.063254535591753175 -0.0013156867976620711 0 -0.063231782824782146 -0.0013148843319233943 0 -0.055170038511186681 0.0015933630261335025 0 -0.057758090651815489 -0.00024373855707263001 0 -0.057105870584181304 0.0014308686157069172 0 -0.056208187998092407 0.0017052363987604675 0 -0.057033362894195458 0.00023534758841077633 0 -0.063254535591753175 -0.0013156867976620711 0 -0.063238789678477722 -0.0013400359163442612 0 -0.063231782824782146 -0.0013148843319233943 0 -0.054931490052061334 0.0011759132031094934 0 -0.057904896997052792 -0.00066752655144911249 0 -0.057141081662495166 0.00037257567417031315 0 -0.055590510523040551 0.00055943426521821722 0 -0.057035612513772843 0.00011642050909589471 0 -0.057747152602490096 -0.00054388289735818102 0 -0.05764166717844401 -0.00051365240130797835 0 -0.057657428098140111 -0.00047694443098763792 0 -0.057747152602490096 -0.00054388289735818102 0 -0.057657428098140111 -0.00047694443098763792 0 -0.05770423058347867 -0.00042370473189720312 0 -0.057340211863205079 -0.0023045913787334386 0 -0.058123872880370873 -0.0025427629464130838 0 -0.059048126475521545 -0.00029550283698078839 0 -0.057904896997052792 -0.00066752655144911249 0 -0.058631704108837196 -0.00093741951161502041 0 -0.058659907381701439 -0.00091705915842748556 0 -0.058631704108837196 -0.00093741951161502041 0 -0.058631704108837196 -0.00093741951161502041 0 -0.058969855637779789 -0.0011083798415193803 0 -0.058631704108837196 -0.00093741951161502041 0 -0.059530512844117207 -0.0014468142046587195 0 -0.063900490255571402 -0.0025012966587387741 0 -0.063855600440071478 -0.0027313459231280029 0 -0.064006800737544806 -0.0027883292869664488 0 -0.063900490255571402 -0.0025012966587387741 0 -0.064006800737544806 -0.0027883292869664488 0 -0.064172571135017731 -0.0023127059551169907 0 -0.063900490255571402 -0.0025012966587387741 0 -0.064172571135017731 -0.0023127059551169907 0 -0.063948775201468896 -0.0022001169092841916 0 -0.059804708030207897 -0.0014651721483285194 0 -0.059530512844117207 -0.0014468142046587195 0 -0.059312681670851485 -0.0011111973943242724 0 -0.059306476889519767 -0.0011252194635556479 0 -0.059329096391512771 -0.0011416326835407436 0 -0.059530512844117207 -0.0014468142046587195 0 -0.058969855637779789 -0.0011083798415193803 0 -0.059306476889519767 -0.0011252194635556479 0 -0.059329096391512771 -0.0011416326835407436 0 -0.059317518403735496 -0.0011547951194008789 0 -0.059804708030207897 -0.0014651721483285194 0 -0.059313982056436378 -0.0010894333438423429 0 -0.059038108779838623 -0.0013241286675261578 0 -0.059246750619212904 -0.00082304704944719041 0 -0.059316558188510927 -0.00099928346461991666 0 -0.059313982056436378 -0.0010894333438423429 0 -0.058969855637779789 -0.0011083798415193803 0 -0.057758090651815489 -0.00024373855707263001 0 -0.059313982056436378 -0.0010894333438423429 0 -0.057033362894195458 0.00023534758841077633 0 -0.057859576502769433 -0.0012343489021229084 0 -0.058070910931688417 -0.00098516041938044585 0 -0.063254535591753175 -0.0013156867976620711 0 -0.063274798966036327 -0.0013514455881439053 0 -0.063256242889552394 -0.0013490152968664263 0 -0.063254535591753175 -0.0013156867976620711 0 -0.063256242889552394 -0.0013490152968664263 0 -0.063238789678477722 -0.0013400359163442612 0 -0.063256242889552394 -0.0013490152968664263 0 -0.063238789678477722 -0.0013400359163442612 0 -0.063239261143626616 -0.0013592529442197417 0 -0.063256242889552394 -0.0013490152968664263 0 -0.063254762952020122 -0.0013715768344259103 0 -0.063239261143626616 -0.0013592529442197417 0 -0.063274798966036327 -0.0013514455881439053 0 -0.063256242889552394 -0.0013490152968664263 0 -0.063254762952020122 -0.0013715768344259103 0 -0.062426663300326167 -0.0023066676506797554 0 -0.062457889540829183 -0.0023646712653441872 0 -0.062657839119582392 -0.0021475936852413582 0 -0.059313982056436378 -0.0010894333438423429 0 -0.061633888573484667 -0.001049708339726048 0 -0.063274798966036327 -0.0013514455881439053 0 -0.063254762952020122 -0.0013715768344259103 0 -0.06325776557283426 -0.0014108035573144467 0 -0.062536740250584463 -0.0020720743126461001 0 -0.062426663300326167 -0.0023066676506797554 0 -0.062657839119582392 -0.0021475936852413582 0 -0.06174686969928303 -0.0013632275335788554 0 -0.059804708030207897 -0.0014651721483285194 0 -0.064114912555775699 -0.0016382029251768625 0 -0.063964347062163252 -0.0019837154164852361 0 -0.063889362893971416 -0.0018421243888461327 0 -0.060621436636941209 -0.0021513381196436778 0 -0.060178436652799504 -0.0018772341460895081 0 -0.064172571135017731 -0.0023127059551169907 0 -0.064022397711120241 -0.001972390949441967 0 -0.063948775201468896 -0.0022001169092841916 0 -0.063730925996209387 -0.0020024534246764402 0 -0.064022397711120241 -0.001972390949441967 0 -0.063948775201468896 -0.0022001169092841916 0 -0.059530512844117207 -0.0014468142046587195 0 -0.060178436652799504 -0.0018772341460895081 0 -0.059804708030207897 -0.0014651721483285194 0 -0.060178436652799504 -0.0018772341460895081 0 -0.059638027786467603 -0.0014971549505186949 0 -0.059677619650074405 -0.0014001717096776309 0 -0.059841201425070663 -0.0018569990566650958 0 -0.063208775844627543 -0.0014176847012851716 0 -0.06322161670852379 -0.0013882134248815539 0 -0.063190316644202771 -0.0013532736113921271 0 -0.063208775844627543 -0.0014176847012851716 0 -0.063164469452686431 -0.0013635911520717596 0 -0.063167101349202046 -0.0014639985277853881 0 -0.063208775844627543 -0.0014176847012851716 0 -0.063190316644202771 -0.0013532736113921271 0 -0.063164469452686431 -0.0013635911520717596 0 -0.063208775844627543 -0.0014176847012851716 0 -0.06325776557283426 -0.0014108035573144467 0 -0.06322161670852379 -0.0013882134248815539 0 -0.06325776557283426 -0.0014108035573144467 0 -0.063241066035490373 -0.0013838850817069709 0 -0.06322161670852379 -0.0013882134248815539 0 -0.063254762952020122 -0.0013715768344259103 0 -0.063241066035490373 -0.0013838850817069709 0 -0.063239261143626616 -0.0013592529442197417 0 -0.063254762952020122 -0.0013715768344259103 0 -0.06325776557283426 -0.0014108035573144467 0 -0.063241066035490373 -0.0013838850817069709 0 -0.063241066035490373 -0.0013838850817069709 0 -0.06322161670852379 -0.0013882134248815539 0 -0.063218348962880075 -0.0013591283736684192 0 -0.063218348962880075 -0.0013591283736684192 0 -0.063239261143626616 -0.0013592529442197417 0 -0.063225739797619265 -0.0013443316428760317 0 -0.063241066035490373 -0.0013838850817069709 0 -0.063218348962880075 -0.0013591283736684192 0 -0.063239261143626616 -0.0013592529442197417 0 -0.063238789678477722 -0.0013400359163442612 0 -0.063239261143626616 -0.0013592529442197417 0 -0.063225739797619265 -0.0013443316428760317 0 -0.063238789678477722 -0.0013400359163442612 0 -0.063225739797619265 -0.0013443316428760317 0 -0.063221836946948079 -0.0013283201147481535 0 -0.063218348962880075 -0.0013591283736684192 0 -0.063210083561598365 -0.001334489003531046 0 -0.063200503834349428 -0.0013420649866398855 0 -0.063218348962880075 -0.0013591283736684192 0 -0.063225739797619265 -0.0013443316428760317 0 -0.063210083561598365 -0.001334489003531046 0 -0.063225739797619265 -0.0013443316428760317 0 -0.063210083561598365 -0.001334489003531046 0 -0.063221836946948079 -0.0013283201147481535 0 -0.063210083561598365 -0.001334489003531046 0 -0.063200148930534938 -0.0013288067335251446 0 -0.063200503834349428 -0.0013420649866398855 0 -0.05975762854665629 0.0015073213386514266 0 -0.061318361479691746 0.0005544029045288449 0 -0.063200503834349428 -0.0013420649866398855 0 -0.063190316644202771 -0.0013532736113921271 0 -0.063187182988684573 -0.0013197265120971492 0 -0.064254299849571636 -2.6620265038908927e-05 0 -0.063853486992514003 -0.00011088560597165403 0 -0.063831544881746999 -0.00072254117845892596 0 -0.063190316644202771 -0.0013532736113921271 0 -0.063187182988684573 -0.0013197265120971492 0 -0.063164469452686431 -0.0013635911520717596 0 -0.063200148930534938 -0.0013288067335251446 0 -0.063200503834349428 -0.0013420649866398855 0 -0.063187182988684573 -0.0013197265120971492 0 -0.06322161670852379 -0.0013882134248815539 0 -0.063218348962880075 -0.0013591283736684192 0 -0.063190316644202771 -0.0013532736113921271 0 -0.063218348962880075 -0.0013591283736684192 0 -0.063200503834349428 -0.0013420649866398855 0 -0.063190316644202771 -0.0013532736113921271 0 -0.064218378152895314 3.742247849208853e-05 0 -0.064226873369524054 9.050849224126215e-05 0 -0.064208763069187574 0.00015588643672362007 0 -0.064254299849571636 -2.6620265038908927e-05 0 -0.064218378152895314 3.742247849208853e-05 0 -0.063853486992514003 -0.00011088560597165403 0 -0.064218378152895314 3.742247849208853e-05 0 -0.063900684313830822 0.0001066477267960624 0 -0.063853486992514003 -0.00011088560597165403 0 -0.063200148930534938 -0.0013288067335251446 0 -0.063187182988684573 -0.0013197265120971492 0 -0.063203446282129122 -0.0013170641998550079 0 -0.064254299849571636 -2.6620265038908927e-05 0 -0.064218378152895314 3.742247849208853e-05 0 -0.064226873369524054 9.050849224126215e-05 0 -0.064218378152895314 3.742247849208853e-05 0 -0.064114909824923003 0.00020570256744237175 0 -0.064252608272226674 0.00032733530099450937 0 -0.064218378152895314 3.742247849208853e-05 0 -0.064114909824923003 0.00020570256744237175 0 -0.063900684313830822 0.0001066477267960624 0 -0.064114909824923003 0.00020570256744237175 0 -0.064137975719527091 0.00031928789031505331 0 -0.064252608272226674 0.00032733530099450937 0 -0.064114909824923003 0.00020570256744237175 0 -0.063957275182055573 0.000313232689153307 0 -0.063900684313830822 0.0001066477267960624 0 -0.064114909824923003 0.00020570256744237175 0 -0.064137975719527091 0.00031928789031505331 0 -0.063957275182055573 0.000313232689153307 0 -0.064254299849571636 -2.6620265038908927e-05 0 -0.064226873369524054 9.050849224126215e-05 0 -0.064240943684258159 0.00016583085602668872 0 -0.05975762854665629 0.0015073213386514266 0 -0.055040060967254251 0.0023721375429993897 0 -0.063187182988684573 -0.0013197265120971492 0 -0.063205360059606558 -0.0013019781281941856 0 -0.06320502441107903 -0.0012664866240820417 0 -0.063238789678477722 -0.0013400359163442612 0 -0.063231782824782146 -0.0013148843319233943 0 -0.063221836946948079 -0.0013283201147481535 0 -0.063231782824782146 -0.0013148843319233943 0 -0.063221836946948079 -0.0013283201147481535 0 -0.06321614607449956 -0.001310696676190841 0 -0.063187182988684573 -0.0013197265120971492 0 -0.063203446282129122 -0.0013170641998550079 0 -0.063205360059606558 -0.0013019781281941856 0 -0.06321614607449956 -0.001310696676190841 0 -0.063203446282129122 -0.0013170641998550079 0 -0.063205360059606558 -0.0013019781281941856 0 -0.063210083561598365 -0.001334489003531046 0 -0.063221836946948079 -0.0013283201147481535 0 -0.063203446282129122 -0.0013170641998550079 0 -0.063221836946948079 -0.0013283201147481535 0 -0.06321614607449956 -0.001310696676190841 0 -0.063203446282129122 -0.0013170641998550079 0 -0.063210083561598365 -0.001334489003531046 0 -0.063200148930534938 -0.0013288067335251446 0 -0.063203446282129122 -0.0013170641998550079 0 -0.063226240669511657 -0.0012749081687016455 0 -0.063231782824782146 -0.0013148843319233943 0 -0.063216265335412566 -0.0012936782841149056 0 -0.063205360059606558 -0.0013019781281941856 0 -0.063216265335412566 -0.0012936782841149056 0 -0.06320502441107903 -0.0012664866240820417 0 -0.06321614607449956 -0.001310696676190841 0 -0.063205360059606558 -0.0013019781281941856 0 -0.063216265335412566 -0.0012936782841149056 0 -0.063231782824782146 -0.0013148843319233943 0 -0.06321614607449956 -0.001310696676190841 0 -0.063216265335412566 -0.0012936782841149056 0 -0.063226240669511657 -0.0012749081687016455 0 -0.063216265335412566 -0.0012936782841149056 0 -0.06320502441107903 -0.0012664866240820417 0 -0.054161655770867893 0.0027682651636344938 0 -0.054328790437978586 0.0024716254670781846 0 -0.055384279185545789 0.0022405897583163293 0 -0.055170038511186681 0.0015933630261335025 0 -0.055040060967254251 0.0023721375429993897 0 -0.054596987047144843 0.002055081797582597 0 -0.055040060967254251 0.0023721375429993897 0 -0.052605995024915926 0.0018172937260564001 0 -0.052732853185439826 0.0017904135157056362 0 -0.052666440128749083 0.0017097376148502916 0 -0.064226873369524054 9.050849224126215e-05 0 -0.064240943684258159 0.00016583085602668872 0 -0.064223474228945435 0.00013490869758428397 0 -0.064226873369524054 9.050849224126215e-05 0 -0.064223474228945435 0.00013490869758428397 0 -0.064208763069187574 0.00015588643672362007 0 -0.064240943684258159 0.00016583085602668872 0 -0.064221772807849173 0.0001508219302105199 0 -0.064223474228945435 0.00013490869758428397 0 -0.055040060967254251 0.0023721375429993897 0 -0.055479922065740594 0.0023043550340025071 0 -0.064221772807849173 0.0001508219302105199 0 -0.064223474228945435 0.00013490869758428397 0 -0.064208763069187574 0.00015588643672362007 0 -0.055040060967254251 0.0023721375429993897 0 -0.054363728294181214 0.0034725258587641221 0 -0.05231568165078318 0.0038401933683219463 0 -0.052756858691110957 0.0037429808120696341 0 -0.052163555605770968 0.0036538307235583628 0 -0.052485214039279311 0.0030766725984165844 0 -0.052756858691110957 0.0037429808120696341 0 -0.052163555605770968 0.0036538307235583628 0 -0.064235136546572355 0.00014783613868323242 0 -0.064221772807849173 0.0001508219302105199 0 -0.064208763069187574 0.00015588643672362007 0 -0.055040060967254251 0.0023721375429993897 0 -0.053191092712901435 0.002994516787204673 0 -0.054596987047144843 0.002055081797582597 0 -0.053191092712901435 0.002994516787204673 0 -0.064218378152895314 3.742247849208853e-05 0 -0.064410948977466395 0.00058657805160938509 0 -0.064252608272226674 0.00032733530099450937 0 -0.055728318674183729 0.0031937535302274255 0 -0.054363728294181214 0.0034725258587641221 0 -0.064105129923578544 0.00043367490524242453 0 -0.064167533318517073 0.00053030229337202358 0 -0.063930766989361995 0.00053046586313711737 0 -0.064105129923578544 0.00043367490524242453 0 -0.064167533318517073 0.00053030229337202358 0 -0.064200958297659302 0.00045751405413138049 0 -0.064105129923578544 0.00043367490524242453 0 -0.064195289064146607 0.00038422475320570474 0 -0.064200958297659302 0.00045751405413138049 0 -0.064105129923578544 0.00043367490524242453 0 -0.063930766989361995 0.00053046586313711737 0 -0.063957275182055573 0.000313232689153307 0 -0.064105129923578544 0.00043367490524242453 0 -0.064137975719527091 0.00031928789031505331 0 -0.063957275182055573 0.000313232689153307 0 -0.064105129923578544 0.00043367490524242453 0 -0.064137975719527091 0.00031928789031505331 0 -0.064195289064146607 0.00038422475320570474 0 -0.064252608272226674 0.00032733530099450937 0 -0.064250964038739158 0.00042158373962970482 0 -0.064325661979196744 0.00051079556862473441 0 -0.064410948977466395 0.00058657805160938509 0 -0.064252608272226674 0.00032733530099450937 0 -0.064325661979196744 0.00051079556862473441 0 -0.064137975719527091 0.00031928789031505331 0 -0.064252608272226674 0.00032733530099450937 0 -0.064195289064146607 0.00038422475320570474 0 -0.064252608272226674 0.00032733530099450937 0 -0.064250964038739158 0.00042158373962970482 0 -0.064195289064146607 0.00038422475320570474 0 -0.064250964038739158 0.00042158373962970482 0 -0.064195289064146607 0.00038422475320570474 0 -0.064200958297659302 0.00045751405413138049 0 -0.064250964038739158 0.00042158373962970482 0 -0.064200958297659302 0.00045751405413138049 0 -0.064255297255169569 0.00047326640539955075 0 -0.064250964038739158 0.00042158373962970482 0 -0.064325661979196744 0.00051079556862473441 0 -0.064255297255169569 0.00047326640539955075 0 -0.064325661979196744 0.00051079556862473441 0 -0.064255297255169569 0.00047326640539955075 0 -0.064249636707548741 0.00054602343815212003 0 -0.064167533318517073 0.00053030229337202358 0 -0.064255297255169569 0.00047326640539955075 0 -0.064249636707548741 0.00054602343815212003 0 -0.064167533318517073 0.00053030229337202358 0 -0.064200958297659302 0.00045751405413138049 0 -0.064255297255169569 0.00047326640539955075 0 -0.04861052719080141 0.0051289082774162095 0 -0.048736196925044314 0.0043915591223668013 0 -0.048287579088512139 0.004491158346440355 0 -0.064167533318517073 0.00053030229337202358 0 -0.064249636707548741 0.00054602343815212003 0 -0.064228912754689449 0.00062484651135408709 0 -0.064325661979196744 0.00051079556862473441 0 -0.064249636707548741 0.00054602343815212003 0 -0.064228912754689449 0.00062484651135408709 0 -0.054363728294181214 0.0034725258587641221 0 -0.055054837382190712 0.0039976753109650385 0 -0.064410948977466395 0.00058657805160938509 0 -0.064325661979196744 0.00051079556862473441 0 -0.064228912754689449 0.00062484651135408709 0 -0.055054837382190712 0.0039976753109650385 0 -0.057118358196013304 0.0034534042179303562 0 -0.063786230530092067 0.00090219218097219102 0 -0.064106025829720109 0.0006428559825754752 0 -0.0638347392301509 0.00069671229440864595 0 -0.064228912754689449 0.00062484651135408709 0 -0.0638347392301509 0.00069671229440864595 0 -0.063930766989361995 0.00053046586313711737 0 -0.064167533318517073 0.00053030229337202358 0 -0.064228912754689449 0.00062484651135408709 0 -0.063930766989361995 0.00053046586313711737 0 -0.0638347392301509 0.00069671229440864595 0 -0.063930766989361995 0.00053046586313711737 0 -0.06359519852031624 0.00027872770591312682 0 -0.05678913941608147 0.0044472778435404071 0 -0.058346131234181441 0.0033678657392216239 0 -0.063714552135136743 0.0017505068245559261 0 -0.064367443595173088 0.0016839148926851566 0 -0.06359519852031624 0.00027872770591312682 0 -0.063786230530092067 0.00090219218097219102 0 -0.0638347392301509 0.00069671229440864595 0 -0.06359519852031624 0.00027872770591312682 0 -0.063930766989361995 0.00053046586313711737 0 -0.063957275182055573 0.000313232689153307 0 -0.06359519852031624 0.00027872770591312682 0 -0.063900684313830822 0.0001066477267960624 0 -0.06359519852031624 0.00027872770591312682 0 -0.063853486992514003 -0.00011088560597165403 0 -0.063957275182055573 0.000313232689153307 0 -0.063900684313830822 0.0001066477267960624 0 -0.06359519852031624 0.00027872770591312682 0 -0.06359519852031624 0.00027872770591312682 0 -0.063853486992514003 -0.00011088560597165403 0 -0.063253842086920045 -0.00033594153506255245 0 -0.06359519852031624 0.00027872770591312682 0 -0.062728340756813564 0.00039524198801567275 0 -0.063253842086920045 -0.00033594153506255245 0 -0.06359519852031624 0.00027872770591312682 0 -0.063155789496332992 0.0009864401920475403 0 -0.062728340756813564 0.00039524198801567275 0 -0.063714552135136743 0.0017505068245559261 0 -0.06359519852031624 0.00027872770591312682 0 -0.063155789496332992 0.0009864401920475403 0 -0.062656438127952366 0.001524022051403896 0 -0.063155789496332992 0.0009864401920475403 0 -0.062728340756813564 0.00039524198801567275 0 -0.062656438127952366 0.001524022051403896 0 -0.061958592909374346 0.00061179562861703575 0 -0.062728340756813564 0.00039524198801567275 0 -0.061958592909374346 0.00061179562861703575 0 -0.062110368724277991 -0.00020346635136015871 0 -0.062728340756813564 0.00039524198801567275 0 -0.062110368724277991 -0.00020346635136015871 0 -0.062728340756813564 0.00039524198801567275 0 -0.062584225636368424 -0.00062001915437294539 0 -0.062728340756813564 0.00039524198801567275 0 -0.062584225636368424 -0.00062001915437294539 0 -0.063253842086920045 -0.00033594153506255245 0 -0.062110368724277991 -0.00020346635136015871 0 -0.062584225636368424 -0.00062001915437294539 0 -0.062035800152650457 -0.00085015178370775987 0 -0.062584225636368424 -0.00062001915437294539 0 -0.062035800152650457 -0.00085015178370775987 0 -0.062688526257761779 -0.0012938589611915829 0 -0.062035800152650457 -0.00085015178370775987 0 -0.062088948863088488 -0.0014258008982161222 0 -0.062688526257761779 -0.0012938589611915829 0 -0.062584225636368424 -0.00062001915437294539 0 -0.063070328665965639 -0.00089727802022966131 0 -0.062688526257761779 -0.0012938589611915829 0 -0.063070328665965639 -0.00089727802022966131 0 -0.063163747825912706 -0.0013726996213499975 0 -0.062688526257761779 -0.0012938589611915829 0 -0.063070328665965639 -0.00089727802022966131 0 -0.063831544881746999 -0.00072254117845892596 0 -0.063163747825912706 -0.0013726996213499975 0 -0.061318361479691746 0.0005544029045288449 0 -0.06166849482227401 0.0001635344650818324 0 -0.063164469452686431 -0.0013635911520717596 0 -0.063167101349202046 -0.0014639985277853881 0 -0.063163747825912706 -0.0013726996213499975 0 -0.063853486992514003 -0.00011088560597165403 0 -0.063831544881746999 -0.00072254117845892596 0 -0.063253842086920045 -0.00033594153506255245 0 -0.063070328665965639 -0.00089727802022966131 0 -0.063831544881746999 -0.00072254117845892596 0 -0.063253842086920045 -0.00033594153506255245 0 -0.062584225636368424 -0.00062001915437294539 0 -0.063070328665965639 -0.00089727802022966131 0 -0.063253842086920045 -0.00033594153506255245 0 -0.059942290438213787 -0.00070117365339884483 0 -0.060202461392116678 0.00011211514083329347 0 -0.060751111057669102 -0.00019956101711659412 0 -0.059402278592056969 7.0163728359374631e-06 0 -0.059942290438213787 -0.00070117365339884483 0 -0.060202461392116678 0.00011211514083329347 0 -0.059974166266064319 0.00057648564662513327 0 -0.059402278592056969 7.0163728359374631e-06 0 -0.060202461392116678 0.00011211514083329347 0 -0.060540250329921767 0.00040458737846305292 0 -0.060299242968448963 0.00048531364076440548 0 -0.060202461392116678 0.00011211514083329347 0 -0.060540250329921767 0.00040458737846305292 0 -0.060202461392116678 0.00011211514083329347 0 -0.060751111057669102 -0.00019956101711659412 0 -0.060540250329921767 0.00040458737846305292 0 -0.060751111057669102 -0.00019956101711659412 0 -0.061013231685217446 0.00013178466099302916 0 -0.059942290438213787 -0.00070117365339884483 0 -0.060751111057669102 -0.00019956101711659412 0 -0.060876489585936611 -0.00066311170227505373 0 -0.060751111057669102 -0.00019956101711659412 0 -0.060876489585936611 -0.00066311170227505373 0 -0.061328083220571226 -0.00025672052392748001 0 -0.060751111057669102 -0.00019956101711659412 0 -0.061013231685217446 0.00013178466099302916 0 -0.061328083220571226 -0.00025672052392748001 0 -0.059450287709610999 0.0010416865057828266 0 -0.060837121255947424 0.00095081652432195949 0 -0.061328083220571226 -0.00025672052392748001 0 -0.059954567122443139 0.00094170077288075426 0 -0.060477710693230685 0.00039469915758608907 0 -0.061478485249004892 0.0017802454641040522 0 -0.061958592909374346 0.00061179562861703575 0 -0.060837121255947424 0.00095081652432195949 0 -0.061958592909374346 0.00061179562861703575 0 -0.060837121255947424 0.00095081652432195949 0 -0.061328083220571226 -0.00025672052392748001 0 -0.061958592909374346 0.00061179562861703575 0 -0.062110368724277991 -0.00020346635136015871 0 -0.061328083220571226 -0.00025672052392748001 0 -0.062035800152650457 -0.00085015178370775987 0 -0.061328083220571226 -0.00025672052392748001 0 -0.061423608579658492 -0.0010246593937966952 0 -0.062110368724277991 -0.00020346635136015871 0 -0.062035800152650457 -0.00085015178370775987 0 -0.061328083220571226 -0.00025672052392748001 0 -0.062035800152650457 -0.00085015178370775987 0 -0.061423608579658492 -0.0010246593937966952 0 -0.062088948863088488 -0.0014258008982161222 0 -0.061423608579658492 -0.0010246593937966952 0 -0.061430534752826907 -0.0015635300732312152 0 -0.062088948863088488 -0.0014258008982161222 0 -0.060876489585936611 -0.00066311170227505373 0 -0.061328083220571226 -0.00025672052392748001 0 -0.061423608579658492 -0.0010246593937966952 0 -0.060876489585936611 -0.00066311170227505373 0 -0.061423608579658492 -0.0010246593937966952 0 -0.060606877471411642 -0.0011808098938310484 0 -0.059942290438213787 -0.00070117365339884483 0 -0.060876489585936611 -0.00066311170227505373 0 -0.060606877471411642 -0.0011808098938310484 0 -0.061423608579658492 -0.0010246593937966952 0 -0.060606877471411642 -0.0011808098938310484 0 -0.061430534752826907 -0.0015635300732312152 0 -0.059616887708395017 -0.0013900119319934241 0 -0.060606877471411642 -0.0011808098938310484 0 -0.060566665648144245 -0.0018868221827624788 0 -0.059616887708395017 -0.0013900119319934241 0 -0.059942290438213787 -0.00070117365339884483 0 -0.060606877471411642 -0.0011808098938310484 0 -0.060566665648144245 -0.0018868221827624788 0 -0.061372428507389339 -0.0019463706202358672 0 -0.061126078390843344 -0.0022494129024493831 0 -0.060566665648144245 -0.0018868221827624788 0 -0.061372428507389339 -0.0019463706202358672 0 -0.061430534752826907 -0.0015635300732312152 0 -0.060606877471411642 -0.0011808098938310484 0 -0.060566665648144245 -0.0018868221827624788 0 -0.061430534752826907 -0.0015635300732312152 0 -0.061372428507389339 -0.0019463706202358672 0 -0.061430534752826907 -0.0015635300732312152 0 -0.062169009965706699 -0.0018251217905389846 0 -0.061430534752826907 -0.0015635300732312152 0 -0.062088948863088488 -0.0014258008982161222 0 -0.062169009965706699 -0.0018251217905389846 0 -0.062088948863088488 -0.0014258008982161222 0 -0.062169009965706699 -0.0018251217905389846 0 -0.062624006134172128 -0.0016486976186409193 0 -0.062169009965706699 -0.0018251217905389846 0 -0.062624006134172128 -0.0016486976186409193 0 -0.062746462125633118 -0.0018615570314150774 0 -0.062169009965706699 -0.0018251217905389846 0 -0.062794709411454958 -0.0020671854353104101 0 -0.062746462125633118 -0.0018615570314150774 0 -0.062794709411454958 -0.0020671854353104101 0 -0.061894587399247164 -0.0020667765166336011 0 -0.061670151135003987 -0.0023909646748558125 0 -0.062169009965706699 -0.0018251217905389846 0 -0.062794709411454958 -0.0020671854353104101 0 -0.061894587399247164 -0.0020667765166336011 0 -0.061372428507389339 -0.0019463706202358672 0 -0.062169009965706699 -0.0018251217905389846 0 -0.061894587399247164 -0.0020667765166336011 0 -0.061372428507389339 -0.0019463706202358672 0 -0.061894587399247164 -0.0020667765166336011 0 -0.061126078390843344 -0.0022494129024493831 0 -0.061894587399247164 -0.0020667765166336011 0 -0.061670151135003987 -0.0023909646748558125 0 -0.061126078390843344 -0.0022494129024493831 0 -0.061436888475919105 -0.0025359887120932024 0 -0.061670151135003987 -0.0023909646748558125 0 -0.061126078390843344 -0.0022494129024493831 0 -0.063014259567385239 -0.0016301308946295491 0 -0.063167101349202046 -0.0014639985277853881 0 -0.063060290066827202 -0.0017069982744930248 0 -0.063014259567385239 -0.0016301308946295491 0 -0.063163747825912706 -0.0013726996213499975 0 -0.062688526257761779 -0.0012938589611915829 0 -0.063014259567385239 -0.0016301308946295491 0 -0.063167101349202046 -0.0014639985277853881 0 -0.063163747825912706 -0.0013726996213499975 0 -0.063014259567385239 -0.0016301308946295491 0 -0.062688526257761779 -0.0012938589611915829 0 -0.062624006134172128 -0.0016486976186409193 0 -0.062088948863088488 -0.0014258008982161222 0 -0.062688526257761779 -0.0012938589611915829 0 -0.062624006134172128 -0.0016486976186409193 0 -0.063014259567385239 -0.0016301308946295491 0 -0.062624006134172128 -0.0016486976186409193 0 -0.062910161090343752 -0.0017570873683773684 0 -0.062910161090343752 -0.0017570873683773684 0 -0.062746462125633118 -0.0018615570314150774 0 -0.063074712201663982 -0.0017599470482131754 0 -0.062624006134172128 -0.0016486976186409193 0 -0.062910161090343752 -0.0017570873683773684 0 -0.062746462125633118 -0.0018615570314150774 0 -0.062794709411454958 -0.0020671854353104101 0 -0.062746462125633118 -0.0018615570314150774 0 -0.063074712201663982 -0.0017599470482131754 0 -0.063074712201663982 -0.0017599470482131754 0 -0.063054853753164844 -0.0017199389681905976 0 -0.063195450209138887 -0.001529790749354645 0 -0.062910161090343752 -0.0017570873683773684 0 -0.063074712201663982 -0.0017599470482131754 0 -0.063054853753164844 -0.0017199389681905976 0 -0.063054853753164844 -0.0017199389681905976 0 -0.063018231574802477 -0.0016294006121786331 0 -0.063088238041478562 -0.0015258840995607821 0 -0.063014259567385239 -0.0016301308946295491 0 -0.063054853753164844 -0.0017199389681905976 0 -0.063060290066827202 -0.0017069982744930248 0 -0.063014259567385239 -0.0016301308946295491 0 -0.062910161090343752 -0.0017570873683773684 0 -0.063054853753164844 -0.0017199389681905976 0 -0.062894949670114858 -0.0016190693001245004 0 -0.063060290066827202 -0.0017069982744930248 0 -0.063018231574802477 -0.0016294006121786331 0 -0.063054853753164844 -0.0017199389681905976 0 -0.063060290066827202 -0.0017069982744930248 0 -0.063018231574802477 -0.0016294006121786331 0 -0.063002527754520934 -0.0013346078490848537 0 -0.063088238041478562 -0.0015258840995607821 0 -0.062915105662576659 -0.0015001047508673435 0 -0.063018231574802477 -0.0016294006121786331 0 -0.063088238041478562 -0.0015258840995607821 0 -0.062915105662576659 -0.0015001047508673435 0 -0.063002527754520934 -0.0013346078490848537 0 -0.063005830085092973 -0.00098070784600079106 0 -0.062780625852703442 -0.0013477717400115741 0 -0.063002527754520934 -0.0013346078490848537 0 -0.063330031769797138 -0.0012285874562278384 0 -0.063005830085092973 -0.00098070784600079106 0 -0.063002527754520934 -0.0013346078490848537 0 -0.063330031769797138 -0.0012285874562278384 0 -0.063088238041478562 -0.0015258840995607821 0 -0.063054853753164844 -0.0017199389681905976 0 -0.063088238041478562 -0.0015258840995607821 0 -0.063195450209138887 -0.001529790749354645 0 -0.063330031769797138 -0.0012285874562278384 0 -0.063088238041478562 -0.0015258840995607821 0 -0.063195450209138887 -0.001529790749354645 0 -0.063074712201663982 -0.0017599470482131754 0 -0.063195450209138887 -0.001529790749354645 0 -0.063501674537664504 -0.001237636005178268 0 -0.063074712201663982 -0.0017599470482131754 0 -0.063501674537664504 -0.001237636005178268 0 -0.063399245720208983 -0.0014631751437463563 0 -0.063330031769797138 -0.0012285874562278384 0 -0.063501674537664504 -0.001237636005178268 0 -0.063700106154493133 -0.00087329548763963446 0 -0.063330031769797138 -0.0012285874562278384 0 -0.063195450209138887 -0.001529790749354645 0 -0.063501674537664504 -0.001237636005178268 0 -0.063330031769797138 -0.0012285874562278384 0 -0.063700106154493133 -0.00087329548763963446 0 -0.063921200668786898 -0.00040453640050559862 0 -0.063501674537664504 -0.001237636005178268 0 -0.063700106154493133 -0.00087329548763963446 0 -0.063989478019212093 -0.00064324810584215786 0 -0.063989478019212093 -0.00064324810584215786 0 -0.063921200668786898 -0.00040453640050559862 0 -0.064289535089365024 -0.00037570579993471357 0 -0.063700106154493133 -0.00087329548763963446 0 -0.063989478019212093 -0.00064324810584215786 0 -0.063921200668786898 -0.00040453640050559862 0 -0.063921200668786898 -0.00040453640050559862 0 -0.064628187513333657 -0.00019597902507514513 0 -0.064388389290229858 -0.00035389145675362315 0 -0.063921200668786898 -0.00040453640050559862 0 -0.064628187513333657 -0.00019597902507514513 0 -0.064428008631790851 0.00017760157540359475 0 -0.064628187513333657 -0.00019597902507514513 0 -0.064428008631790851 0.00017760157540359475 0 -0.06473541708417796 0.00018867149147036189 0 -0.063330031769797138 -0.0012285874562278384 0 -0.063921200668786898 -0.00040453640050559862 0 -0.063005830085092973 -0.00098070784600079106 0 -0.063864283986442769 -0.00044640596483803822 0 -0.06387204753532319 -0.00045596273538708963 0 -0.062378854519419519 -0.0023846716898364871 0 -0.062000181013571937 -0.0025050380094651975 0 -0.062561974816308458 -0.00198565025735977 0 -0.061436888475919105 -0.0025359887120932024 0 -0.061670151135003987 -0.0023909646748558125 0 -0.062000181013571937 -0.0025050380094651975 0 -0.061670151135003987 -0.0023909646748558125 0 -0.062000181013571937 -0.0025050380094651975 0 -0.06196924396289847 -0.0025969950430872095 0 -0.063075032320007982 -0.0016935461405501887 0 -0.063208726550733133 -0.0014298537408279938 0 -0.062000181013571937 -0.0025050380094651975 0 -0.06196924396289847 -0.0025969950430872095 0 -0.062033131438742797 -0.0019027856752401732 0 -0.064085647751161753 -0.001302834057433764 0 -0.063399245720208983 -0.0014631751437463563 0 -0.064023561497603756 -0.00080093998482085233 0 -0.063015057172858727 -0.0017918011070594709 0 -0.063075032320007982 -0.0016935461405501887 0 -0.062794709411454958 -0.0020671854353104101 0 -0.064085647751161753 -0.001302834057433764 0 -0.063399245720208983 -0.0014631751437463563 0 -0.062794709411454958 -0.0020671854353104101 0 -0.061670151135003987 -0.0023909646748558125 0 -0.06196924396289847 -0.0025969950430872095 0 -0.062794709411454958 -0.0020671854353104101 0 -0.063074712201663982 -0.0017599470482131754 0 -0.063399245720208983 -0.0014631751437463563 0 -0.063501674537664504 -0.001237636005178268 0 -0.063399245720208983 -0.0014631751437463563 0 -0.064023561497603756 -0.00080093998482085233 0 -0.063501674537664504 -0.001237636005178268 0 -0.063989478019212093 -0.00064324810584215786 0 -0.064023561497603756 -0.00080093998482085233 0 -0.063989478019212093 -0.00064324810584215786 0 -0.064291777613152218 -0.00053687280728141411 0 -0.064257114278933963 -0.00047175827923713007 0 -0.063989478019212093 -0.00064324810584215786 0 -0.064023561497603756 -0.00080093998482085233 0 -0.064291777613152218 -0.00053687280728141411 0 -0.064023561497603756 -0.00080093998482085233 0 -0.064328259188619577 -0.00059885373199538845 0 -0.064291777613152218 -0.00053687280728141411 0 -0.064085647751161753 -0.001302834057433764 0 -0.064023561497603756 -0.00080093998482085233 0 -0.064329337804040904 -0.00065997264670184463 0 -0.064023561497603756 -0.00080093998482085233 0 -0.064329337804040904 -0.00065997264670184463 0 -0.064328259188619577 -0.00059885373199538845 0 -0.063409814506207696 -0.0012993807793587186 0 -0.062033131438742797 -0.0019027856752401732 0 -0.063707995358110558 -0.00073853553130472939 0 -0.063208726550733133 -0.0014298537408279938 0 -0.06333749081206845 -0.0012297075192623061 0 -0.064329337804040904 -0.00065997264670184463 0 -0.063707995358110558 -0.00073853553130472939 0 -0.064328259188619577 -0.00059885373199538845 0 -0.062000181013571937 -0.0025050380094651975 0 -0.062033131438742797 -0.0019027856752401732 0 -0.062561974816308458 -0.00198565025735977 0 -0.063409814506207696 -0.0012993807793587186 0 -0.062033131438742797 -0.0019027856752401732 0 -0.062561974816308458 -0.00198565025735977 0 -0.064759300109271001 -0.00067587773065312998 0 -0.064394070235528969 -0.00060011975319662039 0 -0.064922458263499822 -9.3226141626024932e-05 0 -0.062463980620220683 -0.0012769825071566013 0 -0.062948125511311209 -0.0012860763768507422 0 -0.063707995358110558 -0.00073853553130472939 0 -0.064175548743085134 -0.00066913830843936433 0 -0.064328259188619577 -0.00059885373199538845 0 -0.063944484440326313 -0.0005494096812416557 0 -0.063707995358110558 -0.00073853553130472939 0 -0.064175548743085134 -0.00066913830843936433 0 -0.063944484440326313 -0.0005494096812416557 0 -0.064394070235528969 -0.00060011975319662039 0 -0.064175548743085134 -0.00066913830843936433 0 -0.064394070235528969 -0.00060011975319662039 0 -0.064175548743085134 -0.00066913830843936433 0 -0.064454528137872572 -0.00049483449769528644 0 -0.064175548743085134 -0.00066913830843936433 0 -0.064328259188619577 -0.00059885373199538845 0 -0.064454528137872572 -0.00049483449769528644 0 -0.064394070235528969 -0.00060011975319662039 0 -0.064454528137872572 -0.00049483449769528644 0 -0.064671476894648874 -0.00027367173407584407 0 -0.064454528137872572 -0.00049483449769528644 0 -0.064469599214616924 -0.00035126405784594093 0 -0.064715746627098322 -0.00020509120913311736 0 -0.064454528137872572 -0.00049483449769528644 0 -0.064291777613152218 -0.00053687280728141411 0 -0.064469599214616924 -0.00035126405784594093 0 -0.064328259188619577 -0.00059885373199538845 0 -0.064454528137872572 -0.00049483449769528644 0 -0.064291777613152218 -0.00053687280728141411 0 -0.064291777613152218 -0.00053687280728141411 0 -0.064469599214616924 -0.00035126405784594093 0 -0.064257114278933963 -0.00047175827923713007 0 -0.064469599214616924 -0.00035126405784594093 0 -0.064730431095203822 -0.00015904362628676994 0 -0.064715746627098322 -0.00020509120913311736 0 -0.064730431095203822 -0.00015904362628676994 0 -0.06499963735766906 -1.5353107835510892e-07 0 -0.064715746627098322 -0.00020509120913311736 0 -0.06499963735766906 -1.5353107835510892e-07 0 -0.064715746627098322 -0.00020509120913311736 0 -0.064999615395091359 -7.580841463312758e-08 0 -0.064715746627098322 -0.00020509120913311736 0 -0.064671476894648874 -0.00027367173407584407 0 -0.064999615395091359 -7.580841463312758e-08 0 -0.064454528137872572 -0.00049483449769528644 0 -0.064715746627098322 -0.00020509120913311736 0 -0.064671476894648874 -0.00027367173407584407 0 -0.064999996522177181 -3.8341985707444616e-08 0 -0.064999615395091359 -7.580841463312758e-08 0 -0.064922458263499822 -9.3226141626024932e-05 0 -0.064671476894648874 -0.00027367173407584407 0 -0.064999615395091359 -7.580841463312758e-08 0 -0.064922458263499822 -9.3226141626024932e-05 0 -0.064394070235528969 -0.00060011975319662039 0 -0.064671476894648874 -0.00027367173407584407 0 -0.064922458263499822 -9.3226141626024932e-05 0 -0.064543297378540407 -0.00029438995140003746 0 -0.064388389290229858 -0.00035389145675362315 0 -0.064289535089365024 -0.00037570579993471357 0 -0.064543297378540407 -0.00029438995140003746 0 -0.064620416727075747 -0.00026947498939136811 0 -0.06476733892499674 -0.00016657667685319585 0 -0.064543297378540407 -0.00029438995140003746 0 -0.064620416727075747 -0.00026947498939136811 0 -0.064388389290229858 -0.00035389145675362315 0 -0.064620416727075747 -0.00026947498939136811 0 -0.064815334635163424 -0.00016918169342634284 0 -0.064692317628084736 -0.00026173854394349503 0 -0.064620416727075747 -0.00026947498939136811 0 -0.064388389290229858 -0.00035389145675362315 0 -0.064692317628084736 -0.00026173854394349503 0 -0.064628187513333657 -0.00019597902507514513 0 -0.064388389290229858 -0.00035389145675362315 0 -0.064692317628084736 -0.00026173854394349503 0 -0.063921200668786898 -0.00040453640050559862 0 -0.064388389290229858 -0.00035389145675362315 0 -0.064289535089365024 -0.00037570579993471357 0 -0.063989478019212093 -0.00064324810584215786 0 -0.064289535089365024 -0.00037570579993471357 0 -0.064257114278933963 -0.00047175827923713007 0 -0.064469599214616924 -0.00035126405784594093 0 -0.064289535089365024 -0.00037570579993471357 0 -0.064257114278933963 -0.00047175827923713007 0 -0.064469599214616924 -0.00035126405784594093 0 -0.064289535089365024 -0.00037570579993471357 0 -0.064575844871900379 -0.00020967735816968796 0 -0.064543297378540407 -0.00029438995140003746 0 -0.064289535089365024 -0.00037570579993471357 0 -0.064755892707441656 -0.00020407123453612542 0 -0.064740403330189475 -0.00022529943095231882 0 -0.064826265563940222 -0.00016296756844871749 0 -0.064543297378540407 -0.00029438995140003746 0 -0.064755892707441656 -0.00020407123453612542 0 -0.06476733892499674 -0.00016657667685319585 0 -0.064469599214616924 -0.00035126405784594093 0 -0.064730431095203822 -0.00015904362628676994 0 -0.064575844871900379 -0.00020967735816968796 0 -0.064730431095203822 -0.00015904362628676994 0 -0.064575844871900379 -0.00020967735816968796 0 -0.064999316653902059 -7.228462443320857e-08 0 -0.064730431095203822 -0.00015904362628676994 0 -0.06499963735766906 -1.5353107835510892e-07 0 -0.064999316653902059 -7.228462443320857e-08 0 -0.064826265563940222 -0.00016296756844871749 0 -0.064999620710795306 -2.2731341146632867e-07 0 -0.064755892707441656 -0.00020407123453612542 0 -0.064999936468896638 -6.7036732668048639e-08 0 -0.06476733892499674 -0.00016657667685319585 0 -0.064999936468896638 -6.7036732668048639e-08 0 -0.06499967532624315 -1.2458321598774355e-07 0 -0.06476733892499674 -0.00016657667685319585 0 -0.064620416727075747 -0.00026947498939136811 0 -0.06476733892499674 -0.00016657667685319585 0 -0.064815334635163424 -0.00016918169342634284 0 -0.06499967532624315 -1.2458321598774355e-07 0 -0.064815334635163424 -0.00016918169342634284 0 -0.06499983376378729 -9.3467865737704367e-08 0 -0.06499967532624315 -1.2458321598774355e-07 0 -0.06476733892499674 -0.00016657667685319585 0 -0.064815334635163424 -0.00016918169342634284 0 -0.064815334635163424 -0.00016918169342634284 0 -0.06499983376378729 -9.3467865737704367e-08 0 -0.06491106739049099 -0.0001050485271652259 0 -0.06491106739049099 -0.0001050485271652259 0 -0.064999924796462313 -8.1450835015742997e-08 0 -0.06491003772774788 -0.00011558472683822474 0 -0.06499983376378729 -9.3467865737704367e-08 0 -0.06491106739049099 -0.0001050485271652259 0 -0.064999924796462313 -8.1450835015742997e-08 0 -0.06491106739049099 -0.0001050485271652259 0 -0.06491003772774788 -0.00011558472683822474 0 -0.064823172170045337 -0.00018829124131545719 0 -0.064815334635163424 -0.00016918169342634284 0 -0.06491106739049099 -0.0001050485271652259 0 -0.064823172170045337 -0.00018829124131545719 0 -0.064999777185568139 1.6562363647998922e-08 0 -0.064878761379092237 6.2392069787214027e-06 0 -0.064999924796462313 -8.1450835015742997e-08 0 -0.064999743012945768 -6.063476846121458e-08 0 -0.06491003772774788 -0.00011558472683822474 0 -0.064999743012945768 -6.063476846121458e-08 0 -0.06491003772774788 -0.00011558472683822474 0 -0.064871573254543569 -0.00013210477045099659 0 -0.064878761379092237 6.2392069787214027e-06 0 -0.064774198187103921 5.308586411427615e-05 0 -0.064871573254543569 -0.00013210477045099659 0 -0.064840559191615646 -0.00018062829799191229 0 -0.064859130584457775 -0.00016633561882256064 0 -0.06491003772774788 -0.00011558472683822474 0 -0.064871573254543569 -0.00013210477045099659 0 -0.064840559191615646 -0.00018062829799191229 0 -0.064840559191615646 -0.00018062829799191229 0 -0.064859130584457775 -0.00016633561882256064 0 -0.06483635444495163 -0.00013857226708014091 0 -0.064692317628084736 -0.00026173854394349503 0 -0.064823172170045337 -0.00018829124131545719 0 -0.064766168459793799 -0.00020630954336272131 0 -0.064815334635163424 -0.00016918169342634284 0 -0.064692317628084736 -0.00026173854394349503 0 -0.064823172170045337 -0.00018829124131545719 0 -0.064840559191615646 -0.00018062829799191229 0 -0.064823172170045337 -0.00018829124131545719 0 -0.064766168459793799 -0.00020630954336272131 0 -0.06491003772774788 -0.00011558472683822474 0 -0.064840559191615646 -0.00018062829799191229 0 -0.064823172170045337 -0.00018829124131545719 0 -0.064840559191615646 -0.00018062829799191229 0 -0.064766168459793799 -0.00020630954336272131 0 -0.064781719012220323 -0.00015522998026208499 0 -0.064628187513333657 -0.00019597902507514513 0 -0.064692317628084736 -0.00026173854394349503 0 -0.064766168459793799 -0.00020630954336272131 0 -0.064628187513333657 -0.00019597902507514513 0 -0.064766168459793799 -0.00020630954336272131 0 -0.064781719012220323 -0.00015522998026208499 0 -0.064628187513333657 -0.00019597902507514513 0 -0.064746662498492411 -0.00010612895117506526 0 -0.064781719012220323 -0.00015522998026208499 0 -0.064628187513333657 -0.00019597902507514513 0 -0.0646929186361416 -8.3623810239138066e-05 0 -0.064746662498492411 -0.00010612895117506526 0 -0.064415271043993971 -6.8284992531512286e-05 0 -0.064368380608321604 -7.2642663943510739e-05 0 -0.0646929186361416 -8.3623810239138066e-05 0 -0.064746662498492411 -0.00010612895117506526 0 -0.064732999004958991 -7.0068997248698029e-05 0 -0.064428008631790851 0.00017760157540359475 0 -0.064708138804389484 0.00023851741348520795 0 -0.06473541708417796 0.00018867149147036189 0 -0.064746662498492411 -0.00010612895117506526 0 -0.064781719012220323 -0.00015522998026208499 0 -0.064798271551179731 -8.8827094507591052e-05 0 -0.064746662498492411 -0.00010612895117506526 0 -0.064798271551179731 -8.8827094507591052e-05 0 -0.064759472517492478 -6.6174359467361822e-05 0 -0.064746662498492411 -0.00010612895117506526 0 -0.064732999004958991 -7.0068997248698029e-05 0 -0.064759472517492478 -6.6174359467361822e-05 0 -0.064840559191615646 -0.00018062829799191229 0 -0.064781719012220323 -0.00015522998026208499 0 -0.06483635444495163 -0.00013857226708014091 0 -0.064781719012220323 -0.00015522998026208499 0 -0.06483635444495163 -0.00013857226708014091 0 -0.064798271551179731 -8.8827094507591052e-05 0 -0.064859130584457775 -0.00016633561882256064 0 -0.06483635444495163 -0.00013857226708014091 0 -0.064876938140854018 -0.00011270456786888725 0 -0.064774198187103921 5.308586411427615e-05 0 -0.064685085073689946 0.00013297736390955367 0 -0.06483635444495163 -0.00013857226708014091 0 -0.064845013302866766 -8.3153674873095906e-05 0 -0.064876938140854018 -0.00011270456786888725 0 -0.06483635444495163 -0.00013857226708014091 0 -0.064845013302866766 -8.3153674873095906e-05 0 -0.064798271551179731 -8.8827094507591052e-05 0 -0.064798271551179731 -8.8827094507591052e-05 0 -0.064829569402603371 -3.9698603485652352e-05 0 -0.064787013645484351 -3.3773803148892285e-05 0 -0.064845013302866766 -8.3153674873095906e-05 0 -0.064798271551179731 -8.8827094507591052e-05 0 -0.064829569402603371 -3.9698603485652352e-05 0 -0.064845013302866766 -8.3153674873095906e-05 0 -0.06488355630320547 -3.4075541072977914e-05 0 -0.064876938140854018 -0.00011270456786888725 0 -0.064845013302866766 -8.3153674873095906e-05 0 -0.064829569402603371 -3.9698603485652352e-05 0 -0.06488355630320547 -3.4075541072977914e-05 0 -0.064829569402603371 -3.9698603485652352e-05 0 -0.064846496612334451 3.1988383209692135e-06 0 -0.06488355630320547 -3.4075541072977914e-05 0 -0.064797903020081593 9.2756445889213712e-06 0 -0.064829569402603371 -3.9698603485652352e-05 0 -0.064787013645484351 -3.3773803148892285e-05 0 -0.064797903020081593 9.2756445889213712e-06 0 -0.064829569402603371 -3.9698603485652352e-05 0 -0.064846496612334451 3.1988383209692135e-06 0 -0.064797903020081593 9.2756445889213712e-06 0 -0.06473620482348566 -3.0022391613289189e-05 0 -0.064787013645484351 -3.3773803148892285e-05 0 -0.064361153742194088 -0.0003393259329564195 0 -0.064105702249423496 -0.00038270972935360091 0 -0.064246413668385474 -0.00077094862941977772 0 -0.064473663331309564 -0.00069260264147097774 0 -0.064538762014800674 -0.00050672362002449631 0 -0.063777533508995315 -0.00075768223951296347 0 -0.064105702249423496 -0.00038270972935360091 0 -0.062771255320000913 -0.0015053197769721006 0 -0.062915105662576659 -0.0015001047508673435 0 -0.062780625852703442 -0.0013477717400115741 0 -0.062894949670114858 -0.0016190693001245004 0 -0.062771255320000913 -0.0015053197769721006 0 -0.062915105662576659 -0.0015001047508673435 0 -0.063002527754520934 -0.0013346078490848537 0 -0.062915105662576659 -0.0015001047508673435 0 -0.062780625852703442 -0.0013477717400115741 0 -0.063777533508995315 -0.00075768223951296347 0 -0.064040001225040444 -0.00041392182859154887 0 -0.063851135511535997 -0.00072638065123962006 0 -0.063968267835421075 -0.00039592450662727992 0 -0.064029713713373543 -0.00034057803336326638 0 -0.0646929186361416 -8.3623810239138066e-05 0 -0.06473620482348566 -3.0022391613289189e-05 0 -0.064732999004958991 -7.0068997248698029e-05 0 -0.06473541708417796 0.00018867149147036189 0 -0.06483822613836257 0.00051670332366463467 0 -0.064800032216594222 0.00048062984542563753 0 -0.064368380608321604 -7.2642663943510739e-05 0 -0.064105702249423496 -0.00038270972935360091 0 -0.064428008631790851 0.00017760157540359475 0 -0.064708138804389484 0.00023851741348520795 0 -0.064825579408114925 0.00051451221120320364 0 -0.06387204753532319 -0.00045596273538708963 0 -0.064040001225040444 -0.00041392182859154887 0 -0.064708138804389484 0.00023851741348520795 0 -0.06473541708417796 0.00018867149147036189 0 -0.064800032216594222 0.00048062984542563753 0 -0.064105702249423496 -0.00038270972935360091 0 -0.064040001225040444 -0.00041392182859154887 0 -0.064181318249259323 -0.00015756821508178072 0 -0.064040001225040444 -0.00041392182859154887 0 -0.06473620482348566 -3.0022391613289189e-05 0 -0.064759472517492478 -6.6174359467361822e-05 0 -0.064787013645484351 -3.3773803148892285e-05 0 -0.06473620482348566 -3.0022391613289189e-05 0 -0.064732999004958991 -7.0068997248698029e-05 0 -0.064759472517492478 -6.6174359467361822e-05 0 -0.064798271551179731 -8.8827094507591052e-05 0 -0.064759472517492478 -6.6174359467361822e-05 0 -0.064787013645484351 -3.3773803148892285e-05 0 -0.064773669247265103 0.00047899187860047239 0 -0.064515921796468936 0.00059790993172175702 0 -0.064426445567938986 0.0008019450004123173 0 -0.064773669247265103 0.00047899187860047239 0 -0.064515921796468936 0.00059790993172175702 0 -0.064573769505405776 0.00044698894420981856 0 -0.063820510959188365 0.0011991356986393433 0 -0.06380536151396772 0.0010922953499065816 0 -0.062736387854316331 0.0021226173473264361 0 -0.062593332038011165 0.0019623526326778191 0 -0.062757115004991496 0.001902660918228127 0 -0.062736387854316331 0.0021226173473264361 0 -0.062593332038011165 0.0019623526326778191 0 -0.062500266135001301 0.0020613181038253107 0 -0.062593332038011165 0.0019623526326778191 0 -0.062540481940635634 0.0017723945852753645 0 -0.062757115004991496 0.001902660918228127 0 -0.062540481940635634 0.0017723945852753645 0 -0.062715514597382893 0.0016794360778533918 0 -0.06247815941971329 0.0015566354159525799 0 -0.062540481940635634 0.0017723945852753645 0 -0.062715514597382893 0.0016794360778533918 0 -0.062757115004991496 0.001902660918228127 0 -0.062831935785134782 0.0017867482787557178 0 -0.062757115004991496 0.001902660918228127 0 -0.062973512260000336 0.0018273707476955882 0 -0.062736387854316331 0.0021226173473264361 0 -0.062757115004991496 0.001902660918228127 0 -0.062973512260000336 0.0018273707476955882 0 -0.062715514597382893 0.0016794360778533918 0 -0.062831935785134782 0.0017867482787557178 0 -0.062911009225167111 0.0017551995097861309 0 -0.062715514597382893 0.0016794360778533918 0 -0.062831935785134782 0.0017867482787557178 0 -0.062757115004991496 0.001902660918228127 0 -0.064515921796468936 0.00059790993172175702 0 -0.064426445567938986 0.0008019450004123173 0 -0.064386123143310353 0.00071868543731267115 0 -0.062831935785134782 0.0017867482787557178 0 -0.062973512260000336 0.0018273707476955882 0 -0.062911009225167111 0.0017551995097861309 0 -0.064070006862234144 0.00077333881459342325 0 -0.064426445567938986 0.0008019450004123173 0 -0.064238215828772802 0.00077502796740864881 0 -0.064426445567938986 0.0008019450004123173 0 -0.064325994624361255 0.00076620331743046789 0 -0.064238215828772802 0.00077502796740864881 0 -0.064426445567938986 0.0008019450004123173 0 -0.064325994624361255 0.00076620331743046789 0 -0.064386123143310353 0.00071868543731267115 0 -0.064325994624361255 0.00076620331743046789 0 -0.064285582786908685 0.00074697495146132419 0 -0.064386123143310353 0.00071868543731267115 0 -0.064325994624361255 0.00076620331743046789 0 -0.064285582786908685 0.00074697495146132419 0 -0.064238215828772802 0.00077502796740864881 0 -0.064285582786908685 0.00074697495146132419 0 -0.064238215828772802 0.00077502796740864881 0 -0.064195806772299968 0.00077011725785854329 0 -0.064195806772299968 0.00077011725785854329 0 -0.064249521455942302 0.00072330143492034462 0 -0.064171614263093354 0.00077790299531809663 0 -0.064285582786908685 0.00074697495146132419 0 -0.064195806772299968 0.00077011725785854329 0 -0.064249521455942302 0.00072330143492034462 0 -0.064285582786908685 0.00074697495146132419 0 -0.064249521455942302 0.00072330143492034462 0 -0.064374717108660787 0.00066690051451593257 0 -0.064249521455942302 0.00072330143492034462 0 -0.064374717108660787 0.00066690051451593257 0 -0.064329462480167257 0.00063858910629306567 0 -0.064515921796468936 0.00059790993172175702 0 -0.064374717108660787 0.00066690051451593257 0 -0.064386123143310353 0.00071868543731267115 0 -0.064285582786908685 0.00074697495146132419 0 -0.064374717108660787 0.00066690051451593257 0 -0.064386123143310353 0.00071868543731267115 0 -0.064702747681780817 8.7677407567089962e-05 0 -0.064598790309922799 0.00024465442778537653 0 -0.064093414788735162 0.00085353979496508123 0 -0.064171614263093354 0.00077790299531809663 0 -0.064199732449990388 0.00065431019463335898 0 -0.064877339591613903 2.2327004753949392e-05 0 -0.064846496612334451 3.1988383209692135e-06 0 -0.06488355630320547 -3.4075541072977914e-05 0 -0.064425774568214217 0.00018335775371381064 0 -0.064598790309922799 0.00024465442778537653 0 -0.064249521455942302 0.00072330143492034462 0 -0.064171614263093354 0.00077790299531809663 0 -0.064199732449990388 0.00065431019463335898 0 -0.064249521455942302 0.00072330143492034462 0 -0.064199732449990388 0.00065431019463335898 0 -0.064329462480167257 0.00063858910629306567 0 -0.064199732449990388 0.00065431019463335898 0 -0.064350151943914774 0.00054690517316520145 0 -0.064329242503505163 0.00043711914501442579 0 -0.064598790309922799 0.00024465442778537653 0 -0.064554402196862148 0.00034923904042134617 0 -0.064427665251352406 0.00044961809735957292 0 -0.064469224332389358 0.00030394727660953638 0 -0.064460261558741766 0.00035594147288479374 0 -0.064598790309922799 0.00024465442778537653 0 -0.064685085073689946 0.00013297736390955367 0 -0.064199732449990388 0.00065431019463335898 0 -0.064350151943914774 0.00054690517316520145 0 -0.064329462480167257 0.00063858910629306567 0 -0.064350151943914774 0.00054690517316520145 0 -0.064459110582481244 0.00044141367772828813 0 -0.064329242503505163 0.00043711914501442579 0 -0.064515921796468936 0.00059790993172175702 0 -0.064374717108660787 0.00066690051451593257 0 -0.064433207785066129 0.00055823283625683123 0 -0.064350151943914774 0.00054690517316520145 0 -0.064433207785066129 0.00055823283625683123 0 -0.064329462480167257 0.00063858910629306567 0 -0.064374717108660787 0.00066690051451593257 0 -0.064433207785066129 0.00055823283625683123 0 -0.064329462480167257 0.00063858910629306567 0 -0.064350151943914774 0.00054690517316520145 0 -0.064433207785066129 0.00055823283625683123 0 -0.064459110582481244 0.00044141367772828813 0 -0.064515921796468936 0.00059790993172175702 0 -0.064433207785066129 0.00055823283625683123 0 -0.064573769505405776 0.00044698894420981856 0 -0.064433207785066129 0.00055823283625683123 0 -0.064573769505405776 0.00044698894420981856 0 -0.064459110582481244 0.00044141367772828813 0 -0.064573769505405776 0.00044698894420981856 0 -0.064459110582481244 0.00044141367772828813 0 -0.064579137737031694 0.0003219914959398481 0 -0.064459110582481244 0.00044141367772828813 0 -0.064579137737031694 0.0003219914959398481 0 -0.064482261254824341 0.00034296168599347846 0 -0.064573769505405776 0.00044698894420981856 0 -0.064579137737031694 0.0003219914959398481 0 -0.064700518802796009 0.00032614578108498929 0 -0.064329242503505163 0.00043711914501442579 0 -0.064482261254824341 0.00034296168599347846 0 -0.064514464423231999 0.00026105077555814519 0 -0.064554402196862148 0.00034923904042134617 0 -0.064545475397882968 0.00034997088198546227 0 -0.064469224332389358 0.00030394727660953638 0 -0.064460261558741766 0.00035594147288479374 0 -0.064514464423231999 0.00026105077555814519 0 -0.064459110582481244 0.00044141367772828813 0 -0.064329242503505163 0.00043711914501442579 0 -0.064482261254824341 0.00034296168599347846 0 -0.064579137737031694 0.0003219914959398481 0 -0.064482261254824341 0.00034296168599347846 0 -0.064556436417633867 0.00026510717749062674 0 -0.064633122088779957 0.00014944888691221118 0 -0.064514464423231999 0.00026105077555814519 0 -0.064612093665655651 0.00020336729750334743 0 -0.064633122088779957 0.00014944888691221118 0 -0.064469224332389358 0.00030394727660953638 0 -0.064514464423231999 0.00026105077555814519 0 -0.064514464423231999 0.00026105077555814519 0 -0.064556436417633867 0.00026510717749062674 0 -0.064612093665655651 0.00020336729750334743 0 -0.064482261254824341 0.00034296168599347846 0 -0.064514464423231999 0.00026105077555814519 0 -0.064556436417633867 0.00026510717749062674 0 -0.064556436417633867 0.00026510717749062674 0 -0.064612093665655651 0.00020336729750334743 0 -0.06464836133497312 0.00021238211784364476 0 -0.064579137737031694 0.0003219914959398481 0 -0.064693495527859815 0.00024009837506483087 0 -0.064700518802796009 0.00032614578108498929 0 -0.064579137737031694 0.0003219914959398481 0 -0.06464836133497312 0.00021238211784364476 0 -0.064693495527859815 0.00024009837506483087 0 -0.064579137737031694 0.0003219914959398481 0 -0.064556436417633867 0.00026510717749062674 0 -0.06464836133497312 0.00021238211784364476 0 -0.06464836133497312 0.00021238211784364476 0 -0.064693495527859815 0.00024009837506483087 0 -0.064770186928474652 0.00014339197021188925 0 -0.064693495527859815 0.00024009837506483087 0 -0.064791704405575357 0.00022277687431447016 0 -0.064770186928474652 0.00014339197021188925 0 -0.064791704405575357 0.00022277687431447016 0 -0.064809041101260623 0.00029710203930950291 0 -0.064856110626018482 0.00022392919699095688 0 -0.064791704405575357 0.00022277687431447016 0 -0.064809041101260623 0.00029710203930950291 0 -0.064700518802796009 0.00032614578108498929 0 -0.064693495527859815 0.00024009837506483087 0 -0.064791704405575357 0.00022277687431447016 0 -0.064700518802796009 0.00032614578108498929 0 -0.064773669247265103 0.00047899187860047239 0 -0.064809041101260623 0.00029710203930950291 0 -0.064700518802796009 0.00032614578108498929 0 -0.064773669247265103 0.00047899187860047239 0 -0.064573769505405776 0.00044698894420981856 0 -0.064700518802796009 0.00032614578108498929 0 -0.062736387854316331 0.0021226173473264361 0 -0.062604551357259022 0.0021469769015263354 0 -0.062500266135001301 0.0020613181038253107 0 -0.063820510959188365 0.0011991356986393433 0 -0.063976097779311097 0.0010579487890150225 0 -0.062736387854316331 0.0021226173473264361 0 -0.062766990233133674 0.0021335835795681028 0 -0.062604551357259022 0.0021469769015263354 0 -0.064773669247265103 0.00047899187860047239 0 -0.064809041101260623 0.00029710203930950291 0 -0.064927080396152054 0.000247308297905282 0 -0.062736387854316331 0.0021226173473264361 0 -0.062766990233133674 0.0021335835795681028 0 -0.06279573166523765 0.0020804642917101133 0 -0.064927080396152054 0.000247308297905282 0 -0.064856110626018482 0.00022392919699095688 0 -0.064893027210679521 0.00012827328946539361 0 -0.064809041101260623 0.00029710203930950291 0 -0.064927080396152054 0.000247308297905282 0 -0.064856110626018482 0.00022392919699095688 0 -0.064791704405575357 0.00022277687431447016 0 -0.064856110626018482 0.00022392919699095688 0 -0.064893027210679521 0.00012827328946539361 0 -0.064927080396152054 0.000247308297905282 0 -0.064893027210679521 0.00012827328946539361 0 -0.064992775650248732 0.00010510236611395087 0 -0.064791704405575357 0.00022277687431447016 0 -0.064893027210679521 0.00012827328946539361 0 -0.064770186928474652 0.00014339197021188925 0 -0.064893027210679521 0.00012827328946539361 0 -0.064770186928474652 0.00014339197021188925 0 -0.064891630848579837 4.7107216245677873e-05 0 -0.064893027210679521 0.00012827328946539361 0 -0.064965521806782625 3.2003788255412588e-05 0 -0.064891630848579837 4.7107216245677873e-05 0 -0.064893027210679521 0.00012827328946539361 0 -0.064965521806782625 3.2003788255412588e-05 0 -0.064992775650248732 0.00010510236611395087 0 -0.064633122088779957 0.00014944888691221118 0 -0.064701967458887608 0.0001472353803920782 0 -0.064792920896680747 7.6547631072764748e-05 0 -0.064633122088779957 0.00014944888691221118 0 -0.064612093665655651 0.00020336729750334743 0 -0.064701967458887608 0.0001472353803920782 0 -0.064612093665655651 0.00020336729750334743 0 -0.06464836133497312 0.00021238211784364476 0 -0.064701967458887608 0.0001472353803920782 0 -0.064701967458887608 0.0001472353803920782 0 -0.064770186928474652 0.00014339197021188925 0 -0.064792920896680747 7.6547631072764748e-05 0 -0.06464836133497312 0.00021238211784364476 0 -0.064701967458887608 0.0001472353803920782 0 -0.064770186928474652 0.00014339197021188925 0 -0.064770186928474652 0.00014339197021188925 0 -0.064792920896680747 7.6547631072764748e-05 0 -0.064891630848579837 4.7107216245677873e-05 0 -0.064827494102182678 4.1310879111524221e-05 0 -0.064633122088779957 0.00014944888691221118 0 -0.064792920896680747 7.6547631072764748e-05 0 -0.064827494102182678 4.1310879111524221e-05 0 -0.064792920896680747 7.6547631072764748e-05 0 -0.064904238592073393 2.2339307245371818e-05 0 -0.064792920896680747 7.6547631072764748e-05 0 -0.064904238592073393 2.2339307245371818e-05 0 -0.064891630848579837 4.7107216245677873e-05 0 -0.064904238592073393 2.2339307245371818e-05 0 -0.064999866610502222 2.9457312496517522e-08 0 -0.064999926898084828 -1.6277892690682253e-08 0 -0.064999820075608492 -1.0144793543002003e-08 0 -0.064827494102182678 4.1310879111524221e-05 0 -0.064904238592073393 2.2339307245371818e-05 0 -0.064999820075608492 -1.0144793543002003e-08 0 -0.064904238592073393 2.2339307245371818e-05 0 -0.064999866610502222 2.9457312496517522e-08 0 -0.064904238592073393 2.2339307245371818e-05 0 -0.064891630848579837 4.7107216245677873e-05 0 -0.064999926898084828 -1.6277892690682253e-08 0 -0.064965521806782625 3.2003788255412588e-05 0 -0.064891630848579837 4.7107216245677873e-05 0 -0.064999926898084828 -1.6277892690682253e-08 0 -0.064965521806782625 3.2003788255412588e-05 0 -0.064999926898084828 -1.6277892690682253e-08 0 -0.064999990643938188 8.6136480912357407e-09 0 -0.064965521806782625 3.2003788255412588e-05 0 -0.064999990643938188 8.6136480912357407e-09 0 -0.065012040757904704 2.6818252187723036e-05 0 -0.064632190421986202 0.00032523540762181239 0 -0.064999468690434464 2.9752191160043612e-07 0 -0.064999990643938188 8.6136480912357407e-09 0 -0.065012040757904704 2.6818252187723036e-05 0 -0.065000034309250693 7.4131325725314569e-09 0 -0.064239700903352237 0.0003397568491198714 0 -0.064999129679433817 -1.243108139625465e-07 0 -0.064850467639961773 0.00021506039693374395 0 -0.064999129679433817 -1.243108139625465e-07 0 -0.065000026431610208 1.3606084028369388e-07 0 -0.064850467639961773 0.00021506039693374395 0 -0.065000026431610208 1.3606084028369388e-07 0 -0.065060015157479292 0.00022336596557981722 0 -0.065000519498238735 -2.4042981598856446e-08 0 -0.065000026431610208 1.3606084028369388e-07 0 -0.065060015157479292 0.00022336596557981722 0 -0.064850467639961773 0.00021506039693374395 0 -0.065060015157479292 0.00022336596557981722 0 -0.064922078157216345 0.00051914584597576887 0 -0.064850467639961773 0.00021506039693374395 0 -0.065060015157479292 0.00022336596557981722 0 -0.064922078157216345 0.00051914584597576887 0 -0.065210905373842595 0.00072774112394506912 0 -0.064239700903352237 0.0003397568491198714 0 -0.064850467639961773 0.00021506039693374395 0 -0.064502909094671088 0.00074908047595501981 0 -0.064922078157216345 0.00051914584597576887 0 -0.064850467639961773 0.00021506039693374395 0 -0.064502909094671088 0.00074908047595501981 0 -0.064502909094671088 0.00074908047595501981 0 -0.064892612698593213 0.00089547597743105218 0 -0.064644952144370507 0.0012467175368676559 0 -0.064922078157216345 0.00051914584597576887 0 -0.064502909094671088 0.00074908047595501981 0 -0.064892612698593213 0.00089547597743105218 0 -0.064892612698593213 0.00089547597743105218 0 -0.06515708379376936 0.0011992222273517629 0 -0.065210905373842595 0.00072774112394506912 0 -0.064922078157216345 0.00051914584597576887 0 -0.064892612698593213 0.00089547597743105218 0 -0.065210905373842595 0.00072774112394506912 0 -0.064892612698593213 0.00089547597743105218 0 -0.06515708379376936 0.0011992222273517629 0 -0.064644952144370507 0.0012467175368676559 0 -0.06515708379376936 0.0011992222273517629 0 -0.064644952144370507 0.0012467175368676559 0 -0.064948934187659138 0.0016946765607442178 0 -0.064502909094671088 0.00074908047595501981 0 -0.064644952144370507 0.0012467175368676559 0 -0.064144577388651827 0.0013488024589724489 0 -0.064644952144370507 0.0012467175368676559 0 -0.064144577388651827 0.0013488024589724489 0 -0.064360217956972776 0.001613232048425529 0 -0.064502909094671088 0.00074908047595501981 0 -0.064144577388651827 0.0013488024589724489 0 -0.063573772338623269 0.00099281236964363648 0 -0.063976097779311097 0.0010579487890150225 0 -0.064292526186953983 0.00067264513578260048 0 -0.064144577388651827 0.0013488024589724489 0 -0.063573772338623269 0.00099281236964363648 0 -0.063602060841835964 0.0016709913203565095 0 -0.06279573166523765 0.0020804642917101133 0 -0.063573772338623269 0.00099281236964363648 0 -0.063602060841835964 0.0016709913203565095 0 -0.064965521806782625 3.2003788255412588e-05 0 -0.065012040757904704 2.6818252187723036e-05 0 -0.064992775650248732 0.00010510236611395087 0 -0.064632190421986202 0.00032523540762181239 0 -0.064292526186953983 0.00067264513578260048 0 -0.064239700903352237 0.0003397568491198714 0 -0.064502909094671088 0.00074908047595501981 0 -0.063573772338623269 0.00099281236964363648 0 -0.064963828439706134 3.4445046596894501e-05 0 -0.064980309486378021 7.1571469768821536e-05 0 -0.06500209865922299 4.1175601389960818e-05 0 -0.065000039100253315 -7.9419599385131733e-09 0 -0.064963828439706134 3.4445046596894501e-05 0 -0.06500209865922299 4.1175601389960818e-05 0 -0.064998082892967976 8.5739604739964581e-07 0 -0.063680230824082001 0.00040062462442316463 0 -0.064998767434687299 7.6987243840356363e-08 0 -0.064362697637552826 0.00010654207611197013 0 -0.065000043307921293 6.9613919427859108e-09 0 -0.06501366032562321 2.9280318553776935e-05 0 -0.064995378880603222 1.1155793813461684e-05 0 -0.065000039100253315 -7.9419599385131733e-09 0 -0.064999920590180088 2.0150681435287588e-08 0 -0.064963828439706134 3.4445046596894501e-05 0 -0.06501366032562321 2.9280318553776935e-05 0 -0.064995378880603222 1.1155793813461684e-05 0 -0.064974398316123311 3.0122037471293518e-05 0 -0.06501366032562321 2.9280318553776935e-05 0 -0.064974398316123311 3.0122037471293518e-05 0 -0.064992188440194817 6.1339228523728657e-05 0 -0.065000043307921293 6.9613919427859108e-09 0 -0.064995378880603222 1.1155793813461684e-05 0 -0.064999938992937573 5.6728881171602188e-09 0 -0.064999265041395637 6.081292688587198e-07 0 -0.06460133081424059 0.0004552305732741933 0 -0.064995378880603222 1.1155793813461684e-05 0 -0.064999938992937573 5.6728881171602188e-09 0 -0.064974398316123311 3.0122037471293518e-05 0 -0.065060015157479292 0.00022336596557981722 0 -0.065000519498238735 -2.4042981598856446e-08 0 -0.06542991975350719 0.00041301916162371445 0 -0.065060015157479292 0.00022336596557981722 0 -0.06542991975350719 0.00041301916162371445 0 -0.065210905373842595 0.00072774112394506912 0 -0.06542991975350719 0.00041301916162371445 0 -0.065210905373842595 0.00072774112394506912 0 -0.065662526802931567 0.0010593815227812012 0 -0.06515708379376936 0.0011992222273517629 0 -0.065210905373842595 0.00072774112394506912 0 -0.065662526802931567 0.0010593815227812012 0 -0.06515708379376936 0.0011992222273517629 0 -0.065662526802931567 0.0010593815227812012 0 -0.065521531520294538 0.0015290606399691303 0 -0.06496611793502452 0.00010703362757692735 0 -0.065017235558326766 0.00010012710703896756 0 -0.065007636720235962 0.00020133025886419614 0 -0.063844594685058514 0.00097742346287102975 0 -0.062207306556485355 0.0016443552007045846 0 -0.06460133081424059 0.0004552305732741933 0 -0.063844594685058514 0.00097742346287102975 0 -0.064974398316123311 3.0122037471293518e-05 0 -0.06496611793502452 0.00010703362757692735 0 -0.064992188440194817 6.1339228523728657e-05 0 -0.06496611793502452 0.00010703362757692735 0 -0.064992188440194817 6.1339228523728657e-05 0 -0.065017235558326766 0.00010012710703896756 0 -0.064963828439706134 3.4445046596894501e-05 0 -0.064940077844888561 8.4844426587874918e-05 0 -0.064980309486378021 7.1571469768821536e-05 0 -0.064362697637552826 0.00010654207611197013 0 -0.063414759784404334 0.00040858220432599633 0 -0.06501366032562321 2.9280318553776935e-05 0 -0.064992188440194817 6.1339228523728657e-05 0 -0.065017235558326766 0.00010012710703896756 0 -0.063414759784404334 0.00040858220432599633 0 -0.061677428628248911 0.0016126555105978335 0 -0.064940077844888561 8.4844426587874918e-05 0 -0.064978107155611711 0.00011431505512897748 0 -0.064926952925480674 0.00014386917118852635 0 -0.064940077844888561 8.4844426587874918e-05 0 -0.064978107155611711 0.00011431505512897748 0 -0.064980309486378021 7.1571469768821536e-05 0 -0.053347440562637689 0.0014667314243174119 0 -0.053337016956123175 0.0014497410980588042 0 -0.053317330112623039 0.0014573405230215483 0 -0.053347440562637689 0.0014667314243174119 0 -0.053371961884959268 0.0014513522476255049 0 -0.053337016956123175 0.0014497410980588042 0 -0.053354373769616659 0.0014863490126974571 0 -0.053347440562637689 0.0014667314243174119 0 -0.053329993529704814 0.001476998421749046 0 -0.053354373769616659 0.0014863490126974571 0 -0.053347440562637689 0.0014667314243174119 0 -0.053382595569056973 0.0014762987462674849 0 -0.060246902678636319 0.0011902217648549003 0 -0.061677428628248911 0.0016126555105978335 0 -0.061677428628248911 0.0016126555105978335 0 -0.062207306556485355 0.0016443552007045846 0 -0.060926896921172417 0.0012724205097932528 0 -0.060908871230896292 0.001763660260973196 0 -0.060787502400066064 0.0013387054337850276 0 -0.053347440562637689 0.0014667314243174119 0 -0.053382595569056973 0.0014762987462674849 0 -0.053371961884959268 0.0014513522476255049 0 -0.061677428628248911 0.0016126555105978335 0 -0.060173530044847774 0.001542860677564935 0 -0.060173530044847774 0.001542860677564935 0 -0.062207306556485355 0.0016443552007045846 0 -0.065840073566856824 0.0020065620789505439 0 -0.065682262277790004 0.0017815959484416988 0 -0.065767139654574466 0.0016398245396832775 0 -0.065840073566856824 0.0020065620789505439 0 -0.065592359040768322 0.0019384955227290581 0 -0.065682262277790004 0.0017815959484416988 0 -0.065592359040768322 0.0019384955227290581 0 -0.065529587617959115 0.0017445307509591501 0 -0.065416138226721474 0.0019240861364715812 0 -0.065592359040768322 0.0019384955227290581 0 -0.065416138226721474 0.0019240861364715812 0 -0.065498365480506276 0.0020276696091832509 0 -0.065592359040768322 0.0019384955227290581 0 -0.065529587617959115 0.0017445307509591501 0 -0.065682262277790004 0.0017815959484416988 0 -0.065529587617959115 0.0017445307509591501 0 -0.065682262277790004 0.0017815959484416988 0 -0.065626612379068361 0.0016982962300022342 0 -0.065682262277790004 0.0017815959484416988 0 -0.065728298374771441 0.0016603988561349912 0 -0.065626612379068361 0.0016982962300022342 0 -0.06577875330507478 0.0016391423796272456 0 -0.065728298374771441 0.0016603988561349912 0 -0.065521531520294538 0.0015290606399691303 0 -0.065662526802931567 0.0010593815227812012 0 -0.06577875330507478 0.0016391423796272456 0 -0.065521531520294538 0.0015290606399691303 0 -0.06496611793502452 0.00010703362757692735 0 -0.065007636720235962 0.00020133025886419614 0 -0.064981227054454097 0.00021437012926871462 0 -0.062207306556485355 0.0016443552007045846 0 -0.062236724361494612 0.0016344442401377184 0 -0.065682262277790004 0.0017815959484416988 0 -0.065767139654574466 0.0016398245396832775 0 -0.065728298374771441 0.0016603988561349912 0 -0.065529587617959115 0.0017445307509591501 0 -0.065521531520294538 0.0015290606399691303 0 -0.065626612379068361 0.0016982962300022342 0 -0.065728298374771441 0.0016603988561349912 0 -0.065521531520294538 0.0015290606399691303 0 -0.065626612379068361 0.0016982962300022342 0 -0.065521531520294538 0.0015290606399691303 0 -0.065233635893028274 0.0017265913747400398 0 -0.065395986171504952 0.0017630701965458844 0 -0.065521531520294538 0.0015290606399691303 0 -0.065233635893028274 0.0017265913747400398 0 -0.064974594856391815 0.001584360181964755 0 -0.06515708379376936 0.0011992222273517629 0 -0.065521531520294538 0.0015290606399691303 0 -0.064948934187659138 0.0016946765607442178 0 -0.065088441608109532 0.0016713889131019816 0 -0.064685897529035308 0.0017413697607754368 0 -0.065529587617959115 0.0017445307509591501 0 -0.065521531520294538 0.0015290606399691303 0 -0.065395986171504952 0.0017630701965458844 0 -0.065233635893028274 0.0017265913747400398 0 -0.065395986171504952 0.0017630701965458844 0 -0.065306370204325573 0.0018936980380540587 0 -0.065395986171504952 0.0017630701965458844 0 -0.065416138226721474 0.0019240861364715812 0 -0.065306370204325573 0.0018936980380540587 0 -0.065529587617959115 0.0017445307509591501 0 -0.065395986171504952 0.0017630701965458844 0 -0.065416138226721474 0.0019240861364715812 0 -0.065416138226721474 0.0019240861364715812 0 -0.065306370204325573 0.0018936980380540587 0 -0.065318072833267932 0.0020356247875978023 0 -0.065233635893028274 0.0017265913747400398 0 -0.065306370204325573 0.0018936980380540587 0 -0.06516676239937029 0.0020165711085193766 0 -0.065306370204325573 0.0018936980380540587 0 -0.065318072833267932 0.0020356247875978023 0 -0.06516676239937029 0.0020165711085193766 0 -0.065318072833267932 0.0020356247875978023 0 -0.065353610558453581 0.0023065272404554399 0 -0.06516676239937029 0.0020165711085193766 0 -0.065416138226721474 0.0019240861364715812 0 -0.065412083143720226 0.0021164977769904079 0 -0.065498365480506276 0.0020276696091832509 0 -0.065318072833267932 0.0020356247875978023 0 -0.065412083143720226 0.0021164977769904079 0 -0.065353610558453581 0.0023065272404554399 0 -0.065416138226721474 0.0019240861364715812 0 -0.065318072833267932 0.0020356247875978023 0 -0.065412083143720226 0.0021164977769904079 0 -0.065412083143720226 0.0021164977769904079 0 -0.065353610558453581 0.0023065272404554399 0 -0.065464609704137672 0.0022062003124937576 0 -0.065353610558453581 0.0023065272404554399 0 -0.065464609704137672 0.0022062003124937576 0 -0.065522434618216802 0.0022708122437935787 0 -0.061268849323957285 0.00192469646847182 0 -0.061225500097652825 0.0017827189282945647 0 -0.061431807968669275 0.001772246538769345 0 -0.061225500097652825 0.0017827189282945647 0 -0.061223497206575973 0.0016671957355798097 0 -0.061431807968669275 0.001772246538769345 0 -0.061223497206575973 0.0016671957355798097 0 -0.060974385720373052 0.0017671775776151744 0 -0.061071551817759667 0.001582128942696376 0 -0.061225500097652825 0.0017827189282945647 0 -0.061223497206575973 0.0016671957355798097 0 -0.060974385720373052 0.0017671775776151744 0 -0.060384809377031827 0.0021018035430851755 0 -0.060132827593941895 0.0020184100060290397 0 -0.061268849323957285 0.00192469646847182 0 -0.061225500097652825 0.0017827189282945647 0 -0.060974385720373052 0.0017671775776151744 0 -0.061170876845903992 0.0019121650134726713 0 -0.061268849323957285 0.00192469646847182 0 -0.060981757470741298 0.0017503522619845876 0 -0.065598857844780853 0.002389363613313324 0 -0.065677059212402952 0.0022637049754308455 0 -0.065522434618216802 0.0022708122437935787 0 -0.065353610558453581 0.0023065272404554399 0 -0.065598857844780853 0.002389363613313324 0 -0.065522434618216802 0.0022708122437935787 0 -0.062311465240583772 0.0024514757284485587 0 -0.059339915343172976 0.0017587518909740801 0 -0.065353610558453581 0.0023065272404554399 0 -0.065598857844780853 0.002389363613313324 0 -0.065748631049989043 0.0025980765629384939 0 -0.061170876845903992 0.0019121650134726713 0 -0.060981757470741298 0.0017503522619845876 0 -0.060693285432117335 0.0015713877636255532 0 -0.060132827593941895 0.0020184100060290397 0 -0.059339915343172976 0.0017587518909740801 0 -0.065598857844780853 0.002389363613313324 0 -0.065722170172290553 0.0024514696981647482 0 -0.065748631049989043 0.0025980765629384939 0 -0.065722170172290553 0.0024514696981647482 0 -0.065677059212402952 0.0022637049754308455 0 -0.065808886631398014 0.0023232841251901513 0 -0.065598857844780853 0.002389363613313324 0 -0.065722170172290553 0.0024514696981647482 0 -0.065677059212402952 0.0022637049754308455 0 -0.065677059212402952 0.0022637049754308455 0 -0.065522434618216802 0.0022708122437935787 0 -0.065572016802755248 0.0021297678954895621 0 -0.065464609704137672 0.0022062003124937576 0 -0.065522434618216802 0.0022708122437935787 0 -0.065572016802755248 0.0021297678954895621 0 -0.065412083143720226 0.0021164977769904079 0 -0.065498365480506276 0.0020276696091832509 0 -0.065572016802755248 0.0021297678954895621 0 -0.065412083143720226 0.0021164977769904079 0 -0.065464609704137672 0.0022062003124937576 0 -0.065572016802755248 0.0021297678954895621 0 -0.065592359040768322 0.0019384955227290581 0 -0.065498365480506276 0.0020276696091832509 0 -0.065572016802755248 0.0021297678954895621 0 -0.065840073566856824 0.0020065620789505439 0 -0.065677059212402952 0.0022637049754308455 0 -0.065572016802755248 0.0021297678954895621 0 -0.065840073566856824 0.0020065620789505439 0 -0.065592359040768322 0.0019384955227290581 0 -0.065572016802755248 0.0021297678954895621 0 -0.058353363970354934 0.0016800503469977239 0 -0.05824099345597053 0.0013367728222422038 0 -0.058352695429456522 0.0014079739530047999 0 -0.060173530044847774 0.001542860677564935 0 -0.057589957011135846 0.0009325501524820645 0 -0.065840073566856824 0.0020065620789505439 0 -0.065677059212402952 0.0022637049754308455 0 -0.065808886631398014 0.0023232841251901513 0 -0.060173530044847774 0.001542860677564935 0 -0.059653414223967749 0.0016079881591382081 0 -0.053371961884959268 0.0014513522476255049 0 -0.053347602895707773 0.0014243068663234589 0 -0.053332597012588488 0.0014354761705668278 0 -0.059653414223967749 0.0016079881591382081 0 -0.058533346902627341 0.0014564484875834852 0 -0.05824099345597053 0.0013367728222422038 0 -0.058352695429456522 0.0014079739530047999 0 -0.058355490437918107 0.0011312008883847253 0 -0.065722170172290553 0.0024514696981647482 0 -0.065808886631398014 0.0023232841251901513 0 -0.065785668358595575 0.0026281898624946126 0 -0.065722170172290553 0.0024514696981647482 0 -0.065748631049989043 0.0025980765629384939 0 -0.065785668358595575 0.0026281898624946126 0 -0.053305443266719696 0.0014161276059202327 0 -0.053332597012588488 0.0014354761705668278 0 -0.053303531347672475 0.0014322058325041077 0 -0.053347602895707773 0.0014243068663234589 0 -0.053305443266719696 0.0014161276059202327 0 -0.053319325209976835 0.0013841552730059351 0 -0.053347602895707773 0.0014243068663234589 0 -0.053305443266719696 0.0014161276059202327 0 -0.053332597012588488 0.0014354761705668278 0 -0.053371961884959268 0.0014513522476255049 0 -0.053332597012588488 0.0014354761705668278 0 -0.053337016956123175 0.0014497410980588042 0 -0.053332597012588488 0.0014354761705668278 0 -0.053337016956123175 0.0014497410980588042 0 -0.053303531347672475 0.0014322058325041077 0 -0.062253928301856255 0.0022924589615989041 0 -0.0624356705193857 0.0023667854802579074 0 -0.062109156755250021 0.0024503418496483916 0 -0.062253928301856255 0.0022924589615989041 0 -0.062035479211176435 0.0022358696704793128 0 -0.062109156755250021 0.0024503418496483916 0 -0.062035479211176435 0.0022358696704793128 0 -0.062236116374210136 0.0021521611402824624 0 -0.06196147969267312 0.0020378979938279135 0 -0.062253928301856255 0.0022924589615989041 0 -0.062035479211176435 0.0022358696704793128 0 -0.062236116374210136 0.0021521611402824624 0 -0.062253928301856255 0.0022924589615989041 0 -0.062236116374210136 0.0021521611402824624 0 -0.062398284707495241 0.0022117187533722041 0 -0.062236116374210136 0.0021521611402824624 0 -0.062398284707495241 0.0022117187533722041 0 -0.062500266135001301 0.0020613181038253107 0 -0.062766990233133674 0.0021335835795681028 0 -0.062604551357259022 0.0021469769015263354 0 -0.0624356705193857 0.0023667854802579074 0 -0.062604551357259022 0.0021469769015263354 0 -0.062398284707495241 0.0022117187533722041 0 -0.062500266135001301 0.0020613181038253107 0 -0.062604551357259022 0.0021469769015263354 0 -0.062398284707495241 0.0022117187533722041 0 -0.0624356705193857 0.0023667854802579074 0 -0.062253928301856255 0.0022924589615989041 0 -0.062398284707495241 0.0022117187533722041 0 -0.0624356705193857 0.0023667854802579074 0 -0.063458571303679406 0.0022224281587361382 0 -0.063602060841835964 0.0016709913203565095 0 -0.064031283410178663 0.0019245399455990351 0 -0.063037063851931197 0.0020577528827136252 0 -0.063144594307383131 0.002034316193705487 0 -0.062766990233133674 0.0021335835795681028 0 -0.06279573166523765 0.0020804642917101133 0 -0.063458571303679406 0.0022224281587361382 0 -0.06279573166523765 0.0020804642917101133 0 -0.063458571303679406 0.0022224281587361382 0 -0.063602060841835964 0.0016709913203565095 0 -0.063144594307383131 0.002034316193705487 0 -0.063472851340458797 0.001942353443196808 0 -0.063458571303679406 0.0022224281587361382 0 -0.064031283410178663 0.0019245399455990351 0 -0.064229855546497655 0.0020663092848977258 0 -0.064144577388651827 0.0013488024589724489 0 -0.063602060841835964 0.0016709913203565095 0 -0.064031283410178663 0.0019245399455990351 0 -0.064031283410178663 0.0019245399455990351 0 -0.064178424590903102 0.0019786614625662137 0 -0.064360217956972776 0.001613232048425529 0 -0.063489357298447249 0.0019502331257879352 0 -0.063472851340458797 0.001942353443196808 0 -0.064144577388651827 0.0013488024589724489 0 -0.064031283410178663 0.0019245399455990351 0 -0.064360217956972776 0.001613232048425529 0 -0.064178424590903102 0.0019786614625662137 0 -0.064360217956972776 0.001613232048425529 0 -0.064948934187659138 0.0016946765607442178 0 -0.063472851340458797 0.001942353443196808 0 -0.064685897529035308 0.0017413697607754368 0 -0.064644952144370507 0.0012467175368676559 0 -0.064360217956972776 0.001613232048425529 0 -0.064948934187659138 0.0016946765607442178 0 -0.065233635893028274 0.0017265913747400398 0 -0.064974594856391815 0.001584360181964755 0 -0.064900656325508385 0.0019909041195426088 0 -0.065233635893028274 0.0017265913747400398 0 -0.064900656325508385 0.0019909041195426088 0 -0.06516676239937029 0.0020165711085193766 0 -0.064432291752556742 0.0016471649162095505 0 -0.064974594856391815 0.001584360181964755 0 -0.064900656325508385 0.0019909041195426088 0 -0.063472851340458797 0.001942353443196808 0 -0.063062646242914952 0.0022222139207681451 0 -0.062035479211176435 0.0022358696704793128 0 -0.062109156755250021 0.0024503418496483916 0 -0.061651214964129619 0.0021945970111988747 0 -0.062035479211176435 0.0022358696704793128 0 -0.061651214964129619 0.0021945970111988747 0 -0.06196147969267312 0.0020378979938279135 0 -0.061651214964129619 0.0021945970111988747 0 -0.06196147969267312 0.0020378979938279135 0 -0.061661533913821821 0.0018979921563334571 0 -0.06196147969267312 0.0020378979938279135 0 -0.061661533913821821 0.0018979921563334571 0 -0.061956979116854834 0.0017910695310691474 0 -0.065353610558453581 0.0023065272404554399 0 -0.064900656325508385 0.0019909041195426088 0 -0.06516676239937029 0.0020165711085193766 0 -0.061170876845903992 0.0019121650134726713 0 -0.061268849323957285 0.00192469646847182 0 -0.061651214964129619 0.0021945970111988747 0 -0.061268849323957285 0.00192469646847182 0 -0.061651214964129619 0.0021945970111988747 0 -0.061661533913821821 0.0018979921563334571 0 -0.062311465240583772 0.0024514757284485587 0 -0.063062646242914952 0.0022222139207681451 0 -0.061661533913821821 0.0018979921563334571 0 -0.061431807968669275 0.001772246538769345 0 -0.061674712914833424 0.001607847086542999 0 -0.061268849323957285 0.00192469646847182 0 -0.061661533913821821 0.0018979921563334571 0 -0.061431807968669275 0.001772246538769345 0 -0.061431807968669275 0.001772246538769345 0 -0.061674712914833424 0.001607847086542999 0 -0.061402573255718129 0.0015489933879416144 0 -0.061223497206575973 0.0016671957355798097 0 -0.061431807968669275 0.001772246538769345 0 -0.061402573255718129 0.0015489933879416144 0 -0.061661533913821821 0.0018979921563334571 0 -0.061956979116854834 0.0017910695310691474 0 -0.061674712914833424 0.001607847086542999 0 -0.061956979116854834 0.0017910695310691474 0 -0.061674712914833424 0.001607847086542999 0 -0.061976666896927157 0.0014997384890932601 0 -0.061956979116854834 0.0017910695310691474 0 -0.062257568881803796 0.0016986614222255895 0 -0.061976666896927157 0.0014997384890932601 0 -0.061956979116854834 0.0017910695310691474 0 -0.062257568881803796 0.0016986614222255895 0 -0.062211727900474231 0.0019515028967289232 0 -0.06196147969267312 0.0020378979938279135 0 -0.061956979116854834 0.0017910695310691474 0 -0.062211727900474231 0.0019515028967289232 0 -0.062236116374210136 0.0021521611402824624 0 -0.06196147969267312 0.0020378979938279135 0 -0.062211727900474231 0.0019515028967289232 0 -0.062236116374210136 0.0021521611402824624 0 -0.062211727900474231 0.0019515028967289232 0 -0.062500266135001301 0.0020613181038253107 0 -0.062211727900474231 0.0019515028967289232 0 -0.062500266135001301 0.0020613181038253107 0 -0.062428034619415394 0.0019065352812629719 0 -0.062593332038011165 0.0019623526326778191 0 -0.062500266135001301 0.0020613181038253107 0 -0.062428034619415394 0.0019065352812629719 0 -0.062540481940635634 0.0017723945852753645 0 -0.062257568881803796 0.0016986614222255895 0 -0.062428034619415394 0.0019065352812629719 0 -0.062540481940635634 0.0017723945852753645 0 -0.062257568881803796 0.0016986614222255895 0 -0.06247815941971329 0.0015566354159525799 0 -0.062257568881803796 0.0016986614222255895 0 -0.062211727900474231 0.0019515028967289232 0 -0.062428034619415394 0.0019065352812629719 0 -0.062593332038011165 0.0019623526326778191 0 -0.062540481940635634 0.0017723945852753645 0 -0.062428034619415394 0.0019065352812629719 0 -0.062699531086168173 0.0013259852707099183 0 -0.06247815941971329 0.0015566354159525799 0 -0.062281801601205208 0.0013066648181897058 0 -0.062257568881803796 0.0016986614222255895 0 -0.06247815941971329 0.0015566354159525799 0 -0.062281801601205208 0.0013066648181897058 0 -0.061976666896927157 0.0014997384890932601 0 -0.062281801601205208 0.0013066648181897058 0 -0.06192688360749881 0.0011924703583104544 0 -0.062257568881803796 0.0016986614222255895 0 -0.061976666896927157 0.0014997384890932601 0 -0.062281801601205208 0.0013066648181897058 0 -0.062281801601205208 0.0013066648181897058 0 -0.062096629909653416 0.00093518004042032147 0 -0.06192688360749881 0.0011924703583104544 0 -0.062281801601205208 0.0013066648181897058 0 -0.062398544427409629 0.00088658842562314383 0 -0.062096629909653416 0.00093518004042032147 0 -0.062699531086168173 0.0013259852707099183 0 -0.062281801601205208 0.0013066648181897058 0 -0.062398544427409629 0.00088658842562314383 0 -0.062398544427409629 0.00088658842562314383 0 -0.062096629909653416 0.00093518004042032147 0 -0.062058826360719854 0.00045154485640617412 0 -0.062096629909653416 0.00093518004042032147 0 -0.062058826360719854 0.00045154485640617412 0 -0.061818644008429083 0.00082345102842939523 0 -0.062096629909653416 0.00093518004042032147 0 -0.061818644008429083 0.00082345102842939523 0 -0.06192688360749881 0.0011924703583104544 0 -0.061531889208343619 -0.0013665670439865676 0 -0.060991047882021837 -0.0002230360744145106 0 -0.060858796234529555 -0.0011610132474153218 0 -0.060991047882021837 -0.0002230360744145106 0 -0.060262146797241102 -0.0012288607452521072 0 -0.060858796234529555 -0.0011610132474153218 0 -0.060644454523817615 0.0011303127222482838 0 -0.058846744092469386 0.001286299783761721 0 -0.061471379511333461 0.00057167770222399904 0 -0.06106145547837849 0.00056517781115254415 0 -0.061408964416498187 0.00026648838388247816 0 -0.061471379511333461 0.00057167770222399904 0 -0.061707052637684834 0.00038922493280844591 0 -0.061408964416498187 0.00026648838388247816 0 -0.062058826360719854 0.00045154485640617412 0 -0.061818644008429083 0.00082345102842939523 0 -0.061707052637684834 0.00038922493280844591 0 -0.061471379511333461 0.00057167770222399904 0 -0.061818644008429083 0.00082345102842939523 0 -0.061707052637684834 0.00038922493280844591 0 -0.061818644008429083 0.00082345102842939523 0 -0.061528144612574075 0.00087288227544915324 0 -0.061588739332515137 0.0011609666402082979 0 -0.061471379511333461 0.00057167770222399904 0 -0.061818644008429083 0.00082345102842939523 0 -0.061528144612574075 0.00087288227544915324 0 -0.061471379511333461 0.00057167770222399904 0 -0.061528144612574075 0.00087288227544915324 0 -0.061243871306287036 0.00082062059558456462 0 -0.061528144612574075 0.00087288227544915324 0 -0.061276494862949615 0.0010936633696901224 0 -0.061243871306287036 0.00082062059558456462 0 -0.061528144612574075 0.00087288227544915324 0 -0.061588739332515137 0.0011609666402082979 0 -0.061276494862949615 0.0010936633696901224 0 -0.061588739332515137 0.0011609666402082979 0 -0.061361649523492129 0.0013083619393643221 0 -0.061545312700154821 0.0014003976990929099 0 -0.061588739332515137 0.0011609666402082979 0 -0.061739323842458664 0.0013759152266520757 0 -0.061545312700154821 0.0014003976990929099 0 -0.061588739332515137 0.0011609666402082979 0 -0.061361649523492129 0.0013083619393643221 0 -0.061276494862949615 0.0010936633696901224 0 -0.061588739332515137 0.0011609666402082979 0 -0.06192688360749881 0.0011924703583104544 0 -0.061739323842458664 0.0013759152266520757 0 -0.061818644008429083 0.00082345102842939523 0 -0.061588739332515137 0.0011609666402082979 0 -0.06192688360749881 0.0011924703583104544 0 -0.061674712914833424 0.001607847086542999 0 -0.061976666896927157 0.0014997384890932601 0 -0.061739323842458664 0.0013759152266520757 0 -0.061976666896927157 0.0014997384890932601 0 -0.06192688360749881 0.0011924703583104544 0 -0.061739323842458664 0.0013759152266520757 0 -0.061674712914833424 0.001607847086542999 0 -0.061739323842458664 0.0013759152266520757 0 -0.061545312700154821 0.0014003976990929099 0 -0.061361649523492129 0.0013083619393643221 0 -0.061545312700154821 0.0014003976990929099 0 -0.061402573255718129 0.0015489933879416144 0 -0.061674712914833424 0.001607847086542999 0 -0.061545312700154821 0.0014003976990929099 0 -0.061402573255718129 0.0015489933879416144 0 -0.061223497206575973 0.0016671957355798097 0 -0.061402573255718129 0.0015489933879416144 0 -0.061181229026144292 0.0014769614122684181 0 -0.061361649523492129 0.0013083619393643221 0 -0.061402573255718129 0.0015489933879416144 0 -0.061181229026144292 0.0014769614122684181 0 -0.061361649523492129 0.0013083619393643221 0 -0.061181229026144292 0.0014769614122684181 0 -0.061126246055520611 0.001292239066713187 0 -0.061181229026144292 0.0014769614122684181 0 -0.060906015043461458 0.0014190042176917921 0 -0.061126246055520611 0.001292239066713187 0 -0.061181229026144292 0.0014769614122684181 0 -0.061071551817759667 0.001582128942696376 0 -0.060906015043461458 0.0014190042176917921 0 -0.061223497206575973 0.0016671957355798097 0 -0.061181229026144292 0.0014769614122684181 0 -0.061071551817759667 0.001582128942696376 0 -0.060974385720373052 0.0017671775776151744 0 -0.061071551817759667 0.001582128942696376 0 -0.060906015043461458 0.0014190042176917921 0 -0.060906015043461458 0.0014190042176917921 0 -0.06064924079060284 0.0015632106832347561 0 -0.060641256195699052 0.00098480419928941585 0 -0.060974385720373052 0.0017671775776151744 0 -0.060906015043461458 0.0014190042176917921 0 -0.060694457162736651 0.0015962920208306194 0 -0.060906015043461458 0.0014190042176917921 0 -0.060694457162736651 0.0015962920208306194 0 -0.06064924079060284 0.0015632106832347561 0 -0.060906015043461458 0.0014190042176917921 0 -0.061011553069708985 0.0010333731178151708 0 -0.060641256195699052 0.00098480419928941585 0 -0.060906015043461458 0.0014190042176917921 0 -0.061011553069708985 0.0010333731178151708 0 -0.061126246055520611 0.001292239066713187 0 -0.061011553069708985 0.0010333731178151708 0 -0.061276494862949615 0.0010936633696901224 0 -0.061126246055520611 0.001292239066713187 0 -0.061361649523492129 0.0013083619393643221 0 -0.061276494862949615 0.0010936633696901224 0 -0.061126246055520611 0.001292239066713187 0 -0.053319325209976835 0.0013841552730059351 0 -0.053240907797906106 0.0014034383066908946 0 -0.053274223398012015 0.0014048664396175308 0 -0.053305443266719696 0.0014161276059202327 0 -0.053319325209976835 0.0013841552730059351 0 -0.053274223398012015 0.0014048664396175308 0 -0.051308725582512198 0.000460893776455886 0 -0.050574396826350704 -1.2788608138291459e-05 0 -0.050555598049526029 0.0016792274018932469 0 -0.05824099345597053 0.0013367728222422038 0 -0.058130801283480998 0.00099087214161437264 0 -0.058355490437918107 0.0011312008883847253 0 -0.057589957011135846 0.0009325501524820645 0 -0.055810616495456704 0.00025245033212279529 0 -0.055810616495456704 0.00025245033212279529 0 -0.058533346902627341 0.0014564484875834852 0 -0.059339915343172976 0.0017587518909740801 0 -0.058533346902627341 0.0014564484875834852 0 -0.051308725582512198 0.000460893776455886 0 -0.050788961329932464 0.0016269542519089339 0 -0.050555598049526029 0.0016792274018932469 0 -0.051308725582512198 0.000460893776455886 0 -0.051490877956436344 0.0012550036123926611 0 -0.050788961329932464 0.0016269542519089339 0 -0.058533346902627341 0.0014564484875834852 0 -0.055419878220675615 0.001074578021617171 0 -0.051490877956436344 0.0012550036123926611 0 -0.05188265057623434 0.0019715375347190782 0 -0.050788961329932464 0.0016269542519089339 0 -0.051173136206611812 0.00020779696234370863 0 -0.052121869616239581 0.00099817055319734128 0 -0.05319016911783743 0.0014308738708896033 0 -0.053319325209976835 0.0013841552730059351 0 -0.053240907797906106 0.0014034383066908946 0 -0.05319016911783743 0.0014308738708896033 0 -0.055810616495456704 0.00025245033212279529 0 -0.054322040506168928 7.6019940454926437e-05 0 -0.051308725582512198 0.000460893776455886 0 -0.051490877956436344 0.0012550036123926611 0 -0.052121869616239581 0.00099817055319734128 0 -0.055810616495456704 0.00025245033212279529 0 -0.055050810468457723 -6.309127506837778e-05 0 -0.051490877956436344 0.0012550036123926611 0 -0.052121869616239581 0.00099817055319734128 0 -0.05188265057623434 0.0019715375347190782 0 -0.052121869616239581 0.00099817055319734128 0 -0.05188265057623434 0.0019715375347190782 0 -0.052729013829444213 0.0017256532295260069 0 -0.050262603655786005 0.0014718845608723318 0 -0.050210073926787002 0.0012008795028406198 0 -0.04992346561831261 0.0016091792496784642 0 -0.050272294247872197 0.0016798946134603736 0 -0.050509668606670152 0.0015201962347375774 0 -0.050788961329932464 0.0016269542519089339 0 -0.050262603655786005 0.0014718845608723318 0 -0.050272294247872197 0.0016798946134603736 0 -0.04992346561831261 0.0016091792496784642 0 -0.050197592711568075 0.0016053273140810504 0 -0.050414697609827745 0.001643210025547829 0 -0.050262603655786005 0.0014718845608723318 0 -0.050509668606670152 0.0015201962347375774 0 -0.050428464204274687 0.0013523539631387666 0 -0.050262603655786005 0.0014718845608723318 0 -0.050272294247872197 0.0016798946134603736 0 -0.050509668606670152 0.0015201962347375774 0 -0.050509668606670152 0.0015201962347375774 0 -0.050631528722703871 0.0014190881315332639 0 -0.050428464204274687 0.0013523539631387666 0 -0.050509668606670152 0.0015201962347375774 0 -0.050643132737915278 0.0015794047267491925 0 -0.050631528722703871 0.0014190881315332639 0 -0.050509668606670152 0.0015201962347375774 0 -0.050788961329932464 0.0016269542519089339 0 -0.050643132737915278 0.0015794047267491925 0 -0.050788961329932464 0.0016269542519089339 0 -0.050643132737915278 0.0015794047267491925 0 -0.050555598049526029 0.0016792274018932469 0 -0.050643132737915278 0.0015794047267491925 0 -0.050555598049526029 0.0016792274018932469 0 -0.050631528722703871 0.0014190881315332639 0 -0.055419878220675615 0.001074578021617171 0 -0.05214359562237561 0.00055223057510717718 0 -0.050555598049526029 0.0016792274018932469 0 -0.050631528722703871 0.0014190881315332639 0 -0.050843851456187195 0.0011309017101565223 0 -0.050631528722703871 0.0014190881315332639 0 -0.050510678144516388 0.0011995845579114409 0 -0.050843851456187195 0.0011309017101565223 0 -0.050631528722703871 0.0014190881315332639 0 -0.050510678144516388 0.0011995845579114409 0 -0.050428464204274687 0.0013523539631387666 0 -0.050262603655786005 0.0014718845608723318 0 -0.050428464204274687 0.0013523539631387666 0 -0.050210073926787002 0.0012008795028406198 0 -0.050510678144516388 0.0011995845579114409 0 -0.050428464204274687 0.0013523539631387666 0 -0.050210073926787002 0.0012008795028406198 0 -0.050510678144516388 0.0011995845579114409 0 -0.050210073926787002 0.0012008795028406198 0 -0.050404478186751027 0.00088378179519093007 0 -0.061011553069708985 0.0010333731178151708 0 -0.061243871306287036 0.00082062059558456462 0 -0.06106145547837849 0.00056517781115254415 0 -0.061011553069708985 0.0010333731178151708 0 -0.061276494862949615 0.0010936633696901224 0 -0.061243871306287036 0.00082062059558456462 0 -0.061011553069708985 0.0010333731178151708 0 -0.060641256195699052 0.00098480419928941585 0 -0.06106145547837849 0.00056517781115254415 0 -0.060641256195699052 0.00098480419928941585 0 -0.06106145547837849 0.00056517781115254415 0 -0.060615539564067601 0.00039591150334692814 0 -0.061471379511333461 0.00057167770222399904 0 -0.061243871306287036 0.00082062059558456462 0 -0.06106145547837849 0.00056517781115254415 0 -0.06106145547837849 0.00056517781115254415 0 -0.061153826548023135 -9.6385754121138006e-05 0 -0.060615539564067601 0.00039591150334692814 0 -0.06106145547837849 0.00056517781115254415 0 -0.061153826548023135 -9.6385754121138006e-05 0 -0.061408964416498187 0.00026648838388247816 0 -0.060595048103202147 -0.00021512539360134359 0 -0.061153826548023135 -9.6385754121138006e-05 0 -0.060615539564067601 0.00039591150334692814 0 -0.045954148949822492 -9.159130378126624e-05 0 -0.052067429884861349 0.0012819901553142174 0 -0.040750003421461546 0.0021623228366214097 0 -0.044566404130409902 0.0030198632168558989 0 -0.043307575209624659 0.0016392803342864001 0 -0.050404478186751027 0.00088378179519093007 0 -0.049787838889321388 0.00033783809980449548 0 -0.049075880907757462 0.00084129591884618126 0 -0.050210073926787002 0.0012008795028406198 0 -0.050404478186751027 0.00088378179519093007 0 -0.04980294636350216 0.00085613269847836066 0 -0.048056511020552695 0.0009238242643671773 0 -0.043433004503716122 0.00064945038643899808 0 -0.050404478186751027 0.00088378179519093007 0 -0.050843851456187195 0.0011309017101565223 0 -0.050410806703711432 0.00031842198769952671 0 -0.045954148949822492 -9.159130378126624e-05 0 -0.05214359562237561 0.00055223057510717718 0 -0.050510678144516388 0.0011995845579114409 0 -0.050404478186751027 0.00088378179519093007 0 -0.050843851456187195 0.0011309017101565223 0 -0.050925906269535436 -3.752921094899607e-05 0 -0.050843851456187195 0.0011309017101565223 0 -0.050410806703711432 0.00031842198769952671 0 -0.050925906269535436 -3.752921094899607e-05 0 -0.050410806703711432 0.00031842198769952671 0 -0.050039302104379325 -0.00027905855015247799 0 -0.050404478186751027 0.00088378179519093007 0 -0.050410806703711432 0.00031842198769952671 0 -0.049787838889321388 0.00033783809980449548 0 -0.050410806703711432 0.00031842198769952671 0 -0.049787838889321388 0.00033783809980449548 0 -0.050039302104379325 -0.00027905855015247799 0 -0.032310524266343711 -0.0011754535148704043 0 -0.032195557291824738 -0.0016963532146293289 0 -0.031713161866736894 -0.0013059875555939062 0 -0.049787838889321388 0.00033783809980449548 0 -0.050039302104379325 -0.00027905855015247799 0 -0.049065153415999298 -0.00050609881977686528 0 -0.032916083221547793 -0.0010442321144359394 0 -0.032310524266343711 -0.0011754535148704043 0 -0.032909061075699735 -0.0017645109614641125 0 -0.045954148949822492 -9.159130378126624e-05 0 -0.040514952111122701 -0.0011094595502572381 0 -0.032195557291824738 -0.0016963532146293289 0 -0.032909061075699735 -0.0017645109614641125 0 -0.03226046603643544 -0.0022667842252092722 0 -0.032310524266343711 -0.0011754535148704043 0 -0.032195557291824738 -0.0016963532146293289 0 -0.032909061075699735 -0.0017645109614641125 0 -0.044566404130409902 0.0030198632168558989 0 -0.044034005267953681 0.0010890779150059392 0 -0.046563294618351528 0.0014819447416450043 0 -0.044064631666346749 0.00017379330818963253 0 -0.044034005267953681 0.0010890779150059392 0 -0.046563294618351528 0.0014819447416450043 0 -0.044064631666346749 0.00017379330818963253 0 -0.044620133472494161 -0.00089032287991592542 0 -0.046563294618351528 0.0014819447416450043 0 -0.043118271569141602 0.0004832841848919042 0 -0.044003105978259197 0.00024381304790324859 0 -0.042791302527585749 -0.00081766908104354268 0 -0.043118271569141602 0.0004832841848919042 0 -0.044003105978259197 0.00024381304790324859 0 -0.043307575209624659 0.0016392803342864001 0 -0.040623745164375342 -0.00039664539064853961 0 -0.040673433129466821 -0.00033284538900503501 0 -0.044566404130409902 0.0030198632168558989 0 -0.043307575209624659 0.0016392803342864001 0 -0.044034005267953681 0.0010890779150059392 0 -0.040623745164375342 -0.00039664539064853961 0 -0.040761033174507362 -0.00031814461611357067 0 -0.044060385261986988 0.00017304789528501484 0 -0.043307575209624659 0.0016392803342864001 0 -0.044034005267953681 0.0010890779150059392 0 -0.045954148949822492 -9.159130378126624e-05 0 -0.038584979888165782 -0.0013144528354839943 0 -0.040750003421461546 0.0021623228366214097 0 -0.042212028179769323 0.00045964266302975378 0 -0.040873579588805296 -0.0014935318374014459 0 -0.040750003421461546 0.0021623228366214097 0 -0.043307575209624659 0.0016392803342864001 0 -0.042212028179769323 0.00045964266302975378 0 -0.043118271569141602 0.0004832841848919042 0 -0.042212028179769323 0.00045964266302975378 0 -0.042791302527585749 -0.00081766908104354268 0 -0.043118271569141602 0.0004832841848919042 0 -0.043307575209624659 0.0016392803342864001 0 -0.042212028179769323 0.00045964266302975378 0 -0.042791302527585749 -0.00081766908104354268 0 -0.040873579588805296 -0.0014935318374014459 0 -0.042498961186833752 -0.0032314231317638977 0 -0.042212028179769323 0.00045964266302975378 0 -0.042791302527585749 -0.00081766908104354268 0 -0.040873579588805296 -0.0014935318374014459 0 -0.037763423093610901 -0.002334554455742936 0 -0.037908715723201696 -0.002152943417917439 0 -0.037287452904083834 -0.0014376267365013085 0 -0.042791302527585749 -0.00081766908104354268 0 -0.044043384294684559 -0.0013517534307705046 0 -0.042498961186833752 -0.0032314231317638977 0 -0.039243480337283747 -0.00087225491282295333 0 -0.035941955768221213 -0.0012687490002633816 0 -0.044003105978259197 0.00024381304790324859 0 -0.042791302527585749 -0.00081766908104354268 0 -0.044043384294684559 -0.0013517534307705046 0 -0.039435406883278394 -0.0017155930148477234 0 -0.038460114129580246 0.00014237938678555542 0 -0.039330408945416562 0.0012181568438805036 0 -0.040623745164375342 -0.00039664539064853961 0 -0.039243480337283747 -0.00087225491282295333 0 -0.040623745164375342 -0.00039664539064853961 0 -0.041476855138059425 -0.00057089401344605835 0 -0.041476855138059425 -0.00057089401344605835 0 -0.039243480337283747 -0.00087225491282295333 0 -0.059734235038383092 -0.0024154153100554325 0 -0.059963396826356645 -0.0024370709596159392 0 -0.059894460624763265 -0.002632246448586287 0 -0.041476855138059425 -0.00057089401344605835 0 -0.044551400093875176 -0.0026372061027613337 0 -0.059734235038383092 -0.0024154153100554325 0 -0.059963396826356645 -0.0024370709596159392 0 -0.059876870741788928 -0.0022243501876079552 0 -0.041476855138059425 -0.00057089401344605835 0 -0.049502980157325759 0.0011057690306728895 0 -0.059963396826356645 -0.0024370709596159392 0 -0.059876870741788928 -0.0022243501876079552 0 -0.060158300376222426 -0.0023371727375854933 0 -0.059876870741788928 -0.0022243501876079552 0 -0.060158300376222426 -0.0023371727375854933 0 -0.060133557913793281 -0.0021340094513284773 0 -0.059963396826356645 -0.0024370709596159392 0 -0.060158300376222426 -0.0023371727375854933 0 -0.060152192255358519 -0.0025480950192276401 0 -0.059963396826356645 -0.0024370709596159392 0 -0.060152192255358519 -0.0025480950192276401 0 -0.059894460624763265 -0.002632246448586287 0 -0.060152192255358519 -0.0025480950192276401 0 -0.060363567575584996 -0.0024329076818392003 0 -0.060402083602775859 -0.0025800248978888642 0 -0.060158300376222426 -0.0023371727375854933 0 -0.060152192255358519 -0.0025480950192276401 0 -0.060363567575584996 -0.0024329076818392003 0 -0.060581399802961206 -0.002502553045872523 0 -0.060625108194083413 -0.0023968338069324658 0 -0.060402083602775859 -0.0025800248978888642 0 -0.060363567575584996 -0.0024329076818392003 0 -0.060625108194083413 -0.0023968338069324658 0 -0.060402083602775859 -0.0025800248978888642 0 -0.060363567575584996 -0.0024329076818392003 0 -0.060625108194083413 -0.0023968338069324658 0 -0.060445571602335262 -0.0022271092017710149 0 -0.060990014793151484 -0.0022293144339689853 0 -0.060625108194083413 -0.0023968338069324658 0 -0.060445571602335262 -0.0022271092017710149 0 -0.060158300376222426 -0.0023371727375854933 0 -0.060363567575584996 -0.0024329076818392003 0 -0.060445571602335262 -0.0022271092017710149 0 -0.060158300376222426 -0.0023371727375854933 0 -0.060445571602335262 -0.0022271092017710149 0 -0.060133557913793281 -0.0021340094513284773 0 -0.060445571602335262 -0.0022271092017710149 0 -0.06012629792152243 -0.001902602627592656 0 -0.060133557913793281 -0.0021340094513284773 0 -0.060445571602335262 -0.0022271092017710149 0 -0.06012629792152243 -0.001902602627592656 0 -0.060649170207090874 -0.0017557881622915271 0 -0.060990014793151484 -0.0022293144339689853 0 -0.060445571602335262 -0.0022271092017710149 0 -0.060649170207090874 -0.0017557881622915271 0 -0.061531889208343619 -0.0013665670439865676 0 -0.060990014793151484 -0.0022293144339689853 0 -0.060649170207090874 -0.0017557881622915271 0 -0.061531889208343619 -0.0013665670439865676 0 -0.060858796234529555 -0.0011610132474153218 0 -0.060649170207090874 -0.0017557881622915271 0 -0.060262146797241102 -0.0012288607452521072 0 -0.060858796234529555 -0.0011610132474153218 0 -0.060649170207090874 -0.0017557881622915271 0 -0.060262146797241102 -0.0012288607452521072 0 -0.06012629792152243 -0.001902602627592656 0 -0.060649170207090874 -0.0017557881622915271 0 -0.062058826360719854 0.00045154485640617412 0 -0.061707052637684834 0.00038922493280844591 0 -0.061701921408640566 2.0787321090342031e-05 0 -0.060262146797241102 -0.0012288607452521072 0 -0.06012629792152243 -0.001902602627592656 0 -0.059817811013989183 -0.0019817653177111941 0 -0.058846744092469386 0.001286299783761721 0 -0.055115523538094263 0.001989914781732223 0 -0.061707052637684834 0.00038922493280844591 0 -0.061408964416498187 0.00026648838388247816 0 -0.061701921408640566 2.0787321090342031e-05 0 -0.044566404130409902 0.0030198632168558989 0 -0.046563294618351528 0.0014819447416450043 0 -0.048529355112429923 0.0038843145903552242 0 -0.052067429884861349 0.0012819901553142174 0 -0.055115523538094263 0.001989914781732223 0 -0.049502980157325759 0.0011057690306728895 0 -0.055115523538094263 0.001989914781732223 0 -0.061153826548023135 -9.6385754121138006e-05 0 -0.061408964416498187 0.00026648838388247816 0 -0.061701921408640566 2.0787321090342031e-05 0 -0.059876870741788928 -0.0022243501876079552 0 -0.060133557913793281 -0.0021340094513284773 0 -0.060014532062010038 -0.0019768716851116686 0 -0.06012629792152243 -0.001902602627592656 0 -0.060133557913793281 -0.0021340094513284773 0 -0.060014532062010038 -0.0019768716851116686 0 -0.055734621488073781 0.0019258516436815459 0 -0.055115523538094263 0.001989914781732223 0 -0.040384900400870304 -0.0012371232653554164 0 -0.039778499465888552 -0.0018024132963861566 0 -0.039773435269602961 -0.00062510368996607181 0 -0.040384900400870304 -0.0012371232653554164 0 -0.040829293039867681 -0.0010708544082185586 0 -0.039773435269602961 -0.00062510368996607181 0 -0.040384900400870304 -0.0012371232653554164 0 -0.039778499465888552 -0.0018024132963861566 0 -0.041006687668818112 -0.0014418884885702655 0 -0.038872534874410558 -0.0013261201360011915 0 -0.039778499465888552 -0.0018024132963861566 0 -0.038162750655667259 -0.0020611231375499998 0 -0.038872534874410558 -0.0013261201360011915 0 -0.039773435269602961 -0.00062510368996607181 0 -0.037681529484472447 -0.00079886592491123316 0 -0.038872534874410558 -0.0013261201360011915 0 -0.039778499465888552 -0.0018024132963861566 0 -0.039773435269602961 -0.00062510368996607181 0 -0.043096238686222622 -0.00089891811813446322 0 -0.04226369084020163 -0.0016564268719640113 0 -0.043992595689043845 -0.0015386473098763869 0 -0.041025480412977364 -0.0013197409124434791 0 -0.041105265495054541 -0.0011050824547719571 0 -0.043096238686222622 -0.00089891811813446322 0 -0.042066851175735172 -0.00095071686989961371 0 -0.04226369084020163 -0.0016564268719640113 0 -0.041025480412977364 -0.0013197409124434791 0 -0.041018275751822778 -0.0013602308346781524 0 -0.041440143318962466 -0.0012699033267739265 0 -0.041156970448951391 -0.0012030282584949909 0 -0.041613584204134274 -0.00096710606385628833 0 -0.04226369084020163 -0.0016564268719640113 0 -0.041440143318962466 -0.0012699033267739265 0 -0.041006687668818112 -0.0014418884885702655 0 -0.042066851175735172 -0.00095071686989961371 0 -0.04226369084020163 -0.0016564268719640113 0 -0.041440143318962466 -0.0012699033267739265 0 -0.042066851175735172 -0.00095071686989961371 0 -0.041440143318962466 -0.0012699033267739265 0 -0.04194644378766723 -0.00019526157137845642 0 -0.047645857024588317 -0.0006528800475381415 0 -0.049031137438653012 0.00060843754575836285 0 -0.041156970448951391 -0.0012030282584949909 0 -0.041259849494184771 -0.0013978463589686312 0 -0.041006687668818112 -0.0014418884885702655 0 -0.041440143318962466 -0.0012699033267739265 0 -0.041156970448951391 -0.0012030282584949909 0 -0.041006687668818112 -0.0014418884885702655 0 -0.050728994357628156 -0.00010233109668265044 0 -0.051407904819749259 -0.0007693667643922465 0 -0.041259849494184771 -0.0013978463589686312 0 -0.04125864949196853 -0.0011413612457270431 0 -0.041006687668818112 -0.0014418884885702655 0 -0.04125864949196853 -0.0011413612457270431 0 -0.041006687668818112 -0.0014418884885702655 0 -0.040829293039867681 -0.0010708544082185586 0 -0.04125864949196853 -0.0011413612457270431 0 -0.040829293039867681 -0.0010708544082185586 0 -0.041034780532368073 -0.00074608950070370952 0 -0.040384900400870304 -0.0012371232653554164 0 -0.041006687668818112 -0.0014418884885702655 0 -0.040829293039867681 -0.0010708544082185586 0 -0.040829293039867681 -0.0010708544082185586 0 -0.041034780532368073 -0.00074608950070370952 0 -0.039773435269602961 -0.00062510368996607181 0 -0.0142773124234027 -0.0054705936970204545 0 -0.014962311662684248 -0.0046125686466846599 0 -0.015921224850333791 -0.0052117662652648089 0 -0.04125864949196853 -0.0011413612457270431 0 -0.041034780532368073 -0.00074608950070370952 0 -0.041572331780063282 -0.00075490961246461755 0 -0.028130758922634086 -0.003542314189573775 0 -0.032244494024049788 -0.0040921932794905011 0 -0.0142773124234027 -0.0054705936970204545 0 -0.014962311662684248 -0.0046125686466846599 0 -0.014136690774196402 -0.0040757941314102826 0 -0.0142773124234027 -0.0054705936970204545 0 -0.013078428448246101 -0.0045699870298965212 0 -0.014136690774196402 -0.0040757941314102826 0 -0.028130758922634086 -0.003542314189573775 0 -0.026298751587002348 -0.0029888767624918723 0 -0.0142773124234027 -0.0054705936970204545 0 -0.013078428448246101 -0.0045699870298965212 0 -0.012608514106222508 -0.0056385719716276796 0 -0.012608514106222508 -0.0056385719716276796 0 -0.012107773474310307 -0.0047364960111675458 0 -0.011680199659014078 -0.0053389403183301421 0 -0.013078428448246101 -0.0045699870298965212 0 -0.012608514106222508 -0.0056385719716276796 0 -0.012107773474310307 -0.0047364960111675458 0 -0.026298751587002348 -0.0029888767624918723 0 -0.025193040751073523 -0.002216609569662519 0 -0.013078428448246101 -0.0045699870298965212 0 -0.012107773474310307 -0.0047364960111675458 0 -0.0122963970440341 -0.0038961208063226036 0 -0.012107773474310307 -0.0047364960111675458 0 -0.011571394769509507 -0.0040992810777797052 0 -0.0122963970440341 -0.0038961208063226036 0 -0.011585516429963354 -0.0046167602683588995 0 -0.011124300222369413 -0.0043492200540169307 0 -0.011680199659014078 -0.0053389403183301421 0 -0.012107773474310307 -0.0047364960111675458 0 -0.011571394769509507 -0.0040992810777797052 0 -0.011585516429963354 -0.0046167602683588995 0 -0.011571394769509507 -0.0040992810777797052 0 -0.011585516429963354 -0.0046167602683588995 0 -0.011124300222369413 -0.0043492200540169307 0 -0.011124300222369413 -0.0043492200540169307 0 -0.010264981937823204 -0.0042368985978134752 0 -0.011680199659014078 -0.0053389403183301421 0 -0.012107773474310307 -0.0047364960111675458 0 -0.011585516429963354 -0.0046167602683588995 0 -0.011680199659014078 -0.0053389403183301421 0 -0.011605648314910677 -0.0054296979568777661 0 -0.011598435516489572 -0.0054123113304773403 0 -0.011614373615000357 -0.0054162064805206318 0 -0.011605648314910677 -0.0054296979568777661 0 -0.011614373615000357 -0.0054162064805206318 0 -0.011630268181752512 -0.0054214712450988385 0 -0.01349989855839376 -0.0030334444060421272 0 -0.012889513972890782 -0.0036242956461596276 0 -0.011598435516489572 -0.0054123113304773403 0 -0.011623804976096871 -0.0054151722282180003 0 -0.011546687959725009 -0.0055187216707865607 0 -0.011605648314910677 -0.0054296979568777661 0 -0.011598435516489572 -0.0054123113304773403 0 -0.011680199659014078 -0.0053389403183301421 0 -0.011598435516489572 -0.0054123113304773403 0 -0.011614373615000357 -0.0054162064805206318 0 -0.011623804976096871 -0.0054151722282180003 0 -0.011598435516489572 -0.0054123113304773403 0 -0.011680199659014078 -0.0053389403183301421 0 -0.011546687959725009 -0.0055187216707865607 0 -0.012608514106222508 -0.0056385719716276796 0 -0.011680199659014078 -0.0053389403183301421 0 -0.011546687959725009 -0.0055187216707865607 0 -0.032195557291824738 -0.0016963532146293289 0 -0.031702835815768625 -0.0019125145365377601 0 -0.031713161866736894 -0.0013059875555939062 0 -0.027106988387718578 -0.0027597604770270433 0 -0.033708484312733621 -0.0025192437011796695 0 -0.025040773472804111 -0.0035629301236422281 0 -0.025773271238261033 -0.003648888806861132 0 -0.025074643656495418 -0.0060994033249694235 0 -0.011648783820746633 -0.0054216768756898803 0 -0.011677356816373613 -0.0054355360213811463 0 -0.011653703966383181 -0.0054179439579594667 0 -0.022171005038176914 -0.0036580577176396857 0 -0.027199729468292334 -0.003616656142664629 0 -0.011605648314910677 -0.0054296979568777661 0 -0.011677356816373613 -0.0054355360213811463 0 -0.011630268181752512 -0.0054214712450988385 0 -0.011648783820746633 -0.0054216768756898803 0 -0.011677356816373613 -0.0054355360213811463 0 -0.011630268181752512 -0.0054214712450988385 0 -0.011623804976096871 -0.0054151722282180003 0 -0.011653703966383181 -0.0054179439579594667 0 -0.011662137309013929 -0.0053667664030601359 0 -0.025773271238261033 -0.003648888806861132 0 -0.026115824855605187 -0.0058746047912569379 0 -0.025074643656495418 -0.0060994033249694235 0 -0.027199729468292334 -0.003616656142664629 0 -0.026957203631755567 -0.00029464945925530687 0 -0.035031981991087438 0.00041148790628180198 0 -0.034228536552662753 0.00023756004496946261 0 -0.034799071343289002 -0.0011918643006742129 0 -0.011614373615000357 -0.0054162064805206318 0 -0.011631931913180387 -0.0054176511069405024 0 -0.011623804976096871 -0.0054151722282180003 0 -0.011648783820746633 -0.0054216768756898803 0 -0.011631931913180387 -0.0054176511069405024 0 -0.011653703966383181 -0.0054179439579594667 0 -0.011614373615000357 -0.0054162064805206318 0 -0.011630268181752512 -0.0054214712450988385 0 -0.011631931913180387 -0.0054176511069405024 0 -0.011648783820746633 -0.0054216768756898803 0 -0.011630268181752512 -0.0054214712450988385 0 -0.011631931913180387 -0.0054176511069405024 0 -0.011631931913180387 -0.0054176511069405024 0 -0.011623804976096871 -0.0054151722282180003 0 -0.011653703966383181 -0.0054179439579594667 0 -0.040514952111122701 -0.0011094595502572381 0 -0.033708484312733621 -0.0025192437011796695 0 -0.027199729468292334 -0.003616656142664629 0 -0.033708484312733621 -0.0025192437011796695 0 -0.033708484312733621 -0.0025192437011796695 0 -0.043433004503716122 0.00064945038643899808 0 -0.049787838889321388 0.00033783809980449548 0 -0.049065153415999298 -0.00050609881977686528 0 -0.049075880907757462 0.00084129591884618126 0 -0.034228536552662753 0.00023756004496946261 0 -0.034799071343289002 -0.0011918643006742129 0 -0.034273841902785915 -0.0023984798553082203 0 -0.035031981991087438 0.00041148790628180198 0 -0.034799071343289002 -0.0011918643006742129 0 -0.035262345456442593 -0.0011080917999198956 0 -0.026957203631755567 -0.00029464945925530687 0 -0.027454367415594174 -0.00074491147928772876 0 -0.034799071343289002 -0.0011918643006742129 0 -0.035267223451491254 -0.001107702582893816 0 -0.035426548416296576 -0.0021368807294125996 0 -0.02730189438602321 -0.00025944349960602782 0 -0.026957203631755567 -0.00029464945925530687 0 -0.035293396983747428 -0.0011522314484807563 0 -0.035426548416296576 -0.0021368807294125996 0 -0.036381809211368125 -0.0016014848341561036 0 -0.043433004503716122 0.00064945038643899808 0 -0.041493647439818329 -0.00055969509244956095 0 -0.035426548416296576 -0.0021368807294125996 0 -0.034273841902785915 -0.0023984798553082203 0 -0.036279875514411246 -0.0022539883755396486 0 -0.047123448282787701 -0.0012467913221805374 0 -0.045577835053222236 -0.0013776216553665563 0 -0.046323258587428945 -0.00061470682109424275 0 -0.035426548416296576 -0.0021368807294125996 0 -0.036381809211368125 -0.0016014848341561036 0 -0.036279875514411246 -0.0022539883755396486 0 -0.045577835053222236 -0.0013776216553665563 0 -0.045556456981920956 -0.0004088998957125419 0 -0.046323258587428945 -0.00061470682109424275 0 -0.034799071343289002 -0.0011918643006742129 0 -0.035426548416296576 -0.0021368807294125996 0 -0.034273841902785915 -0.0023984798553082203 0 -0.047123448282787701 -0.0012467913221805374 0 -0.047122005194482071 -0.00011057243793473681 0 -0.046323258587428945 -0.00061470682109424275 0 -0.043433004503716122 0.00064945038643899808 0 -0.046269058903417939 0.00084497838002686417 0 -0.038872534874410558 -0.0013261201360011915 0 -0.037681529484472447 -0.00079886592491123316 0 -0.038162750655667259 -0.0020611231375499998 0 -0.037681529484472447 -0.00079886592491123316 0 -0.037191660559742164 -0.0017013481702411459 0 -0.038162750655667259 -0.0020611231375499998 0 -0.011623804976096871 -0.0054151722282180003 0 -0.011662137309013929 -0.0053667664030601359 0 -0.011546687959725009 -0.0055187216707865607 0 -0.026957203631755567 -0.00029464945925530687 0 -0.025193040751073523 -0.002216609569662519 0 -0.035293396983747428 -0.0011522314484807563 0 -0.037681529484472447 -0.00079886592491123316 0 -0.036381809211368125 -0.0016014848341561036 0 -0.036381809211368125 -0.0016014848341561036 0 -0.037191660559742164 -0.0017013481702411459 0 -0.036279875514411246 -0.0022539883755396486 0 -0.037681529484472447 -0.00079886592491123316 0 -0.036381809211368125 -0.0016014848341561036 0 -0.037191660559742164 -0.0017013481702411459 0 -0.041493647439818329 -0.00055969509244956095 0 -0.041105265495054541 -0.0011050824547719571 0 -0.045577835053222236 -0.0013776216553665563 0 -0.044942577109203054 -0.00092770903386289554 0 -0.043992595689043845 -0.0015386473098763869 0 -0.037191660559742164 -0.0017013481702411459 0 -0.036279875514411246 -0.0022539883755396486 0 -0.038162750655667259 -0.0020611231375499998 0 -0.045577835053222236 -0.0013776216553665563 0 -0.044942577109203054 -0.00092770903386289554 0 -0.045556456981920956 -0.0004088998957125419 0 -0.043992595689043845 -0.0015386473098763869 0 -0.043765932934704321 -0.00044802144323925682 0 -0.04462897666100573 -0.00039798173849377107 0 -0.044942577109203054 -0.00092770903386289554 0 -0.043992595689043845 -0.0015386473098763869 0 -0.04462897666100573 -0.00039798173849377107 0 -0.043096238686222622 -0.00089891811813446322 0 -0.043992595689043845 -0.0015386473098763869 0 -0.043765932934704321 -0.00044802144323925682 0 -0.043834939509240341 0.00041802576627381928 0 -0.04462897666100573 -0.00039798173849377107 0 -0.045477452472686065 0.00071347977718825629 0 -0.043765932934704321 -0.00044802144323925682 0 -0.043834939509240341 0.00041802576627381928 0 -0.04462897666100573 -0.00039798173849377107 0 -0.04462897666100573 -0.00039798173849377107 0 -0.045556456981920956 -0.0004088998957125419 0 -0.045477452472686065 0.00071347977718825629 0 -0.044942577109203054 -0.00092770903386289554 0 -0.04462897666100573 -0.00039798173849377107 0 -0.045556456981920956 -0.0004088998957125419 0 -0.043834939509240341 0.00041802576627381928 0 -0.044469535332814329 0.0018389253254964071 0 -0.042828330759708461 0.0015062501581898917 0 -0.043834939509240341 0.00041802576627381928 0 -0.045759033231930903 0.00076832560398543332 0 -0.044469535332814329 0.0018389253254964071 0 -0.045127433618418686 0.00066320676398458388 0 -0.046125609796374929 0.0008581636025022535 0 -0.050210073926787002 0.0012008795028406198 0 -0.04980294636350216 0.00085613269847836066 0 -0.049801480222111338 0.0012347617668860926 0 -0.047122005194482071 -0.00011057243793473681 0 -0.046320416944632584 0.00012166269665035332 0 -0.047119488258148226 0.0010279627950747668 0 -0.050210073926787002 0.0012008795028406198 0 -0.049801480222111338 0.0012347617668860926 0 -0.049855177269396915 0.001633298964738939 0 -0.049471454361750287 0.0011867744480058735 0 -0.049114410347012395 0.0013930021326112767 0 -0.045556456981920956 -0.0004088998957125419 0 -0.045477452472686065 0.00071347977718825629 0 -0.046320416944632584 0.00012166269665035332 0 -0.047122005194482071 -0.00011057243793473681 0 -0.046320416944632584 0.00012166269665035332 0 -0.046323258587428945 -0.00061470682109424275 0 -0.045556456981920956 -0.0004088998957125419 0 -0.046320416944632584 0.00012166269665035332 0 -0.046323258587428945 -0.00061470682109424275 0 -0.045759033231930903 0.00076832560398543332 0 -0.047642968028188397 0.0014110780932769813 0 -0.047644463734067007 0.0011333984759521038 0 -0.045477452472686065 0.00071347977718825629 0 -0.046320416944632584 0.00012166269665035332 0 -0.047119488258148226 0.0010279627950747668 0 -0.046125609796374929 0.0008581636025022535 0 -0.048591273971582714 0.0013470157275159678 0 -0.046269058903417939 0.00084497838002686417 0 -0.048591273971582714 0.0013470157275159678 0 -0.049801480222111338 0.0012347617668860926 0 -0.0497976115600701 0.001621981950156522 0 -0.049855177269396915 0.001633298964738939 0 -0.05188265057623434 0.0019715375347190782 0 -0.053120169664026197 0.0022313168113343097 0 -0.052729013829444213 0.0017256532295260069 0 -0.050197592711568075 0.0016053273140810504 0 -0.049114410347012395 0.0013930021326112767 0 -0.049488042334701811 0.00055703189926767339 0 -0.049473572647239547 0.003223672303510693 0 -0.047615390262838564 0.0028614558458276759 0 -0.048994801764726925 0.0015229707998703457 0 -0.049114410347012395 0.0013930021326112767 0 -0.048994801764726925 0.0015229707998703457 0 -0.048591273971582714 0.0013470157275159678 0 -0.048591273971582714 0.0013470157275159678 0 -0.049114410347012395 0.0013930021326112767 0 -0.053321290135580172 0.0019767780908880178 0 -0.053120169664026197 0.0022313168113343097 0 -0.052729013829444213 0.0017256532295260069 0 -0.045759033231930903 0.00076832560398543332 0 -0.047642968028188397 0.0014110780932769813 0 -0.046169360241301499 0.0032214031718513295 0 -0.052121869616239581 0.00099817055319734128 0 -0.052729013829444213 0.0017256532295260069 0 -0.05319016911783743 0.0014308738708896033 0 -0.048994801764726925 0.0015229707998703457 0 -0.049118030094475684 0.0015237413839462104 0 -0.053240907797906106 0.0014034383066908946 0 -0.05319016911783743 0.0014308738708896033 0 -0.05325499616664104 0.0013968793303942187 0 -0.053321290135580172 0.0019767780908880178 0 -0.05319016911783743 0.0014308738708896033 0 -0.05325499616664104 0.0013968793303942187 0 -0.053321290135580172 0.0019767780908880178 0 -0.052729013829444213 0.0017256532295260069 0 -0.05319016911783743 0.0014308738708896033 0 -0.053240907797906106 0.0014034383066908946 0 -0.05325499616664104 0.0013968793303942187 0 -0.053263876185215497 0.0014034124168170088 0 -0.05325499616664104 0.0013968793303942187 0 -0.053263217134088978 0.0014049327614683747 0 -0.053263876185215497 0.0014034124168170088 0 -0.048994801764726925 0.0015229707998703457 0 -0.0505846527770056 0.0023810247390927829 0 -0.053250649319891194 0.0013956213231294634 0 -0.05325499616664104 0.0013968793303942187 0 -0.053263217134088978 0.0014049327614683747 0 -0.053263217134088978 0.0014049327614683747 0 -0.053263876185215497 0.0014034124168170088 0 -0.05327793758621651 0.001413201940427392 0 -0.053305443266719696 0.0014161276059202327 0 -0.053274223398012015 0.0014048664396175308 0 -0.05327793758621651 0.001413201940427392 0 -0.053263876185215497 0.0014034124168170088 0 -0.053274223398012015 0.0014048664396175308 0 -0.05327793758621651 0.001413201940427392 0 -0.053240907797906106 0.0014034383066908946 0 -0.053263876185215497 0.0014034124168170088 0 -0.053274223398012015 0.0014048664396175308 0 -0.045759033231930903 0.00076832560398543332 0 -0.046169360241301499 0.0032214031718513295 0 -0.044469535332814329 0.0018389253254964071 0 -0.044469535332814329 0.0018389253254964071 0 -0.043774624624942048 0.0032673627856619598 0 -0.042828330759708461 0.0015062501581898917 0 -0.046169360241301499 0.0032214031718513295 0 -0.044469535332814329 0.0018389253254964071 0 -0.043774624624942048 0.0032673627856619598 0 -0.046169360241301499 0.0032214031718513295 0 -0.043774624624942048 0.0032673627856619598 0 -0.044722084201833802 0.0050131148016694695 0 -0.06345819145167983 0.00093773822335339006 0 -0.063341028490005849 0.0010729093623313294 0 -0.063402114538150464 0.0010591863476954492 0 -0.06345819145167983 0.00093773822335339006 0 -0.063341028490005849 0.0010729093623313294 0 -0.06320238394023403 0.00074221242392424132 0 -0.063341028490005849 0.0010729093623313294 0 -0.062826608808097276 0.00064990385867061569 0 -0.06320238394023403 0.00074221242392424132 0 -0.063295425351499943 0.00092679960810923383 0 -0.063242806951105707 0.00085476204583250989 0 -0.063479671294338236 0.0011066613493214159 0 -0.063597240371004088 0.0012096086595601878 0 -0.063593511405630646 0.001144837373503836 0 -0.063341028490005849 0.0010729093623313294 0 -0.063479671294338236 0.0011066613493214159 0 -0.063597240371004088 0.0012096086595601878 0 -0.063020220029315829 0.00057164214740070148 0 -0.063285739661175164 0.00040398424058409163 0 -0.062823585575383201 0.00043829985771274004 0 -0.062826608808097276 0.00064990385867061569 0 -0.063020220029315829 0.00057164214740070148 0 -0.06320238394023403 0.00074221242392424132 0 -0.062826608808097276 0.00064990385867061569 0 -0.063020220029315829 0.00057164214740070148 0 -0.062823585575383201 0.00043829985771274004 0 -0.06345819145167983 0.00093773822335339006 0 -0.06320238394023403 0.00074221242392424132 0 -0.063285739661175164 0.00040398424058409163 0 -0.053302394635548769 0.0018462676113494966 0 -0.051694731353194391 0.0013639861025761784 0 -0.063020220029315829 0.00057164214740070148 0 -0.06320238394023403 0.00074221242392424132 0 -0.063285739661175164 0.00040398424058409163 0 -0.043834939509240341 0.00041802576627381928 0 -0.042828330759708461 0.0015062501581898917 0 -0.042759854682483306 0.00011062125662454259 0 -0.051694731353194391 0.0013639861025761784 0 -0.049031137438653012 0.00060843754575836285 0 -0.063285739661175164 0.00040398424058409163 0 -0.062823585575383201 0.00043829985771274004 0 -0.062928040859718593 -0.00046389149336131515 0 -0.062823585575383201 0.00043829985771274004 0 -0.062928040859718593 -0.00046389149336131515 0 -0.061998571742411634 -0.00028861453554490576 0 -0.049031137438653012 0.00060843754575836285 0 -0.047840106842364248 0.00026913366267648461 0 -0.042066851175735172 -0.00095071686989961371 0 -0.04194644378766723 -0.00019526157137845642 0 -0.042759854682483306 0.00011062125662454259 0 -0.043096238686222622 -0.00089891811813446322 0 -0.042066851175735172 -0.00095071686989961371 0 -0.042759854682483306 0.00011062125662454259 0 -0.042828330759708461 0.0015062501581898917 0 -0.041947910988903298 -0.00019232583041321592 0 -0.042759854682483306 0.00011062125662454259 0 -0.043096238686222622 -0.00089891811813446322 0 -0.043765932934704321 -0.00044802144323925682 0 -0.042759854682483306 0.00011062125662454259 0 -0.043765932934704321 -0.00044802144323925682 0 -0.043834939509240341 0.00041802576627381928 0 -0.042759854682483306 0.00011062125662454259 0 -0.051407904819749259 -0.0007693667643922465 0 -0.058003481581191771 0.0016888520966362292 0 -0.062964529422222762 0.00046119676998927398 0 -0.062842153551728189 0.0004566646385842931 0 -0.063030921976069659 0.00046918812725078922 0 -0.062076106175302737 -0.00083867631476775646 0 -0.061095335714634137 -0.0011920770037391031 0 -0.061998571742411634 -0.00028861453554490576 0 -0.050728994357628156 -0.00010233109668265044 0 -0.049031137438653012 0.00060843754575836285 0 -0.062076106175302737 -0.00083867631476775646 0 -0.062928040859718593 -0.00046389149336131515 0 -0.061998571742411634 -0.00028861453554490576 0 -0.059520699664201565 0.0019945180079655538 0 -0.058003481581191771 0.0016888520966362292 0 -0.062823585575383201 0.00043829985771274004 0 -0.062842153551728189 0.0004566646385842931 0 -0.062834589528319759 0.00041184514060304558 0 -0.063164865513141502 0.00072448549239602475 0 -0.063102598125804502 0.0006435819345331148 0 -0.062842153551728189 0.0004566646385842931 0 -0.062834589528319759 0.00041184514060304558 0 -0.063030921976069659 0.00046918812725078922 0 -0.063582979232302217 0.00091542147068342738 0 -0.063398664897182141 0.0010808058100659169 0 -0.063171495568055264 0.00078193933459033249 0 -0.063582979232302217 0.00091542147068342738 0 -0.063030921976069659 0.00046918812725078922 0 -0.063171495568055264 0.00078193933459033249 0 -0.063582979232302217 0.00091542147068342738 0 -0.063398664897182141 0.0010808058100659169 0 -0.063584242107926806 0.0011696239015937901 0 -0.063398664897182141 0.0010808058100659169 0 -0.063584242107926806 0.0011696239015937901 0 -0.063512399546615347 0.0013166302066680137 0 -0.063398664897182141 0.0010808058100659169 0 -0.063512399546615347 0.0013166302066680137 0 -0.06328630417320609 0.0012977074683106101 0 -0.063242806951105707 0.00085476204583250989 0 -0.063164865513141502 0.00072448549239602475 0 -0.063597240371004088 0.0012096086595601878 0 -0.063582979232302217 0.00091542147068342738 0 -0.063584242107926806 0.0011696239015937901 0 -0.062826608808097276 0.00064990385867061569 0 -0.062823585575383201 0.00043829985771274004 0 -0.062834589528319759 0.00041184514060304558 0 -0.063584242107926806 0.0011696239015937901 0 -0.063593511405630646 0.001144837373503836 0 -0.063512399546615347 0.0013166302066680137 0 -0.063597240371004088 0.0012096086595601878 0 -0.063584242107926806 0.0011696239015937901 0 -0.063593511405630646 0.001144837373503836 0 -0.062915447392501087 0.0018036722550294766 0 -0.063106232933831774 0.001746444514151948 0 -0.063694543363418399 0.0016370956420021232 0 -0.063512399546615347 0.0013166302066680137 0 -0.063600271574531214 0.001702743590013468 0 -0.063512399546615347 0.0013166302066680137 0 -0.063600271574531214 0.001702743590013468 0 -0.063432422876961561 0.0016369445305017551 0 -0.063600271574531214 0.001702743590013468 0 -0.063552844151859023 0.0018257966729522675 0 -0.063432422876961561 0.0016369445305017551 0 -0.063552844151859023 0.0018257966729522675 0 -0.063590220769993697 0.0016935795107594382 0 -0.063702330938125565 0.0015461638152432435 0 -0.063552844151859023 0.0018257966729522675 0 -0.063702330938125565 0.0015461638152432435 0 -0.06355848462388243 0.001808733671737893 0 -0.063600271574531214 0.001702743590013468 0 -0.063552844151859023 0.0018257966729522675 0 -0.063590220769993697 0.0016935795107594382 0 -0.063590220769993697 0.0016935795107594382 0 -0.063608212948474685 0.001679045866441371 0 -0.063610889992958441 0.0016985101007291256 0 -0.063590220769993697 0.0016935795107594382 0 -0.063629099751983484 0.0016766819027739927 0 -0.063608212948474685 0.001679045866441371 0 -0.063600271574531214 0.001702743590013468 0 -0.063590220769993697 0.0016935795107594382 0 -0.063629099751983484 0.0016766819027739927 0 -0.063694543363418399 0.0016370956420021232 0 -0.063600271574531214 0.001702743590013468 0 -0.063629099751983484 0.0016766819027739927 0 -0.062915447392501087 0.0018036722550294766 0 -0.061814180197208725 0.0017692016557644087 0 -0.063479671294338236 0.0011066613493214159 0 -0.063593511405630646 0.001144837373503836 0 -0.063389527269327034 0.0010342791773986103 0 -0.063694543363418399 0.0016370956420021232 0 -0.063601664836614794 0.0016555263427273992 0 -0.063495117378602486 0.0017046394926464733 0 -0.063694543363418399 0.0016370956420021232 0 -0.063629099751983484 0.0016766819027739927 0 -0.063601664836614794 0.0016555263427273992 0 -0.063601664836614794 0.0016555263427273992 0 -0.063495117378602486 0.0017046394926464733 0 -0.063485592733000348 0.0014958339649592423 0 -0.063389527269327034 0.0010342791773986103 0 -0.063394087353005155 0.0010721085546019611 0 -0.063404725095971087 0.001118044270156514 0 -0.061814180197208725 0.0017692016557644087 0 -0.057663843215570679 0.00076238651044603157 0 -0.063375027260279895 0.0010579450919945838 0 -0.063394087353005155 0.0010721085546019611 0 -0.063402114538150464 0.0010591863476954492 0 -0.063375027260279895 0.0010579450919945838 0 -0.063389527269327034 0.0010342791773986103 0 -0.063394087353005155 0.0010721085546019611 0 -0.063341028490005849 0.0010729093623313294 0 -0.063375027260279895 0.0010579450919945838 0 -0.063402114538150464 0.0010591863476954492 0 -0.063341028490005849 0.0010729093623313294 0 -0.063479671294338236 0.0011066613493214159 0 -0.063389527269327034 0.0010342791773986103 0 -0.063341028490005849 0.0010729093623313294 0 -0.063375027260279895 0.0010579450919945838 0 -0.063389527269327034 0.0010342791773986103 0 -0.063495117378602486 0.0017046394926464733 0 -0.063091011363290886 0.0013872167282797439 0 -0.062841919756730757 0.0014497398002825089 0 -0.063091011363290886 0.0013872167282797439 0 -0.063331513282277416 0.0013865632851032569 0 -0.063187761978440476 0.0012733336546147118 0 -0.063495117378602486 0.0017046394926464733 0 -0.063091011363290886 0.0013872167282797439 0 -0.063331513282277416 0.0013865632851032569 0 -0.063495117378602486 0.0017046394926464733 0 -0.063331513282277416 0.0013865632851032569 0 -0.063485592733000348 0.0014958339649592423 0 -0.063331513282277416 0.0013865632851032569 0 -0.0634211961505287 0.0012874585095870494 0 -0.063485592733000348 0.0014958339649592423 0 -0.063331513282277416 0.0013865632851032569 0 -0.063283959431085904 0.0011354247029400301 0 -0.0634211961505287 0.0012874585095870494 0 -0.063283959431085904 0.0011354247029400301 0 -0.0634211961505287 0.0012874585095870494 0 -0.063579017582917077 0.0011253686040327375 0 -0.063331513282277416 0.0013865632851032569 0 -0.063283959431085904 0.0011354247029400301 0 -0.063187761978440476 0.0012733336546147118 0 -0.063283959431085904 0.0011354247029400301 0 -0.063187761978440476 0.0012733336546147118 0 -0.063043149529132009 0.0011832565918371946 0 -0.063091011363290886 0.0013872167282797439 0 -0.063187761978440476 0.0012733336546147118 0 -0.063043149529132009 0.0011832565918371946 0 -0.063739238199539819 0.0013738949522523591 0 -0.063745770154171072 0.0012416387811431532 0 -0.063601664836614794 0.0016555263427273992 0 -0.063608212948474685 0.001679045866441371 0 -0.063621903241974115 0.0016889586107544372 0 -0.063601664836614794 0.0016555263427273992 0 -0.063485592733000348 0.0014958339649592423 0 -0.063579017582917077 0.0011253686040327375 0 -0.063629099751983484 0.0016766819027739927 0 -0.063601664836614794 0.0016555263427273992 0 -0.063608212948474685 0.001679045866441371 0 -0.0634211961505287 0.0012874585095870494 0 -0.063485592733000348 0.0014958339649592423 0 -0.063579017582917077 0.0011253686040327375 0 -0.063610889992958441 0.0016985101007291256 0 -0.063621903241974115 0.0016889586107544372 0 -0.063625517117225347 0.0017106380637665558 0 -0.063745770154171072 0.0012416387811431532 0 -0.063777947011759789 0.00090033903043876165 0 -0.063608212948474685 0.001679045866441371 0 -0.063610889992958441 0.0016985101007291256 0 -0.063621903241974115 0.0016889586107544372 0 -0.063802917987699451 0.0011904283725148518 0 -0.063777947011759789 0.00090033903043876165 0 -0.063579017582917077 0.0011253686040327375 0 -0.063285786771321753 0.00083200529718780618 0 -0.06348079269837055 0.00053193587472372117 0 -0.063283959431085904 0.0011354247029400301 0 -0.063285786771321753 0.00083200529718780618 0 -0.063005257291034331 0.00088331135571322245 0 -0.063283959431085904 0.0011354247029400301 0 -0.063043149529132009 0.0011832565918371946 0 -0.063005257291034331 0.00088331135571322245 0 -0.063283959431085904 0.0011354247029400301 0 -0.063579017582917077 0.0011253686040327375 0 -0.063285786771321753 0.00083200529718780618 0 -0.063285786771321753 0.00083200529718780618 0 -0.063063177453542174 0.00055309935178210023 0 -0.063005257291034331 0.00088331135571322245 0 -0.063777947011759789 0.00090033903043876165 0 -0.063535218790165091 0.00032287052603155003 0 -0.063063177453542174 0.00055309935178210023 0 -0.06348079269837055 0.00053193587472372117 0 -0.062972205943024967 1.0084785601793811e-05 0 -0.063285786771321753 0.00083200529718780618 0 -0.063063177453542174 0.00055309935178210023 0 -0.06348079269837055 0.00053193587472372117 0 -0.063363638643266412 0.0014472305721789855 0 -0.063518250493541262 0.001395980255861621 0 -0.063328208583356346 0.0012347551622478325 0 -0.063469475785407389 0.0015607150266311693 0 -0.063363638643266412 0.0014472305721789855 0 -0.063518250493541262 0.001395980255861621 0 -0.064121863999097542 0.00093536813493669616 0 -0.063975583043038631 0.0011243205990363989 0 -0.063702330938125565 0.0015461638152432435 0 -0.064066054991525012 0.0010129550122544326 0 -0.064073087033625686 0.0011898797037490068 0 -0.063975583043038631 0.0011243205990363989 0 -0.063702330938125565 0.0015461638152432435 0 -0.063821575620800569 0.0013495970668886963 0 -0.063975583043038631 0.0011243205990363989 0 -0.064102292402990022 0.00096737552823062951 0 -0.063821575620800569 0.0013495970668886963 0 -0.063518250493541262 0.001395980255861621 0 -0.063702330938125565 0.0015461638152432435 0 -0.063570239943637627 0.0015452431598279724 0 -0.063469475785407389 0.0015607150266311693 0 -0.063518250493541262 0.001395980255861621 0 -0.063570239943637627 0.0015452431598279724 0 -0.063590220769993697 0.0016935795107594382 0 -0.063702330938125565 0.0015461638152432435 0 -0.063570239943637627 0.0015452431598279724 0 -0.063809608447332813 0.0012790320240386255 0 -0.063802917987699451 0.0011904283725148518 0 -0.063590220769993697 0.0016935795107594382 0 -0.063469475785407389 0.0015607150266311693 0 -0.063570239943637627 0.0015452431598279724 0 -0.053303531347672475 0.0014322058325041077 0 -0.053296844310402353 0.001440649791223872 0 -0.053317330112623039 0.0014573405230215483 0 -0.053337016956123175 0.0014497410980588042 0 -0.053303531347672475 0.0014322058325041077 0 -0.053317330112623039 0.0014573405230215483 0 -0.053303531347672475 0.0014322058325041077 0 -0.05327793758621651 0.001413201940427392 0 -0.053279300342453206 0.0014233633513766209 0 -0.053305443266719696 0.0014161276059202327 0 -0.053303531347672475 0.0014322058325041077 0 -0.05327793758621651 0.001413201940427392 0 -0.053263217134088978 0.0014049327614683747 0 -0.05327793758621651 0.001413201940427392 0 -0.053279300342453206 0.0014233633513766209 0 -0.053303531347672475 0.0014322058325041077 0 -0.053279300342453206 0.0014233633513766209 0 -0.053296844310402353 0.001440649791223872 0 -0.053279300342453206 0.0014233633513766209 0 -0.053296844310402353 0.001440649791223872 0 -0.053281382369277479 0.001435981865095368 0 -0.053296844310402353 0.001440649791223872 0 -0.053281382369277479 0.001435981865095368 0 -0.0532917896033272 0.0014512106200274193 0 -0.053273595136332237 0.0014435670273698102 0 -0.053281382369277479 0.001435981865095368 0 -0.0532611973001215 0.0014246073080995238 0 -0.056391823945227064 0.0012800987040093058 0 -0.054360195666027816 0.0014827357004892378 0 -0.053273595136332237 0.0014435670273698102 0 -0.053281382369277479 0.001435981865095368 0 -0.0532917896033272 0.0014512106200274193 0 -0.056391823945227064 0.0012800987040093058 0 -0.055997201743447002 0.0011492361894522871 0 -0.053279300342453206 0.0014233633513766209 0 -0.053281382369277479 0.001435981865095368 0 -0.0532611973001215 0.0014246073080995238 0 -0.0505846527770056 0.0023810247390927829 0 -0.054360195666027816 0.0014827357004892378 0 -0.053263217134088978 0.0014049327614683747 0 -0.053279300342453206 0.0014233633513766209 0 -0.0532611973001215 0.0014246073080995238 0 -0.06345819145167983 0.00093773822335339006 0 -0.063440133841007856 0.0011016170733432272 0 -0.063402114538150464 0.0010591863476954492 0 -0.053302394635548769 0.0018462676113494966 0 -0.054360195666027816 0.0014827357004892378 0 -0.063440133841007856 0.0011016170733432272 0 -0.063411729452757012 0.0010934024756164664 0 -0.063404725095971087 0.001118044270156514 0 -0.063394087353005155 0.0010721085546019611 0 -0.063411729452757012 0.0010934024756164664 0 -0.063404725095971087 0.001118044270156514 0 -0.063440133841007856 0.0011016170733432272 0 -0.063402114538150464 0.0010591863476954492 0 -0.063411729452757012 0.0010934024756164664 0 -0.063394087353005155 0.0010721085546019611 0 -0.063402114538150464 0.0010591863476954492 0 -0.063411729452757012 0.0010934024756164664 0 -0.056020674028446203 0.0021526636120774464 0 -0.054876536227118952 -1.5262218083620987e-05 0 -0.053977906373716203 0.0010920087889515306 0 -0.063091011363290886 0.0013872167282797439 0 -0.062959643062966128 0.0014002694315985204 0 -0.062841919756730757 0.0014497398002825089 0 -0.063091011363290886 0.0013872167282797439 0 -0.062959643062966128 0.0014002694315985204 0 -0.062937971644692878 0.0012974837870265293 0 -0.062959643062966128 0.0014002694315985204 0 -0.062841919756730757 0.0014497398002825089 0 -0.062937971644692878 0.0012974837870265293 0 -0.054360195666027816 0.0014827357004892378 0 -0.057663843215570679 0.00076238651044603157 0 -0.062387043295314672 0.0012216142289333584 0 -0.062841919756730757 0.0014497398002825089 0 -0.062744764680351686 0.0011450631159929823 0 -0.056391823945227064 0.0012800987040093058 0 -0.057663843215570679 0.00076238651044603157 0 -0.062744764680351686 0.0011450631159929823 0 -0.063043149529132009 0.0011832565918371946 0 -0.062937971644692878 0.0012974837870265293 0 -0.062841919756730757 0.0014497398002825089 0 -0.062744764680351686 0.0011450631159929823 0 -0.062937971644692878 0.0012974837870265293 0 -0.063091011363290886 0.0013872167282797439 0 -0.063043149529132009 0.0011832565918371946 0 -0.062937971644692878 0.0012974837870265293 0 -0.063063177453542174 0.00055309935178210023 0 -0.063005257291034331 0.00088331135571322245 0 -0.062536878092840364 0.00065269462677081341 0 -0.062744764680351686 0.0011450631159929823 0 -0.063005257291034331 0.00088331135571322245 0 -0.062536878092840364 0.00065269462677081341 0 -0.062744764680351686 0.0011450631159929823 0 -0.063043149529132009 0.0011832565918371946 0 -0.063005257291034331 0.00088331135571322245 0 -0.062536878092840364 0.00065269462677081341 0 -0.062372803849698379 9.8732535112840827e-05 0 -0.062972205943024967 1.0084785601793811e-05 0 -0.063063177453542174 0.00055309935178210023 0 -0.062536878092840364 0.00065269462677081341 0 -0.062972205943024967 1.0084785601793811e-05 0 -0.062536878092840364 0.00065269462677081341 0 -0.062028635962628184 0.00054417974146386914 0 -0.062372803849698379 9.8732535112840827e-05 0 -0.053284902358376636 0.0014461893542905976 0 -0.0532917896033272 0.0014512106200274193 0 -0.053304203121863222 0.0014704058900191789 0 -0.056391823945227064 0.0012800987040093058 0 -0.0583832338853447 0.00072405333982995183 0 -0.062387043295314672 0.0012216142289333584 0 -0.062536878092840364 0.00065269462677081341 0 -0.062028635962628184 0.00054417974146386914 0 -0.062387043295314672 0.0012216142289333584 0 -0.062744764680351686 0.0011450631159929823 0 -0.062536878092840364 0.00065269462677081341 0 -0.053302362038276166 0.0014549810751246209 0 -0.053304203121863222 0.0014704058900191789 0 -0.053317330112623039 0.0014573405230215483 0 -0.0532917896033272 0.0014512106200274193 0 -0.053302362038276166 0.0014549810751246209 0 -0.053304203121863222 0.0014704058900191789 0 -0.053296844310402353 0.001440649791223872 0 -0.0532917896033272 0.0014512106200274193 0 -0.053302362038276166 0.0014549810751246209 0 -0.053296844310402353 0.001440649791223872 0 -0.053302362038276166 0.0014549810751246209 0 -0.053317330112623039 0.0014573405230215483 0 -0.053304203121863222 0.0014704058900191789 0 -0.053329993529704814 0.001476998421749046 0 -0.053335137367797346 0.0014971715438975167 0 -0.053304203121863222 0.0014704058900191789 0 -0.053329993529704814 0.001476998421749046 0 -0.053317330112623039 0.0014573405230215483 0 -0.053347440562637689 0.0014667314243174119 0 -0.053329993529704814 0.001476998421749046 0 -0.053317330112623039 0.0014573405230215483 0 -0.064980309486378021 7.1571469768821536e-05 0 -0.065015458190655656 8.9295289708451827e-05 0 -0.06500209865922299 4.1175601389960818e-05 0 -0.060920963828986631 0.00021440122692858852 0 -0.063680230824082001 0.00040062462442316463 0 -0.064959306779670864 -0.00011531203044969388 0 -0.064962713727734739 -5.6673748268642459e-05 0 -0.064996682073799175 -4.0759689892596393e-05 0 -0.053354373769616659 0.0014863490126974571 0 -0.053329993529704814 0.001476998421749046 0 -0.053335137367797346 0.0014971715438975167 0 -0.064978107155611711 0.00011431505512897748 0 -0.064980309486378021 7.1571469768821536e-05 0 -0.065015458190655656 8.9295289708451827e-05 0 -0.060246902678636319 0.0011902217648549003 0 -0.060920963828986631 0.00021440122692858852 0 -0.062028635962628184 0.00054417974146386914 0 -0.061671663627805642 -0.00013277584689522738 0 -0.062372803849698379 9.8732535112840827e-05 0 -0.0583832338853447 0.00072405333982995183 0 -0.060920963828986631 0.00021440122692858852 0 -0.060920963828986631 0.00021440122692858852 0 -0.063599379522513128 3.8663879291988029e-05 0 -0.064959306779670864 -0.00011531203044969388 0 -0.064885796373974555 -8.2448257207425274e-05 0 -0.064962713727734739 -5.6673748268642459e-05 0 -0.061671663627805642 -0.00013277584689522738 0 -0.06246621594515115 -0.00050921950500353139 0 -0.062372803849698379 9.8732535112840827e-05 0 -0.06246621594515115 -0.00050921950500353139 0 -0.062372803849698379 9.8732535112840827e-05 0 -0.062972205943024967 1.0084785601793811e-05 0 -0.063599379522513128 3.8663879291988029e-05 0 -0.063535218790165091 0.00032287052603155003 0 -0.064960831107407344 -8.1413477233079038e-05 0 -0.064898516590057492 -5.1587098067863325e-05 0 -0.064779746188267553 -0.00023075587101111211 0 -0.063850147850693678 0.00046645254725607332 0 -0.063821690085885951 0.00037797239968081803 0 -0.063901882527861747 0.00044438699424619455 0 -0.063782680664162178 0.00039633235789277564 0 -0.063850147850693678 0.00046645254725607332 0 -0.063821690085885951 0.00037797239968081803 0 -0.063599379522513128 3.8663879291988029e-05 0 -0.064113996667640991 1.2273557593046082e-05 0 -0.064113996667640991 1.2273557593046082e-05 0 -0.064179014931920839 -1.1098122911894415e-05 0 -0.064947653641865971 -5.7628764500744134e-05 0 -0.064965916647482802 1.5580698954161655e-05 0 -0.064912617118570187 1.0664975782786232e-05 0 -0.064947653641865971 -5.7628764500744134e-05 0 -0.064898516590057492 -5.1587098067863325e-05 0 -0.064912617118570187 1.0664975782786232e-05 0 -0.064965916647482802 1.5580698954161655e-05 0 -0.064912617118570187 1.0664975782786232e-05 0 -0.064949117417402683 4.269309229545169e-05 0 -0.064949117417402683 4.269309229545169e-05 0 -0.065000021435222335 2.9812280558678208e-08 0 -0.064999645321932517 1.2399817717382395e-07 0 -0.064965916647482802 1.5580698954161655e-05 0 -0.064949117417402683 4.269309229545169e-05 0 -0.065000021435222335 2.9812280558678208e-08 0 -0.064912617118570187 1.0664975782786232e-05 0 -0.064949117417402683 4.269309229545169e-05 0 -0.064821313990177473 9.0356903147579672e-05 0 -0.064965916647482802 1.5580698954161655e-05 0 -0.065000021435222335 2.9812280558678208e-08 0 -0.065001840974824587 7.51075958312532e-06 0 -0.064947653641865971 -5.7628764500744134e-05 0 -0.064965916647482802 1.5580698954161655e-05 0 -0.065001840974824587 7.51075958312532e-06 0 -0.064870466417376371 -0.00010633813342521319 0 -0.064827262127929511 -8.6433615930813274e-05 0 -0.064920005676070633 -1.8367551578058884e-05 0 -0.064870466417376371 -0.00010633813342521319 0 -0.064920005676070633 -1.8367551578058884e-05 0 -0.064933732367186331 -4.1327971472256114e-05 0 -0.064113996667640991 1.2273557593046082e-05 0 -0.064736699975637441 7.3470057079516054e-05 0 -0.063599379522513128 3.8663879291988029e-05 0 -0.06399684933507474 0.00021843491024310581 0 -0.064885796373974555 -8.2448257207425274e-05 0 -0.064962713727734739 -5.6673748268642459e-05 0 -0.064933732367186331 -4.1327971472256114e-05 0 -0.064920005676070633 -1.8367551578058884e-05 0 -0.064933732367186331 -4.1327971472256114e-05 0 -0.064981018390139478 -2.2230160749500962e-05 0 -0.064962713727734739 -5.6673748268642459e-05 0 -0.064933732367186331 -4.1327971472256114e-05 0 -0.064981018390139478 -2.2230160749500962e-05 0 -0.064920005676070633 -1.8367551578058884e-05 0 -0.064999869750072367 -2.9249781371462612e-09 0 -0.064981018390139478 -2.2230160749500962e-05 0 -0.065000021435222335 2.9812280558678208e-08 0 -0.065001840974824587 7.51075958312532e-06 0 -0.064999984507076905 -1.2295342606552114e-08 0 -0.064736699975637441 7.3470057079516054e-05 0 -0.064999662051721876 2.2986304403824396e-07 0 -0.06500009654784572 6.1156658221428095e-12 0 -0.064999869750072367 -2.9249781371462612e-09 0 -0.064981018390139478 -2.2230160749500962e-05 0 -0.06500009654784572 6.1156658221428095e-12 0 -0.064981018390139478 -2.2230160749500962e-05 0 -0.064996682073799175 -4.0759689892596393e-05 0 -0.064962713727734739 -5.6673748268642459e-05 0 -0.064981018390139478 -2.2230160749500962e-05 0 -0.064996682073799175 -4.0759689892596393e-05 0 -0.064510591023087066 0.00050084439956461693 0 -0.064274656778288863 0.00076885400394160368 0 -0.064501443107072037 0.0004869239073401448 0 -0.064510591023087066 0.00050084439956461693 0 -0.064382009581443841 0.00064532751054556048 0 -0.064274656778288863 0.00076885400394160368 0 -0.064382009581443841 0.00064532751054556048 0 -0.064102292402990022 0.00096737552823062951 0 -0.064274656778288863 0.00076885400394160368 0 -0.063975583043038631 0.0011243205990363989 0 -0.064102292402990022 0.00096737552823062951 0 -0.064274656778288863 0.00076885400394160368 0 -0.064382009581443841 0.00064532751054556048 0 -0.064102292402990022 0.00096737552823062951 0 -0.06421000912857143 0.00083700161336968532 0 -0.064121863999097542 0.00093536813493669616 0 -0.063975583043038631 0.0011243205990363989 0 -0.064274656778288863 0.00076885400394160368 0 -0.064121863999097542 0.00093536813493669616 0 -0.064274656778288863 0.00076885400394160368 0 -0.064344216125373471 0.00064337420149599214 0 -0.064066054991525012 0.0010129550122544326 0 -0.064079317653898432 0.00058375410948484851 0 -0.063918352563908903 0.00053773211253485976 0 -0.063850147850693678 0.00046645254725607332 0 -0.063901882527861747 0.00044438699424619455 0 -0.063777947011759789 0.00090033903043876165 0 -0.064079317653898432 0.00058375410948484851 0 -0.064113996667640991 1.2273557593046082e-05 0 -0.064079317653898432 0.00058375410948484851 0 -0.064079317653898432 0.00058375410948484851 0 -0.064245057250040441 0.00042225629506079646 0 -0.064898516590057492 -5.1587098067863325e-05 0 -0.064779746188267553 -0.00023075587101111211 0 -0.06480910583554364 -7.5727728942104257e-05 0 -0.064344216125373471 0.00064337420149599214 0 -0.064480302433013018 0.00041747409656591556 0 -0.064501443107072037 0.0004869239073401448 0 -0.064274656778288863 0.00076885400394160368 0 -0.064344216125373471 0.00064337420149599214 0 -0.064501443107072037 0.0004869239073401448 0 -0.064510591023087066 0.00050084439956461693 0 -0.064501443107072037 0.0004869239073401448 0 -0.064707849367304962 0.00026811037418238685 0 -0.064501443107072037 0.0004869239073401448 0 -0.064675159930722689 0.0002585599918132446 0 -0.064707849367304962 0.00026811037418238685 0 -0.064675159930722689 0.0002585599918132446 0 -0.064707849367304962 0.00026811037418238685 0 -0.064828012692064105 0.00012232930017758411 0 -0.064480302433013018 0.00041747409656591556 0 -0.064675159930722689 0.0002585599918132446 0 -0.064821313990177473 9.0356903147579672e-05 0 -0.064912617118570187 1.0664975782786232e-05 0 -0.06480910583554364 -7.5727728942104257e-05 0 -0.064821313990177473 9.0356903147579672e-05 0 -0.064245057250040441 0.00042225629506079646 0 -0.064306917023270738 0.00038438556506470342 0 -0.064898516590057492 -5.1587098067863325e-05 0 -0.064912617118570187 1.0664975782786232e-05 0 -0.06480910583554364 -7.5727728942104257e-05 0 -0.064480302433013018 0.00041747409656591556 0 -0.064501443107072037 0.0004869239073401448 0 -0.064675159930722689 0.0002585599918132446 0 -0.064675159930722689 0.0002585599918132446 0 -0.064821313990177473 9.0356903147579672e-05 0 -0.064828012692064105 0.00012232930017758411 0 -0.064949117417402683 4.269309229545169e-05 0 -0.064821313990177473 9.0356903147579672e-05 0 -0.064999645321932517 1.2399817717382395e-07 0 -0.064821313990177473 9.0356903147579672e-05 0 -0.064999645321932517 1.2399817717382395e-07 0 -0.064828012692064105 0.00012232930017758411 0 -0.064999645321932517 1.2399817717382395e-07 0 -0.064828012692064105 0.00012232930017758411 0 -0.064999524683744855 2.1811061301630235e-07 0 -0.064707849367304962 0.00026811037418238685 0 -0.064828012692064105 0.00012232930017758411 0 -0.064999524683744855 2.1811061301630235e-07 0 -0.064999524683744855 2.1811061301630235e-07 0 -0.064692560848900627 0.00030829003627136505 0 -0.064999670037883997 8.0240502970948127e-08 0 -0.064707849367304962 0.00026811037418238685 0 -0.064999524683744855 2.1811061301630235e-07 0 -0.064692560848900627 0.00030829003627136505 0 -0.064510591023087066 0.00050084439956461693 0 -0.064382009581443841 0.00064532751054556048 0 -0.064692560848900627 0.00030829003627136505 0 -0.064510591023087066 0.00050084439956461693 0 -0.064707849367304962 0.00026811037418238685 0 -0.064692560848900627 0.00030829003627136505 0 -0.064382009581443841 0.00064532751054556048 0 -0.064692560848900627 0.00030829003627136505 0 -0.064586888902050901 0.0004329166001720582 0 -0.064692560848900627 0.00030829003627136505 0 -0.064999670037883997 8.0240502970948127e-08 0 -0.064586888902050901 0.0004329166001720582 0 -0.064999670037883997 8.0240502970948127e-08 0 -0.064999148038107024 8.0028951767905951e-07 0 -0.064586888902050901 0.0004329166001720582 0 -0.064999148038107024 8.0028951767905951e-07 0 -0.064605419416547627 0.0004305637008297887 0 -0.064586888902050901 0.0004329166001720582 0 -0.064605419416547627 0.0004305637008297887 0 -0.064586888902050901 0.0004329166001720582 0 -0.064347672610433546 0.0006920244602123569 0 -0.064382009581443841 0.00064532751054556048 0 -0.064586888902050901 0.0004329166001720582 0 -0.06421000912857143 0.00083700161336968532 0 -0.064586888902050901 0.0004329166001720582 0 -0.064347672610433546 0.0006920244602123569 0 -0.06421000912857143 0.00083700161336968532 0 -0.064347672610433546 0.0006920244602123569 0 -0.064066655893012109 0.0010208142280804383 0 -0.06421000912857143 0.00083700161336968532 0 -0.064102292402990022 0.00096737552823062951 0 -0.06421000912857143 0.00083700161336968532 0 -0.063821575620800569 0.0013495970668886963 0 -0.064066655893012109 0.0010208142280804383 0 -0.06421000912857143 0.00083700161336968532 0 -0.063821575620800569 0.0013495970668886963 0 -0.064217759132290719 0.00088050722327626151 0 -0.064528662713766269 0.00073650785451787471 0 -0.064204533536437333 0.0010766239212223916 0 -0.064528662713766269 0.00073650785451787471 0 -0.064496000029683073 0.0010158483738462992 0 -0.064204533536437333 0.0010766239212223916 0 -0.064347672610433546 0.0006920244602123569 0 -0.064066655893012109 0.0010208142280804383 0 -0.064217759132290719 0.00088050722327626151 0 -0.064066655893012109 0.0010208142280804383 0 -0.064217759132290719 0.00088050722327626151 0 -0.06372788352329499 0.0014633816147115082 0 -0.064605419416547627 0.0004305637008297887 0 -0.064347672610433546 0.0006920244602123569 0 -0.064468598559549117 0.00057627516030702949 0 -0.064347672610433546 0.0006920244602123569 0 -0.064217759132290719 0.00088050722327626151 0 -0.064468598559549117 0.00057627516030702949 0 -0.064217759132290719 0.00088050722327626151 0 -0.064468598559549117 0.00057627516030702949 0 -0.064528662713766269 0.00073650785451787471 0 -0.064468598559549117 0.00057627516030702949 0 -0.064581795666236799 0.00052125626548655895 0 -0.064528662713766269 0.00073650785451787471 0 -0.064861375939280416 0.00011701509030097215 0 -0.064873755381325282 0.00027300526094758612 0 -0.065000103409788915 -3.878015598414182e-08 0 -0.064973655941519909 3.4619119929563732e-05 0 -0.064999673417273029 1.2268668849966084e-07 0 -0.064468598559549117 0.00057627516030702949 0 -0.064618898964968224 0.00039290890919899558 0 -0.064581795666236799 0.00052125626548655895 0 -0.064605419416547627 0.0004305637008297887 0 -0.064468598559549117 0.00057627516030702949 0 -0.064618898964968224 0.00039290890919899558 0 -0.064999148038107024 8.0028951767905951e-07 0 -0.064605419416547627 0.0004305637008297887 0 -0.064618898964968224 0.00039290890919899558 0 -0.064999652758225057 2.0768823452921285e-07 0 -0.064861375939280416 0.00011701509030097215 0 -0.064973655941519909 3.4619119929563732e-05 0 -0.064999673417273029 1.2268668849966084e-07 0 -0.06487684013909828 0.00015415441515444962 0 -0.064999673417273029 1.2268668849966084e-07 0 -0.064894979288436086 0.00019489081302264522 0 -0.065000260913132019 7.7451298254295178e-08 0 -0.064999673417273029 1.2268668849966084e-07 0 -0.064894979288436086 0.00019489081302264522 0 -0.06487684013909828 0.00015415441515444962 0 -0.064894979288436086 0.00019489081302264522 0 -0.065000260913132019 7.7451298254295178e-08 0 -0.06497220584854986 0.00021012815951288125 0 -0.065000260913132019 7.7451298254295178e-08 0 -0.06497220584854986 0.00021012815951288125 0 -0.064839661374225213 0.00015401869456507181 0 -0.064484693095881937 0.00093628314086967367 0 -0.064386195562927392 0.00071896802292561676 0 -0.064149436975443855 0.00078210808017510928 0 -0.064484693095881937 0.00093628314086967367 0 -0.064664319145371948 0.00075371095571148791 0 -0.064814046780643661 0.00058061094665417851 0 -0.064894979288436086 0.00019489081302264522 0 -0.06497220584854986 0.00021012815951288125 0 -0.064814046780643661 0.00058061094665417851 0 -0.064576273806279491 0.00051010006953995776 0 -0.064608347304604768 0.00052895143210284694 0 -0.064664319145371948 0.00075371095571148791 0 -0.064386195562927392 0.00071896802292561676 0 -0.064642207202334004 0.0007813223069335557 0 -0.064712908055840637 0.00077023374556675769 0 -0.064664319145371948 0.00075371095571148791 0 -0.06475180926705959 0.00070132826841335055 0 -0.064664319145371948 0.00075371095571148791 0 -0.064814046780643661 0.00058061094665417851 0 -0.06475180926705959 0.00070132826841335055 0 -0.064712908055840637 0.00077023374556675769 0 -0.064664319145371948 0.00075371095571148791 0 -0.064642207202334004 0.0007813223069335557 0 -0.064712908055840637 0.00077023374556675769 0 -0.064722385684555184 0.00085594760467984008 0 -0.064642207202334004 0.0007813223069335557 0 -0.064484693095881937 0.00093628314086967367 0 -0.064664319145371948 0.00075371095571148791 0 -0.064386195562927392 0.00071896802292561676 0 -0.064581795666236799 0.00052125626548655895 0 -0.064647379857000101 0.0006234130918004537 0 -0.064528662713766269 0.00073650785451787471 0 -0.064581795666236799 0.00052125626548655895 0 -0.064647379857000101 0.0006234130918004537 0 -0.064792856771612645 0.00054804130441531141 0 -0.064873755381325282 0.00027300526094758612 0 -0.064919471205629853 0.00036238420020992583 0 -0.064647379857000101 0.0006234130918004537 0 -0.064716555298013789 0.00065186814180868871 0 -0.064640393180202899 0.00077273499816074532 0 -0.064894979288436086 0.00019489081302264522 0 -0.064814046780643661 0.00058061094665417851 0 -0.064792856771612645 0.00054804130441531141 0 -0.064894979288436086 0.00019489081302264522 0 -0.06487684013909828 0.00015415441515444962 0 -0.064792856771612645 0.00054804130441531141 0 -0.064814046780643661 0.00058061094665417851 0 -0.064771978988113557 0.00063246485591930441 0 -0.06475180926705959 0.00070132826841335055 0 -0.064814046780643661 0.00058061094665417851 0 -0.064792856771612645 0.00054804130441531141 0 -0.064771978988113557 0.00063246485591930441 0 -0.064647379857000101 0.0006234130918004537 0 -0.064792856771612645 0.00054804130441531141 0 -0.064716555298013789 0.00065186814180868871 0 -0.064771978988113557 0.00063246485591930441 0 -0.064716555298013789 0.00065186814180868871 0 -0.06474774095922689 0.00068657175886362219 0 -0.064792856771612645 0.00054804130441531141 0 -0.064771978988113557 0.00063246485591930441 0 -0.064716555298013789 0.00065186814180868871 0 -0.064716555298013789 0.00065186814180868871 0 -0.064713939041823987 0.00075970083259682296 0 -0.064640393180202899 0.00077273499816074532 0 -0.064716555298013789 0.00065186814180868871 0 -0.064713939041823987 0.00075970083259682296 0 -0.06474774095922689 0.00068657175886362219 0 -0.064771978988113557 0.00063246485591930441 0 -0.06475180926705959 0.00070132826841335055 0 -0.06474774095922689 0.00068657175886362219 0 -0.06475180926705959 0.00070132826841335055 0 -0.06474774095922689 0.00068657175886362219 0 -0.06473574017209692 0.00075455812313812774 0 -0.064713939041823987 0.00075970083259682296 0 -0.06474774095922689 0.00068657175886362219 0 -0.06473574017209692 0.00075455812313812774 0 -0.064712908055840637 0.00077023374556675769 0 -0.06475180926705959 0.00070132826841335055 0 -0.06473574017209692 0.00075455812313812774 0 -0.064712908055840637 0.00077023374556675769 0 -0.06473574017209692 0.00075455812313812774 0 -0.064722385684555184 0.00085594760467984008 0 -0.064713939041823987 0.00075970083259682296 0 -0.06473574017209692 0.00075455812313812774 0 -0.064722385684555184 0.00085594760467984008 0 -0.064713939041823987 0.00075970083259682296 0 -0.064722385684555184 0.00085594760467984008 0 -0.064680463613057723 0.00091335420094815461 0 -0.064713939041823987 0.00075970083259682296 0 -0.064680463613057723 0.00091335420094815461 0 -0.064640393180202899 0.00077273499816074532 0 -0.064680463613057723 0.00091335420094815461 0 -0.064640393180202899 0.00077273499816074532 0 -0.064496000029683073 0.0010158483738462992 0 -0.064647379857000101 0.0006234130918004537 0 -0.064640393180202899 0.00077273499816074532 0 -0.064528662713766269 0.00073650785451787471 0 -0.064640393180202899 0.00077273499816074532 0 -0.064528662713766269 0.00073650785451787471 0 -0.064496000029683073 0.0010158483738462992 0 -0.064680463613057723 0.00091335420094815461 0 -0.064726438407243 0.0010243881683216416 0 -0.064645029109781899 0.0015078821723164407 0 -0.064680463613057723 0.00091335420094815461 0 -0.064496000029683073 0.0010158483738462992 0 -0.064645029109781899 0.0015078821723164407 0 -0.064722385684555184 0.00085594760467984008 0 -0.064680463613057723 0.00091335420094815461 0 -0.064726438407243 0.0010243881683216416 0 -0.064722385684555184 0.00085594760467984008 0 -0.064726438407243 0.0010243881683216416 0 -0.064642207202334004 0.0007813223069335557 0 -0.066270288157631502 0.0019452401059331524 0 -0.064645029109781899 0.0015078821723164407 0 -0.065933854415221482 0.0030435285736323332 0 -0.064746232204287685 0.001520176573406453 0 -0.064748597703530295 0.0015073314698867558 0 -0.064726438407243 0.0010243881683216416 0 -0.064706810997158817 0.00094753969849867606 0 -0.064645029109781899 0.0015078821723164407 0 -0.064726438407243 0.0010243881683216416 0 -0.064706810997158817 0.00094753969849867606 0 -0.06463317393128494 0.00083081537785478028 0 -0.064642207202334004 0.0007813223069335557 0 -0.06463317393128494 0.00083081537785478028 0 -0.064416763917065883 0.00067195252052844594 0 -0.064386195562927392 0.00071896802292561676 0 -0.064642207202334004 0.0007813223069335557 0 -0.064416763917065883 0.00067195252052844594 0 -0.064726438407243 0.0010243881683216416 0 -0.064642207202334004 0.0007813223069335557 0 -0.06463317393128494 0.00083081537785478028 0 -0.064706810997158817 0.00094753969849867606 0 -0.06463317393128494 0.00083081537785478028 0 -0.064581074268513894 0.00074443173112812748 0 -0.064746232204287685 0.001520176573406453 0 -0.063490432173750153 0.0013244374199649883 0 -0.063300173505754315 0.00072110173174894489 0 -0.06335044160448286 0.00066530501461605569 0 -0.063350521892384645 0.00073738053353957877 0 -0.063490432173750153 0.0013244374199649883 0 -0.063739645243208895 0.00089206769478854177 0 -0.06463317393128494 0.00083081537785478028 0 -0.064581074268513894 0.00074443173112812748 0 -0.064416763917065883 0.00067195252052844594 0 -0.062371193126885598 0.00053706248225584554 0 -0.062441801829164388 0.00084326020438870689 0 -0.062889349644865103 0.00066323917240162828 0 -0.063490432173750153 0.0013244374199649883 0 -0.063203858202996316 0.0010573231894784483 0 -0.062441801829164388 0.00084326020438870689 0 -0.062511387647163838 0.0011551188804191724 0 -0.062889349644865103 0.00066323917240162828 0 -0.067880646971536854 0.0023437965939164355 0 -0.066700987601103989 0.0038645703339869266 0 -0.065933854415221482 0.0030435285736323332 0 -0.062371193126885598 0.00053706248225584554 0 -0.062441801829164388 0.00084326020438870689 0 -0.06199337287870027 0.0010187762067661158 0 -0.063490432173750153 0.0013244374199649883 0 -0.061029385978393164 0.0021455991717411528 0 -0.066270288157631502 0.0019452401059331524 0 -0.067880646971536854 0.0023437965939164355 0 -0.065933854415221482 0.0030435285736323332 0 -0.061029385978393164 0.0021455991717411528 0 -0.057489731947911696 0.0014103628285231475 0 -0.054001308051889574 0.0037677325673007153 0 -0.055497032486466945 0.0047069152896349409 0 -0.055453258353503669 0.0024459436797560556 0 -0.062441801829164388 0.00084326020438870689 0 -0.06199337287870027 0.0010187762067661158 0 -0.062511387647163838 0.0011551188804191724 0 -0.055137255776362332 0.005194992017469164 0 -0.054001308051889574 0.0037677325673007153 0 -0.051180901717809389 0.0048121622187525821 0 -0.061029385978393164 0.0021455991717411528 0 -0.060973169751085479 0.002201563355262311 0 -0.055137255776362332 0.005194992017469164 0 -0.054001308051889574 0.0037677325673007153 0 -0.055497032486466945 0.0047069152896349409 0 -0.064645029109781899 0.0015078821723164407 0 -0.064831978032236504 0.0033698352907282647 0 -0.065933854415221482 0.0030435285736323332 0 -0.066700987601103989 0.0038645703339869266 0 -0.064831978032236504 0.0033698352907282647 0 -0.065933854415221482 0.0030435285736323332 0 -0.061029385978393164 0.0021455991717411528 0 -0.061624407084789036 0.0028745429402250743 0 -0.055497032486466945 0.0047069152896349409 0 -0.058011134050083631 0.0033178457375642699 0 -0.055453258353503669 0.0024459436797560556 0 -0.055222515307019937 0.0050810503778124594 0 -0.059310750176327087 0.0045990761920164458 0 -0.055497032486466945 0.0047069152896349409 0 -0.059310750176327087 0.0045990761920164458 0 -0.055497032486466945 0.0047069152896349409 0 -0.058011134050083631 0.0033178457375642699 0 -0.059310750176327087 0.0045990761920164458 0 -0.058011134050083631 0.0033178457375642699 0 -0.060932713361515102 0.0026667529641807488 0 -0.064645029109781899 0.0015078821723164407 0 -0.064831978032236504 0.0033698352907282647 0 -0.0629240528146017 0.0029411233393768152 0 -0.059310750176327087 0.0045990761920164458 0 -0.060932713361515102 0.0026667529641807488 0 -0.0629240528146017 0.0029411233393768152 0 -0.061624407084789036 0.0028745429402250743 0 -0.061883225846577863 0.0029766434741488141 0 -0.0629240528146017 0.0029411233393768152 0 -0.062690733868924389 0.0023985410774452682 0 -0.063263336515116675 0.002188970956697572 0 -0.062690733868924389 0.0023985410774452682 0 -0.063174182423935132 0.0018527237961695521 0 -0.062408425897751155 0.0016776958723012506 0 -0.060932713361515102 0.0026667529641807488 0 -0.0629240528146017 0.0029411233393768152 0 -0.062690733868924389 0.0023985410774452682 0 -0.060932713361515102 0.0026667529641807488 0 -0.062690733868924389 0.0023985410774452682 0 -0.062408425897751155 0.0016776958723012506 0 -0.062690733868924389 0.0023985410774452682 0 -0.063174182423935132 0.0018527237961695521 0 -0.063263336515116675 0.002188970956697572 0 -0.063552844151859023 0.0018257966729522675 0 -0.063174182423935132 0.0018527237961695521 0 -0.063263336515116675 0.002188970956697572 0 -0.063552844151859023 0.0018257966729522675 0 -0.063174182423935132 0.0018527237961695521 0 -0.063432422876961561 0.0016369445305017551 0 -0.063552844151859023 0.0018257966729522675 0 -0.063263336515116675 0.002188970956697572 0 -0.06355848462388243 0.001808733671737893 0 -0.0629240528146017 0.0029411233393768152 0 -0.063263336515116675 0.002188970956697572 0 -0.063467767642528802 0.0019042576263582226 0 -0.063263336515116675 0.002188970956697572 0 -0.063467767642528802 0.0019042576263582226 0 -0.06355848462388243 0.001808733671737893 0 -0.063702330938125565 0.0015461638152432435 0 -0.06355848462388243 0.001808733671737893 0 -0.063821575620800569 0.0013495970668886963 0 -0.063467767642528802 0.0019042576263582226 0 -0.06355848462388243 0.001808733671737893 0 -0.063821575620800569 0.0013495970668886963 0 -0.063467767642528802 0.0019042576263582226 0 -0.063821575620800569 0.0013495970668886963 0 -0.06372788352329499 0.0014633816147115082 0 -0.064066655893012109 0.0010208142280804383 0 -0.063821575620800569 0.0013495970668886963 0 -0.06372788352329499 0.0014633816147115082 0 -0.064217759132290719 0.00088050722327626151 0 -0.06372788352329499 0.0014633816147115082 0 -0.064204533536437333 0.0010766239212223916 0 -0.064496000029683073 0.0010158483738462992 0 -0.064645029109781899 0.0015078821723164407 0 -0.063947774162831525 0.0015452519202312598 0 -0.06372788352329499 0.0014633816147115082 0 -0.064204533536437333 0.0010766239212223916 0 -0.063947774162831525 0.0015452519202312598 0 -0.064496000029683073 0.0010158483738462992 0 -0.064204533536437333 0.0010766239212223916 0 -0.063947774162831525 0.0015452519202312598 0 -0.064645029109781899 0.0015078821723164407 0 -0.0629240528146017 0.0029411233393768152 0 -0.063947774162831525 0.0015452519202312598 0 -0.0629240528146017 0.0029411233393768152 0 -0.063467767642528802 0.0019042576263582226 0 -0.06372788352329499 0.0014633816147115082 0 -0.0629240528146017 0.0029411233393768152 0 -0.06372788352329499 0.0014633816147115082 0 -0.063947774162831525 0.0015452519202312598 0 -0.064994757563880332 -3.7007039933333679e-07 0 -0.064375294494981999 0.00010986878594086987 0 -0.06499847823662834 6.8905216637900554e-07 0 -0.064994757563880332 -3.7007039933333679e-07 0 -0.062274320564640953 -0.00012013881542568326 0 -0.05201787656538568 -4.0551493784809973e-07 0 -0.055323466121252815 0.00017861811438759823 0 -0.062274320564640953 -0.00012013881542568326 0 -0.05201787656538568 -4.0551493784809973e-07 0 -0.055323466121252815 0.00017861811438759823 0 -0.057300875052874199 -0.00031206256215852161 0 -0.062274320564640953 -0.00012013881542568326 0 -0.064994757563880332 -3.7007039933333679e-07 0 -0.062274320564640953 -0.00012013881542568326 0 -0.064375294494981999 0.00010986878594086987 0 -0.063867947847937312 -0.00028473744404683497 0 -0.062274320564640953 -0.00012013881542568326 0 -0.064375294494981999 0.00010986878594086987 0 -0.060785464107131953 0.00029290864831283471 0 -0.060959853890556762 0.00020459078286553901 0 -0.064375294494981999 0.00010986878594086987 0 -0.064221601991645866 0.00030509806584917118 0 -0.064136187002012374 0.00013253717132824641 0 -0.060785464107131953 0.00029290864831283471 0 -0.06102251450050817 0.00037947633866103385 0 -0.063867947847937312 -0.00028473744404683497 0 -0.064375294494981999 0.00010986878594086987 0 -0.064221601991645866 0.00030509806584917118 0 -0.055323466121252815 0.00017861811438759823 0 -0.057300875052874199 -0.00031206256215852161 0 -0.056521287471403024 0.0013280586304961015 0 -0.055323466121252815 0.00017861811438759823 0 -0.056521287471403024 0.0013280586304961015 0 -0.056224132165389788 -0.00030689774359616304 0 -0.056521287471403024 0.0013280586304961015 0 -0.059221790717138935 -0.00022046687390030005 0 -0.056224132165389788 -0.00030689774359616304 0 -0.06102251450050817 0.00037947633866103385 0 -0.061492999328124257 0.00029520672101748894 0 -0.056521287471403024 0.0013280586304961015 0 -0.061882777505459813 0.00092834960311653282 0 -0.059221790717138935 -0.00022046687390030005 0 -0.064221601991645866 0.00030509806584917118 0 -0.061882777505459813 0.00092834960311653282 0 -0.063302513076614081 0.0005107268318540304 0 -0.061882777505459813 0.00092834960311653282 0 -0.06332554644190902 0.0007570880078567922 0 -0.063302513076614081 0.0005107268318540304 0 -0.061882777505459813 0.00092834960311653282 0 -0.06332554644190902 0.0007570880078567922 0 -0.063413506246250306 0.00062958363984726379 0 -0.061882777505459813 0.00092834960311653282 0 -0.063413506246250306 0.00062958363984726379 0 -0.061893139173127831 -0.0005648233096053277 0 -0.06332554644190902 0.0007570880078567922 0 -0.063302513076614081 0.0005107268318540304 0 -0.063694993024352484 0.00069010712169241474 0 -0.063302513076614081 0.0005107268318540304 0 -0.06412628926667753 0.0001787572521634868 0 -0.063694993024352484 0.00069010712169241474 0 -0.063302513076614081 0.0005107268318540304 0 -0.064136187002012374 0.00013253717132824641 0 -0.06412628926667753 0.0001787572521634868 0 -0.064221601991645866 0.00030509806584917118 0 -0.063302513076614081 0.0005107268318540304 0 -0.064136187002012374 0.00013253717132824641 0 -0.06499847823662834 6.8905216637900554e-07 0 -0.06412628926667753 0.0001787572521634868 0 -0.064839661374225213 0.00015401869456507181 0 -0.064375294494981999 0.00010986878594086987 0 -0.064136187002012374 0.00013253717132824641 0 -0.06499847823662834 6.8905216637900554e-07 0 -0.064136187002012374 0.00013253717132824641 0 -0.06499847823662834 6.8905216637900554e-07 0 -0.06412628926667753 0.0001787572521634868 0 -0.065000260913132019 7.7451298254295178e-08 0 -0.06499847823662834 6.8905216637900554e-07 0 -0.064839661374225213 0.00015401869456507181 0 -0.06437272366657229 0.00043085860389913578 0 -0.064444956921969485 0.00046905087465504044 0 -0.064484693095881937 0.00093628314086967367 0 -0.064149436975443855 0.00078210808017510928 0 -0.063786636061696836 0.00085831373062668153 0 -0.064149436975443855 0.00078210808017510928 0 -0.063786636061696836 0.00085831373062668153 0 -0.064029291997415527 0.00065920641152730438 0 -0.064576273806279491 0.00051010006953995776 0 -0.064444956921969485 0.00046905087465504044 0 -0.06412628926667753 0.0001787572521634868 0 -0.063786636061696836 0.00085831373062668153 0 -0.063694993024352484 0.00069010712169241474 0 -0.063786636061696836 0.00085831373062668153 0 -0.063694993024352484 0.00069010712169241474 0 -0.064029291997415527 0.00065920641152730438 0 -0.063704167588616856 0.00081614409755129461 0 -0.063728569844740748 0.00081653993124841423 0 -0.06332554644190902 0.0007570880078567922 0 -0.063413506246250306 0.00062958363984726379 0 -0.063446988886521338 0.00064447549885168114 0 -0.06332554644190902 0.0007570880078567922 0 -0.063694993024352484 0.00069010712169241474 0 -0.063446988886521338 0.00064447549885168114 0 -0.064386195562927392 0.00071896802292561676 0 -0.064029291997415527 0.00065920641152730438 0 -0.064416763917065883 0.00067195252052844594 0 -0.064386195562927392 0.00071896802292561676 0 -0.064149436975443855 0.00078210808017510928 0 -0.064029291997415527 0.00065920641152730438 0 -0.063446988886521338 0.00064447549885168114 0 -0.06335044160448286 0.00066530501461605569 0 -0.063404372907890028 0.00065582416858308451 0 -0.063728569844740748 0.00081653993124841423 0 -0.063739645243208895 0.00089206769478854177 0 -0.063413506246250306 0.00062958363984726379 0 -0.063446988886521338 0.00064447549885168114 0 -0.063404372907890028 0.00065582416858308451 0 -0.063413506246250306 0.00062958363984726379 0 -0.063404372907890028 0.00065582416858308451 0 -0.063427885889783597 0.00067151878692346928 0 -0.063379310755821275 0.00070012987473163431 0 -0.063387497139651694 0.00081818912632676262 0 -0.063427885889783597 0.00067151878692346928 0 -0.063404372907890028 0.00065582416858308451 0 -0.063379310755821275 0.00070012987473163431 0 -0.063427885889783597 0.00067151878692346928 0 -0.06335044160448286 0.00066530501461605569 0 -0.063379310755821275 0.00070012987473163431 0 -0.063350521892384645 0.00073738053353957877 0 -0.06335044160448286 0.00066530501461605569 0 -0.063404372907890028 0.00065582416858308451 0 -0.063379310755821275 0.00070012987473163431 0 -0.051180901717809389 0.0048121622187525821 0 -0.047444745514273863 0.003989987514803524 0 -0.047762500510712104 0.0038220538760915909 0 -0.062511387647163838 0.0011551188804191724 0 -0.063084796297526766 0.00095959029124295756 0 -0.063020836917631398 0.0012737564527322751 0 -0.057489731947911696 0.0014103628285231475 0 -0.05485234516995087 0.00016544903293796905 0 -0.062511387647163838 0.0011551188804191724 0 -0.062889349644865103 0.00066323917240162828 0 -0.063084796297526766 0.00095959029124295756 0 -0.054667662633601947 -0.00089247059996177571 0 -0.05485234516995087 0.00016544903293796905 0 -0.063084796297526766 0.00095959029124295756 0 -0.063387497139651694 0.00081818912632676262 0 -0.063485254490255882 0.00096120893730170984 0 -0.053376603700683714 0.000358370340835523 0 -0.053364822896862771 0.00028678684456671488 0 -0.053467879573525834 0.00031767356498349866 0 -0.063084796297526766 0.00095959029124295756 0 -0.063485254490255882 0.00096120893730170984 0 -0.063020836917631398 0.0012737564527322751 0 -0.062889349644865103 0.00066323917240162828 0 -0.063084796297526766 0.00095959029124295756 0 -0.063387497139651694 0.00081818912632676262 0 -0.063379310755821275 0.00070012987473163431 0 -0.063350521892384645 0.00073738053353957877 0 -0.063387497139651694 0.00081818912632676262 0 -0.063203858202996316 0.0010573231894784483 0 -0.06323490146614176 0.0010107586163993702 0 -0.054667662633601947 -0.00089247059996177571 0 -0.058930783468056261 -0.0007735320909465262 0 -0.063387497139651694 0.00081818912632676262 0 -0.063485254490255882 0.00096120893730170984 0 -0.063427885889783597 0.00067151878692346928 0 -0.061215947625515486 -0.0053971435134058466 0 -0.062782394467481004 -0.0083052192777678113 0 -0.063262413119067537 -0.0030488281195637261 0 -0.054667662633601947 -0.00089247059996177571 0 -0.050508845745277357 -0.0011564583039824995 0 -0.045275347717366528 -0.001979996388014283 0 -0.046196350000407144 -0.0015093159474210524 0 -0.045595528716597382 -0.0011973830518562218 0 -0.045275347717366528 -0.001979996388014283 0 -0.046196350000407144 -0.0015093159474210524 0 -0.046695075478375092 -0.002935349221462903 0 -0.046196350000407144 -0.0015093159474210524 0 -0.046695075478375092 -0.002935349221462903 0 -0.047346095972049917 -0.0017713943327866627 0 -0.054667662633601947 -0.00089247059996177571 0 -0.053541705288198335 -0.0021863487569195143 0 -0.061215947625515486 -0.0053971435134058466 0 -0.062782394467481004 -0.0083052192777678113 0 -0.05844926793490763 -0.0063925333981314199 0 -0.061215947625515486 -0.0053971435134058466 0 -0.05844926793490763 -0.0063925333981314199 0 -0.059752874420784044 -0.0037253760093638251 0 -0.05844926793490763 -0.0063925333981314199 0 -0.059752874420784044 -0.0037253760093638251 0 -0.056930936784522448 -0.0024586868733207372 0 -0.059752874420784044 -0.0037253760093638251 0 -0.059961780113826933 -0.0016849737202601015 0 -0.056930936784522448 -0.0024586868733207372 0 -0.061215947625515486 -0.0053971435134058466 0 -0.059752874420784044 -0.0037253760093638251 0 -0.063262413119067537 -0.0030488281195637261 0 -0.059752874420784044 -0.0037253760093638251 0 -0.063262413119067537 -0.0030488281195637261 0 -0.059961780113826933 -0.0016849737202601015 0 -0.063413506246250306 0.00062958363984726379 0 -0.063262413119067537 -0.0030488281195637261 0 -0.061893139173127831 -0.0005648233096053277 0 -0.060146692571808796 -5.6725523290774214e-05 0 -0.058930783468056261 -0.0007735320909465262 0 -0.063262413119067537 -0.0030488281195637261 0 -0.061893139173127831 -0.0005648233096053277 0 -0.059961780113826933 -0.0016849737202601015 0 -0.059221790717138935 -0.00022046687390030005 0 -0.059961780113826933 -0.0016849737202601015 0 -0.056224132165389788 -0.00030689774359616304 0 -0.061882777505459813 0.00092834960311653282 0 -0.061893139173127831 -0.0005648233096053277 0 -0.059221790717138935 -0.00022046687390030005 0 -0.061893139173127831 -0.0005648233096053277 0 -0.059221790717138935 -0.00022046687390030005 0 -0.059961780113826933 -0.0016849737202601015 0 -0.059961780113826933 -0.0016849737202601015 0 -0.056224132165389788 -0.00030689774359616304 0 -0.056930936784522448 -0.0024586868733207372 0 -0.055323466121252815 0.00017861811438759823 0 -0.0547331011457102 -0.00057475351258831566 0 -0.053081937926554072 -0.0010047639630492327 0 -0.055323466121252815 0.00017861811438759823 0 -0.056224132165389788 -0.00030689774359616304 0 -0.0547331011457102 -0.00057475351258831566 0 -0.056224132165389788 -0.00030689774359616304 0 -0.0547331011457102 -0.00057475351258831566 0 -0.054453068517599672 -0.0011760796576601566 0 -0.054453068517599672 -0.0011760796576601566 0 -0.053081937926554072 -0.0010047639630492327 0 -0.052335041511620231 -0.0028241921555861968 0 -0.0547331011457102 -0.00057475351258831566 0 -0.054453068517599672 -0.0011760796576601566 0 -0.053081937926554072 -0.0010047639630492327 0 -0.053081937926554072 -0.0010047639630492327 0 -0.052335041511620231 -0.0028241921555861968 0 -0.050271928849140848 -0.0027280505747241915 0 -0.056224132165389788 -0.00030689774359616304 0 -0.054453068517599672 -0.0011760796576601566 0 -0.056930936784522448 -0.0024586868733207372 0 -0.054453068517599672 -0.0011760796576601566 0 -0.052335041511620231 -0.0028241921555861968 0 -0.056930936784522448 -0.0024586868733207372 0 -0.05844926793490763 -0.0063925333981314199 0 -0.052335041511620231 -0.0028241921555861968 0 -0.056930936784522448 -0.0024586868733207372 0 -0.046695075478375092 -0.002935349221462903 0 -0.049190810954285541 -0.0023100674534928881 0 -0.047346095972049917 -0.0017713943327866627 0 -0.046695075478375092 -0.002935349221462903 0 -0.052335041511620231 -0.0028241921555861968 0 -0.049190810954285541 -0.0023100674534928881 0 -0.053541705288198335 -0.0021863487569195143 0 -0.052853704812600544 -0.0022386640108100417 0 -0.049190810954285541 -0.0023100674534928881 0 -0.047346095972049917 -0.0017713943327866627 0 -0.047917324915027551 -0.0017135142898770646 0 -0.047346095972049917 -0.0017713943327866627 0 -0.047917324915027551 -0.0017135142898770646 0 -0.046569854895917848 -0.0013732390703815008 0 -0.046196350000407144 -0.0015093159474210524 0 -0.047346095972049917 -0.0017713943327866627 0 -0.046569854895917848 -0.0013732390703815008 0 -0.047917324915027551 -0.0017135142898770646 0 -0.050271928849140848 -0.0027280505747241915 0 -0.047567399061438982 -0.0011658088450064317 0 -0.049190810954285541 -0.0023100674534928881 0 -0.047917324915027551 -0.0017135142898770646 0 -0.050271928849140848 -0.0027280505747241915 0 -0.049024583625188523 -0.0010993721534124628 0 -0.047816775722132845 -0.00062187658792880573 0 -0.052335041511620231 -0.0028241921555861968 0 -0.049190810954285541 -0.0023100674534928881 0 -0.050271928849140848 -0.0027280505747241915 0 -0.049604926096279089 -0.0011635277602491309 0 -0.049024583625188523 -0.0010993721534124628 0 -0.053081937926554072 -0.0010047639630492327 0 -0.050583161574439622 -0.00017743936273611664 0 -0.05201787656538568 -4.0551493784809973e-07 0 -0.050583161574439622 -0.00017743936273611664 0 -0.05201787656538568 -4.0551493784809973e-07 0 -0.048014856320230476 7.9136770367557854e-05 0 -0.055323466121252815 0.00017861811438759823 0 -0.053081937926554072 -0.0010047639630492327 0 -0.05201787656538568 -4.0551493784809973e-07 0 -0.05201787656538568 -4.0551493784809973e-07 0 -0.042310520388775086 -6.3927694880564285e-08 0 -0.04504608838707732 0.00010264546173593641 0 -0.042310520388775086 -6.3927694880564285e-08 0 -0.04504608838707732 0.00010264546173593641 0 -0.040394834076126498 7.7620307797008711e-05 0 -0.04504608838707732 0.00010264546173593641 0 -0.042686820541288813 0.00015377708931716167 0 -0.040394834076126498 7.7620307797008711e-05 0 -0.04504608838707732 0.00010264546173593641 0 -0.045331687039540047 0.00010161157075454042 0 -0.042686820541288813 0.00015377708931716167 0 -0.05201787656538568 -4.0551493784809973e-07 0 -0.04504608838707732 0.00010264546173593641 0 -0.048014856320230476 7.9136770367557854e-05 0 -0.04504608838707732 0.00010264546173593641 0 -0.045331687039540047 0.00010161157075454042 0 -0.048014856320230476 7.9136770367557854e-05 0 -0.045037811617115217 -0.00019452750484962025 0 -0.047567399061438982 -0.0011658088450064317 0 -0.04474734467688711 -0.00034863163940017448 0 -0.045037811617115217 -0.00019452750484962025 0 -0.04474734467688711 -0.00034863163940017448 0 -0.043736636242823923 1.6714848370825769e-05 0 -0.047917324915027551 -0.0017135142898770646 0 -0.047567399061438982 -0.0011658088450064317 0 -0.04474734467688711 -0.00034863163940017448 0 -0.046618085440389215 -0.00016702463961975621 0 -0.047816775722132845 -0.00062187658792880573 0 -0.04570250934157092 -0.0011156118557998286 0 -0.046569854895917848 -0.0013732390703815008 0 -0.045635510968272598 -0.00081641376673191471 0 -0.045353847447583896 -0.0011108617586187985 0 -0.044701040655724472 -0.00066379220770084314 0 -0.046196350000407144 -0.0015093159474210524 0 -0.04570250934157092 -0.0011156118557998286 0 -0.046569854895917848 -0.0013732390703815008 0 -0.047917324915027551 -0.0017135142898770646 0 -0.046569854895917848 -0.0013732390703815008 0 -0.045635510968272598 -0.00081641376673191471 0 -0.04570250934157092 -0.0011156118557998286 0 -0.045635510968272598 -0.00081641376673191471 0 -0.044494994250508284 -0.00059967813676611913 0 -0.043620324648515403 -0.00047545047081828311 0 -0.043652089789158285 -0.00056488652522097859 0 -0.044494994250508284 -0.00059967813676611913 0 -0.04474734467688711 -0.00034863163940017448 0 -0.043736636242823923 1.6714848370825769e-05 0 -0.042420344003342617 0.00026929628310638516 0 -0.045635510968272598 -0.00081641376673191471 0 -0.043620324648515403 -0.00047545047081828311 0 -0.044494994250508284 -0.00059967813676611913 0 -0.044701040655724472 -0.00066379220770084314 0 -0.043638672989484352 -0.00041519486623700614 0 -0.046618085440389215 -0.00016702463961975621 0 -0.046051787258047892 4.0097022448299034e-06 0 -0.045037811617115217 -0.00019452750484962025 0 -0.043736636242823923 1.6714848370825769e-05 0 -0.042686820541288813 0.00015377708931716167 0 -0.043736636242823923 1.6714848370825769e-05 0 -0.042686820541288813 0.00015377708931716167 0 -0.042420344003342617 0.00026929628310638516 0 -0.042686820541288813 0.00015377708931716167 0 -0.041134954615455237 -3.0379979530395514e-05 0 -0.040394834076126498 7.7620307797008711e-05 0 -0.042686820541288813 0.00015377708931716167 0 -0.042420344003342617 0.00026929628310638516 0 -0.041134954615455237 -3.0379979530395514e-05 0 -0.043620324648515403 -0.00047545047081828311 0 -0.043097639684780184 -0.00062059985650576648 0 -0.042258748502690603 -0.0007095430092222435 0 -0.043620324648515403 -0.00047545047081828311 0 -0.043652089789158285 -0.00056488652522097859 0 -0.043097639684780184 -0.00062059985650576648 0 -0.043652089789158285 -0.00056488652522097859 0 -0.043933765671186016 -0.00098565611686578626 0 -0.043175851622557056 -0.00087490101419547843 0 -0.043652089789158285 -0.00056488652522097859 0 -0.043097639684780184 -0.00062059985650576648 0 -0.043175851622557056 -0.00087490101419547843 0 -0.043097639684780184 -0.00062059985650576648 0 -0.043175851622557056 -0.00087490101419547843 0 -0.042258748502690603 -0.0007095430092222435 0 -0.043933765671186016 -0.00098565611686578626 0 -0.043944416820054018 -0.0013757625459794025 0 -0.043175851622557056 -0.00087490101419547843 0 -0.043933765671186016 -0.00098565611686578626 0 -0.044636821365735727 -0.0017043714367205802 0 -0.043944416820054018 -0.0013757625459794025 0 -0.044636821365735727 -0.0017043714367205802 0 -0.044655188527749717 -0.0018894816862987634 0 -0.043944416820054018 -0.0013757625459794025 0 -0.043933765671186016 -0.00098565611686578626 0 -0.044723797933950198 -0.00077186532803541149 0 -0.044636821365735727 -0.0017043714367205802 0 -0.043652089789158285 -0.00056488652522097859 0 -0.043933765671186016 -0.00098565611686578626 0 -0.044015072524515184 -0.00041389046555937765 0 -0.043933765671186016 -0.00098565611686578626 0 -0.044723797933950198 -0.00077186532803541149 0 -0.044015072524515184 -0.00041389046555937765 0 -0.044723797933950198 -0.00077186532803541149 0 -0.044015072524515184 -0.00041389046555937765 0 -0.045296183444115484 0.00035858317023318708 0 -0.043652089789158285 -0.00056488652522097859 0 -0.044015072524515184 -0.00041389046555937765 0 -0.044494994250508284 -0.00059967813676611913 0 -0.044015072524515184 -0.00041389046555937765 0 -0.044494994250508284 -0.00059967813676611913 0 -0.044527033405240321 -0.00085606722222764044 0 -0.04570250934157092 -0.0011156118557998286 0 -0.044494994250508284 -0.00059967813676611913 0 -0.044527033405240321 -0.00085606722222764044 0 -0.046196350000407144 -0.0015093159474210524 0 -0.04570250934157092 -0.0011156118557998286 0 -0.045595528716597382 -0.0011973830518562218 0 -0.04570250934157092 -0.0011156118557998286 0 -0.044527033405240321 -0.00085606722222764044 0 -0.043877511042018313 -0.001646256424190131 0 -0.047490944484473788 -0.0016980513161244037 0 -0.050508845745277357 -0.0011564583039824995 0 -0.044015072524515184 -0.00041389046555937765 0 -0.044527033405240321 -0.00085606722222764044 0 -0.043877511042018313 -0.001646256424190131 0 -0.044015072524515184 -0.00041389046555937765 0 -0.044215558217296044 0.0028085847906493427 0 -0.045296183444115484 0.00035858317023318708 0 -0.048666894312197145 -0.00068163679815292982 0 -0.050508845745277357 -0.0011564583039824995 0 -0.044215558217296044 0.0028085847906493427 0 -0.045296183444115484 0.00035858317023318708 0 -0.046273311153168906 0.0014262303007563841 0 -0.045296183444115484 0.00035858317023318708 0 -0.046344742636835551 0.00036080073478529943 0 -0.046273311153168906 0.0014262303007563841 0 -0.046344742636835551 0.00036080073478529943 0 -0.04772062182396461 0.0003693777669695592 0 -0.046163216593490729 -0.00063372805819232462 0 -0.046344742636835551 0.00036080073478529943 0 -0.046273311153168906 0.0014262303007563841 0 -0.04772062182396461 0.0003693777669695592 0 -0.044215558217296044 0.0028085847906493427 0 -0.046273311153168906 0.0014262303007563841 0 -0.047111123122529179 0.0028785482806057473 0 -0.050508845745277357 -0.0011564583039824995 0 -0.05485234516995087 0.00016544903293796905 0 -0.044215558217296044 0.0028085847906493427 0 -0.047111123122529179 0.0028785482806057473 0 -0.047472563529566157 0.0039294736134781539 0 -0.046273311153168906 0.0014262303007563841 0 -0.047111123122529179 0.0028785482806057473 0 -0.048031701317075307 0.0017906462549121735 0 -0.051180901717809389 0.0048121622187525821 0 -0.049770010953024663 0.0029808702378799181 0 -0.047762500510712104 0.0038220538760915909 0 -0.049770010953024663 0.0029808702378799181 0 -0.047762500510712104 0.0038220538760915909 0 -0.048332392017042612 0.0026906012504012838 0 -0.047111123122529179 0.0028785482806057473 0 -0.047762500510712104 0.0038220538760915909 0 -0.048332392017042612 0.0026906012504012838 0 -0.047111123122529179 0.0028785482806057473 0 -0.047472563529566157 0.0039294736134781539 0 -0.047762500510712104 0.0038220538760915909 0 -0.05485234516995087 0.00016544903293796905 0 -0.054802382464851959 0.00019041980519175728 0 -0.047111123122529179 0.0028785482806057473 0 -0.048332392017042612 0.0026906012504012838 0 -0.048031701317075307 0.0017906462549121735 0 -0.048332392017042612 0.0026906012504012838 0 -0.048987050049873485 0.0021170119251478652 0 -0.048031701317075307 0.0017906462549121735 0 -0.049770010953024663 0.0029808702378799181 0 -0.048332392017042612 0.0026906012504012838 0 -0.048987050049873485 0.0021170119251478652 0 -0.049770010953024663 0.0029808702378799181 0 -0.048987050049873485 0.0021170119251478652 0 -0.049703965095028786 0.0011500223336748461 0 -0.048987050049873485 0.0021170119251478652 0 -0.048031701317075307 0.0017906462549121735 0 -0.049703965095028786 0.0011500223336748461 0 -0.048031701317075307 0.0017906462549121735 0 -0.04772062182396461 0.0003693777669695592 0 -0.049703965095028786 0.0011500223336748461 0 -0.046273311153168906 0.0014262303007563841 0 -0.048031701317075307 0.0017906462549121735 0 -0.04772062182396461 0.0003693777669695592 0 -0.04772062182396461 0.0003693777669695592 0 -0.049773341501757232 -0.00022015512298579682 0 -0.049703965095028786 0.0011500223336748461 0 -0.04772062182396461 0.0003693777669695592 0 -0.0489182531443823 -0.0017303565408230861 0 -0.049773341501757232 -0.00022015512298579682 0 -0.04772062182396461 0.0003693777669695592 0 -0.0489182531443823 -0.0017303565408230861 0 -0.046163216593490729 -0.00063372805819232462 0 -0.0489182531443823 -0.0017303565408230861 0 -0.046163216593490729 -0.00063372805819232462 0 -0.044636821365735727 -0.0017043714367205802 0 -0.044723797933950198 -0.00077186532803541149 0 -0.046163216593490729 -0.00063372805819232462 0 -0.044636821365735727 -0.0017043714367205802 0 -0.044723797933950198 -0.00077186532803541149 0 -0.045296183444115484 0.00035858317023318708 0 -0.046163216593490729 -0.00063372805819232462 0 -0.045296183444115484 0.00035858317023318708 0 -0.046344742636835551 0.00036080073478529943 0 -0.046163216593490729 -0.00063372805819232462 0 -0.04811661614135973 -0.00084371951109956181 0 -0.044636821365735727 -0.0017043714367205802 0 -0.045339266017969837 -0.0024184192311859061 0 -0.044636821365735727 -0.0017043714367205802 0 -0.045339266017969837 -0.0024184192311859061 0 -0.044655188527749717 -0.0018894816862987634 0 -0.049258141384899909 -0.0011460120014734766 0 -0.047283518779404017 -0.0018167788207131036 0 -0.045339266017969837 -0.0024184192311859061 0 -0.044148014646412589 -0.0022209872576016663 0 -0.043192247120640681 -0.0034564357832668467 0 -0.04811661614135973 -0.00084371951109956181 0 -0.045339266017969837 -0.0024184192311859061 0 -0.050231957397897181 -0.0033049714924194193 0 -0.046424789160035562 -0.0028336690609181143 0 -0.047031530958515241 -0.0027813332566489568 0 -0.044148014646412589 -0.0022209872576016663 0 -0.044778073672636823 -0.0018390442417768199 0 -0.044610282795717104 -0.0016271953787248287 0 -0.045339266017969837 -0.0024184192311859061 0 -0.044148014646412589 -0.0022209872576016663 0 -0.044778073672636823 -0.0018390442417768199 0 -0.045339266017969837 -0.0024184192311859061 0 -0.044655188527749717 -0.0018894816862987634 0 -0.044778073672636823 -0.0018390442417768199 0 -0.044655188527749717 -0.0018894816862987634 0 -0.044778073672636823 -0.0018390442417768199 0 -0.044131691493259004 -0.0017105239174352094 0 -0.040194038876696328 -0.0031932582710551089 0 -0.040025425186973926 -0.0036307720656461847 0 -0.044778073672636823 -0.0018390442417768199 0 -0.044193755572981192 -0.0028306964895239285 0 -0.044131691493259004 -0.0017105239174352094 0 -0.044778073672636823 -0.0018390442417768199 0 -0.044610282795717104 -0.0016271953787248287 0 -0.044193755572981192 -0.0028306964895239285 0 -0.036212899872520625 -0.0043262535481481583 0 -0.036215442409933137 -0.0048932319942821935 0 -0.035948947312055474 -0.0049478987091813517 0 -0.036212899872520625 -0.0043262535481481583 0 -0.036215442409933137 -0.0048932319942821935 0 -0.037076923789937731 -0.0045691203349490471 0 -0.036215442409933137 -0.0048932319942821935 0 -0.036910307843601747 -0.0055839778365984211 0 -0.035423880401138703 -0.0050541334077349401 0 -0.036215442409933137 -0.0048932319942821935 0 -0.035948947312055474 -0.0049478987091813517 0 -0.035423880401138703 -0.0050541334077349401 0 -0.036212899872520625 -0.0043262535481481583 0 -0.035948947312055474 -0.0049478987091813517 0 -0.036284855252080632 -0.0052349205112555523 0 -0.035948947312055474 -0.0049478987091813517 0 -0.037218570270465649 -0.0042433350943463207 0 -0.036463156996829282 -0.0037413721705317651 0 -0.035948947312055474 -0.0049478987091813517 0 -0.036284855252080632 -0.0052349205112555523 0 -0.037218570270465649 -0.0042433350943463207 0 -0.037218570270465649 -0.0042433350943463207 0 -0.039163516394315874 -0.0044143819923050422 0 -0.037957083657048411 -0.0041371906765627197 0 -0.044193755572981192 -0.0028306964895239285 0 -0.039163516394315874 -0.0044143819923050422 0 -0.04156730939530065 -0.0025626498501562294 0 -0.040025425186973926 -0.0036307720656461847 0 -0.039696287400447915 -0.003889144515674695 0 -0.036284855252080632 -0.0052349205112555523 0 -0.037218570270465649 -0.0042433350943463207 0 -0.039163516394315874 -0.0044143819923050422 0 -0.039163516394315874 -0.0044143819923050422 0 -0.04156730939530065 -0.0025626498501562294 0 -0.039924196354295872 -0.0029786250798741701 0 -0.04156730939530065 -0.0025626498501562294 0 -0.041428082550520037 -0.001671270495812618 0 -0.039924196354295872 -0.0029786250798741701 0 -0.041428082550520037 -0.001671270495812618 0 -0.040182301846336893 -0.0012280759135700262 0 -0.039924196354295872 -0.0029786250798741701 0 -0.041428082550520037 -0.001671270495812618 0 -0.041355479632768317 -0.0010760506229062752 0 -0.042323606630043163 -0.0011656959461823701 0 -0.041428082550520037 -0.001671270495812618 0 -0.041355479632768317 -0.0010760506229062752 0 -0.040182301846336893 -0.0012280759135700262 0 -0.041428082550520037 -0.001671270495812618 0 -0.04281708115420356 -0.0017409981310744808 0 -0.042323606630043163 -0.0011656959461823701 0 -0.04156730939530065 -0.0025626498501562294 0 -0.041428082550520037 -0.001671270495812618 0 -0.04281708115420356 -0.0017409981310744808 0 -0.044193755572981192 -0.0028306964895239285 0 -0.04156730939530065 -0.0025626498501562294 0 -0.04281708115420356 -0.0017409981310744808 0 -0.044193755572981192 -0.0028306964895239285 0 -0.04281708115420356 -0.0017409981310744808 0 -0.044131691493259004 -0.0017105239174352094 0 -0.04281708115420356 -0.0017409981310744808 0 -0.043259989481934748 -0.0012455290176388745 0 -0.044131691493259004 -0.0017105239174352094 0 -0.043259989481934748 -0.0012455290176388745 0 -0.044131691493259004 -0.0017105239174352094 0 -0.043944416820054018 -0.0013757625459794025 0 -0.044655188527749717 -0.0018894816862987634 0 -0.044131691493259004 -0.0017105239174352094 0 -0.043944416820054018 -0.0013757625459794025 0 -0.043259989481934748 -0.0012455290176388745 0 -0.043944416820054018 -0.0013757625459794025 0 -0.043175851622557056 -0.00087490101419547843 0 -0.043259989481934748 -0.0012455290176388745 0 -0.043175851622557056 -0.00087490101419547843 0 -0.042323606630043163 -0.0011656959461823701 0 -0.043175851622557056 -0.00087490101419547843 0 -0.042258748502690603 -0.0007095430092222435 0 -0.042323606630043163 -0.0011656959461823701 0 -0.041355479632768317 -0.0010760506229062752 0 -0.042258748502690603 -0.0007095430092222435 0 -0.042323606630043163 -0.0011656959461823701 0 -0.04281708115420356 -0.0017409981310744808 0 -0.043259989481934748 -0.0012455290176388745 0 -0.042323606630043163 -0.0011656959461823701 0 -0.042420344003342617 0.00026929628310638516 0 -0.041134954615455237 -3.0379979530395514e-05 0 -0.040771318598965503 -0.00076129495254719176 0 -0.043638672989484352 -0.00041519486623700614 0 -0.043078893073009224 -0.00057717292977374696 0 -0.043620324648515403 -0.00047545047081828311 0 -0.042258748502690603 -0.0007095430092222435 0 -0.040771318598965503 -0.00076129495254719176 0 -0.041134954615455237 -3.0379979530395514e-05 0 -0.040405541418590221 -0.00038834290866964432 0 -0.040771318598965503 -0.00076129495254719176 0 -0.041355479632768317 -0.0010760506229062752 0 -0.042258748502690603 -0.0007095430092222435 0 -0.040771318598965503 -0.00076129495254719176 0 -0.041134954615455237 -3.0379979530395514e-05 0 -0.039890391718202169 -0.00018530981361340892 0 -0.040394834076126498 7.7620307797008711e-05 0 -0.041134954615455237 -3.0379979530395514e-05 0 -0.039890391718202169 -0.00018530981361340892 0 -0.040405541418590221 -0.00038834290866964432 0 -0.039690703447295035 -0.00062421534429531222 0 -0.038616582057968779 -0.0004439836395381753 0 -0.038160690996614614 -0.00012358244515127916 0 -0.039890391718202169 -0.00018530981361340892 0 -0.039690703447295035 -0.00062421534429531222 0 -0.038160690996614614 -0.00012358244515127916 0 -0.039890391718202169 -0.00018530981361340892 0 -0.040405541418590221 -0.00038834290866964432 0 -0.039690703447295035 -0.00062421534429531222 0 -0.039690703447295035 -0.00062421534429531222 0 -0.040182301846336893 -0.0012280759135700262 0 -0.038616582057968779 -0.0004439836395381753 0 -0.040405541418590221 -0.00038834290866964432 0 -0.039690703447295035 -0.00062421534429531222 0 -0.040771318598965503 -0.00076129495254719176 0 -0.039690703447295035 -0.00062421534429531222 0 -0.040771318598965503 -0.00076129495254719176 0 -0.040182301846336893 -0.0012280759135700262 0 -0.041355479632768317 -0.0010760506229062752 0 -0.040771318598965503 -0.00076129495254719176 0 -0.040182301846336893 -0.0012280759135700262 0 -0.038301380522134984 -0.0012017101865564195 0 -0.037755912473162963 -0.0016535993736233681 0 -0.039163516394315874 -0.0044143819923050422 0 -0.039924196354295872 -0.0029786250798741701 0 -0.038249624046878199 -0.0046397904254741685 0 -0.040182301846336893 -0.0012280759135700262 0 -0.037410359214961775 -8.2762408379984809e-05 0 -0.038616582057968779 -0.0004439836395381753 0 -0.040182301846336893 -0.0012280759135700262 0 -0.039924196354295872 -0.0029786250798741701 0 -0.038249624046878199 -0.0046397904254741685 0 -0.039163516394315874 -0.0044143819923050422 0 -0.038249624046878199 -0.0046397904254741685 0 -0.037957083657048411 -0.0041371906765627197 0 -0.037410359214961775 -8.2762408379984809e-05 0 -0.037035029785509439 -3.0063555836495503e-05 0 -0.035620336840214449 0.00011254999866273978 0 -0.037410359214961775 -8.2762408379984809e-05 0 -0.037035029785509439 -3.0063555836495503e-05 0 -0.038616582057968779 -0.0004439836395381753 0 -0.037035029785509439 -3.0063555836495503e-05 0 -0.038616582057968779 -0.0004439836395381753 0 -0.038160690996614614 -0.00012358244515127916 0 -0.038160690996614614 -0.00012358244515127916 0 -0.035400660287185644 7.1371849740116614e-05 0 -0.035106613867998418 3.3169776009325526e-06 0 -0.037035029785509439 -3.0063555836495503e-05 0 -0.038160690996614614 -0.00012358244515127916 0 -0.035400660287185644 7.1371849740116614e-05 0 -0.042310520388775086 -6.3927694880564285e-08 0 -0.035106613867998418 3.3169776009325526e-06 0 -0.040394834076126498 7.7620307797008711e-05 0 -0.038160690996614614 -0.00012358244515127916 0 -0.035106613867998418 3.3169776009325526e-06 0 -0.040394834076126498 7.7620307797008711e-05 0 -0.039890391718202169 -0.00018530981361340892 0 -0.038160690996614614 -0.00012358244515127916 0 -0.040394834076126498 7.7620307797008711e-05 0 -0.062641994096384254 0.00068039309066219721 0 -0.062733635463262091 0.00070736858482235005 0 -0.062691224714416058 0.00078203460965872837 0 -0.052285541925647057 0.00099354076832925873 0 -0.052961544957908294 0.0010945911634204068 0 -0.052285541925647057 0.00099354076832925873 0 -0.049745959532265786 -0.0012679797551785952 0 -0.062894373322012836 -0.0012656521324535003 0 -0.059621599228688892 -0.0020080736456670133 0 -0.06108908997773755 -0.00062280039868785667 0 -0.040063631893144956 -0.0030564523654760391 0 -0.039642957918944441 -0.0032992365210296579 0 -0.039897731319862795 -0.0032625292926824396 0 -0.039642957918944441 -0.0032992365210296579 0 -0.039897731319862795 -0.0032625292926824396 0 -0.039823587499281041 -0.0033030934350148735 0 -0.039972879863551761 -0.0033325484036860619 0 -0.039897731319862795 -0.0032625292926824396 0 -0.039823587499281041 -0.0033030934350148735 0 -0.039972879863551761 -0.0033325484036860619 0 -0.039897731319862795 -0.0032625292926824396 0 -0.040126168136812752 -0.0033229929096420946 0 -0.040063631893144956 -0.0030564523654760391 0 -0.039897731319862795 -0.0032625292926824396 0 -0.040126168136812752 -0.0033229929096420946 0 -0.052285541925647057 0.00099354076832925873 0 -0.050008033400970105 -0.0015954960551949888 0 -0.062657824693494624 0.00069319347950434751 0 -0.062703331161715614 0.0004408539644571507 0 -0.062757528937002788 0.00058944699274207722 0 -0.062703331161715614 0.0004408539644571507 0 -0.062846836498059666 0.00040934903730652461 0 -0.062812701005702617 0.0004939365987447241 0 -0.062846836498059666 0.00040934903730652461 0 -0.062908643654373778 0.00047697319070345916 0 -0.062941489422127336 0.00042295738486616217 0 -0.062846836498059666 0.00040934903730652461 0 -0.062908643654373778 0.00047697319070345916 0 -0.062812701005702617 0.0004939365987447241 0 -0.062908643654373778 0.00047697319070345916 0 -0.062840275702507706 0.00056017999551699388 0 -0.062812701005702617 0.0004939365987447241 0 -0.062908643654373778 0.00047697319070345916 0 -0.062840275702507706 0.00056017999551699388 0 -0.062953990671558352 0.00058602665629231836 0 -0.062840275702507706 0.00056017999551699388 0 -0.062812701005702617 0.0004939365987447241 0 -0.062757528937002788 0.00058944699274207722 0 -0.062703331161715614 0.0004408539644571507 0 -0.062812701005702617 0.0004939365987447241 0 -0.062757528937002788 0.00058944699274207722 0 -0.062964529422222762 0.00046119676998927398 0 -0.063030921976069659 0.00046918812725078922 0 -0.062941489422127336 0.00042295738486616217 0 -0.062908643654373778 0.00047697319070345916 0 -0.063030921976069659 0.00046918812725078922 0 -0.062941489422127336 0.00042295738486616217 0 -0.062908643654373778 0.00047697319070345916 0 -0.063030921976069659 0.00046918812725078922 0 -0.062953990671558352 0.00058602665629231836 0 -0.063030921976069659 0.00046918812725078922 0 -0.062953990671558352 0.00058602665629231836 0 -0.063171495568055264 0.00078193933459033249 0 -0.062953990671558352 0.00058602665629231836 0 -0.063171495568055264 0.00078193933459033249 0 -0.062966455019885015 0.00073092460147778802 0 -0.063171495568055264 0.00078193933459033249 0 -0.062966455019885015 0.00073092460147778802 0 -0.063108035890077255 0.00092758947980597006 0 -0.062757528937002788 0.00058944699274207722 0 -0.062836500055823419 0.00065650091312002563 0 -0.062733635463262091 0.00070736858482235005 0 -0.062657824693494624 0.00069319347950434751 0 -0.062757528937002788 0.00058944699274207722 0 -0.062733635463262091 0.00070736858482235005 0 -0.062840275702507706 0.00056017999551699388 0 -0.062757528937002788 0.00058944699274207722 0 -0.062836500055823419 0.00065650091312002563 0 -0.062840275702507706 0.00056017999551699388 0 -0.062953990671558352 0.00058602665629231836 0 -0.062836500055823419 0.00065650091312002563 0 -0.062953990671558352 0.00058602665629231836 0 -0.062836500055823419 0.00065650091312002563 0 -0.062966455019885015 0.00073092460147778802 0 -0.062872807587956617 0.00079804061578422057 0 -0.062966455019885015 0.00073092460147778802 0 -0.063108035890077255 0.00092758947980597006 0 -0.062836500055823419 0.00065650091312002563 0 -0.062872807587956617 0.00079804061578422057 0 -0.062966455019885015 0.00073092460147778802 0 -0.062836500055823419 0.00065650091312002563 0 -0.062872807587956617 0.00079804061578422057 0 -0.062733635463262091 0.00070736858482235005 0 -0.062872807587956617 0.00079804061578422057 0 -0.062733635463262091 0.00070736858482235005 0 -0.062691224714416058 0.00078203460965872837 0 -0.062872807587956617 0.00079804061578422057 0 -0.062691224714416058 0.00078203460965872837 0 -0.062938528949127548 0.0011140442756113814 0 -0.062872807587956617 0.00079804061578422057 0 -0.062938528949127548 0.0011140442756113814 0 -0.063108035890077255 0.00092758947980597006 0 -0.062691224714416058 0.00078203460965872837 0 -0.062938528949127548 0.0011140442756113814 0 -0.062452635681250687 0.00075310369196677324 0 -0.063398664897182141 0.0010808058100659169 0 -0.063171495568055264 0.00078193933459033249 0 -0.063108035890077255 0.00092758947980597006 0 -0.062938528949127548 0.0011140442756113814 0 -0.063108035890077255 0.00092758947980597006 0 -0.06328630417320609 0.0012977074683106101 0 -0.063398664897182141 0.0010808058100659169 0 -0.063108035890077255 0.00092758947980597006 0 -0.06328630417320609 0.0012977074683106101 0 -0.063174182423935132 0.0018527237961695521 0 -0.063432422876961561 0.0016369445305017551 0 -0.06328630417320609 0.0012977074683106101 0 -0.063512399546615347 0.0013166302066680137 0 -0.063432422876961561 0.0016369445305017551 0 -0.06328630417320609 0.0012977074683106101 0 -0.063174182423935132 0.0018527237961695521 0 -0.062938528949127548 0.0011140442756113814 0 -0.06328630417320609 0.0012977074683106101 0 -0.063174182423935132 0.0018527237961695521 0 -0.062938528949127548 0.0011140442756113814 0 -0.062408425897751155 0.0016776958723012506 0 -0.062408425897751155 0.0016776958723012506 0 -0.062452635681250687 0.00075310369196677324 0 -0.061103745774398519 0.0012466015370253063 0 -0.062938528949127548 0.0011140442756113814 0 -0.062408425897751155 0.0016776958723012506 0 -0.062452635681250687 0.00075310369196677324 0 -0.052285541925647057 0.00099354076832925873 0 -0.05340615990558549 0.0004073759524314336 0 -0.062641994096384254 0.00068039309066219721 0 -0.062691224714416058 0.00078203460965872837 0 -0.062452635681250687 0.00075310369196677324 0 -0.062894373322012836 -0.0012656521324535003 0 -0.06108908997773755 -0.00062280039868785667 0 -0.062452635681250687 0.00075310369196677324 0 -0.06108908997773755 -0.00062280039868785667 0 -0.061103745774398519 0.0012466015370253063 0 -0.058028108002175116 0.001398502920835437 0 -0.06108908997773755 -0.00062280039868785667 0 -0.062452635681250687 0.00075310369196677324 0 -0.061103745774398519 0.0012466015370253063 0 -0.060932713361515102 0.0026667529641807488 0 -0.062408425897751155 0.0016776958723012506 0 -0.061103745774398519 0.0012466015370253063 0 -0.060932713361515102 0.0026667529641807488 0 -0.061103745774398519 0.0012466015370253063 0 -0.058028108002175116 0.001398502920835437 0 -0.058011134050083631 0.0033178457375642699 0 -0.060932713361515102 0.0026667529641807488 0 -0.058028108002175116 0.001398502920835437 0 -0.058011134050083631 0.0033178457375642699 0 -0.058028108002175116 0.001398502920835437 0 -0.055453258353503669 0.0024459436797560556 0 -0.055122662032461876 0.0010274911828524415 0 -0.052901902773806353 0.00016829726382203109 0 -0.058028108002175116 0.001398502920835437 0 -0.053385919408408748 0.00065965407782684921 0 -0.056465242045721079 -0.00051955868964681919 0 -0.058028108002175116 0.001398502920835437 0 -0.055453258353503669 0.0024459436797560556 0 -0.053640551067216866 -0.0005244266231826095 0 -0.059621599228688892 -0.0020080736456670133 0 -0.06108908997773755 -0.00062280039868785667 0 -0.058028108002175116 0.001398502920835437 0 -0.059621599228688892 -0.0020080736456670133 0 -0.058028108002175116 0.001398502920835437 0 -0.056465242045721079 -0.00051955868964681919 0 -0.054001308051889574 0.0037677325673007153 0 -0.051180901717809389 0.0048121622187525821 0 -0.052291942125467041 0.0024168333454198132 0 -0.049770010953024663 0.0029808702378799181 0 -0.052291942125467041 0.0024168333454198132 0 -0.049703965095028786 0.0011500223336748461 0 -0.051180901717809389 0.0048121622187525821 0 -0.049770010953024663 0.0029808702378799181 0 -0.052291942125467041 0.0024168333454198132 0 -0.055453258353503669 0.0024459436797560556 0 -0.052291942125467041 0.0024168333454198132 0 -0.053640551067216866 -0.0005244266231826095 0 -0.054001308051889574 0.0037677325673007153 0 -0.055453258353503669 0.0024459436797560556 0 -0.052291942125467041 0.0024168333454198132 0 -0.052291942125467041 0.0024168333454198132 0 -0.053640551067216866 -0.0005244266231826095 0 -0.049703965095028786 0.0011500223336748461 0 -0.053640551067216866 -0.0005244266231826095 0 -0.049773341501757232 -0.00022015512298579682 0 -0.049703965095028786 0.0011500223336748461 0 -0.04811661614135973 -0.00084371951109956181 0 -0.052722646460645596 -0.0016671654317806971 0 -0.050231957397897181 -0.0033049714924194193 0 -0.049258141384899909 -0.0011460120014734766 0 -0.052901902773806353 0.00016829726382203109 0 -0.0489182531443823 -0.0017303565408230861 0 -0.053640551067216866 -0.0005244266231826095 0 -0.049773341501757232 -0.00022015512298579682 0 -0.04811661614135973 -0.00084371951109956181 0 -0.053385919408408748 0.00065965407782684921 0 -0.052722646460645596 -0.0016671654317806971 0 -0.053385919408408748 0.00065965407782684921 0 -0.052722646460645596 -0.0016671654317806971 0 -0.056465242045721079 -0.00051955868964681919 0 -0.052722646460645596 -0.0016671654317806971 0 -0.050231957397897181 -0.0033049714924194193 0 -0.055563536558010398 -0.0029483138349382272 0 -0.047031530958515241 -0.0027813332566489568 0 -0.048192327624731475 -0.0023609604994936097 0 -0.041695465404267655 -0.0030206343177498385 0 -0.043192247120640681 -0.0034564357832668467 0 -0.040468489643207192 -0.0037923040300770483 0 -0.049745959532265786 -0.0012679797551785952 0 -0.048192327624731475 -0.0023609604994936097 0 -0.059621599228688892 -0.0020080736456670133 0 -0.056465242045721079 -0.00051955868964681919 0 -0.055563536558010398 -0.0029483138349382272 0 -0.052722646460645596 -0.0016671654317806971 0 -0.056465242045721079 -0.00051955868964681919 0 -0.055563536558010398 -0.0029483138349382272 0 -0.041695465404267655 -0.0030206343177498385 0 -0.040468489643207192 -0.0037923040300770483 0 -0.03960159236430532 -0.0029623246646457101 0 -0.039642957918944441 -0.0032992365210296579 0 -0.040468489643207192 -0.0037923040300770483 0 -0.03960159236430532 -0.0029623246646457101 0 -0.039642957918944441 -0.0032992365210296579 0 -0.03960159236430532 -0.0029623246646457101 0 -0.039823587499281041 -0.0033030934350148735 0 -0.03960159236430532 -0.0029623246646457101 0 -0.039700564999976588 -0.0035369287371614885 0 -0.039823587499281041 -0.0033030934350148735 0 -0.03960159236430532 -0.0029623246646457101 0 -0.039057958460209208 -0.0037620562846710183 0 -0.039700564999976588 -0.0035369287371614885 0 -0.03960159236430532 -0.0029623246646457101 0 -0.039057958460209208 -0.0037620562846710183 0 -0.037614021442472119 -0.003366036641231513 0 -0.039810577567621387 -0.0029610825899048028 0 -0.039990288884086282 -0.0029619947317425723 0 -0.039057958460209208 -0.0037620562846710183 0 -0.038059396296695421 -0.0042327738673596446 0 -0.038662754942301217 -0.0046661471106102751 0 -0.039057958460209208 -0.0037620562846710183 0 -0.039700564999976588 -0.0035369287371614885 0 -0.039658617922543236 -0.004132360375643334 0 -0.039057958460209208 -0.0037620562846710183 0 -0.039658617922543236 -0.004132360375643334 0 -0.038662754942301217 -0.0046661471106102751 0 -0.044148014646412589 -0.0022209872576016663 0 -0.044610282795717104 -0.0016271953787248287 0 -0.042245447169189508 -0.0016604680166325046 0 -0.044148014646412589 -0.0022209872576016663 0 -0.043192247120640681 -0.0034564357832668467 0 -0.042245447169189508 -0.0016604680166325046 0 -0.041695465404267655 -0.0030206343177498385 0 -0.043192247120640681 -0.0034564357832668467 0 -0.042245447169189508 -0.0016604680166325046 0 -0.041695465404267655 -0.0030206343177498385 0 -0.03960159236430532 -0.0029623246646457101 0 -0.042245447169189508 -0.0016604680166325046 0 -0.037614021442472119 -0.003366036641231513 0 -0.038059396296695421 -0.0042327738673596446 0 -0.037076923789937731 -0.0045691203349490471 0 -0.039057958460209208 -0.0037620562846710183 0 -0.037614021442472119 -0.003366036641231513 0 -0.038059396296695421 -0.0042327738673596446 0 -0.036212899872520625 -0.0043262535481481583 0 -0.037614021442472119 -0.003366036641231513 0 -0.037076923789937731 -0.0045691203349490471 0 -0.040194038876696328 -0.0031932582710551089 0 -0.039990288884086282 -0.0029619947317425723 0 -0.038059396296695421 -0.0042327738673596446 0 -0.037076923789937731 -0.0045691203349490471 0 -0.037806185971823031 -0.0049381837597142599 0 -0.038059396296695421 -0.0042327738673596446 0 -0.037806185971823031 -0.0049381837597142599 0 -0.038662754942301217 -0.0046661471106102751 0 -0.037806185971823031 -0.0049381837597142599 0 -0.038415241642384315 -0.0055666355941533215 0 -0.036910307843601747 -0.0055839778365984211 0 -0.032802110214102245 -0.0061665015481026965 0 -0.03392266153658556 -0.0059621668420494029 0 -0.036215442409933137 -0.0048932319942821935 0 -0.037076923789937731 -0.0045691203349490471 0 -0.036910307843601747 -0.0055839778365984211 0 -0.037076923789937731 -0.0045691203349490471 0 -0.037806185971823031 -0.0049381837597142599 0 -0.036910307843601747 -0.0055839778365984211 0 -0.040429124810732672 -0.0049392304513780107 0 -0.039821638090371529 -0.0050193364447645439 0 -0.039503407024674808 -0.0043916052145841896 0 -0.038662754942301217 -0.0046661471106102751 0 -0.039661139128938261 -0.0053041321690163483 0 -0.037806185971823031 -0.0049381837597142599 0 -0.038662754942301217 -0.0046661471106102751 0 -0.038415241642384315 -0.0055666355941533215 0 -0.038662754942301217 -0.0046661471106102751 0 -0.038415241642384315 -0.0055666355941533215 0 -0.039661139128938261 -0.0053041321690163483 0 -0.027231085493469143 -0.0076056737804530792 0 -0.023652918109514358 -0.0081467387568052874 0 -0.025439065990614292 -0.0057711698766037024 0 -0.032802110214102245 -0.0061665015481026965 0 -0.03169704064207042 -0.0061285641593139704 0 -0.039661139128938261 -0.0053041321690163483 0 -0.040775461789606005 -0.0050896700725726191 0 -0.04032431779094682 -0.0046614508287890549 0 -0.023652918109514358 -0.0081467387568052874 0 -0.020332056213069188 -0.0086478594481011889 0 -0.021421150293962084 -0.0067159361118480851 0 -0.03169704064207042 -0.0061285641593139704 0 -0.030956733101687752 -0.0056529341132316186 0 -0.020332056213069188 -0.0086478594481011889 0 -0.019162226247610024 -0.0066521610876401332 0 -0.021421150293962084 -0.0067159361118480851 0 -0.040775461789606005 -0.0050896700725726191 0 -0.040893967658925494 -0.0047071008785603873 0 -0.041301266872935803 -0.0047193572364964678 0 -0.040775461789606005 -0.0050896700725726191 0 -0.040893967658925494 -0.0047071008785603873 0 -0.04032431779094682 -0.0046614508287890549 0 -0.040762423328377435 -0.0043697163713441846 0 -0.04032431779094682 -0.0046614508287890549 0 -0.040332247290750217 -0.0041055047983404869 0 -0.040893967658925494 -0.0047071008785603873 0 -0.040762423328377435 -0.0043697163713441846 0 -0.04032431779094682 -0.0046614508287890549 0 -0.040893967658925494 -0.0047071008785603873 0 -0.040762423328377435 -0.0043697163713441846 0 -0.041028629478651553 -0.0044018200659563418 0 -0.039503407024674808 -0.0043916052145841896 0 -0.039661139128938261 -0.0053041321690163483 0 -0.04032431779094682 -0.0046614508287890549 0 -0.039503407024674808 -0.0043916052145841896 0 -0.04032431779094682 -0.0046614508287890549 0 -0.040332247290750217 -0.0041055047983404869 0 -0.040429124810732672 -0.0049392304513780107 0 -0.042264815764739845 -0.0047638342195407196 0 -0.039700564999976588 -0.0035369287371614885 0 -0.039658617922543236 -0.004132360375643334 0 -0.040028121088516527 -0.0037417279398042633 0 -0.040028121088516527 -0.0037417279398042633 0 -0.040058010085725973 -0.0034654759071664188 0 -0.040235281828813349 -0.0035873577981207351 0 -0.040762423328377435 -0.0043697163713441846 0 -0.040332247290750217 -0.0041055047983404869 0 -0.041156385286013106 -0.0038118967320774598 0 -0.042264815764739845 -0.0047638342195407196 0 -0.047110515887181154 -0.0040517960689713172 0 -0.040762423328377435 -0.0043697163713441846 0 -0.041156385286013106 -0.0038118967320774598 0 -0.041028629478651553 -0.0044018200659563418 0 -0.040126168136812752 -0.0033229929096420946 0 -0.040058010085725973 -0.0034654759071664188 0 -0.040235281828813349 -0.0035873577981207351 0 -0.039972879863551761 -0.0033325484036860619 0 -0.040126168136812752 -0.0033229929096420946 0 -0.040058010085725973 -0.0034654759071664188 0 -0.039972879863551761 -0.0033325484036860619 0 -0.040058010085725973 -0.0034654759071664188 0 -0.039823587499281041 -0.0033030934350148735 0 -0.040028121088516527 -0.0037417279398042633 0 -0.040058010085725973 -0.0034654759071664188 0 -0.039823587499281041 -0.0033030934350148735 0 -0.039700564999976588 -0.0035369287371614885 0 -0.040028121088516527 -0.0037417279398042633 0 -0.039823587499281041 -0.0033030934350148735 0 -0.062964529422222762 0.00046119676998927398 0 -0.062941489422127336 0.00042295738486616217 0 -0.062891566822742023 0.00035701001494684281 0 -0.051407904819749259 -0.0007693667643922465 0 -0.047681246417310794 -0.0028030346858226632 0 -0.062846836498059666 0.00040934903730652461 0 -0.062872019780094893 0.00016694564516759428 0 -0.062711178456379621 0.0001086592405829423 0 -0.049112290464393291 -0.0026667722021308056 0 -0.047681246417310794 -0.0028030346858226632 0 -0.062846836498059666 0.00040934903730652461 0 -0.062941489422127336 0.00042295738486616217 0 -0.062891566822742023 0.00035701001494684281 0 -0.050008033400970105 -0.0015954960551949888 0 -0.047110515887181154 -0.0040517960689713172 0 -0.062703331161715614 0.0004408539644571507 0 -0.062846836498059666 0.00040934903730652461 0 -0.062711178456379621 0.0001086592405829423 0 -0.047681246417310794 -0.0028030346858226632 0 -0.043192319718701362 -0.0036507184254967445 0 -0.047681246417310794 -0.0028030346858226632 0 -0.047110515887181154 -0.0040517960689713172 0 -0.041156385286013106 -0.0038118967320774598 0 -0.041028629478651553 -0.0044018200659563418 0 -0.041301266872935803 -0.0047193572364964678 0 -0.041166143254239389 -0.0037866620127967859 0 -0.041728091417716329 -0.0041298254547473979 0 -0.041337858636569802 -0.0045399078114361198 0 -0.041604004708788327 -0.0036267677905157049 0 -0.041166143254239389 -0.0037866620127967859 0 -0.041728091417716329 -0.0041298254547473979 0 -0.047110515887181154 -0.0040517960689713172 0 -0.046081673355874986 -0.0039009715243453463 0 -0.043192319718701362 -0.0036507184254967445 0 -0.042898273148274081 -0.0039007713902242222 0 -0.051407904819749259 -0.0007693667643922465 0 -0.043192319718701362 -0.0036507184254967445 0 -0.04805906252911428 -0.00067800339143680381 0 -0.045579790712454188 -0.0015869510746128175 0 -0.045939497454161766 -0.0029830891242530223 0 -0.041259849494184771 -0.0013978463589686312 0 -0.04125864949196853 -0.0011413612457270431 0 -0.041642947516861969 -0.0011037061429129574 0 -0.043192319718701362 -0.0036507184254967445 0 -0.032244494024049788 -0.0040921932794905011 0 -0.04125864949196853 -0.0011413612457270431 0 -0.041642947516861969 -0.0011037061429129574 0 -0.041572331780063282 -0.00075490961246461755 0 -0.040775461789606005 -0.0050896700725726191 0 -0.041880734378194145 -0.0048799459825509713 0 -0.041301266872935803 -0.0047193572364964678 0 -0.041696980792226369 -0.0041471960161551524 0 -0.041880734378194145 -0.0048799459825509713 0 -0.041337858636569802 -0.0045399078114361198 0 -0.030956733101687752 -0.0056529341132316186 0 -0.032244494024049788 -0.0040921932794905011 0 -0.041166143254239389 -0.0037866620127967859 0 -0.041337858636569802 -0.0045399078114361198 0 -0.041301266872935803 -0.0047193572364964678 0 -0.040893967658925494 -0.0047071008785603873 0 -0.041028629478651553 -0.0044018200659563418 0 -0.041301266872935803 -0.0047193572364964678 0 -0.041880734378194145 -0.0048799459825509713 0 -0.041337858636569802 -0.0045399078114361198 0 -0.041301266872935803 -0.0047193572364964678 0 -0.020332056213069188 -0.0086478594481011889 0 -0.017084626824946849 -0.0092024664232853125 0 -0.019162226247610024 -0.0066521610876401332 0 -0.032244494024049788 -0.0040921932794905011 0 -0.023772192455387135 -0.0030494716654753239 0 -0.017084626824946849 -0.0092024664232853125 0 -0.016168245558939132 -0.0057860246863792051 0 -0.019162226247610024 -0.0066521610876401332 0 -0.014962311662684248 -0.0046125686466846599 0 -0.015921224850333791 -0.0052117662652648089 0 -0.015509163036504691 -0.0036864302833187848 0 -0.016168245558939132 -0.0057860246863792051 0 -0.019162226247610024 -0.0066521610876401332 0 -0.019070826909879858 -0.0045916134558293322 0 -0.019070826909879858 -0.0045916134558293322 0 -0.017890060990828786 -0.0028025970774346936 0 -0.020320780192854101 -0.0027954913928311992 0 -0.016168245558939132 -0.0057860246863792051 0 -0.019070826909879858 -0.0045916134558293322 0 -0.017890060990828786 -0.0028025970774346936 0 -0.016168245558939132 -0.0057860246863792051 0 -0.017890060990828786 -0.0028025970774346936 0 -0.015274010890241959 -0.0022524418128383786 0 -0.017890060990828786 -0.0028025970774346936 0 -0.017278738292492903 -0.00044676647702015691 0 -0.015274010890241959 -0.0022524418128383786 0 -0.017890060990828786 -0.0028025970774346936 0 -0.019215830621033287 -0.0012806610395653328 0 -0.017278738292492903 -0.00044676647702015691 0 -0.017890060990828786 -0.0028025970774346936 0 -0.019215830621033287 -0.0012806610395653328 0 -0.020320780192854101 -0.0027954913928311992 0 -0.019215830621033287 -0.0012806610395653328 0 -0.017278738292492903 -0.00044676647702015691 0 -0.020006359961526245 0.00067725749959220496 0 -0.017278738292492903 -0.00044676647702015691 0 -0.015274010890241959 -0.0022524418128383786 0 -0.015156115174654866 -0.00065775945162422343 0 -0.017278738292492903 -0.00044676647702015691 0 -0.015156115174654866 -0.00065775945162422343 0 -0.015455700696447854 0.0011865391177561771 0 -0.022487993389062936 0.00022228228094643755 0 -0.020905538053901041 -0.0010613059331560442 0 -0.022493022989390498 -0.002602331504490346 0 -0.019215830621033287 -0.0012806610395653328 0 -0.020905538053901041 -0.0010613059331560442 0 -0.020006359961526245 0.00067725749959220496 0 -0.022487993389062936 0.00022228228094643755 0 -0.020905538053901041 -0.0010613059331560442 0 -0.020006359961526245 0.00067725749959220496 0 -0.020905538053901041 -0.0010613059331560442 0 -0.020320780192854101 -0.0027954913928311992 0 -0.022493022989390498 -0.002602331504490346 0 -0.019215830621033287 -0.0012806610395653328 0 -0.020905538053901041 -0.0010613059331560442 0 -0.020320780192854101 -0.0027954913928311992 0 -0.022487993389062936 0.00022228228094643755 0 -0.022493022989390498 -0.002602331504490346 0 -0.02477780259258406 -0.001162155812411044 0 -0.022493022989390498 -0.002602331504490346 0 -0.020870632012820533 -0.0048390565450257238 0 -0.023151535378677351 -0.0052906931711797778 0 -0.022493022989390498 -0.002602331504490346 0 -0.023151535378677351 -0.0052906931711797778 0 -0.02500927553466796 -0.0034710379298254338 0 -0.020320780192854101 -0.0027954913928311992 0 -0.022493022989390498 -0.002602331504490346 0 -0.020870632012820533 -0.0048390565450257238 0 -0.019070826909879858 -0.0045916134558293322 0 -0.020320780192854101 -0.0027954913928311992 0 -0.020870632012820533 -0.0048390565450257238 0 -0.019162226247610024 -0.0066521610876401332 0 -0.020870632012820533 -0.0048390565450257238 0 -0.021421150293962084 -0.0067159361118480851 0 -0.019162226247610024 -0.0066521610876401332 0 -0.019070826909879858 -0.0045916134558293322 0 -0.020870632012820533 -0.0048390565450257238 0 -0.020870632012820533 -0.0048390565450257238 0 -0.021421150293962084 -0.0067159361118480851 0 -0.023151535378677351 -0.0052906931711797778 0 -0.023652918109514358 -0.0081467387568052874 0 -0.021421150293962084 -0.0067159361118480851 0 -0.023151535378677351 -0.0052906931711797778 0 -0.023652918109514358 -0.0081467387568052874 0 -0.023151535378677351 -0.0052906931711797778 0 -0.025439065990614292 -0.0057711698766037024 0 -0.027231085493469143 -0.0076056737804530792 0 -0.025439065990614292 -0.0057711698766037024 0 -0.028343261065690399 -0.0043077838681240838 0 -0.025439065990614292 -0.0057711698766037024 0 -0.02500927553466796 -0.0034710379298254338 0 -0.028343261065690399 -0.0043077838681240838 0 -0.02500927553466796 -0.0034710379298254338 0 -0.028343261065690399 -0.0043077838681240838 0 -0.026888520781960371 -0.0021244918913696899 0 -0.023151535378677351 -0.0052906931711797778 0 -0.025439065990614292 -0.0057711698766037024 0 -0.02500927553466796 -0.0034710379298254338 0 -0.031168968582910721 -0.0067791856665049667 0 -0.028343261065690399 -0.0043077838681240838 0 -0.031901037015260494 -0.0038104758767438102 0 -0.027231085493469143 -0.0076056737804530792 0 -0.031168968582910721 -0.0067791856665049667 0 -0.028343261065690399 -0.0043077838681240838 0 -0.031901037015260494 -0.0038104758767438102 0 -0.03101868106203903 -0.0010438669985457383 0 -0.03467398829071304 -0.0026218482257010858 0 -0.028343261065690399 -0.0043077838681240838 0 -0.031901037015260494 -0.0038104758767438102 0 -0.03101868106203903 -0.0010438669985457383 0 -0.028343261065690399 -0.0043077838681240838 0 -0.03101868106203903 -0.0010438669985457383 0 -0.026888520781960371 -0.0021244918913696899 0 -0.03101868106203903 -0.0010438669985457383 0 -0.026888520781960371 -0.0021244918913696899 0 -0.027379698129187707 -3.9813326501096491e-05 0 -0.031071635993022248 -0.00228299841364271 0 -0.027379698129187707 -3.9813326501096491e-05 0 -0.0302456773184239 0.0016708159110220529 0 -0.031359399645784339 -0.0016674317004354165 0 -0.029787436638679367 -0.00089819949885426131 0 -0.031071635993022248 -0.00228299841364271 0 -0.032204603331308229 -0.00035307309343825369 0 -0.0302456773184239 0.0016708159110220529 0 -0.02500927553466796 -0.0034710379298254338 0 -0.02477780259258406 -0.001162155812411044 0 -0.026888520781960371 -0.0021244918913696899 0 -0.022493022989390498 -0.002602331504490346 0 -0.02500927553466796 -0.0034710379298254338 0 -0.02477780259258406 -0.001162155812411044 0 -0.02477780259258406 -0.001162155812411044 0 -0.026888520781960371 -0.0021244918913696899 0 -0.027379698129187707 -3.9813326501096491e-05 0 -0.02477780259258406 -0.001162155812411044 0 -0.027379698129187707 -3.9813326501096491e-05 0 -0.024591309398436234 0.0012381049298083092 0 -0.022487993389062936 0.00022228228094643755 0 -0.02477780259258406 -0.001162155812411044 0 -0.024591309398436234 0.0012381049298083092 0 -0.024591309398436234 0.0012381049298083092 0 -0.02629106530601626 0.0022092990468669787 0 -0.025267595598717385 0.0040578988142766573 0 -0.027379698129187707 -3.9813326501096491e-05 0 -0.024591309398436234 0.0012381049298083092 0 -0.02629106530601626 0.0022092990468669787 0 -0.023392679443383177 0.0041968986701617153 0 -0.024406036683588497 0.0036777989158750472 0 -0.02629106530601626 0.0022092990468669787 0 -0.025267595598717385 0.0040578988142766573 0 -0.027009263947928651 0.0028681234917472113 0 -0.024591309398436234 0.0012381049298083092 0 -0.025267595598717385 0.0040578988142766573 0 -0.022208089354549258 0.0024049496537090092 0 -0.026963428105767007 0.0027177715319555203 0 -0.026283343004279109 0.0028943449644116986 0 -0.02655838451653875 0.0026324365986743693 0 -0.026963428105767007 0.0027177715319555203 0 -0.027009263947928651 0.0028681234917472113 0 -0.02655838451653875 0.0026324365986743693 0 -0.028323009890230687 0.0018080643142856698 0 -0.029400626414255022 0.0014431603659412864 0 -0.032204603331308229 -0.00035307309343825369 0 -0.0302456773184239 0.0016708159110220529 0 -0.033701687252859498 0.00054918647677838339 0 -0.02629106530601626 0.0022092990468669787 0 -0.026963428105767007 0.0027177715319555203 0 -0.027009263947928651 0.0028681234917472113 0 -0.0274717205016187 0.0019683438619811896 0 -0.028323009890230687 0.0018080643142856698 0 -0.027379698129187707 -3.9813326501096491e-05 0 -0.02629106530601626 0.0022092990468669787 0 -0.0302456773184239 0.0016708159110220529 0 -0.022215329731493962 0.0041879139296645239 0 -0.023267695219221691 0.0043926006635888332 0 -0.022692221097935023 0.0050287040073546466 0 -0.024406036683588497 0.0036777989158750472 0 -0.02512697072406506 0.0032846315500243556 0 -0.022215329731493962 0.0041879139296645239 0 -0.023267695219221691 0.0043926006635888332 0 -0.023891351799600998 0.0033625304251642149 0 -0.023267695219221691 0.0043926006635888332 0 -0.023614514102373467 0.0052311809439723259 0 -0.022692221097935023 0.0050287040073546466 0 -0.022215329731493962 0.0041879139296645239 0 -0.022692221097935023 0.0050287040073546466 0 -0.021798951531161435 0.0052469201515241053 0 -0.022692221097935023 0.0050287040073546466 0 -0.021798951531161435 0.0052469201515241053 0 -0.022968179956458088 0.006773421988158267 0 -0.022088599193295585 0.00535401290161299 0 -0.022140386039824985 0.0053060436186744579 0 -0.021798951531161435 0.0052469201515241053 0 -0.021578155887294517 0.0053715791802829236 0 -0.021410108408205258 0.0054302945491537065 0 -0.024071689835734166 0.006155357596610839 0 -0.024047595655984199 0.0069410692918135276 0 -0.022968179956458088 0.006773421988158267 0 -0.023614514102373467 0.0052311809439723259 0 -0.022692221097935023 0.0050287040073546466 0 -0.022968179956458088 0.006773421988158267 0 -0.023614514102373467 0.0052311809439723259 0 -0.024071689835734166 0.006155357596610839 0 -0.022968179956458088 0.006773421988158267 0 -0.02147513874907581 0.0049653614636008493 0 -0.021547117851872022 0.0052416981387404839 0 -0.02170611977455638 0.0049554916956227567 0 -0.023392679443383177 0.0041968986701617153 0 -0.022717500264520629 0.0044834308747488897 0 -0.02147513874907581 0.0049653614636008493 0 -0.021798951531161435 0.0052469201515241053 0 -0.021547117851872022 0.0052416981387404839 0 -0.02147513874907581 0.0049653614636008493 0 -0.022215329731493962 0.0041879139296645239 0 -0.021798951531161435 0.0052469201515241053 0 -0.021547117851872022 0.0052416981387404839 0 -0.021464914493016365 0.0054400644434522511 0 -0.021410108408205258 0.0054302945491537065 0 -0.021798951531161435 0.0052469201515241053 0 -0.021547117851872022 0.0052416981387404839 0 -0.021410108408205258 0.0054302945491537065 0 -0.021547117851872022 0.0052416981387404839 0 -0.02170611977455638 0.0049554916956227567 0 -0.021464914493016365 0.0054400644434522511 0 -0.02170611977455638 0.0049554916956227567 0 -0.020706932640330786 0.0054133818264939055 0 -0.021267862910178771 0.0056782391047557048 0 -0.02170611977455638 0.0049554916956227567 0 -0.021267862910178771 0.0056782391047557048 0 -0.021464914493016365 0.0054400644434522511 0 -0.02170611977455638 0.0049554916956227567 0 -0.019765829754517805 0.0045542828248772817 0 -0.019864379728838099 0.0029522910079366224 0 -0.02170611977455638 0.0049554916956227567 0 -0.020706932640330786 0.0054133818264939055 0 -0.019765829754517805 0.0045542828248772817 0 -0.019981350408761301 0.0054470842596827931 0 -0.020706932640330786 0.0054133818264939055 0 -0.019765829754517805 0.0045542828248772817 0 -0.019981350408761301 0.0054470842596827931 0 -0.020706932640330786 0.0054133818264939055 0 -0.020741732001406506 0.0059532471550211531 0 -0.016357020720498307 0.0053393050471260278 0 -0.016506679429393181 0.0052020220056555322 0 -0.017627343855918333 0.0074650678415788454 0 -0.019981350408761301 0.0054470842596827931 0 -0.018762658235890167 0.0054614700397876423 0 -0.020741732001406506 0.0059532471550211531 0 -0.017575234852748541 0.0050284627238752809 0 -0.018685663610360968 0.006461554233508901 0 -0.015034358504221199 0.0065418450755579602 0 -0.014052003084123863 0.0074137582684384263 0 -0.016357020720498307 0.0053393050471260278 0 -0.015190739118536939 0.0069391059438408459 0 -0.015138181163814369 0.0050798028212587359 0 -0.016357020720498307 0.0053393050471260278 0 -0.016224218570970603 0.0033532253680723422 0 -0.015138181163814369 0.0050798028212587359 0 -0.016357020720498307 0.0053393050471260278 0 -0.016506679429393181 0.0052020220056555322 0 -0.016224218570970603 0.0033532253680723422 0 -0.017575234852748541 0.0050284627238752809 0 -0.01689346852307683 0.0041331403556530205 0 -0.018762658235890167 0.0054614700397876423 0 -0.019765829754517805 0.0045542828248772817 0 -0.016224218570970603 0.0033532253680723422 0 -0.019981350408761301 0.0054470842596827931 0 -0.018762658235890167 0.0054614700397876423 0 -0.019765829754517805 0.0045542828248772817 0 -0.019765829754517805 0.0045542828248772817 0 -0.016224218570970603 0.0033532253680723422 0 -0.019864379728838099 0.0029522910079366224 0 -0.016224218570970603 0.0033532253680723422 0 -0.017746640769152396 0.0015257274853764677 0 -0.019864379728838099 0.0029522910079366224 0 -0.016224218570970603 0.0033532253680723422 0 -0.017746640769152396 0.0015257274853764677 0 -0.015455700696447854 0.0011865391177561771 0 -0.017278738292492903 -0.00044676647702015691 0 -0.017746640769152396 0.0015257274853764677 0 -0.015455700696447854 0.0011865391177561771 0 -0.017278738292492903 -0.00044676647702015691 0 -0.017746640769152396 0.0015257274853764677 0 -0.020006359961526245 0.00067725749959220496 0 -0.017746640769152396 0.0015257274853764677 0 -0.020006359961526245 0.00067725749959220496 0 -0.019864379728838099 0.0029522910079366224 0 -0.020006359961526245 0.00067725749959220496 0 -0.022208089354549258 0.0024049496537090092 0 -0.019864379728838099 0.0029522910079366224 0 -0.022487993389062936 0.00022228228094643755 0 -0.024591309398436234 0.0012381049298083092 0 -0.022208089354549258 0.0024049496537090092 0 -0.022487993389062936 0.00022228228094643755 0 -0.020006359961526245 0.00067725749959220496 0 -0.022208089354549258 0.0024049496537090092 0 -0.02170611977455638 0.0049554916956227567 0 -0.022208089354549258 0.0024049496537090092 0 -0.019864379728838099 0.0029522910079366224 0 -0.025267595598717385 0.0040578988142766573 0 -0.02170611977455638 0.0049554916956227567 0 -0.022208089354549258 0.0024049496537090092 0 -0.035106613867998418 3.3169776009325526e-06 0 -0.025805221614936785 -9.0262902563413684e-06 0 -0.032677512774103523 0.00011639793757943938 0 -0.025793802755592371 -8.5883797693158827e-07 0 -0.027004809942009933 -0.00035045238902043204 0 -0.025788478975435621 -2.6168879248006593e-06 0 -0.022544876887139333 -0.00074856252808733616 0 -0.02360772575965096 0.00015394953151819641 0 -0.031745296173679417 -0.0028133518822652105 0 -0.032677512774103523 0.00011639793757943938 0 -0.035183118688276012 -0.0020713261184474056 0 -0.025805221614936785 -9.0262902563413684e-06 0 -0.031745296173679417 -0.0028133518822652105 0 -0.032677512774103523 0.00011639793757943938 0 -0.035400660287185644 7.1371849740116614e-05 0 -0.035106613867998418 3.3169776009325526e-06 0 -0.032677512774103523 0.00011639793757943938 0 -0.035400660287185644 7.1371849740116614e-05 0 -0.032677512774103523 0.00011639793757943938 0 -0.035620336840214449 0.00011254999866273978 0 -0.032677512774103523 0.00011639793757943938 0 -0.035620336840214449 0.00011254999866273978 0 -0.035183118688276012 -0.0020713261184474056 0 -0.036976289860048112 -0.0019871162228812882 0 -0.036516302608540836 -0.0024132417814911491 0 -0.037035029785509439 -3.0063555836495503e-05 0 -0.035400660287185644 7.1371849740116614e-05 0 -0.035620336840214449 0.00011254999866273978 0 -0.038249624046878199 -0.0046397904254741685 0 -0.037957083657048411 -0.0041371906765627197 0 -0.037636347160430704 -0.0029869782938480439 0 -0.037755912473162963 -0.0016535993736233681 0 -0.036976289860048112 -0.0019871162228812882 0 -0.037957083657048411 -0.0041371906765627197 0 -0.037636347160430704 -0.0029869782938480439 0 -0.037321447893603005 -0.0036887974898128797 0 -0.037636347160430704 -0.0029869782938480439 0 -0.036753698396645607 -0.0023719586050078988 0 -0.037048920424801485 -0.0029933459113392147 0 -0.037636347160430704 -0.0029869782938480439 0 -0.037048920424801485 -0.0029933459113392147 0 -0.037321447893603005 -0.0036887974898128797 0 -0.036790084802620783 -0.002401337833825035 0 -0.036753698396645607 -0.0023719586050078988 0 -0.036882042262951671 -0.0025174417919297384 0 -0.036790084802620783 -0.002401337833825035 0 -0.036553560083541457 -0.002451492620825052 0 -0.036864312591086301 -0.0023399489863761822 0 -0.036790084802620783 -0.002401337833825035 0 -0.036753698396645607 -0.0023719586050078988 0 -0.036553560083541457 -0.002451492620825052 0 -0.036753698396645607 -0.0023719586050078988 0 -0.036553560083541457 -0.002451492620825052 0 -0.036090794965929519 -0.0024941334275297451 0 -0.036753698396645607 -0.0023719586050078988 0 -0.035183118688276012 -0.0020713261184474056 0 -0.036090794965929519 -0.0024941334275297451 0 -0.037636347160430704 -0.0029869782938480439 0 -0.036753698396645607 -0.0023719586050078988 0 -0.035183118688276012 -0.0020713261184474056 0 -0.031745296173679417 -0.0028133518822652105 0 -0.035183118688276012 -0.0020713261184474056 0 -0.035692096633335411 -0.0034561849402890104 0 -0.027004809942009933 -0.00035045238902043204 0 -0.027558940119957243 -0.00014521564872305249 0 -0.022544876887139333 -0.00074856252808733616 0 -0.020646674348608108 -0.00018908493903863416 0 -0.020237366827880424 -0.00036360648314719265 0 -0.035183118688276012 -0.0020713261184474056 0 -0.035692096633335411 -0.0034561849402890104 0 -0.036090794965929519 -0.0024941334275297451 0 -0.020646674348608108 -0.00018908493903863416 0 -0.020237366827880424 -0.00036360648314719265 0 -0.020317827652142538 -0.00012787044644021214 0 -0.020237366827880424 -0.00036360648314719265 0 -0.020317827652142538 -0.00012787044644021214 0 -0.020144469825604781 -0.00016717467331192327 0 -0.035692096633335411 -0.0034561849402890104 0 -0.036475837937182211 -0.0027045628244951273 0 -0.037065877172823558 -0.002440851128462769 0 -0.027558940119957243 -0.00014521564872305249 0 -0.027255402259146737 0.00082059537775533572 0 -0.020237366827880424 -0.00036360648314719265 0 -0.020144469825604781 -0.00016717467331192327 0 -0.019964799549168591 -9.8394679402565775e-05 0 -0.036829998927039635 -0.0024399847173856362 0 -0.036475837937182211 -0.0027045628244951273 0 -0.036990930931772199 -0.0024044494550911348 0 -0.036475837937182211 -0.0027045628244951273 0 -0.036990930931772199 -0.0024044494550911348 0 -0.037065877172823558 -0.002440851128462769 0 -0.036829998927039635 -0.0024399847173856362 0 -0.036720411646241402 -0.0024780029860036008 0 -0.036475837937182211 -0.0027045628244951273 0 -0.036720411646241402 -0.0024780029860036008 0 -0.036553560083541457 -0.002451492620825052 0 -0.036475837937182211 -0.0027045628244951273 0 -0.036720411646241402 -0.0024780029860036008 0 -0.036553560083541457 -0.002451492620825052 0 -0.036864312591086301 -0.0023399489863761822 0 -0.036829998927039635 -0.0024399847173856362 0 -0.036720411646241402 -0.0024780029860036008 0 -0.036900372507776003 -0.0023315511937104737 0 -0.036553560083541457 -0.002451492620825052 0 -0.036090794965929519 -0.0024941334275297451 0 -0.036475837937182211 -0.0027045628244951273 0 -0.035692096633335411 -0.0034561849402890104 0 -0.036090794965929519 -0.0024941334275297451 0 -0.036475837937182211 -0.0027045628244951273 0 -0.037004022947061337 -0.0021626515469525521 0 -0.036582871365809295 -0.0017706112695378084 0 -0.036031178726129293 -0.00078214606983785398 0 -0.027255402259146737 0.00082059537775533572 0 -0.029703252105114642 0.001009024851010662 0 -0.036727749328931469 -0.0020618018594003207 0 -0.036582871365809295 -0.0017706112695378084 0 -0.0364955379579339 -0.001908983293055907 0 -0.036727749328931469 -0.0020618018594003207 0 -0.0364955379579339 -0.001908983293055907 0 -0.036769127085138791 -0.0022442094741818349 0 -0.036727749328931469 -0.0020618018594003207 0 -0.036844964185706 -0.0022281077279618067 0 -0.036769127085138791 -0.0022442094741818349 0 -0.036864312591086301 -0.0023399489863761822 0 -0.036844964185706 -0.0022281077279618067 0 -0.036769127085138791 -0.0022442094741818349 0 -0.036720411646241402 -0.0024780029860036008 0 -0.036864312591086301 -0.0023399489863761822 0 -0.036900372507776003 -0.0023315511937104737 0 -0.036864312591086301 -0.0023399489863761822 0 -0.036900372507776003 -0.0023315511937104737 0 -0.036844964185706 -0.0022281077279618067 0 -0.036900372507776003 -0.0023315511937104737 0 -0.036844964185706 -0.0022281077279618067 0 -0.036888311934715354 -0.0021572185431598619 0 -0.036727749328931469 -0.0020618018594003207 0 -0.036844964185706 -0.0022281077279618067 0 -0.036888311934715354 -0.0021572185431598619 0 -0.036888311934715354 -0.0021572185431598619 0 -0.037004022947061337 -0.0021626515469525521 0 -0.036582871365809295 -0.0017706112695378084 0 -0.036829998927039635 -0.0024399847173856362 0 -0.036900372507776003 -0.0023315511937104737 0 -0.036941251610979574 -0.0023204156866180143 0 -0.036829998927039635 -0.0024399847173856362 0 -0.036941251610979574 -0.0023204156866180143 0 -0.036990930931772199 -0.0024044494550911348 0 -0.036900372507776003 -0.0023315511937104737 0 -0.036888311934715354 -0.0021572185431598619 0 -0.036941251610979574 -0.0023204156866180143 0 -0.036888311934715354 -0.0021572185431598619 0 -0.036961804805607915 -0.0022735763446016838 0 -0.037004022947061337 -0.0021626515469525521 0 -0.036941251610979574 -0.0023204156866180143 0 -0.036961804805607915 -0.0022735763446016838 0 -0.036990930931772199 -0.0024044494550911348 0 -0.036888311934715354 -0.0021572185431598619 0 -0.036941251610979574 -0.0023204156866180143 0 -0.036961804805607915 -0.0022735763446016838 0 -0.027293099595800015 0.00078139800849991875 0 -0.027255402259146737 0.00082059537775533572 0 -0.036961804805607915 -0.0022735763446016838 0 -0.036990930931772199 -0.0024044494550911348 0 -0.037004022947061337 -0.0021626515469525521 0 -0.036727749328931469 -0.0020618018594003207 0 -0.036888311934715354 -0.0021572185431598619 0 -0.036582871365809295 -0.0017706112695378084 0 -0.036582871365809295 -0.0017706112695378084 0 -0.036283102204550784 -0.0015123062351720291 0 -0.036031178726129293 -0.00078214606983785398 0 -0.036582871365809295 -0.0017706112695378084 0 -0.036283102204550784 -0.0015123062351720291 0 -0.0364955379579339 -0.001908983293055907 0 -0.036025934974440996 -0.0015666045098518182 0 -0.035550055313968765 -0.0012015231430828727 0 -0.036031178726129293 -0.00078214606983785398 0 -0.036283102204550784 -0.0015123062351720291 0 -0.036025934974440996 -0.0015666045098518182 0 -0.036031178726129293 -0.00078214606983785398 0 -0.036025934974440996 -0.0015666045098518182 0 -0.036277419658965096 -0.0021348089819689829 0 -0.035312253449575601 -0.0020176948790650443 0 -0.0364955379579339 -0.001908983293055907 0 -0.036277419658965096 -0.0021348089819689829 0 -0.036769127085138791 -0.0022442094741818349 0 -0.036283102204550784 -0.0015123062351720291 0 -0.036025934974440996 -0.0015666045098518182 0 -0.0364955379579339 -0.001908983293055907 0 -0.036025934974440996 -0.0015666045098518182 0 -0.0364955379579339 -0.001908983293055907 0 -0.036277419658965096 -0.0021348089819689829 0 -0.036277419658965096 -0.0021348089819689829 0 -0.036456327983255765 -0.002753028957604133 0 -0.036769127085138791 -0.0022442094741818349 0 -0.036277419658965096 -0.0021348089819689829 0 -0.036456327983255765 -0.002753028957604133 0 -0.035312253449575601 -0.0020176948790650443 0 -0.036456327983255765 -0.002753028957604133 0 -0.036769127085138791 -0.0022442094741818349 0 -0.036882042262951671 -0.0025174417919297384 0 -0.036456327983255765 -0.002753028957604133 0 -0.036882042262951671 -0.0025174417919297384 0 -0.037048920424801485 -0.0029933459113392147 0 -0.036790084802620783 -0.002401337833825035 0 -0.036864312591086301 -0.0023399489863761822 0 -0.036882042262951671 -0.0025174417919297384 0 -0.036864312591086301 -0.0023399489863761822 0 -0.036769127085138791 -0.0022442094741818349 0 -0.036882042262951671 -0.0025174417919297384 0 -0.036753698396645607 -0.0023719586050078988 0 -0.036882042262951671 -0.0025174417919297384 0 -0.037048920424801485 -0.0029933459113392147 0 -0.037048920424801485 -0.0029933459113392147 0 -0.037321447893603005 -0.0036887974898128797 0 -0.036463156996829282 -0.0037413721705317651 0 -0.037218570270465649 -0.0042433350943463207 0 -0.037957083657048411 -0.0041371906765627197 0 -0.037321447893603005 -0.0036887974898128797 0 -0.037218570270465649 -0.0042433350943463207 0 -0.037321447893603005 -0.0036887974898128797 0 -0.036463156996829282 -0.0037413721705317651 0 -0.036456327983255765 -0.002753028957604133 0 -0.037048920424801485 -0.0029933459113392147 0 -0.036463156996829282 -0.0037413721705317651 0 -0.036463156996829282 -0.0037413721705317651 0 -0.035423880401138703 -0.0050541334077349401 0 -0.03467398829071304 -0.0026218482257010858 0 -0.036456327983255765 -0.002753028957604133 0 -0.036463156996829282 -0.0037413721705317651 0 -0.034219264858855007 -0.0033932181647371548 0 -0.03487079585479317 -0.003319333191305885 0 -0.033724696772802563 -0.0027853606043142754 0 -0.035948947312055474 -0.0049478987091813517 0 -0.036463156996829282 -0.0037413721705317651 0 -0.035423880401138703 -0.0050541334077349401 0 -0.03392266153658556 -0.0059621668420494029 0 -0.034595099985224004 -0.0057592499688573183 0 -0.031168968582910721 -0.0067791856665049667 0 -0.031901037015260494 -0.0038104758767438102 0 -0.035423880401138703 -0.0050541334077349401 0 -0.031901037015260494 -0.0038104758767438102 0 -0.035423880401138703 -0.0050541334077349401 0 -0.03467398829071304 -0.0026218482257010858 0 -0.031071635993022248 -0.00228299841364271 0 -0.034219264858855007 -0.0033932181647371548 0 -0.033634789578267772 -0.0013430990070926359 0 -0.031359399645784339 -0.0016674317004354165 0 -0.033724696772802563 -0.0027853606043142754 0 -0.036456327983255765 -0.002753028957604133 0 -0.034219264858855007 -0.0033932181647371548 0 -0.035312253449575601 -0.0020176948790650443 0 -0.034219264858855007 -0.0033932181647371548 0 -0.035312253449575601 -0.0020176948790650443 0 -0.033634789578267772 -0.0013430990070926359 0 -0.035312253449575601 -0.0020176948790650443 0 -0.034837044125688596 -0.00073769012561732919 0 -0.033634789578267772 -0.0013430990070926359 0 -0.036025934974440996 -0.0015666045098518182 0 -0.035312253449575601 -0.0020176948790650443 0 -0.035550055313968765 -0.0012015231430828727 0 -0.035312253449575601 -0.0020176948790650443 0 -0.035550055313968765 -0.0012015231430828727 0 -0.034837044125688596 -0.00073769012561732919 0 -0.035550055313968765 -0.0012015231430828727 0 -0.034837044125688596 -0.00073769012561732919 0 -0.036031178726129293 -0.00078214606983785398 0 -0.031071635993022248 -0.00228299841364271 0 -0.032204603331308229 -0.00035307309343825369 0 -0.033634789578267772 -0.0013430990070926359 0 -0.032204603331308229 -0.00035307309343825369 0 -0.033634789578267772 -0.0013430990070926359 0 -0.033701687252859498 0.00054918647677838339 0 -0.034837044125688596 -0.00073769012561732919 0 -0.033634789578267772 -0.0013430990070926359 0 -0.033701687252859498 0.00054918647677838339 0 -0.02512697072406506 0.0032846315500243556 0 -0.025464245400720734 0.0031303538425565365 0 -0.026283343004279109 0.0028943449644116986 0 -0.02655838451653875 0.0026324365986743693 0 -0.025909935249402872 0.0029026865706770631 0 -0.023891351799600998 0.0033625304251642149 0 -0.025909935249402872 0.0029026865706770631 0 -0.025018580770287329 0.0037049009526786305 0 -0.034837044125688596 -0.00073769012561732919 0 -0.033701687252859498 0.00054918647677838339 0 -0.036031178726129293 -0.00078214606983785398 0 -0.029400626414255022 0.0014431603659412864 0 -0.029703252105114642 0.001009024851010662 0 -0.026283343004279109 0.0028943449644116986 0 -0.025909935249402872 0.0029026865706770631 0 -0.025849499935265485 0.0029456779099536947 0 -0.025909935249402872 0.0029026865706770631 0 -0.025018580770287329 0.0037049009526786305 0 -0.025777968077542991 0.0035935021285217277 0 -0.025909935249402872 0.0029026865706770631 0 -0.025777968077542991 0.0035935021285217277 0 -0.025913413427339639 0.0030398055892294946 0 -0.025018580770287329 0.0037049009526786305 0 -0.025777968077542991 0.0035935021285217277 0 -0.025171498403242596 0.0043410724327695889 0 -0.025777968077542991 0.0035935021285217277 0 -0.025171498403242596 0.0043410724327695889 0 -0.025975729434291883 0.0052020061523856374 0 -0.025018580770287329 0.0037049009526786305 0 -0.025171498403242596 0.0043410724327695889 0 -0.024292946537526162 0.0044021720755944111 0 -0.023891351799600998 0.0033625304251642149 0 -0.025018580770287329 0.0037049009526786305 0 -0.024292946537526162 0.0044021720755944111 0 -0.023267695219221691 0.0043926006635888332 0 -0.023891351799600998 0.0033625304251642149 0 -0.024292946537526162 0.0044021720755944111 0 -0.023267695219221691 0.0043926006635888332 0 -0.023614514102373467 0.0052311809439723259 0 -0.024292946537526162 0.0044021720755944111 0 -0.023614514102373467 0.0052311809439723259 0 -0.024292946537526162 0.0044021720755944111 0 -0.024749703679159966 0.0052740863049522205 0 -0.023614514102373467 0.0052311809439723259 0 -0.024749703679159966 0.0052740863049522205 0 -0.024071689835734166 0.006155357596610839 0 -0.025171498403242596 0.0043410724327695889 0 -0.024292946537526162 0.0044021720755944111 0 -0.024749703679159966 0.0052740863049522205 0 -0.024749703679159966 0.0052740863049522205 0 -0.024071689835734166 0.006155357596610839 0 -0.025053358726311491 0.00672197559927024 0 -0.024071689835734166 0.006155357596610839 0 -0.025053358726311491 0.00672197559927024 0 -0.024047595655984199 0.0069410692918135276 0 -0.024749703679159966 0.0052740863049522205 0 -0.025975729434291883 0.0052020061523856374 0 -0.025053358726311491 0.00672197559927024 0 -0.01966601505468521 -0.00018686721655813924 0 -0.019663947658718903 -5.8568442068636287e-05 0 -0.019594728451516163 -7.9436549241663682e-05 0 -0.022723609447221023 0.0024555319402528265 0 -0.021804153022207066 0.0029207365227796054 0 -0.025171498403242596 0.0043410724327695889 0 -0.024749703679159966 0.0052740863049522205 0 -0.025975729434291883 0.0052020061523856374 0 -0.01966601505468521 -0.00018686721655813924 0 -0.01973216232799575 -0.00012096353577547321 0 -0.019663947658718903 -5.8568442068636287e-05 0 -0.01973216232799575 -0.00012096353577547321 0 -0.019777804499549797 -0.00021284967799277494 0 -0.019825346587403678 -0.00015992450597940788 0 -0.01966601505468521 -0.00018686721655813924 0 -0.01973216232799575 -0.00012096353577547321 0 -0.019777804499549797 -0.00021284967799277494 0 -0.01966601505468521 -0.00018686721655813924 0 -0.019777804499549797 -0.00021284967799277494 0 -0.019731407661544711 -0.00027365026157655676 0 -0.021345587904632604 0.00015656030288373521 0 -0.023628309193925268 0.0018968016077654962 0 -0.02005758089821295 0.00011781282353276569 0 -0.019950949961864792 8.2240593151955841e-05 0 -0.020040481112340771 9.6321181045553063e-05 0 -0.019950949961864792 8.2240593151955841e-05 0 -0.020008180897288907 1.5611358843378694e-05 0 -0.020040481112340771 9.6321181045553063e-05 0 -0.025777968077542991 0.0035935021285217277 0 -0.025975729434291883 0.0052020061523856374 0 -0.026194983344164927 0.0036908069012994986 0 -0.022723609447221023 0.0024555319402528265 0 -0.023628309193925268 0.0018968016077654962 0 -0.025975729434291883 0.0052020061523856374 0 -0.026744319815437973 0.0037474678845749523 0 -0.026194983344164927 0.0036908069012994986 0 -0.023628309193925268 0.0018968016077654962 0 -0.024150906829356503 0.0024144392610361983 0 -0.026802777473045793 0.002786747553318212 0 -0.026061846813087475 0.0031475535007681869 0 -0.025849499935265485 0.0029456779099536947 0 -0.026744319815437973 0.0037474678845749523 0 -0.026194983344164927 0.0036908069012994986 0 -0.026061846813087475 0.0031475535007681869 0 -0.025777968077542991 0.0035935021285217277 0 -0.026194983344164927 0.0036908069012994986 0 -0.026061846813087475 0.0031475535007681869 0 -0.025777968077542991 0.0035935021285217277 0 -0.026061846813087475 0.0031475535007681869 0 -0.025913413427339639 0.0030398055892294946 0 -0.025909935249402872 0.0029026865706770631 0 -0.025913413427339639 0.0030398055892294946 0 -0.025849499935265485 0.0029456779099536947 0 -0.026061846813087475 0.0031475535007681869 0 -0.025913413427339639 0.0030398055892294946 0 -0.025849499935265485 0.0029456779099536947 0 -0.027255402259146737 0.00082059537775533572 0 -0.023628309193925268 0.0018968016077654962 0 -0.026802777473045793 0.002786747553318212 0 -0.026356492003533329 0.003517625866268173 0 -0.026061846813087475 0.0031475535007681869 0 -0.019964799549168591 -9.8394679402565775e-05 0 -0.019950949961864792 8.2240593151955841e-05 0 -0.020008180897288907 1.5611358843378694e-05 0 -0.019964799549168591 -9.8394679402565775e-05 0 -0.020008180897288907 1.5611358843378694e-05 0 -0.02002848181968854 -3.7651705860595833e-05 0 -0.020144726002016413 1.4559292425784761e-05 0 -0.020065707887342455 2.946532333862569e-05 0 -0.020086027079442008 -7.5763830972251837e-05 0 -0.020144726002016413 1.4559292425784761e-05 0 -0.020202614341131134 3.8979766571423865e-05 0 -0.020115353284908585 8.1383351586537936e-05 0 -0.020144726002016413 1.4559292425784761e-05 0 -0.020065707887342455 2.946532333862569e-05 0 -0.020115353284908585 8.1383351586537936e-05 0 -0.020008180897288907 1.5611358843378694e-05 0 -0.020065707887342455 2.946532333862569e-05 0 -0.020040481112340771 9.6321181045553063e-05 0 -0.020008180897288907 1.5611358843378694e-05 0 -0.020065707887342455 2.946532333862569e-05 0 -0.02002848181968854 -3.7651705860595833e-05 0 -0.019964799549168591 -9.8394679402565775e-05 0 -0.02002848181968854 -3.7651705860595833e-05 0 -0.020086027079442008 -7.5763830972251837e-05 0 -0.020144469825604781 -0.00016717467331192327 0 -0.019964799549168591 -9.8394679402565775e-05 0 -0.020086027079442008 -7.5763830972251837e-05 0 -0.020065707887342455 2.946532333862569e-05 0 -0.02002848181968854 -3.7651705860595833e-05 0 -0.020086027079442008 -7.5763830972251837e-05 0 -0.020144469825604781 -0.00016717467331192327 0 -0.020086027079442008 -7.5763830972251837e-05 0 -0.020230684264632287 -6.1897529633715459e-05 0 -0.020144726002016413 1.4559292425784761e-05 0 -0.020086027079442008 -7.5763830972251837e-05 0 -0.020230684264632287 -6.1897529633715459e-05 0 -0.020646674348608108 -0.00018908493903863416 0 -0.020317827652142538 -0.00012787044644021214 0 -0.020331397155713513 -8.1339528991304527e-07 0 -0.020317827652142538 -0.00012787044644021214 0 -0.020144469825604781 -0.00016717467331192327 0 -0.020230684264632287 -6.1897529633715459e-05 0 -0.020646674348608108 -0.00018908493903863416 0 -0.020331397155713513 -8.1339528991304527e-07 0 -0.019934220622418924 0.00014732164433259632 0 -0.020317827652142538 -0.00012787044644021214 0 -0.020230684264632287 -6.1897529633715459e-05 0 -0.020331397155713513 -8.1339528991304527e-07 0 -0.020230684264632287 -6.1897529633715459e-05 0 -0.020331397155713513 -8.1339528991304527e-07 0 -0.020202614341131134 3.8979766571423865e-05 0 -0.020144726002016413 1.4559292425784761e-05 0 -0.020230684264632287 -6.1897529633715459e-05 0 -0.020202614341131134 3.8979766571423865e-05 0 -0.020331397155713513 -8.1339528991304527e-07 0 -0.020202614341131134 3.8979766571423865e-05 0 -0.020137160771164359 0.00010067031231857673 0 -0.020202614341131134 3.8979766571423865e-05 0 -0.020137160771164359 0.00010067031231857673 0 -0.020115353284908585 8.1383351586537936e-05 0 -0.020137160771164359 0.00010067031231857673 0 -0.020049405333941821 0.00013379823448054706 0 -0.019925002888631797 0.00014244863657174523 0 -0.020137160771164359 0.00010067031231857673 0 -0.020049405333941821 0.00013379823448054706 0 -0.020115353284908585 8.1383351586537936e-05 0 -0.02005758089821295 0.00011781282353276569 0 -0.020049405333941821 0.00013379823448054706 0 -0.020040481112340771 9.6321181045553063e-05 0 -0.020049405333941821 0.00013379823448054706 0 -0.020115353284908585 8.1383351586537936e-05 0 -0.020040481112340771 9.6321181045553063e-05 0 -0.020065707887342455 2.946532333862569e-05 0 -0.020115353284908585 8.1383351586537936e-05 0 -0.020040481112340771 9.6321181045553063e-05 0 -0.02005758089821295 0.00011781282353276569 0 -0.020049405333941821 0.00013379823448054706 0 -0.020052724013864369 2.4079103725320073e-07 0 -0.021345587904632604 0.00015656030288373521 0 -0.020610538463732529 -0.0002379484251960193 0 -0.019825346587403678 -0.00015992450597940788 0 -0.019878432676319401 -0.0002246489669116154 0 -0.019792017507706483 -0.00010199982339992918 0 -0.01973216232799575 -0.00012096353577547321 0 -0.019825346587403678 -0.00015992450597940788 0 -0.019792017507706483 -0.00010199982339992918 0 -0.020610538463732529 -0.0002379484251960193 0 -0.02042500455724983 -0.00031933945743469697 0 -0.020052724013864369 2.4079103725320073e-07 0 -0.019876639597235689 -4.5682678911813636e-05 0 -0.019878432676319401 -0.0002246489669116154 0 -0.020052724013864369 2.4079103725320073e-07 0 -0.019876639597235689 -4.5682678911813636e-05 0 -0.019925002888631797 0.00014244863657174523 0 -0.020049405333941821 0.00013379823448054706 0 -0.020052724013864369 2.4079103725320073e-07 0 -0.019925002888631797 0.00014244863657174523 0 -0.019925002888631797 0.00014244863657174523 0 -0.01978969491848381 0.00025873546839864144 0 -0.019483433387765547 2.7450899562964344e-05 0 -0.019876639597235689 -4.5682678911813636e-05 0 -0.019925002888631797 0.00014244863657174523 0 -0.019483433387765547 2.7450899562964344e-05 0 -0.019876639597235689 -4.5682678911813636e-05 0 -0.019483433387765547 2.7450899562964344e-05 0 -0.019536423842961646 -0.00055300499634795288 0 -0.019483433387765547 2.7450899562964344e-05 0 -0.017666421996269974 -1.5070856653375486e-07 0 -0.019536423842961646 -0.00055300499634795288 0 -0.017654954034439178 4.2970089609509201e-07 0 -0.016850929642402705 0.00024204758959215161 0 -0.01978969491848381 0.00025873546839864144 0 -0.019483433387765547 2.7450899562964344e-05 0 -0.017666421996269974 -1.5070856653375486e-07 0 -0.01978969491848381 0.00025873546839864144 0 -0.017666421996269974 -1.5070856653375486e-07 0 -0.020203965655711288 5.4334368902622513e-07 0 -0.01978969491848381 0.00025873546839864144 0 -0.020203965655711288 5.4334368902622513e-07 0 -0.019934220622418924 0.00014732164433259632 0 -0.020217017566648874 -1.1983279586181511e-06 0 -0.022969623939234768 0.00058319245187608577 0 -0.023001966507168015 2.0319276851790657e-06 0 -0.020214045041086655 4.468764149536483e-07 0 -0.020770392364605653 0.00022385564250718433 0 -0.020137160771164359 0.00010067031231857673 0 -0.01978969491848381 0.00025873546839864144 0 -0.019934220622418924 0.00014732164433259632 0 -0.020137160771164359 0.00010067031231857673 0 -0.019925002888631797 0.00014244863657174523 0 -0.01978969491848381 0.00025873546839864144 0 -0.020599065142944576 -1.2795708942689151e-05 0 -0.020770392364605653 0.00022385564250718433 0 -0.020331397155713513 -8.1339528991304527e-07 0 -0.020137160771164359 0.00010067031231857673 0 -0.019934220622418924 0.00014732164433259632 0 -0.022544876887139333 -0.00074856252808733616 0 -0.020646674348608108 -0.00018908493903863416 0 -0.022969623939234768 0.00058319245187608577 0 -0.022544876887139333 -0.00074856252808733616 0 -0.022969623939234768 0.00058319245187608577 0 -0.02360772575965096 0.00015394953151819641 0 -0.025788478975435621 -2.6168879248006593e-06 0 -0.02360772575965096 0.00015394953151819641 0 -0.023001966507168015 2.0319276851790657e-06 0 -0.022969623939234768 0.00058319245187608577 0 -0.02360772575965096 0.00015394953151819641 0 -0.023001966507168015 2.0319276851790657e-06 0 -0.010640187593698095 0.00018587231760112361 0 -0.0092427691375080029 -1.3389389170388683e-06 0 -0.01151938147759307 -0.001200335314308126 0 -0.0092348523684629511 -3.5611607407898189e-07 0 -0.0087543863852428058 -0.00016966167441575874 0 -0.010640187593698095 0.00018587231760112361 0 -0.012611640387391506 -0.0011962282866088986 0 -0.01151938147759307 -0.001200335314308126 0 -0.012718739998342776 -0.00063331576241309085 0 -0.012982660415689054 -0.00067511677517914832 0 -0.012611640387391506 -0.0011962282866088986 0 -0.012718739998342776 -0.00063331576241309085 0 -0.012982660415689054 -0.00067511677517914832 0 -0.013066653835077307 -0.00028857020209420393 0 -0.012027205991102944 -0.00029894615994536047 0 -0.012315643622283734 -0.0006662613314861143 0 -0.012718739998342776 -0.00063331576241309085 0 -0.013066653835077307 -0.00028857020209420393 0 -0.013149447686975778 0.00014176150016543919 0 -0.013066653835077307 -0.00028857020209420393 0 -0.013149447686975778 0.00014176150016543919 0 -0.013322577089187227 0.00014125411829333392 0 -0.012718739998342776 -0.00063331576241309085 0 -0.011894384394647236 -9.9954263788918671e-07 0 -0.013149447686975778 0.00014176150016543919 0 -0.012027205991102944 -0.00029894615994536047 0 -0.011888970913235772 -1.7527254433903648e-07 0 -0.010640187593698095 0.00018587231760112361 0 -0.0092427691375080029 -1.3389389170388683e-06 0 -0.011883040861533368 1.4252447367111176e-06 0 -0.014771648934517465 1.3919514228820789e-06 0 -0.013888036785910057 -0.00014039188438822034 0 -0.013149447686975778 0.00014176150016543919 0 -0.011894384394647236 -9.9954263788918671e-07 0 -0.014771648934517465 1.3919514228820789e-06 0 -0.013149447686975778 0.00014176150016543919 0 -0.017653172558067622 -1.8307763661248359e-06 0 -0.014771648934517465 1.3919514228820789e-06 0 -0.013888036785910057 -0.00014039188438822034 0 -0.013888036785910057 -0.00014039188438822034 0 -0.013149447686975778 0.00014176150016543919 0 -0.013322577089187227 0.00014125411829333392 0 -0.016850929642402705 0.00024204758959215161 0 -0.016710632959719755 0.00015162963455848027 0 -0.019962622788058285 7.6221043326275526e-06 0 -0.019878432676319401 -0.0002246489669116154 0 -0.019821239861878576 3.0854836245075254e-05 0 -0.019536423842961646 -0.00055300499634795288 0 -0.019962622788058285 7.6221043326275526e-06 0 -0.019878432676319401 -0.0002246489669116154 0 -0.019876639597235689 -4.5682678911813636e-05 0 -0.019536423842961646 -0.00055300499634795288 0 -0.019878432676319401 -0.0002246489669116154 0 -0.019878432676319401 -0.0002246489669116154 0 -0.019792017507706483 -0.00010199982339992918 0 -0.019821239861878576 3.0854836245075254e-05 0 -0.019962622788058285 7.6221043326275526e-06 0 -0.019821239861878576 3.0854836245075254e-05 0 -0.019823041798483342 0.00058590138537393372 0 -0.016710632959719755 0.00015162963455848027 0 -0.016716043435846869 1.5827867721016292e-05 0 -0.013066653835077307 -0.00028857020209420393 0 -0.013322577089187227 0.00014125411829333392 0 -0.013339751922979591 -0.00039354395773224529 0 -0.013322577089187227 0.00014125411829333392 0 -0.014037303867081614 -0.0003110628082592336 0 -0.013339751922979591 -0.00039354395773224529 0 -0.012982660415689054 -0.00067511677517914832 0 -0.013066653835077307 -0.00028857020209420393 0 -0.013339751922979591 -0.00039354395773224529 0 -0.012982660415689054 -0.00067511677517914832 0 -0.013339751922979591 -0.00039354395773224529 0 -0.013636009632651059 -0.00097320382385245106 0 -0.012982660415689054 -0.00067511677517914832 0 -0.013636009632651059 -0.00097320382385245106 0 -0.012611640387391506 -0.0011962282866088986 0 -0.014037303867081614 -0.0003110628082592336 0 -0.013339751922979591 -0.00039354395773224529 0 -0.013636009632651059 -0.00097320382385245106 0 -0.014037303867081614 -0.0003110628082592336 0 -0.013636009632651059 -0.00097320382385245106 0 -0.014858703037445862 -0.0010450866247887502 0 -0.019823041798483342 0.00058590138537393372 0 -0.019636008972152945 0.00094434129328896128 0 -0.019583513429126554 0.00072077031848446365 0 -0.016716043435846869 1.5827867721016292e-05 0 -0.016451237048710262 -4.3490783712480619e-05 0 -0.019636008972152945 0.00094434129328896128 0 -0.019583513429126554 0.00072077031848446365 0 -0.019523039087832868 0.00093716323395137842 0 -0.019823041798483342 0.00058590138537393372 0 -0.019583513429126554 0.00072077031848446365 0 -0.019627394863566409 0.0003559961987235518 0 -0.019939772505867603 0.0010419203267483231 0 -0.019914663279999401 0.0012276777611482184 0 -0.019821239861878576 3.0854836245075254e-05 0 -0.019823041798483342 0.00058590138537393372 0 -0.019627394863566409 0.0003559961987235518 0 -0.019792017507706483 -0.00010199982339992918 0 -0.019821239861878576 3.0854836245075254e-05 0 -0.019714137376778414 5.8700358923509544e-06 0 -0.01973216232799575 -0.00012096353577547321 0 -0.019792017507706483 -0.00010199982339992918 0 -0.019714137376778414 5.8700358923509544e-06 0 -0.01973216232799575 -0.00012096353577547321 0 -0.019714137376778414 5.8700358923509544e-06 0 -0.019663947658718903 -5.8568442068636287e-05 0 -0.019914663279999401 0.0012276777611482184 0 -0.01997414577348107 0.0018048660776650274 0 -0.019714137376778414 5.8700358923509544e-06 0 -0.019663947658718903 -5.8568442068636287e-05 0 -0.019630942217574148 1.6587659510550185e-05 0 -0.019583513429126554 0.00072077031848446365 0 -0.019627394863566409 0.0003559961987235518 0 -0.019527458434055973 0.00058501681211030809 0 -0.019630942217574148 1.6587659510550185e-05 0 -0.019581231259591273 -8.8372393963401304e-06 0 -0.019534386959607766 2.8954821044412787e-05 0 -0.019527458434055973 0.00058501681211030809 0 -0.019224954812261434 0.00063348367724972072 0 -0.019491954664693185 0.00092820627538996213 0 -0.01997414577348107 0.0018048660776650274 0 -0.020671308620104759 0.0029877522653981468 0 -0.019663947658718903 -5.8568442068636287e-05 0 -0.019630942217574148 1.6587659510550185e-05 0 -0.019581231259591273 -8.8372393963401304e-06 0 -0.019663947658718903 -5.8568442068636287e-05 0 -0.019581231259591273 -8.8372393963401304e-06 0 -0.019594728451516163 -7.9436549241663682e-05 0 -0.025053358726311491 0.00672197559927024 0 -0.024047595655984199 0.0069410692918135276 0 -0.024129111054877795 0.0082072614246078805 0 -0.019581231259591273 -8.8372393963401304e-06 0 -0.019594728451516163 -7.9436549241663682e-05 0 -0.019534386959607766 2.8954821044412787e-05 0 -0.021804153022207066 0.0029207365227796054 0 -0.020671308620104759 0.0029877522653981468 0 -0.024047595655984199 0.0069410692918135276 0 -0.024129111054877795 0.0082072614246078805 0 -0.022968179956458088 0.006773421988158267 0 -0.021660612249670877 0.0055140626825657705 0 -0.02165580373594098 0.0055250770165552699 0 -0.021576951838344016 0.0054692796079770052 0 -0.019481589831864002 0.00081698731968083088 0 -0.019462726087887024 0.00081954076393664138 0 -0.019468494068232367 0.00092322445799735775 0 -0.020671308620104759 0.0029877522653981468 0 -0.020508265268858523 0.0031551416594773046 0 -0.019462726087887024 0.00081954076393664138 0 -0.019468494068232367 0.00092322445799735775 0 -0.019142845170715083 0.0012587094072684514 0 -0.020671308620104759 0.0029877522653981468 0 -0.019942221429583438 0.0019798901228834558 0 -0.019481589831864002 0.00081698731968083088 0 -0.019468494068232367 0.00092322445799735775 0 -0.019491954664693185 0.00092820627538996213 0 -0.019481941279080695 0.0010707878872475987 0 -0.019554758139840943 0.0012091309288515715 0 -0.019142845170715083 0.0012587094072684514 0 -0.019468494068232367 0.00092322445799735775 0 -0.019481941279080695 0.0010707878872475987 0 -0.019142845170715083 0.0012587094072684514 0 -0.019491954664693185 0.00092820627538996213 0 -0.019499591712910758 0.0010282711333208518 0 -0.019554758139840943 0.0012091309288515715 0 -0.019481941279080695 0.0010707878872475987 0 -0.019491954664693185 0.00092820627538996213 0 -0.019554758139840943 0.0012091309288515715 0 -0.019468494068232367 0.00092322445799735775 0 -0.019481941279080695 0.0010707878872475987 0 -0.019491954664693185 0.00092820627538996213 0 -0.019583513429126554 0.00072077031848446365 0 -0.019527458434055973 0.00058501681211030809 0 -0.019491954664693185 0.00092820627538996213 0 -0.019583513429126554 0.00072077031848446365 0 -0.019491954664693185 0.00092820627538996213 0 -0.019523039087832868 0.00093716323395137842 0 -0.019491954664693185 0.00092820627538996213 0 -0.019499591712910758 0.0010282711333208518 0 -0.019523039087832868 0.00093716323395137842 0 -0.019499591712910758 0.0010282711333208518 0 -0.019523039087832868 0.00093716323395137842 0 -0.019490344458359503 0.00097728742399262516 0 -0.017107745258043192 0.0022132896257754985 0 -0.016581557597831902 0.002079169763068748 0 -0.019554758139840943 0.0012091309288515715 0 -0.020028914092735037 0.0019248896087776591 0 -0.019312310866916801 0.0019818885518485437 0 -0.019499591712910758 0.0010282711333208518 0 -0.019554758139840943 0.0012091309288515715 0 -0.019490344458359503 0.00097728742399262516 0 -0.019444935744963487 0.0023046282368623877 0 -0.019779245006890017 0.002486005415350876 0 -0.019180342370840309 0.0025041198249714531 0 -0.019444935744963487 0.0023046282368623877 0 -0.020028914092735037 0.0019248896087776591 0 -0.019779245006890017 0.002486005415350876 0 -0.019444935744963487 0.0023046282368623877 0 -0.020028914092735037 0.0019248896087776591 0 -0.019312310866916801 0.0019818885518485437 0 -0.019523039087832868 0.00093716323395137842 0 -0.019490344458359503 0.00097728742399262516 0 -0.019512499768325281 0.0010415695108799612 0 -0.020028914092735037 0.0019248896087776591 0 -0.020388390710343738 0.0024464127388433028 0 -0.019779245006890017 0.002486005415350876 0 -0.016581557597831902 0.002079169763068748 0 -0.014450327437980913 0.0010613516164581971 0 -0.014450327437980913 0.0010613516164581971 0 -0.013199932473268271 0.0027709886954321162 0 -0.010305943033362958 -0.00058394784443422244 0 -0.0080360371120985988 0.0014914681952398173 0 -0.010062444189595749 0.0015074618173349995 0 -0.019779245006890017 0.002486005415350876 0 -0.019690687416333216 0.0031304653497981473 0 -0.019180342370840309 0.0025041198249714531 0 -0.020388390710343738 0.0024464127388433028 0 -0.019779245006890017 0.002486005415350876 0 -0.019690687416333216 0.0031304653497981473 0 -0.0080360371120985988 0.0014914681952398173 0 -0.0075697230759294272 0.0033091510664883376 0 -0.0093982326956057079 0.0034258741739860753 0 -0.0067368694906809719 0.0049491645617505712 0 -0.0075697230759294272 0.0033091510664883376 0 -0.0093982326956057079 0.0034258741739860753 0 -0.0020200727870791674 0.0028420899539135058 0 -0.0056824348962317183 0.0014561677309883902 0 -0.0020026749930584019 0.00034372565940567364 0 -0.0020513591472718926 0.00034058315876966505 0 -0.0020793363976008721 -1.3183980699050868e-05 0 -0.0023306722373891762 0.00024444599925527285 0 -0.0020793363976008721 -1.3183980699050868e-05 0 -0.0027481259920266845 -1.9176448123940889e-05 0 -0.0020513591472718926 0.00034058315876966505 0 -0.0023306722373891762 0.00024444599925527285 0 -0.0020793363976008721 -1.3183980699050868e-05 0 -0.0093982326956057079 0.0034258741739860753 0 -0.010062444189595749 0.0015074618173349995 0 -0.012042469201699092 0.0019105265504609787 0 -0.0080360371120985988 0.0014914681952398173 0 -0.0093982326956057079 0.0034258741739860753 0 -0.010062444189595749 0.0015074618173349995 0 -0.0056824348962317183 0.0014561677309883902 0 -0.009133708963220662 4.2685269438679931e-07 0 -0.0020793363976008721 -1.3183980699050868e-05 0 -0.0029254383098353165 -0.00066759241305377874 0 -0.0027481259920266845 -1.9176448123940889e-05 0 -0.0029254383098353165 -0.00066759241305377874 0 -0.0027481259920266845 -1.9176448123940889e-05 0 -0.003443922655799226 -3.9710668521449595e-05 0 -0.0031701754057541303 0.00056640571763030844 0 -0.0027481259920266845 -1.9176448123940889e-05 0 -0.003443922655799226 -3.9710668521449595e-05 0 -0.009133708963220662 4.2685269438679931e-07 0 -0.0091388233513919614 -0.00047551210638569467 0 -0.0034268346191437165 -0.00017505150451438005 0 -0.0038321746819644131 -0.00023767272070331069 0 -0.0037849292229049456 -9.2875065049155645e-05 0 -0.0034268346191437165 -0.00017505150451438005 0 -0.003443922655799226 -3.9710668521449595e-05 0 -0.0037849292229049456 -9.2875065049155645e-05 0 -0.009133708963220662 4.2685269438679931e-07 0 -0.0080020976518511665 -0.00071818821052748089 0 -0.0149858936392505 -0.0025995025527596198 0 -0.014827340035557454 -0.0018635220060928992 0 -0.014213863797144411 -0.0021680035584253489 0 -0.014827340035557454 -0.0018635220060928992 0 -0.01421617754239652 -0.0015949253858753047 0 -0.014213863797144411 -0.0021680035584253489 0 -0.014450327437980913 0.0010613516164581971 0 -0.009133708963220662 4.2685269438679931e-07 0 -0.010305943033362958 -0.00058394784443422244 0 -0.010062444189595749 0.0015074618173349995 0 -0.012042469201699092 0.0019105265504609787 0 -0.015595689349611913 -0.0017463827849422541 0 -0.0149858936392505 -0.0025995025527596198 0 -0.014827340035557454 -0.0018635220060928992 0 -0.019636008972152945 0.00094434129328896128 0 -0.019523039087832868 0.00093716323395137842 0 -0.019512499768325281 0.0010415695108799612 0 -0.016451237048710262 -4.3490783712480619e-05 0 -0.014450327437980913 0.0010613516164581971 0 -0.014858703037445862 -0.0010450866247887502 0 -0.015595689349611913 -0.0017463827849422541 0 -0.014827340035557454 -0.0018635220060928992 0 -0.014858703037445862 -0.0010450866247887502 0 -0.014827340035557454 -0.0018635220060928992 0 -0.01421617754239652 -0.0015949253858753047 0 -0.013636009632651059 -0.00097320382385245106 0 -0.014858703037445862 -0.0010450866247887502 0 -0.01421617754239652 -0.0015949253858753047 0 -0.013636009632651059 -0.00097320382385245106 0 -0.01421617754239652 -0.0015949253858753047 0 -0.013445271898603424 -0.0018466145011708614 0 -0.013636009632651059 -0.00097320382385245106 0 -0.013445271898603424 -0.0018466145011708614 0 -0.012611640387391506 -0.0011962282866088986 0 -0.0042276915101453335 -0.00013420982966918244 0 -0.0041303832277455798 -2.8753831098261935e-05 0 -0.0043275549591919983 0.00027697879640286959 0 -0.0089058498121381835 -0.00044146353808226609 0 -0.0091388233513919614 -0.00047551210638569467 0 -0.01421617754239652 -0.0015949253858753047 0 -0.013445271898603424 -0.0018466145011708614 0 -0.014213863797144411 -0.0021680035584253489 0 -0.0042276915101453335 -0.00013420982966918244 0 -0.0038321746819644131 -0.00023767272070331069 0 -0.0041303832277455798 -2.8753831098261935e-05 0 -0.0038321746819644131 -0.00023767272070331069 0 -0.0037849292229049456 -9.2875065049155645e-05 0 -0.0041303832277455798 -2.8753831098261935e-05 0 -0.0039892939357842076 0.00015007195541508046 0 -0.003443922655799226 -3.9710668521449595e-05 0 -0.0037849292229049456 -9.2875065049155645e-05 0 -0.0039892939357842076 0.00015007195541508046 0 -0.0037849292229049456 -9.2875065049155645e-05 0 -0.0041303832277455798 -2.8753831098261935e-05 0 -0.0011867818649807023 0.00034857639674289675 0 -0.0011069966022454127 0.00020419061353935117 0 -0.0039892939357842076 0.00015007195541508046 0 -0.0041303832277455798 -2.8753831098261935e-05 0 -0.004078130126896228 -0.00029852299615665869 0 -0.0041303832277455798 -2.8753831098261935e-05 0 -0.004078130126896228 -0.00029852299615665869 0 -0.0043275549591919983 0.00027697879640286959 0 -0.004078130126896228 -0.00029852299615665869 0 -0.0019869723260767867 -5.4926466524869269e-05 0 -0.0043275549591919983 0.00027697879640286959 0 0.0019791803987483114 1.6107475252794976e-06 0 0.00049049669017648485 0.00021984416392205989 0 -0.0017598782574625314 -1.6868817314943824e-06 0 0.002108826507803134 -7.3057398318792909e-05 0 0.00049049669017648485 0.00021984416392205989 0 -0.0019869723260767867 -5.4926466524869269e-05 0 -0.0011069966022454127 0.00020419061353935117 0 -0.0012084773470162082 0.00014327140535306041 0 0.00049049669017648485 0.00021984416392205989 0 -0.0019869723260767867 -5.4926466524869269e-05 0 -0.0017598782574625314 -1.6868817314943824e-06 0 -0.0019869723260767867 -5.4926466524869269e-05 0 -0.0017598782574625314 -1.6868817314943824e-06 0 -0.0054986470739524307 2.1944678188457741e-06 0 -0.0019869723260767867 -5.4926466524869269e-05 0 -0.0054986470739524307 2.1944678188457741e-06 0 -0.0043275549591919983 0.00027697879640286959 0 -0.0054986470739524307 2.1944678188457741e-06 0 -0.0043275549591919983 0.00027697879640286959 0 -0.0054437645663469826 -0.00029366350324399731 0 -0.0042276915101453335 -0.00013420982966918244 0 -0.0043275549591919983 0.00027697879640286959 0 -0.0054437645663469826 -0.00029366350324399731 0 -0.013445271898603424 -0.0018466145011708614 0 -0.012611640387391506 -0.0011962282866088986 0 -0.01151938147759307 -0.001200335314308126 0 -0.0089058498121381835 -0.00044146353808226609 0 -0.0087543863852428058 -0.00016966167441575874 0 -0.0092303410892431714 -3.1737956163747157e-06 0 -0.0054986470739524307 2.1944678188457741e-06 0 -0.0054437645663469826 -0.00029366350324399731 0 -0.017478210303320058 0.011609301843918028 0 -0.019113755149924711 0.011974004880736104 0 -0.019168899516178464 0.0097556240728948491 0 -0.017478210303320058 0.011609301843918028 0 -0.016447852154908339 0.0097713260905950648 0 -0.019168899516178464 0.0097556240728948491 0 -0.019113755149924711 0.011974004880736104 0 -0.019168899516178464 0.0097556240728948491 0 -0.020801950970835047 0.012083481764114064 0 -0.019488301111962505 0.0077407542312223441 0 -0.019567308121630669 0.008838507027136332 0 -0.019113755149924711 0.011974004880736104 0 -0.020801950970835047 0.012083481764114064 0 -0.019930775497172738 0.013755468592445651 0 -0.019113755149924711 0.011974004880736104 0 -0.018470133310275208 0.012647541943047829 0 -0.019930775497172738 0.013755468592445651 0 -0.018470133310275208 0.012647541943047829 0 -0.017340257166933694 0.013220335817042007 0 -0.019930775497172738 0.013755468592445651 0 -0.017478210303320058 0.011609301843918028 0 -0.019113755149924711 0.011974004880736104 0 -0.018470133310275208 0.012647541943047829 0 -0.017478210303320058 0.011609301843918028 0 -0.018470133310275208 0.012647541943047829 0 -0.017340257166933694 0.013220335817042007 0 -0.016931867492049994 0.012096184267122534 0 -0.015992577845055943 0.012089364443277266 0 -0.017478210303320058 0.011609301843918028 0 -0.017340257166933694 0.013220335817042007 0 -0.014468164384444527 0.01252265673182567 0 -0.014468164384444527 0.01252265673182567 0 -0.016447852154908339 0.0097713260905950648 0 -0.013899776984053662 0.0097693348842499694 0 -0.017478210303320058 0.011609301843918028 0 -0.014468164384444527 0.01252265673182567 0 -0.016447852154908339 0.0097713260905950648 0 -0.016447852154908339 0.0097713260905950648 0 -0.015665074340309261 0.0077845833172083293 0 -0.017627343855918333 0.0074650678415788454 0 -0.016447852154908339 0.0097713260905950648 0 -0.013899776984053662 0.0097693348842499694 0 -0.015665074340309261 0.0077845833172083293 0 -0.016357020720498307 0.0053393050471260278 0 -0.015665074340309261 0.0077845833172083293 0 -0.013555108635101919 0.0072101482602901024 0 -0.013899776984053662 0.0097693348842499694 0 -0.015665074340309261 0.0077845833172083293 0 -0.013555108635101919 0.0072101482602901024 0 -0.016357020720498307 0.0053393050471260278 0 -0.015665074340309261 0.0077845833172083293 0 -0.017627343855918333 0.0074650678415788454 0 -0.020706932640330786 0.0054133818264939055 0 -0.020741732001406506 0.0059532471550211531 0 -0.021267862910178771 0.0056782391047557048 0 -0.020741732001406506 0.0059532471550211531 0 -0.021565013490480813 0.0055650935600120256 0 -0.021267862910178771 0.0056782391047557048 0 -0.018685663610360968 0.006461554233508901 0 -0.019488301111962505 0.0077407542312223441 0 -0.016447852154908339 0.0097713260905950648 0 -0.017627343855918333 0.0074650678415788454 0 -0.019168899516178464 0.0097556240728948491 0 -0.021565013490480813 0.0055650935600120256 0 -0.021267862910178771 0.0056782391047557048 0 -0.021331060282900324 0.0055664979771694731 0 -0.021267862910178771 0.0056782391047557048 0 -0.021464914493016365 0.0054400644434522511 0 -0.021331060282900324 0.0055664979771694731 0 -0.021464914493016365 0.0054400644434522511 0 -0.021331060282900324 0.0055664979771694731 0 -0.021410108408205258 0.0054302945491537065 0 -0.02098752275912337 0.0054784480201593251 0 -0.021331060282900324 0.0055664979771694731 0 -0.021410108408205258 0.0054302945491537065 0 -0.02098752275912337 0.0054784480201593251 0 -0.021331060282900324 0.0055664979771694731 0 -0.021245117561960368 0.0050293777163486885 0 -0.021565013490480813 0.0055650935600120256 0 -0.021331060282900324 0.0055664979771694731 0 -0.021245117561960368 0.0050293777163486885 0 -0.020671308620104759 0.0029877522653981468 0 -0.022140386039824985 0.0053060436186744579 0 -0.021660612249670877 0.0055140626825657705 0 -0.021578155887294517 0.0053715791802829236 0 -0.021576951838344016 0.0054692796079770052 0 -0.021578155887294517 0.0053715791802829236 0 -0.021410108408205258 0.0054302945491537065 0 -0.021576951838344016 0.0054692796079770052 0 -0.021410108408205258 0.0054302945491537065 0 -0.021477947310600865 0.0055486097749027534 0 -0.021576951838344016 0.0054692796079770052 0 -0.02098752275912337 0.0054784480201593251 0 -0.021410108408205258 0.0054302945491537065 0 -0.021477947310600865 0.0055486097749027534 0 -0.020441444502292044 0.00436570035576604 0 -0.02025849219331851 0.0041240556324263497 0 -0.020508265268858523 0.0031551416594773046 0 -0.02025849219331851 0.0041240556324263497 0 -0.02165580373594098 0.0055250770165552699 0 -0.021477947310600865 0.0055486097749027534 0 -0.021576951838344016 0.0054692796079770052 0 -0.017150786433601323 0.0061021809653911312 0 -0.01898081662864717 0.0058798445011632675 0 -0.018181885768988125 0.0043683089918831472 0 -0.020508265268858523 0.0031551416594773046 0 -0.019676131991340919 0.0031334239770104601 0 -0.02098752275912337 0.0054784480201593251 0 -0.01898081662864717 0.0058798445011632675 0 -0.019934583229071802 0.0047998755052948983 0 -0.018181885768988125 0.0043683089918831472 0 -0.019934583229071802 0.0047998755052948983 0 -0.019269366117248016 0.0038468694705938887 0 -0.01898081662864717 0.0058798445011632675 0 -0.018181885768988125 0.0043683089918831472 0 -0.019934583229071802 0.0047998755052948983 0 -0.018181885768988125 0.0043683089918831472 0 -0.019269366117248016 0.0038468694705938887 0 -0.019112268819162982 0.0025017638938907147 0 -0.019934583229071802 0.0047998755052948983 0 -0.019269366117248016 0.0038468694705938887 0 -0.020378182453901834 0.0040072260680775662 0 -0.019582106345097248 0.0032013242892211385 0 -0.019269366117248016 0.0038468694705938887 0 -0.020378182453901834 0.0040072260680775662 0 -0.019582106345097248 0.0032013242892211385 0 -0.019269366117248016 0.0038468694705938887 0 -0.019112268819162982 0.0025017638938907147 0 -0.019676131991340919 0.0031334239770104601 0 -0.019602450373432164 0.0028932624595359403 0 -0.019554758139840943 0.0012091309288515715 0 -0.019142845170715083 0.0012587094072684514 0 -0.019312310866916801 0.0019818885518485437 0 -0.019142845170715083 0.0012587094072684514 0 -0.019312310866916801 0.0019818885518485437 0 -0.019112268819162982 0.0025017638938907147 0 -0.021565013490480813 0.0055650935600120256 0 -0.021245117561960368 0.0050293777163486885 0 -0.021717508909576209 0.0043725325824300922 0 -0.02098752275912337 0.0054784480201593251 0 -0.019934583229071802 0.0047998755052948983 0 -0.021245117561960368 0.0050293777163486885 0 -0.019934583229071802 0.0047998755052948983 0 -0.021245117561960368 0.0050293777163486885 0 -0.020378182453901834 0.0040072260680775662 0 -0.020378182453901834 0.0040072260680775662 0 -0.021717508909576209 0.0043725325824300922 0 -0.020786780196388823 0.0024427530433528653 0 -0.019582106345097248 0.0032013242892211385 0 -0.020378182453901834 0.0040072260680775662 0 -0.020018243462076476 0.0030052784243365322 0 -0.019567308121630669 0.008838507027136332 0 -0.018252343840857967 0.009840883423163747 0 -0.021245117561960368 0.0050293777163486885 0 -0.020378182453901834 0.0040072260680775662 0 -0.021717508909576209 0.0043725325824300922 0 -0.018252343840857967 0.009840883423163747 0 -0.018236696992504246 0.011617149702843887 0 -0.017331233349593772 0.013371528265127683 0 -0.01700852349018318 0.013550404411874011 0 -0.016814149667095477 0.013246576638453196 0 -0.020801950970835047 0.012083481764114064 0 -0.022407927347837479 0.014334017349321267 0 -0.019930775497172738 0.013755468592445651 0 -0.018252343840857967 0.009840883423163747 0 -0.018219545577596839 0.0085850432319310339 0 -0.020378182453901834 0.0040072260680775662 0 -0.020018243462076476 0.0030052784243365322 0 -0.020786780196388823 0.0024427530433528653 0 -0.020018243462076476 0.0030052784243365322 0 -0.020786780196388823 0.0024427530433528653 0 -0.019442914938182686 0.002440257296904033 0 -0.017826676415587689 0.0091036916694632042 0 -0.01760488284184903 0.0087955933239070444 0 -0.01729865850749716 0.0089729033155784878 0 -0.017331233349593772 0.013371528265127683 0 -0.017522763994595909 0.013632450076460681 0 -0.01700852349018318 0.013550404411874011 0 -0.017053580138896691 0.0095991846649559533 0 -0.016320101161724124 0.011813409793215133 0 -0.016951962995283964 0.013867084859070098 0 -0.016700076642075953 0.014027775010282052 0 -0.016898268756224428 0.014075322891209481 0 -0.018252343840857967 0.009840883423163747 0 -0.017053580138896691 0.0095991846649559533 0 -0.017522763994595909 0.013632450076460681 0 -0.01700852349018318 0.013550404411874011 0 -0.017112108664675874 0.013883086413014422 0 -0.01700852349018318 0.013550404411874011 0 -0.017112108664675874 0.013883086413014422 0 -0.016778147192189549 0.013788318598224816 0 -0.019312310866916801 0.0019818885518485437 0 -0.019143394958196034 0.0023129646655545926 0 -0.019112268819162982 0.0025017638938907147 0 -0.019444935744963487 0.0023046282368623877 0 -0.019143394958196034 0.0023129646655545926 0 -0.019180342370840309 0.0025041198249714531 0 -0.019444935744963487 0.0023046282368623877 0 -0.019312310866916801 0.0019818885518485437 0 -0.019143394958196034 0.0023129646655545926 0 -0.019143394958196034 0.0023129646655545926 0 -0.019156195024317056 0.0022301099648791281 0 -0.019180342370840309 0.0025041198249714531 0 -0.020786780196388823 0.0024427530433528653 0 -0.019268744101159481 0.0020850415123108926 0 -0.019442914938182686 0.002440257296904033 0 -0.019143394958196034 0.0023129646655545926 0 -0.01912379334494603 0.002344513309537413 0 -0.019156195024317056 0.0022301099648791281 0 -0.01912379334494603 0.002344513309537413 0 -0.019156195024317056 0.0022301099648791281 0 -0.019442914938182686 0.002440257296904033 0 -0.019156195024317056 0.0022301099648791281 0 -0.019268744101159481 0.0020850415123108926 0 -0.019442914938182686 0.002440257296904033 0 -0.018245998670917307 0.0085566144449173692 0 -0.018219545577596839 0.0085850432319310339 0 -0.019143394958196034 0.0023129646655545926 0 -0.01912379334494603 0.002344513309537413 0 -0.019112268819162982 0.0025017638938907147 0 -0.01912379334494603 0.002344513309537413 0 -0.019112268819162982 0.0025017638938907147 0 -0.019442914938182686 0.002440257296904033 0 -0.019582106345097248 0.0032013242892211385 0 -0.019112268819162982 0.0025017638938907147 0 -0.019442914938182686 0.002440257296904033 0 -0.019582106345097248 0.0032013242892211385 0 -0.020018243462076476 0.0030052784243365322 0 -0.019442914938182686 0.002440257296904033 0 -0.019156195024317056 0.0022301099648791281 0 -0.019148766197208317 0.0022167685249631507 0 -0.019180342370840309 0.0025041198249714531 0 -0.017053580138896691 0.0095991846649559533 0 -0.018219545577596839 0.0085850432319310339 0 -0.017904813097648319 0.0026414853003313907 0 -0.018435534826074473 0.0023283027205224902 0 -0.018388137963335584 0.0026744240659966972 0 -0.017904813097648319 0.0026414853003313907 0 -0.018388137963335584 0.0026744240659966972 0 -0.01852352488548609 0.0030177239661428705 0 -0.017904813097648319 0.0026414853003313907 0 -0.01852352488548609 0.0030177239661428705 0 -0.018399687346547327 0.0033224600335242972 0 -0.017053580138896691 0.0095991846649559533 0 -0.013529425870482743 0.0086796945339468797 0 -0.018388137963335584 0.0026744240659966972 0 -0.01852352488548609 0.0030177239661428705 0 -0.01868876851082155 0.0027083192191308626 0 -0.018435534826074473 0.0023283027205224902 0 -0.018388137963335584 0.0026744240659966972 0 -0.01868876851082155 0.0027083192191308626 0 -0.019690687416333216 0.0031304653497981473 0 -0.01902765108410899 0.0029448936783882614 0 -0.019180342370840309 0.0025041198249714531 0 -0.018435534826074473 0.0023283027205224902 0 -0.01868876851082155 0.0027083192191308626 0 -0.019180342370840309 0.0025041198249714531 0 -0.018219545577596839 0.0085850432319310339 0 -0.018191773113578995 0.0079177162816055201 0 -0.01868876851082155 0.0027083192191308626 0 -0.01902765108410899 0.0029448936783882614 0 -0.019180342370840309 0.0025041198249714531 0 -0.01852352488548609 0.0030177239661428705 0 -0.01868876851082155 0.0027083192191308626 0 -0.01902765108410899 0.0029448936783882614 0 -0.013199932473268271 0.0027709886954321162 0 -0.00964653070612876 0.0064963712150956773 0 -0.019690687416333216 0.0031304653497981473 0 -0.018995990939632831 0.0033471066486254223 0 -0.018873639100951731 0.0039221114612867768 0 -0.019690687416333216 0.0031304653497981473 0 -0.01902765108410899 0.0029448936783882614 0 -0.018995990939632831 0.0033471066486254223 0 -0.0080360371120985988 0.0014914681952398173 0 -0.0075697230759294272 0.0033091510664883376 0 -0.0057538268183779436 0.0035819965395223587 0 -0.01852352488548609 0.0030177239661428705 0 -0.01902765108410899 0.0029448936783882614 0 -0.018995990939632831 0.0033471066486254223 0 -0.018995990939632831 0.0033471066486254223 0 -0.018411277503503274 0.0032870539000461932 0 -0.018873639100951731 0.0039221114612867768 0 -0.013529425870482743 0.0086796945339468797 0 -0.011785869409127009 0.010257353443253512 0 -0.017103428263845675 0.014082026525017151 0 -0.017000107993781044 0.01433997748385003 0 -0.016898268756224428 0.014075322891209481 0 -0.013529425870482743 0.0086796945339468797 0 -0.00964653070612876 0.0064963712150956773 0 -0.01852352488548609 0.0030177239661428705 0 -0.018995990939632831 0.0033471066486254223 0 -0.018411277503503274 0.0032870539000461932 0 -0.013778274655645668 0.0081954278548451304 0 -0.013529425870482743 0.0086796945339468797 0 -0.0085829656113892688 0.010377074049002405 0 -0.00964653070612876 0.0064963712150956773 0 -0.010643004421677125 0.010401122184799117 0 -0.010931631004124347 0.0087549830652050159 0 -0.01268119568172979 0.0085264157446967876 0 -0.011620219322508278 0.0070517349903922938 0 -0.010931631004124347 0.0087549830652050159 0 -0.01268119568172979 0.0085264157446967876 0 -0.0067368694906809719 0.0049491645617505712 0 -0.0075697230759294272 0.0033091510664883376 0 -0.0057538268183779436 0.0035819965395223587 0 -0.006961965362631637 0.0072416237839293893 0 -0.0083679457514128554 0.0067059131428908753 0 -0.0074155003960962758 0.0053927908133580395 0 -0.0020200727870791674 0.0028420899539135058 0 -0.00964653070612876 0.0064963712150956773 0 -0.016320101161724124 0.011813409793215133 0 -0.016086065588158005 0.012809336431206049 0 -0.016700076642075953 0.014027775010282052 0 -0.016617673791562378 0.014249050505020785 0 -0.016458686617058856 0.014187003703523127 0 -0.016700076642075953 0.014027775010282052 0 -0.016796562585784269 0.014247395349992555 0 -0.016617673791562378 0.014249050505020785 0 -0.016700076642075953 0.014027775010282052 0 -0.016898268756224428 0.014075322891209481 0 -0.016796562585784269 0.014247395349992555 0 -0.017000107993781044 0.01433997748385003 0 -0.016898268756224428 0.014075322891209481 0 -0.016796562585784269 0.014247395349992555 0 -0.016951962995283964 0.013867084859070098 0 -0.017103428263845675 0.014082026525017151 0 -0.016898268756224428 0.014075322891209481 0 -0.017000107993781044 0.01433997748385003 0 -0.016796562585784269 0.014247395349992555 0 -0.016850442093358856 0.014401506684307548 0 -0.016896654148646918 0.014590763221730278 0 -0.017000107993781044 0.01433997748385003 0 -0.016850442093358856 0.014401506684307548 0 -0.016796562585784269 0.014247395349992555 0 -0.016850442093358856 0.014401506684307548 0 -0.016697587123579626 0.01442832021217442 0 -0.016697587123579626 0.01442832021217442 0 -0.016617673791562378 0.014249050505020785 0 -0.016407334264500664 0.014433138240800782 0 -0.016796562585784269 0.014247395349992555 0 -0.016697587123579626 0.01442832021217442 0 -0.016617673791562378 0.014249050505020785 0 -0.016407334264500664 0.014433138240800782 0 -0.016228152396663812 0.014333847617876207 0 -0.016458686617058856 0.014187003703523127 0 -0.016617673791562378 0.014249050505020785 0 -0.016407334264500664 0.014433138240800782 0 -0.016458686617058856 0.014187003703523127 0 -0.016117532129958003 0.014508780364740754 0 -0.016407334264500664 0.014433138240800782 0 -0.016228152396663812 0.014333847617876207 0 -0.015987845848091466 0.013120454568633451 0 -0.016086065588158005 0.012809336431206049 0 -0.016228152396663812 0.014333847617876207 0 -0.016664169094446488 0.014124283810027604 0 -0.016046958273498411 0.013821307975875845 0 -0.017112108664675874 0.013883086413014422 0 -0.016664169094446488 0.014124283810027604 0 -0.016778147192189549 0.013788318598224816 0 -0.016664169094446488 0.014124283810027604 0 -0.016778147192189549 0.013788318598224816 0 -0.016458196566411957 0.013597614134487424 0 -0.01700852349018318 0.013550404411874011 0 -0.016778147192189549 0.013788318598224816 0 -0.016458196566411957 0.013597614134487424 0 -0.016664169094446488 0.014124283810027604 0 -0.016458196566411957 0.013597614134487424 0 -0.016046958273498411 0.013821307975875845 0 -0.016458196566411957 0.013597614134487424 0 -0.016261999043846415 0.013150649087921924 0 -0.016046958273498411 0.013821307975875845 0 -0.016931867492049994 0.012096184267122534 0 -0.018236696992504246 0.011617149702843887 0 -0.015899829503903586 0.013932985634469286 0 -0.015564288104453761 0.014719873333472359 0 -0.016139178208712343 0.013083601328043502 0 -0.016261999043846415 0.013150649087921924 0 -0.016814149667095477 0.013246576638453196 0 -0.016458196566411957 0.013597614134487424 0 -0.016261999043846415 0.013150649087921924 0 -0.016814149667095477 0.013246576638453196 0 -0.01700852349018318 0.013550404411874011 0 -0.016458196566411957 0.013597614134487424 0 -0.016814149667095477 0.013246576638453196 0 -0.014468164384444527 0.01252265673182567 0 -0.014980967655750689 0.014014224794236139 0 -0.01310287100196332 0.014486530700621381 0 -0.016139178208712343 0.013083601328043502 0 -0.014468164384444527 0.01252265673182567 0 -0.014980967655750689 0.014014224794236139 0 -0.016261999043846415 0.013150649087921924 0 -0.014980967655750689 0.014014224794236139 0 -0.015574106256106404 0.015506336638589063 0 -0.016139178208712343 0.013083601328043502 0 -0.016261999043846415 0.013150649087921924 0 -0.014980967655750689 0.014014224794236139 0 -0.014980967655750689 0.014014224794236139 0 -0.015574106256106404 0.015506336638589063 0 -0.014013778253172914 0.015508156666520419 0 -0.014980967655750689 0.014014224794236139 0 -0.014013778253172914 0.015508156666520419 0 -0.01310287100196332 0.014486530700621381 0 -0.014013778253172914 0.015508156666520419 0 -0.012710317821502721 0.016518333946819435 0 -0.01310287100196332 0.014486530700621381 0 -0.014013778253172914 0.015508156666520419 0 -0.014477938095094052 0.01804943248234224 0 -0.012710317821502721 0.016518333946819435 0 -0.016228152396663812 0.014333847617876207 0 -0.016046958273498411 0.013821307975875845 0 -0.015869940565446609 0.014386211675315907 0 -0.015574106256106404 0.015506336638589063 0 -0.014013778253172914 0.015508156666520419 0 -0.014477938095094052 0.01804943248234224 0 -0.015564288104453761 0.014719873333472359 0 -0.014843829348695626 0.016109054530115074 0 -0.016117532129958003 0.014508780364740754 0 -0.016228152396663812 0.014333847617876207 0 -0.015869940565446609 0.014386211675315907 0 -0.014477938095094052 0.01804943248234224 0 -0.0122665648263071 0.018064507062427047 0 -0.012710317821502721 0.016518333946819435 0 -0.012606260140678803 0.01930191731443762 0 -0.014477938095094052 0.01804943248234224 0 -0.0122665648263071 0.018064507062427047 0 -0.0122665648263071 0.018064507062427047 0 -0.011009025743063146 0.018278767368284418 0 -0.011253131510547727 0.016865334390864489 0 -0.011482005430249935 0.019328667030335717 0 -0.0122665648263071 0.018064507062427047 0 -0.011009025743063146 0.018278767368284418 0 -0.0098454636129847034 0.01924158702007386 0 -0.011009025743063146 0.018278767368284418 0 -0.0099332534513612691 0.017518885034902947 0 -0.011009025743063146 0.018278767368284418 0 -0.011253131510547727 0.016865334390864489 0 -0.0099332534513612691 0.017518885034902947 0 -0.011253131510547727 0.016865334390864489 0 -0.010310715998755065 0.016077666181109451 0 -0.0099332534513612691 0.017518885034902947 0 -0.011253131510547727 0.016865334390864489 0 -0.010310715998755065 0.016077666181109451 0 -0.011340320473677399 0.014959320088569756 0 -0.0122665648263071 0.018064507062427047 0 -0.011253131510547727 0.016865334390864489 0 -0.012710317821502721 0.016518333946819435 0 -0.011253131510547727 0.016865334390864489 0 -0.012710317821502721 0.016518333946819435 0 -0.011340320473677399 0.014959320088569756 0 -0.0098454636129847034 0.01924158702007386 0 -0.0084195043202034501 0.018260300016850708 0 -0.0099332534513612691 0.017518885034902947 0 -0.0084195043202034501 0.018260300016850708 0 -0.0099332534513612691 0.017518885034902947 0 -0.0088455174222760793 0.016375621923626127 0 -0.010310715998755065 0.016077666181109451 0 -0.0099332534513612691 0.017518885034902947 0 -0.0088455174222760793 0.016375621923626127 0 -0.0088455174222760793 0.016375621923626127 0 -0.0076084437421772783 0.01569564223667921 0 -0.0071058546867472979 0.016964317875130436 0 -0.0084195043202034501 0.018260300016850708 0 -0.0088455174222760793 0.016375621923626127 0 -0.0071058546867472979 0.016964317875130436 0 -0.0093480315876148523 0.014306939629561919 0 -0.0071743103341501231 0.014238684981660865 0 -0.0076084437421772783 0.01569564223667921 0 -0.0088455174222760793 0.016375621923626127 0 -0.0093480315876148523 0.014306939629561919 0 -0.0076084437421772783 0.01569564223667921 0 -0.010310715998755065 0.016077666181109451 0 -0.0088455174222760793 0.016375621923626127 0 -0.0093480315876148523 0.014306939629561919 0 -0.010310715998755065 0.016077666181109451 0 -0.0093480315876148523 0.014306939629561919 0 -0.011340320473677399 0.014959320088569756 0 -0.0093480315876148523 0.014306939629561919 0 -0.011368853333994995 0.013344733955634795 0 -0.0098357870625023231 0.012739785464202607 0 -0.0093480315876148523 0.014306939629561919 0 -0.0079998765804206382 0.012722146451031103 0 -0.0071743103341501231 0.014238684981660865 0 -0.0093480315876148523 0.014306939629561919 0 -0.0098357870625023231 0.012739785464202607 0 -0.0079998765804206382 0.012722146451031103 0 -0.014468164384444527 0.01252265673182567 0 -0.01310287100196332 0.014486530700621381 0 -0.011368853333994995 0.013344733955634795 0 -0.012710317821502721 0.016518333946819435 0 -0.01310287100196332 0.014486530700621381 0 -0.011340320473677399 0.014959320088569756 0 -0.0093480315876148523 0.014306939629561919 0 -0.011340320473677399 0.014959320088569756 0 -0.011368853333994995 0.013344733955634795 0 -0.01310287100196332 0.014486530700621381 0 -0.011340320473677399 0.014959320088569756 0 -0.011368853333994995 0.013344733955634795 0 -0.014468164384444527 0.01252265673182567 0 -0.011368853333994995 0.013344733955634795 0 -0.011904761393682552 0.011394063407757662 0 -0.014468164384444527 0.01252265673182567 0 -0.013899776984053662 0.0097693348842499694 0 -0.011904761393682552 0.011394063407757662 0 -0.013899776984053662 0.0097693348842499694 0 -0.011904761393682552 0.011394063407757662 0 -0.011318801562826761 0.009210845561706784 0 -0.011904761393682552 0.011394063407757662 0 -0.0094513092464445572 0.01110798669562927 0 -0.011318801562826761 0.009210845561706784 0 -0.011368853333994995 0.013344733955634795 0 -0.011904761393682552 0.011394063407757662 0 -0.0098357870625023231 0.012739785464202607 0 -0.011904761393682552 0.011394063407757662 0 -0.0098357870625023231 0.012739785464202607 0 -0.0094513092464445572 0.01110798669562927 0 -0.010394484168404609 0.010675651561425387 0 -0.0093755210078450679 0.011564621582525849 0 -0.0098357870625023231 0.012739785464202607 0 -0.0094513092464445572 0.01110798669562927 0 -0.0079998765804206382 0.012722146451031103 0 -0.0086387555419529232 0.010043930851932519 0 -0.010761940106710392 0.010918058700039011 0 -0.0079998765804206382 0.012722146451031103 0 -0.010394484168404609 0.010675651561425387 0 -0.012232739438493796 0.0090412672501562607 0 -0.010761940106710392 0.010918058700039011 0 -0.01067395280185107 0.0085824849868250622 0 -0.01313353692357132 0.0089202241584608044 0 -0.0086387555419529232 0.010043930851932519 0 -0.01067395280185107 0.0085824849868250622 0 -0.0076033604935605154 0.007723098807410715 0 -0.0086387555419529232 0.010043930851932519 0 -0.010761940106710392 0.010918058700039011 0 -0.01067395280185107 0.0085824849868250622 0 -0.01067395280185107 0.0085824849868250622 0 -0.0076033604935605154 0.007723098807410715 0 -0.010181333235981169 0.0064371668941871196 0 -0.01067395280185107 0.0085824849868250622 0 -0.012815772813702501 0.0062177918933658989 0 -0.010181333235981169 0.0064371668941871196 0 -0.01067395280185107 0.0085824849868250622 0 -0.01313353692357132 0.0089202241584608044 0 -0.012815772813702501 0.0062177918933658989 0 -0.015190739118536939 0.0069391059438408459 0 -0.01313353692357132 0.0089202241584608044 0 -0.012815772813702501 0.0062177918933658989 0 -0.014052003084123863 0.0074137582684384263 0 -0.012232739438493796 0.0090412672501562607 0 -0.013899776984053662 0.0097693348842499694 0 -0.013555108635101919 0.0072101482602901024 0 -0.011318801562826761 0.009210845561706784 0 -0.0046355845205269253 0.0092640240296750324 0 -0.0042127911512712035 0.0074759882641966041 0 -0.0055906972494392387 0.0081096692229026841 0 -0.0046355845205269253 0.0092640240296750324 0 -0.002880456585901919 0.0092997538928639416 0 -0.0042127911512712035 0.0074759882641966041 0 -0.0025647213383944989 0.0044278613146870724 0 -0.0023304873149304775 0.0055480081146284691 0 -0.0027422753785066967 0.009334721851555627 0 -0.0030128743150645786 0.0087539129418633625 0 -0.0042127911512712035 0.0074759882641966041 0 -0.013208204573091596 0.0024553569501524208 0 -0.013237637006225097 0.0024144008645147013 0 -0.013299965893926024 0.002485051520729217 0 -0.0025647213383944989 0.0044278613146870724 0 -0.0021243103756763354 0.0031985848003168388 0 0.0023674212996152152 0.0042890431893934343 0 0.0025650082824813102 0.0045377799034894608 0 0.0024478330188978828 0.0045601877142761637 0 -0.013208204573091596 0.0024553569501524208 0 -0.013214598564171781 0.0025150882607404166 0 -0.013299965893926024 0.002485051520729217 0 -0.0027422753785066967 0.009334721851555627 0 -0.0030128743150645786 0.0087539129418633625 0 -0.0027532730235971612 0.0082888256783313682 0 -0.0025647213383944989 0.0044278613146870724 0 -0.0049461944010543131 0.0044234056805734761 0 -0.0049619295445604249 0.0045201768860067592 0 -0.0049461944010543131 0.0044234056805734761 0 -0.0027496932206503765 0.0082951510982467776 0 -0.0042127911512712035 0.0074759882641966041 0 -0.0027356074777413388 0.0051566818757315747 0 -0.0094216029193742185 0.0037933133496779641 0 -0.0091148460404351615 0.0032187234164877832 0 -0.0094455959202296869 0.002966676895880893 0 -0.0030128743150645786 0.0087539129418633625 0 -0.0027496932206503765 0.0082951510982467776 0 -0.0042127911512712035 0.0074759882641966041 0 -0.013214598564171781 0.0025150882607404166 0 -0.013299965893926024 0.002485051520729217 0 -0.013315590926935813 0.0026294448634955293 0 -0.0049461944010543131 0.0044234056805734761 0 -0.0085085267269529932 0.0038567925984255074 0 -0.0049461944010543131 0.0044234056805734761 0 -0.0065431311572581637 0.0038010625628888163 0 -0.0042127911512712035 0.0074759882641966041 0 -0.0055906972494392387 0.0081096692229026841 0 -0.0051213638954173898 0.0058401077690798447 0 -0.0055906972494392387 0.0081096692229026841 0 -0.0076033604935605154 0.007723098807410715 0 -0.0051213638954173898 0.0058401077690798447 0 -0.0086387555419529232 0.010043930851932519 0 -0.0076033604935605154 0.007723098807410715 0 -0.0062962446946332974 0.010232772831219985 0 -0.0055906972494392387 0.0081096692229026841 0 -0.0076033604935605154 0.007723098807410715 0 -0.0062962446946332974 0.010232772831219985 0 -0.0046355845205269253 0.0092640240296750324 0 -0.0055906972494392387 0.0081096692229026841 0 -0.0062962446946332974 0.010232772831219985 0 -0.0046355845205269253 0.0092640240296750324 0 -0.0062962446946332974 0.010232772831219985 0 -0.0045235484079404493 0.011309891659711099 0 -0.0062962446946332974 0.010232772831219985 0 -0.0059045746566137964 0.012807015231977022 0 -0.0045235484079404493 0.011309891659711099 0 -0.0086387555419529232 0.010043930851932519 0 -0.0062962446946332974 0.010232772831219985 0 -0.0079998765804206382 0.012722146451031103 0 -0.0062962446946332974 0.010232772831219985 0 -0.0079998765804206382 0.012722146451031103 0 -0.0059045746566137964 0.012807015231977022 0 -0.0059045746566137964 0.012807015231977022 0 -0.0045235484079404493 0.011309891659711099 0 -0.0044408024803492506 0.013638908605241314 0 -0.0045235484079404493 0.011309891659711099 0 -0.0029512406645423282 0.012368293908381203 0 -0.0044408024803492506 0.013638908605241314 0 -0.0046355845205269253 0.0092640240296750324 0 -0.002880456585901919 0.0092997538928639416 0 -0.0045235484079404493 0.011309891659711099 0 -0.002880456585901919 0.0092997538928639416 0 -0.0045235484079404493 0.011309891659711099 0 -0.0029512406645423282 0.012368293908381203 0 0.0023674212996152152 0.0042890431893934343 0 0.0024478330188978828 0.0045601877142761637 0 0.0023958999545304117 0.0055242262870989411 0 -0.0025647213383944989 0.0044278613146870724 0 0.00096751622597066251 0.0082144075607522033 0 0.0024478330188978828 0.0045601877142761637 0 0.0023958999545304117 0.0055242262870989411 0 0.0030307917534382616 0.0051224049842896096 0 0.0025664020366600337 0.0045381983679590766 0 0.0024478330188978828 0.0045601877142761637 0 0.0030307917534382616 0.0051224049842896096 0 -0.0021243103756763354 0.0031985848003168388 0 -0.0020654557673043797 0.0031953025847398582 0 0.0023958999545304117 0.0055242262870989411 0 0.0029482609108734768 0.0062184592577207995 0 0.0029657521090168688 0.0056415816927451509 0 0.0023958999545304117 0.0055242262870989411 0 0.0024143162453391159 0.0067374314029026699 0 0.0029482609108734768 0.0062184592577207995 0 -0.0029512406645423282 0.012368293908381203 0 -0.0044408024803492506 0.013638908605241314 0 -0.0030144551482635304 0.015161311698122477 0 0.00096751622597066251 0.0082144075607522033 0 0.0055057634920834585 0.0082033959139400352 0 -0.0044408024803492506 0.013638908605241314 0 -0.0048405873882225647 0.015213341353361299 0 -0.0056185962577468213 0.01445268661660778 0 -0.0044408024803492506 0.013638908605241314 0 -0.0048405873882225647 0.015213341353361299 0 -0.0030144551482635304 0.015161311698122477 0 -0.0048405873882225647 0.015213341353361299 0 -0.0030144551482635304 0.015161311698122477 0 -0.0049344129571823039 0.016925835064245165 0 0.019206980881675179 0.0027525916274625853 0 0.019359381924915584 0.0022860890668526413 0 0.018029087751709763 0.0036989988524228734 0 0.0056257092495757598 0.0080063873138632932 0 0.0055057634920834585 0.0082033959139400352 0 0.019206980881675179 0.0027525916274625853 0 0.019706465807311398 0.00344469456291161 0 0.019865481054160437 0.0028622353058130345 0 0.019206980881675179 0.0027525916274625853 0 0.019205607090311966 0.0026477550123184495 0 0.019865481054160437 0.0028622353058130345 0 0.0055057634920834585 0.0082033959139400352 0 0.0090097652392438898 0.0051680820387619234 0 0.019205607090311966 0.0026477550123184495 0 0.02003213770961132 0.0019308711037126461 0 0.019865481054160437 0.0028622353058130345 0 -0.0079998765804206382 0.012722146451031103 0 -0.0059045746566137964 0.012807015231977022 0 -0.0071743103341501231 0.014238684981660865 0 -0.0059045746566137964 0.012807015231977022 0 -0.0071743103341501231 0.014238684981660865 0 -0.0056185962577468213 0.01445268661660778 0 -0.0059045746566137964 0.012807015231977022 0 -0.0044408024803492506 0.013638908605241314 0 -0.0056185962577468213 0.01445268661660778 0 -0.0071743103341501231 0.014238684981660865 0 -0.0056185962577468213 0.01445268661660778 0 -0.0061503344998731354 0.015820939180992255 0 -0.0048405873882225647 0.015213341353361299 0 -0.0056185962577468213 0.01445268661660778 0 -0.0061503344998731354 0.015820939180992255 0 -0.0071743103341501231 0.014238684981660865 0 -0.0061503344998731354 0.015820939180992255 0 -0.0076084437421772783 0.01569564223667921 0 -0.0061503344998731354 0.015820939180992255 0 -0.0076084437421772783 0.01569564223667921 0 -0.0071058546867472979 0.016964317875130436 0 -0.0061503344998731354 0.015820939180992255 0 -0.0071058546867472979 0.016964317875130436 0 -0.0049344129571823039 0.016925835064245165 0 -0.0048405873882225647 0.015213341353361299 0 -0.0061503344998731354 0.015820939180992255 0 -0.0049344129571823039 0.016925835064245165 0 -0.0066285998198397185 0.018629482374498699 0 -0.0071058546867472979 0.016964317875130436 0 -0.0049344129571823039 0.016925835064245165 0 0.00016989589842725461 0.013894599273905813 0 0.0038391836235539987 0.01050663343716492 0 0.007787694292548367 0.0082964479456583955 0 0.015478230156893594 0.0034772793408698391 0 0.01504285677020034 0.0074257287385040413 0 -0.0066285998198397185 0.018629482374498699 0 -0.0084195043202034501 0.018260300016850708 0 -0.0071058546867472979 0.016964317875130436 0 0.019735560591556033 0.0042946212424429713 0 0.018029087751709763 0.0036989988524228734 0 0.019203805495025119 0.005534621278013724 0 0.019735560591556033 0.0042946212424429713 0 0.019196921105059505 0.0035153704378758986 0 0.018029087751709763 0.0036989988524228734 0 0.019206980881675179 0.0027525916274625853 0 0.019706465807311398 0.00344469456291161 0 0.019196921105059505 0.0035153704378758986 0 0.019735560591556033 0.0042946212424429713 0 0.019706465807311398 0.00344469456291161 0 0.019196921105059505 0.0035153704378758986 0 0.019206980881675179 0.0027525916274625853 0 0.019196921105059505 0.0035153704378758986 0 0.018029087751709763 0.0036989988524228734 0 0.0055057634920834585 0.0082033959139400352 0 0.0038391836235539987 0.01050663343716492 0 0.015478230156893594 0.0034772793408698391 0 0.018029087751709763 0.0036989988524228734 0 0.019203805495025119 0.005534621278013724 0 0.019359381924915584 0.0022860890668526413 0 0.015478230156893594 0.0034772793408698391 0 0.018029087751709763 0.0036989988524228734 0 0.015478230156893594 0.0034772793408698391 0 0.01504285677020034 0.0074257287385040413 0 0.019203805495025119 0.005534621278013724 0 0.019735560591556033 0.0042946212424429713 0 0.019203805495025119 0.005534621278013724 0 0.020321177894482286 0.0053613000007277679 0 0.019735560591556033 0.0042946212424429713 0 0.020321177894482286 0.0053613000007277679 0 0.020627591525830068 0.004638011406813752 0 0.019735560591556033 0.0042946212424429713 0 0.0204522933305979 0.0039105988578637656 0 0.020627591525830068 0.004638011406813752 0 0.019735560591556033 0.0042946212424429713 0 0.019706465807311398 0.00344469456291161 0 0.0204522933305979 0.0039105988578637656 0 0.020627591525830068 0.004638011406813752 0 0.020952776326471464 0.004579953268537388 0 0.02078311952743947 0.0039944342006981211 0 0.0204522933305979 0.0039105988578637656 0 0.020627591525830068 0.004638011406813752 0 0.02078311952743947 0.0039944342006981211 0 0.020952776326471464 0.004579953268537388 0 0.021067087232715054 0.0042241303809995284 0 0.02078311952743947 0.0039944342006981211 0 0.020627591525830068 0.004638011406813752 0 0.020794741010366311 0.0051295768725513509 0 0.020952776326471464 0.004579953268537388 0 0.020321177894482286 0.0053613000007277679 0 0.020627591525830068 0.004638011406813752 0 0.020794741010366311 0.0051295768725513509 0 0.020794741010366311 0.0051295768725513509 0 0.021226052579912547 0.0049240732000941072 0 0.020952776326471464 0.004579953268537388 0 0.021226052579912547 0.0049240732000941072 0 0.021438324982676712 0.0045831654665403117 0 0.021174379057878924 0.0045798003098999019 0 0.021226052579912547 0.0049240732000941072 0 0.020952776326471464 0.004579953268537388 0 0.021174379057878924 0.0045798003098999019 0 0.021226052579912547 0.0049240732000941072 0 0.021438324982676712 0.0045831654665403117 0 0.021759889795663897 0.0050811790082068058 0 0.021438324982676712 0.0045831654665403117 0 0.021759889795663897 0.0050811790082068058 0 0.021644376212006187 0.0043074401040969724 0 0.021438324982676712 0.0045831654665403117 0 0.021018907361646914 0.0040916029763408846 0 0.021644376212006187 0.0043074401040969724 0 0.018521024078454958 0.0057850436622570028 0 0.017244857955251332 0.0056572866567620485 0 0.021438324982676712 0.0045831654665403117 0 0.021067087232715054 0.0042241303809995284 0 0.021111006241862143 0.0038547135769230576 0 0.021438324982676712 0.0045831654665403117 0 0.021174379057878924 0.0045798003098999019 0 0.021067087232715054 0.0042241303809995284 0 0.020952776326471464 0.004579953268537388 0 0.021174379057878924 0.0045798003098999019 0 0.021067087232715054 0.0042241303809995284 0 0.021438324982676712 0.0045831654665403117 0 0.021018907361646914 0.0040916029763408846 0 0.020841618269507693 0.0040494605903892275 0 0.021067087232715054 0.0042241303809995284 0 0.021111006241862143 0.0038547135769230576 0 0.020925871098519587 0.0039269774534278186 0 0.021018907361646914 0.0040916029763408846 0 0.020841618269507693 0.0040494605903892275 0 0.020855702625992591 0.004105270262545274 0 0.0093686404860916801 0.0042388286839032093 0 0.014889090914511726 0.0059255270623862072 0 0.021018907361646914 0.0040916029763408846 0 0.021547562164451695 0.0033934186884893892 0 0.021644376212006187 0.0043074401040969724 0 0.014261844632659001 0.0017564514946627129 0 0.0093686404860916801 0.0042388286839032093 0 0.020611416604304864 0.0041454030858774802 0 0.020855702625992591 0.004105270262545274 0 0.020817665676524318 0.0041794297561534351 0 0.021018907361646914 0.0040916029763408846 0 0.020611416604304864 0.0041454030858774802 0 0.020855702625992591 0.004105270262545274 0 0.020841618269507693 0.0040494605903892275 0 0.020855702625992591 0.004105270262545274 0 0.020879957843433453 0.0041805909850326549 0 0.020855702625992591 0.004105270262545274 0 0.020817665676524318 0.0041794297561534351 0 0.020879957843433453 0.0041805909850326549 0 0.020675779944269262 0.0033280569575348954 0 0.020810554144954668 0.0037741110743028023 0 0.02057508757047239 0.0037306384635224453 0 0.011893833625496664 0.0042517727293435708 0 0.014582016420573005 0.0028303509156350367 0 0.020841618269507693 0.0040494605903892275 0 0.020879957843433453 0.0041805909850326549 0 0.020973317811004401 0.0041769495874848369 0 0.021149762831069906 0.0014380358786878658 0 0.020690331533181599 0.0018633294241911457 0 0.020851346670920676 0.0024897324443447413 0 0.017244857955251332 0.0056572866567620485 0 0.011893833625496664 0.0042517727293435708 0 0.021111006241862143 0.0038547135769230576 0 0.020675779944269262 0.0033280569575348954 0 0.020810554144954668 0.0037741110743028023 0 0.021149762831069906 0.0014380358786878658 0 0.020690331533181599 0.0018633294241911457 0 0.020898386144533453 0.0011117548072950294 0 0.0029482609108734768 0.0062184592577207995 0 0.0029657521090168688 0.0056415816927451509 0 0.0034900038999554979 0.0056996933464563753 0 0.0090097652392438898 0.0051680820387619234 0 0.0098973126837000117 0.0042900546595975118 0 0.02003213770961132 0.0019308711037126461 0 0.020690331533181599 0.0018633294241911457 0 0.020898386144533453 0.0011117548072950294 0 0.02003213770961132 0.0019308711037126461 0 0.020690331533181599 0.0018633294241911457 0 0.020851346670920676 0.0024897324443447413 0 0.0204522933305979 0.0039105988578637656 0 0.019865481054160437 0.0028622353058130345 0 0.020851346670920676 0.0024897324443447413 0 0.01531715698090412 0.0026765110435148492 0 0.014582016420573005 0.0028303509156350367 0 0.02003213770961132 0.0019308711037126461 0 0.019865481054160437 0.0028622353058130345 0 0.020851346670920676 0.0024897324443447413 0 0.019706465807311398 0.00344469456291161 0 0.0204522933305979 0.0039105988578637656 0 0.019865481054160437 0.0028622353058130345 0 0.0204522933305979 0.0039105988578637656 0 0.02078311952743947 0.0039944342006981211 0 0.02057508757047239 0.0037306384635224453 0 0.020925871098519587 0.0039269774534278186 0 0.02078311952743947 0.0039944342006981211 0 0.020810554144954668 0.0037741110743028023 0 0.021067087232715054 0.0042241303809995284 0 0.020925871098519587 0.0039269774534278186 0 0.02078311952743947 0.0039944342006981211 0 0.021111006241862143 0.0038547135769230576 0 0.020925871098519587 0.0039269774534278186 0 0.020810554144954668 0.0037741110743028023 0 0.02078311952743947 0.0039944342006981211 0 0.020810554144954668 0.0037741110743028023 0 0.02057508757047239 0.0037306384635224453 0 0.013307926309841277 0.0077030108064302921 0 0.014085667464332078 0.0078140251463661419 0 0.014056155662834467 0.007006018097813523 0 0.014085667464332078 0.0078140251463661419 0 0.014056155662834467 0.007006018097813523 0 0.014965442368510062 0.0075498006596308393 0 0.014056155662834467 0.007006018097813523 0 0.015379143883306308 0.006878477698667629 0 0.014965442368510062 0.0075498006596308393 0 0.014085667464332078 0.0078140251463661419 0 0.014965442368510062 0.0075498006596308393 0 0.014776169752846961 0.0081579731238718596 0 0.014965442368510062 0.0075498006596308393 0 0.015589338585545195 0.0078880788882988214 0 0.014776169752846961 0.0081579731238718596 0 0.014965442368510062 0.0075498006596308393 0 0.015589338585545195 0.0078880788882988214 0 0.015626803715568242 0.007151045601244457 0 0.015589338585545195 0.0078880788882988214 0 0.015626803715568242 0.007151045601244457 0 0.015995614512192294 0.0074291955466798841 0 0.015813817017941684 0.0069060106703858577 0 0.016222415218275651 0.0066490181151169815 0 0.016312512079237909 0.0063300276851352109 0 0.015379143883306308 0.006878477698667629 0 0.016281760335517398 0.007293417870020651 0 0.015379143883306308 0.006878477698667629 0 0.014965442368510062 0.0075498006596308393 0 0.016281760335517398 0.007293417870020651 0 0.015626803715568242 0.007151045601244457 0 0.016349759941350829 0.0067582449387343733 0 0.015995614512192294 0.0074291955466798841 0 0.016349759941350829 0.0067582449387343733 0 0.015995614512192294 0.0074291955466798841 0 0.01641932738145576 0.007926410628146514 0 0.016222415218275651 0.0066490181151169815 0 0.017212905241826379 0.0059493279714166111 0 0.017212905241826379 0.0059493279714166111 0 0.014889090914511726 0.0059255270623862072 0 0.015589338585545195 0.0078880788882988214 0 0.015995614512192294 0.0074291955466798841 0 0.01641932738145576 0.007926410628146514 0 0.015589338585545195 0.0078880788882988214 0 0.01641932738145576 0.007926410628146514 0 0.015877002875572008 0.0085790217123429598 0 0.016527662153991655 0.0092458825569315898 0 0.01641932738145576 0.007926410628146514 0 0.015877002875572008 0.0085790217123429598 0 0.016527662153991655 0.0092458825569315898 0 0.015877002875572008 0.0085790217123429598 0 0.015429308257813955 0.0093378213325831707 0 0.015429308257813955 0.0093378213325831707 0 0.015234392298470048 0.0086162139636465854 0 0.01456257162205064 0.0089831461226609136 0 0.015877002875572008 0.0085790217123429598 0 0.015429308257813955 0.0093378213325831707 0 0.015234392298470048 0.0086162139636465854 0 0.015589338585545195 0.0078880788882988214 0 0.015877002875572008 0.0085790217123429598 0 0.015234392298470048 0.0086162139636465854 0 0.015589338585545195 0.0078880788882988214 0 0.015234392298470048 0.0086162139636465854 0 0.014776169752846961 0.0081579731238718596 0 0.015234392298470048 0.0086162139636465854 0 0.014776169752846961 0.0081579731238718596 0 0.01456257162205064 0.0089831461226609136 0 0.014776169752846961 0.0081579731238718596 0 0.01456257162205064 0.0089831461226609136 0 0.014160796768010849 0.0083590396297630511 0 0.014085667464332078 0.0078140251463661419 0 0.014776169752846961 0.0081579731238718596 0 0.014160796768010849 0.0083590396297630511 0 0.015429308257813955 0.0093378213325831707 0 0.01456257162205064 0.0089831461226609136 0 0.014717411029274223 0.010028573817500417 0 0.01456257162205064 0.0089831461226609136 0 0.013776966559819508 0.0088313290026411865 0 0.014160796768010849 0.0083590396297630511 0 0.01456257162205064 0.0089831461226609136 0 0.013776966559819508 0.0088313290026411865 0 0.013948442587018163 0.0096876087487934963 0 0.013776966559819508 0.0088313290026411865 0 0.01353040831187643 0.0081428385780653052 0 0.014160796768010849 0.0083590396297630511 0 0.013307926309841277 0.0077030108064302921 0 0.014085667464332078 0.0078140251463661419 0 0.01353040831187643 0.0081428385780653052 0 0.013009775647536165 0.0086102160958170335 0 0.013776966559819508 0.0088313290026411865 0 0.01353040831187643 0.0081428385780653052 0 0.014085667464332078 0.0078140251463661419 0 0.01353040831187643 0.0081428385780653052 0 0.014160796768010849 0.0083590396297630511 0 0.01292645263738817 0.010150309178372049 0 0.013862988781878732 0.01051077203081981 0 0.013439300094087926 0.011445531265246132 0 0.010026597533544948 0.010374582024003893 0 0.011314444670742546 0.0092966015264487906 0 0.01292645263738817 0.010150309178372049 0 0.013776966559819508 0.0088313290026411865 0 0.013948442587018163 0.0096876087487934963 0 0.01292645263738817 0.010150309178372049 0 0.013862988781878732 0.01051077203081981 0 0.013948442587018163 0.0096876087487934963 0 0.013862988781878732 0.01051077203081981 0 0.013948442587018163 0.0096876087487934963 0 0.014717411029274223 0.010028573817500417 0 0.01456257162205064 0.0089831461226609136 0 0.013948442587018163 0.0096876087487934963 0 0.014717411029274223 0.010028573817500417 0 0.013862988781878732 0.01051077203081981 0 0.01492038472315736 0.011412882551456881 0 0.013439300094087926 0.011445531265246132 0 0.013862988781878732 0.01051077203081981 0 0.014717411029274223 0.010028573817500417 0 0.01492038472315736 0.011412882551456881 0 -0.0082739563206160535 0.0033168005639987218 0 -0.0083648116881209125 0.0039401492787970857 0 -0.0087794106800525105 0.0039598971752908014 0 0.014717411029274223 0.010028573817500417 0 0.015781421950233306 0.010278746528411974 0 0.01492038472315736 0.011412882551456881 0 0.0049160650423507408 0.0066442955843094668 0 0.0025668843430658402 0.0071805172603491034 0 0.015429308257813955 0.0093378213325831707 0 0.014717411029274223 0.010028573817500417 0 0.015781421950233306 0.010278746528411974 0 0.0093686404860916801 0.0042388286839032093 0 0.0049160650423507408 0.0066442955843094668 0 0.016527662153991655 0.0092458825569315898 0 0.015429308257813955 0.0093378213325831707 0 0.015781421950233306 0.010278746528411974 0 -0.0077014699070920428 0.0026698486210387355 0 -0.0082739563206160535 0.0033168005639987218 0 -0.0077290388967143362 0.0034382777715343048 0 -0.0082739563206160535 0.0033168005639987218 0 -0.0080167320232533371 0.0038202385033473531 0 -0.0077290388967143362 0.0034382777715343048 0 -0.0082739563206160535 0.0033168005639987218 0 -0.0080167320232533371 0.0038202385033473531 0 -0.0083648116881209125 0.0039401492787970857 0 -0.0080167320232533371 0.0038202385033473531 0 -0.0077290388967143362 0.0034382777715343048 0 -0.0077475326804635758 0.0042123487930812156 0 -0.0080167320232533371 0.0038202385033473531 0 -0.0081169617407062852 0.0042263249712034675 0 -0.0083648116881209125 0.0039401492787970857 0 -0.0080167320232533371 0.0038202385033473531 0 -0.0081169617407062852 0.0042263249712034675 0 -0.0077475326804635758 0.0042123487930812156 0 -0.0030637951377170047 0.005677971226256134 0 -0.0020729237823526483 0.0056923495431393748 0 -0.0081169617407062852 0.0042263249712034675 0 -0.0083640214445344797 0.0046539621829781554 0 -0.0077732534781359058 0.0042111023533284659 0 -0.0059614700628859681 0.0064409935393819505 0 -0.0020729237823526483 0.0056923495431393748 0 -0.0081169617407062852 0.0042263249712034675 0 -0.0083640214445344797 0.0046539621829781554 0 -0.0085749786890942647 0.0043171112837727373 0 -0.0094742133106830387 0.0052904013264567428 0 -0.0099027658295746338 0.005717135808462278 0 -0.0099398364017977744 0.004927984319344457 0 -0.0083640214445344797 0.0046539621829781554 0 -0.0085749786890942647 0.0043171112837727373 0 -0.0088499519205981272 0.0046478211467626471 0 -0.0085749786890942647 0.0043171112837727373 0 -0.0083648116881209125 0.0039401492787970857 0 -0.0087794106800525105 0.0039598971752908014 0 -0.0081169617407062852 0.0042263249712034675 0 -0.0085749786890942647 0.0043171112837727373 0 -0.0083648116881209125 0.0039401492787970857 0 0.0025668843430658402 0.0071805172603491034 0 3.7832365367534404e-05 0.0072993428399636406 0 0.01492038472315736 0.011412882551456881 0 0.013949386807986536 0.012601880426121157 0 0.013439300094087926 0.011445531265246132 0 -0.0085749786890942647 0.0043171112837727373 0 -0.0087794106800525105 0.0039598971752908014 0 -0.0091414147963365198 0.004519058366644596 0 -0.0085749786890942647 0.0043171112837727373 0 -0.0088499519205981272 0.0046478211467626471 0 -0.0091414147963365198 0.004519058366644596 0 -0.0088499519205981272 0.0046478211467626471 0 -0.0091414147963365198 0.004519058366644596 0 -0.0090355102619929673 0.0047679498499128368 0 0.012621979819324509 0.012680235198869199 0 0.013949386807986536 0.012601880426121157 0 0.013439300094087926 0.011445531265246132 0 0.012621979819324509 0.012680235198869199 0 0.012924762319743353 0.013795389201622939 0 0.013949386807986536 0.012601880426121157 0 0.0096099125031001917 0.0037277630151147829 0 0.0074542762664926258 0.0047099350567431303 0 0.0031140211281309926 0.0038446957301704917 0 0.0030571188511168274 0.0032799697681266875 0 0.0027127682329727153 0.0042901074476625421 0 0.0033064014008018687 0.0036507674595340337 0 0.0031140211281309926 0.0038446957301704917 0 0.0030571188511168274 0.0032799697681266875 0 0.0033064014008018687 0.0036507674595340337 0 0.0031140211281309926 0.0038446957301704917 0 0.0033760532856770198 0.0041543773212197599 0 0.0041143965161892278 0.0040038741006377613 0 0.0037407620024194049 0.0035084139851304787 0 0.0033760532856770198 0.0041543773212197599 0 0.0033064014008018687 0.0036507674595340337 0 0.0037407620024194049 0.0035084139851304787 0 0.0033760532856770198 0.0041543773212197599 0 -0.0021243103756763354 0.0031985848003168388 0 0.003849186511947151 0.0038412680241272294 0 0.003849186511947151 0.0038412680241272294 0 0.0098973126837000117 0.0042900546595975118 0 0.0033064014008018687 0.0036507674595340337 0 0.0037407620024194049 0.0035084139851304787 0 0.0033589736694343499 0.0029954962291085826 0 0.0030307917534382616 0.0051224049842896096 0 0.0029657521090168688 0.0056415816927451509 0 0.0034900038999554979 0.0056996933464563753 0 0.0023958999545304117 0.0055242262870989411 0 0.0030307917534382616 0.0051224049842896096 0 0.0029657521090168688 0.0056415816927451509 0 0.011893833625496664 0.0042517727293435708 0 0.0098973126837000117 0.0042900546595975118 0 0.011893833625496664 0.0042517727293435708 0 0.0096099125031001917 0.0037277630151147829 0 0.0098973126837000117 0.0042900546595975118 0 0.0096099125031001917 0.0037277630151147829 0 0.0033064014008018687 0.0036507674595340337 0 0.0033589736694343499 0.0029954962291085826 0 0.0030571188511168274 0.0032799697681266875 0 0.011290175625389354 0.0030510377170929336 0 0.011828483109399712 0.0037427853512248402 0 0.010704122326354081 0.0048272531765311275 0 0.020879957843433453 0.0041805909850326549 0 0.020973317811004401 0.0041769495874848369 0 0.020951672207826504 0.0043011104704717452 0 0.020879957843433453 0.0041805909850326549 0 0.020951672207826504 0.0043011104704717452 0 0.020787088320531007 0.0043218645726514461 0 0.020817665676524318 0.0041794297561534351 0 0.020879957843433453 0.0041805909850326549 0 0.020787088320531007 0.0043218645726514461 0 0.0093686404860916801 0.0042388286839032093 0 0.0043247518133127773 0.0043981234557080731 0 0.020611416604304864 0.0041454030858774802 0 0.020787088320531007 0.0043218645726514461 0 0.02053178250753096 0.0044131450013529311 0 0.020611416604304864 0.0041454030858774802 0 0.020817665676524318 0.0041794297561534351 0 0.020787088320531007 0.0043218645726514461 0 0.020787088320531007 0.0043218645726514461 0 0.02053178250753096 0.0044131450013529311 0 0.020768099612654987 0.0045049276100251274 0 0.02053178250753096 0.0044131450013529311 0 0.020768099612654987 0.0045049276100251274 0 0.020495771575342728 0.0047351756119100915 0 0.020951672207826504 0.0043011104704717452 0 0.020787088320531007 0.0043218645726514461 0 0.020768099612654987 0.0045049276100251274 0 0.0096099125031001917 0.0037277630151147829 0 0.0068972165899073741 0.0030592059789318489 0 0.0031930464369647892 0.0029956705544028424 0 0.0023793693530723193 0.0037549187209192951 0 0.0027127682329727153 0.0042901074476625421 0 0.0023793693530723193 0.0037549187209192951 0 0.0026083399685285355 0.0043358406312026705 0 0.0015872052532958957 0.0045285074480670897 0 0.0023793693530723193 0.0037549187209192951 0 0.0027127682329727153 0.0042901074476625421 0 0.0026083399685285355 0.0043358406312026705 0 -0.016738774182841479 0.0037122562034505361 0 -0.016325179952361719 0.0034275218314015047 0 -0.015828080603738942 0.003564326944092464 0 0.0068972165899073741 0.0030592059789318489 0 -0.0016104751663044037 0.0054111322682346844 0 0.02053178250753096 0.0044131450013529311 0 0.020468275716077493 0.004755630989150491 0 0.020495771575342728 0.0047351756119100915 0 0.0043247518133127773 0.0043981234557080731 0 -0.0020729237823526483 0.0056923495431393748 0 -0.0078924465889702988 0.0039711736628545219 0 -0.0016104751663044037 0.0054111322682346844 0 -0.016325179952361719 0.0034275218314015047 0 -0.015764058672764845 0.0035030738426457091 0 -0.015828080603738942 0.003564326944092464 0 -0.0020729237823526483 0.0056923495431393748 0 -0.0016104751663044037 0.0054111322682346844 0 -0.0020729237823526483 0.0056923495431393748 0 -0.010123073985468302 0.0037817441698853272 0 -0.016325179952361719 0.0034275218314015047 0 -0.015764058672764845 0.0035030738426457091 0 -0.016229847338705784 0.0028030784380858368 0 -0.015764058672764845 0.0035030738426457091 0 -0.016229847338705784 0.0028030784380858368 0 -0.015840031828151017 0.0022805063251649178 0 -0.016738774182841479 0.0037122562034505361 0 -0.016325179952361719 0.0034275218314015047 0 -0.016806247922371648 0.0026303195244125979 0 -0.0078924465889702988 0.0039711736628545219 0 -0.012507505028468232 0.0026871962010681081 0 -0.016325179952361719 0.0034275218314015047 0 -0.016229847338705784 0.0028030784380858368 0 -0.016806247922371648 0.0026303195244125979 0 -0.013519224061613652 0.0024729251034224693 0 -0.013422698720135823 0.0025541007417529548 0 -0.013532755837093763 0.002621276201937286 0 -0.013519224061613652 0.0024729251034224693 0 -0.013422698720135823 0.0025541007417529548 0 -0.013387839788327111 0.0024423079000639985 0 -0.0078924465889702988 0.0039711736628545219 0 -0.0050460337018331178 0.0035402172285823774 0 0.0031140211281309926 0.0038446957301704917 0 0.0027127682329727153 0.0042901074476625421 0 0.0033760532856770198 0.0041543773212197599 0 0.0027127682329727153 0.0042901074476625421 0 0.0026083399685285355 0.0043358406312026705 0 0.0033760532856770198 0.0041543773212197599 0 -0.013237637006225097 0.0024144008645147013 0 -0.013387839788327111 0.0024423079000639985 0 -0.013299965893926024 0.002485051520729217 0 -0.0021243103756763354 0.0031985848003168388 0 -0.0050460337018331178 0.0035402172285823774 0 -0.013422698720135823 0.0025541007417529548 0 -0.013387839788327111 0.0024423079000639985 0 -0.013299965893926024 0.002485051520729217 0 -0.013422698720135823 0.0025541007417529548 0 -0.013299965893926024 0.002485051520729217 0 -0.013315590926935813 0.0026294448634955293 0 -0.013315590926935813 0.0026294448634955293 0 -0.013426689901746445 0.0027109044244754722 0 -0.013461852725600059 0.0026712074738165555 0 -0.0085085267269529932 0.0038567925984255074 0 -0.010544114729172049 0.0029453931551949204 0 -0.013422698720135823 0.0025541007417529548 0 -0.013315590926935813 0.0026294448634955293 0 -0.013461852725600059 0.0026712074738165555 0 -0.0091148460404351615 0.0032187234164877832 0 -0.0088005354473082494 0.0026401776883831153 0 -0.0092278427454118555 0.0025956467430936739 0 -0.0088005354473082494 0.0026401776883831153 0 -0.0089603810759637768 0.0022191423520483882 0 -0.0092278427454118555 0.0025956467430936739 0 -0.013517819630507431 0.0027123233112772414 0 -0.013461852725600059 0.0026712074738165555 0 -0.013517879722102492 0.0027932142603823216 0 -0.013426689901746445 0.0027109044244754722 0 -0.013517819630507431 0.0027123233112772414 0 -0.013512172213788245 0.0027444679107152749 0 -0.013426689901746445 0.0027109044244754722 0 -0.013517819630507431 0.0027123233112772414 0 -0.013461852725600059 0.0026712074738165555 0 -0.013422698720135823 0.0025541007417529548 0 -0.013461852725600059 0.0026712074738165555 0 -0.013532755837093763 0.002621276201937286 0 -0.016806247922371648 0.0026303195244125979 0 -0.016413694059903745 0.002167209215845861 0 -0.016895265108738212 0.0015268278162191204 0 -0.012507505028468232 0.0026871962010681081 0 -0.015583052975247796 0.0018486726364582773 0 -0.013461852725600059 0.0026712074738165555 0 -0.013532755837093763 0.002621276201937286 0 -0.013517879722102492 0.0027932142603823216 0 -0.016229847338705784 0.0028030784380858368 0 -0.016806247922371648 0.0026303195244125979 0 -0.016413694059903745 0.002167209215845861 0 -0.016229847338705784 0.0028030784380858368 0 -0.016413694059903745 0.002167209215845861 0 -0.015840031828151017 0.0022805063251649178 0 -0.010123073985468302 0.0037817441698853272 0 -0.016098242371302453 0.0027602357246428529 0 -0.015840031828151017 0.0022805063251649178 0 -0.016342646849815661 0.0015774745645035463 0 -0.015931995634523778 0.0010291237864872575 0 -0.0099398364017977744 0.004927984319344457 0 -0.0097715397920958881 0.0046926936257122073 0 -0.009944095579421058 0.0045932186448336288 0 -0.016413694059903745 0.002167209215845861 0 -0.015840031828151017 0.0022805063251649178 0 -0.016342646849815661 0.0015774745645035463 0 -0.016413694059903745 0.002167209215845861 0 -0.016342646849815661 0.0015774745645035463 0 -0.016895265108738212 0.0015268278162191204 0 -0.013517819630507431 0.0027123233112772414 0 -0.013517879722102492 0.0027932142603823216 0 -0.01357050194835472 0.0026020028284592586 0 -0.013517879722102492 0.0027932142603823216 0 -0.01357050194835472 0.0026020028284592586 0 -0.013605269208748046 0.001019223361896376 0 -0.015583052975247796 0.0018486726364582773 0 -0.018881838124030503 0.00053909240788845556 0 -0.01357050194835472 0.0026020028284592586 0 -0.013821847539393518 0.0017140133897392748 0 -0.013605269208748046 0.001019223361896376 0 -0.016895265108738212 0.0015268278162191204 0 -0.016503746783924488 0.0009758851343049476 0 -0.016979918387400872 0.00039886174035754971 0 -0.016342646849815661 0.0015774745645035463 0 -0.016895265108738212 0.0015268278162191204 0 -0.016503746783924488 0.0009758851343049476 0 -0.016342646849815661 0.0015774745645035463 0 -0.016503746783924488 0.0009758851343049476 0 -0.015931995634523778 0.0010291237864872575 0 -0.016503746783924488 0.0009758851343049476 0 -0.015931995634523778 0.0010291237864872575 0 -0.016431223198636279 0.00040796587938644744 0 -0.0097715397920958881 0.0046926936257122073 0 -0.01072055863750737 0.005699896790480284 0 -0.0094014006717628839 0.0080275724653119489 0 -0.016098242371302453 0.0027602357246428529 0 -0.024582721546570385 -0.00086704206740446043 0 -0.015931995634523778 0.0010291237864872575 0 -0.016431223198636279 0.00040796587938644744 0 -0.016023580278176821 -0.00023627804422615627 0 -0.016431223198636279 0.00040796587938644744 0 -0.016567257569602169 -0.00011999832092733395 0 -0.016023580278176821 -0.00023627804422615627 0 -0.013821847539393518 0.0017140133897392748 0 -0.013605269208748046 0.001019223361896376 0 -0.013931023938388945 0.0013781074220772212 0 -0.013605269208748046 0.001019223361896376 0 -0.014124467484693348 0.0010093108451413716 0 -0.013931023938388945 0.0013781074220772212 0 -0.016503746783924488 0.0009758851343049476 0 -0.016431223198636279 0.00040796587938644744 0 -0.016979918387400872 0.00039886174035754971 0 -0.016431223198636279 0.00040796587938644744 0 -0.016729751459450798 9.3706386935391687e-05 0 -0.016567257569602169 -0.00011999832092733395 0 -0.016431223198636279 0.00040796587938644744 0 -0.016979918387400872 0.00039886174035754971 0 -0.016729751459450798 9.3706386935391687e-05 0 -0.014296357924128944 0.00036171090956857677 0 -0.015172433566558416 0.00023534405589545806 0 -0.014258615095931069 -0.0006010815229193781 0 -0.014124467484693348 0.0010093108451413716 0 -0.015172433566558416 0.00023534405589545806 0 -0.01493228522810665 0.0024176255805863091 0 -0.015172433566558416 0.00023534405589545806 0 -0.016844717383207669 0.00079579097963551235 0 -0.01493228522810665 0.0024176255805863091 0 -0.014296357924128944 0.00036171090956857677 0 -0.014124467484693348 0.0010093108451413716 0 -0.015172433566558416 0.00023534405589545806 0 -0.013605269208748046 0.001019223361896376 0 -0.014296357924128944 0.00036171090956857677 0 -0.014258615095931069 -0.0006010815229193781 0 -0.013605269208748046 0.001019223361896376 0 -0.014296357924128944 0.00036171090956857677 0 -0.014124467484693348 0.0010093108451413716 0 -0.014124467484693348 0.0010093108451413716 0 -0.013931023938388945 0.0013781074220772212 0 -0.014494393964715843 0.0018905076040447025 0 -0.012496570053523611 0.0021050432958584892 0 -0.012328241037972462 0.0021148103487574101 0 -0.015172433566558416 0.00023534405589545806 0 -0.016844717383207669 0.00079579097963551235 0 -0.01582708433516548 -0.00058654867809825083 0 -0.012426026536328343 0.00078675362333132054 0 -0.012328241037972462 0.0021148103487574101 0 -0.0089761171945056378 0.0016262990188309772 0 -0.0089603810759637768 0.0022191423520483882 0 -0.0084777901913630008 0.0020574958328984402 0 -0.0088005354473082494 0.0026401776883831153 0 -0.0089603810759637768 0.0022191423520483882 0 -0.0084777901913630008 0.0020574958328984402 0 -0.0089761171945056378 0.0016262990188309772 0 -0.0089603810759637768 0.0022191423520483882 0 -0.0093191101388616273 0.0021679900845962374 0 -0.010544114729172049 0.0029453931551949204 0 -0.012328241037972462 0.0021148103487574101 0 -0.01357050194835472 0.0026020028284592586 0 -0.013821847539393518 0.0017140133897392748 0 -0.014494393964715843 0.0018905076040447025 0 -0.013517819630507431 0.0027123233112772414 0 -0.01357050194835472 0.0026020028284592586 0 -0.013512172213788245 0.0027444679107152749 0 -0.012601240097679229 0.002035624255741603 0 -0.012328241037972462 0.0021148103487574101 0 -0.013821847539393518 0.0017140133897392748 0 -0.013931023938388945 0.0013781074220772212 0 -0.014494393964715843 0.0018905076040447025 0 -0.0047639282298538761 0.007853377244960642 0 -0.0098079347922996538 0.0054059031864882303 0 -0.019513101723550835 0.0006180094995219288 0 -0.015965913472089293 0.0030317178502630689 0 -0.017790636754696915 0.0032152013136298799 0 -0.0072944362435953371 0.0080531420005504149 0 -0.013391181285046372 0.004377828459751462 0 -0.016028396883490031 0.0029859229676311417 0 -0.014159077238268229 0.003168090458950521 0 -0.014367438336053535 0.0041587088978386737 0 -0.016028396883490031 0.0029859229676311417 0 -0.015730433838216165 0.0026223690740058868 0 -0.014159077238268229 0.003168090458950521 0 -0.0047639282298538761 0.007853377244960642 0 3.7832365367534404e-05 0.0072993428399636406 0 -0.0092971214660317828 0.0048474582802976096 0 -0.0091414147963365198 0.004519058366644596 0 -0.0090355102619929673 0.0047679498499128368 0 -0.0092971214660317828 0.0048474582802976096 0 -0.0090355102619929673 0.0047679498499128368 0 -0.0089799354147373882 0.0048907356127277108 0 -0.0090355102619929673 0.0047679498499128368 0 -0.0090138756071899938 0.0049029901448705273 0 -0.0089799354147373882 0.0048907356127277108 0 -0.0088499519205981272 0.0046478211467626471 0 -0.0090355102619929673 0.0047679498499128368 0 -0.0090138756071899938 0.0049029901448705273 0 -0.014159077238268229 0.003168090458950521 0 -0.012374300546166868 0.0037144226748155279 0 -0.014367438336053535 0.0041587088978386737 0 -0.0090138756071899938 0.0049029901448705273 0 -0.0089799354147373882 0.0048907356127277108 0 -0.0092914222770319639 0.0046324469270674603 0 -0.0098079347922996538 0.0054059031864882303 0 -0.010530946199384772 0.0048383755372423398 0 -0.0092914222770319639 0.0046324469270674603 0 -0.0094348373529197244 0.0049518787032047928 0 -0.0096831940721814197 0.0047868494918294029 0 -0.0090138756071899938 0.0049029901448705273 0 -0.0092914222770319639 0.0046324469270674603 0 -0.0094348373529197244 0.0049518787032047928 0 -0.0094742133106830387 0.0052904013264567428 0 -0.0090138756071899938 0.0049029901448705273 0 -0.0094348373529197244 0.0049518787032047928 0 -0.0083640214445344797 0.0046539621829781554 0 -0.0088499519205981272 0.0046478211467626471 0 -0.0090138756071899938 0.0049029901448705273 0 -0.0059614700628859681 0.0064409935393819505 0 -0.0068207511551014646 0.0063966464763877094 0 -0.0094742133106830387 0.0052904013264567428 0 -0.0099398364017977744 0.004927984319344457 0 -0.0094348373529197244 0.0049518787032047928 0 -0.0099398364017977744 0.004927984319344457 0 -0.0094348373529197244 0.0049518787032047928 0 -0.0096831940721814197 0.0047868494918294029 0 -0.0099398364017977744 0.004927984319344457 0 -0.0096831940721814197 0.0047868494918294029 0 -0.009944095579421058 0.0045932186448336288 0 -0.0092914222770319639 0.0046324469270674603 0 -0.0096831940721814197 0.0047868494918294029 0 -0.009944095579421058 0.0045932186448336288 0 -0.012374300546166868 0.0037144226748155279 0 -0.009944095579421058 0.0045932186448336288 0 -0.011389242831989053 0.0049098949859960718 0 -0.011389242831989053 0.0049098949859960718 0 -0.01072055863750737 0.005699896790480284 0 -0.012517308736412875 0.0055832142218771967 0 -0.010530946199384772 0.0048383755372423398 0 -0.010408792614961757 0.0047965931157891448 0 -0.0097715397920958881 0.0046926936257122073 0 -0.009944095579421058 0.0045932186448336288 0 -0.01072055863750737 0.005699896790480284 0 -0.009944095579421058 0.0045932186448336288 0 -0.011389242831989053 0.0049098949859960718 0 -0.01072055863750737 0.005699896790480284 0 -0.01072055863750737 0.005699896790480284 0 -0.011409605321046883 0.0070763856777536337 0 -0.012517308736412875 0.0055832142218771967 0 -0.01072055863750737 0.005699896790480284 0 -0.011409605321046883 0.0070763856777536337 0 -0.0094014006717628839 0.0080275724653119489 0 -0.012517308736412875 0.0055832142218771967 0 -0.013765641873872015 0.0066836702783654271 0 -0.015172003905447559 0.0059690513927097002 0 -0.011409605321046883 0.0070763856777536337 0 -0.012517308736412875 0.0055832142218771967 0 -0.012988902754629968 0.0074604665413983487 0 -0.012517308736412875 0.0055832142218771967 0 -0.012988902754629968 0.0074604665413983487 0 -0.013765641873872015 0.0066836702783654271 0 -0.012988902754629968 0.0074604665413983487 0 -0.013765641873872015 0.0066836702783654271 0 -0.014069245184564497 0.0074161895604839875 0 -0.012374300546166868 0.0037144226748155279 0 -0.012517308736412875 0.0055832142218771967 0 -0.014367438336053535 0.0041587088978386737 0 -0.012374300546166868 0.0037144226748155279 0 -0.011389242831989053 0.0049098949859960718 0 -0.012517308736412875 0.0055832142218771967 0 -0.013297857266705893 0.0045753797266997846 0 -0.013391181285046372 0.004377828459751462 0 -0.012517308736412875 0.0055832142218771967 0 -0.015650197487741501 0.0045698643863592804 0 -0.015172003905447559 0.0059690513927097002 0 -0.012517308736412875 0.0055832142218771967 0 -0.015965913472089293 0.0030317178502630689 0 -0.015650197487741501 0.0045698643863592804 0 -0.015650197487741501 0.0045698643863592804 0 -0.015172003905447559 0.0059690513927097002 0 -0.017168512682841249 0.0050113265679244687 0 -0.013765641873872015 0.0066836702783654271 0 -0.015392812439320388 0.0071978721025029004 0 -0.015172003905447559 0.0059690513927097002 0 -0.013765641873872015 0.0066836702783654271 0 -0.014069245184564497 0.0074161895604839875 0 -0.015392812439320388 0.0071978721025029004 0 -0.015392812439320388 0.0071978721025029004 0 -0.015172003905447559 0.0059690513927097002 0 -0.016906071400537119 0.0063921021461203703 0 -0.015172003905447559 0.0059690513927097002 0 -0.016906071400537119 0.0063921021461203703 0 -0.017168512682841249 0.0050113265679244687 0 -0.016906071400537119 0.0063921021461203703 0 -0.018415171370977746 0.0058246788012075081 0 -0.017168512682841249 0.0050113265679244687 0 -0.015392812439320388 0.0071978721025029004 0 -0.016906071400537119 0.0063921021461203703 0 -0.018433875746686097 0.0079676411260621877 0 -0.016906071400537119 0.0063921021461203703 0 -0.018415171370977746 0.0058246788012075081 0 -0.018433875746686097 0.0079676411260621877 0 -0.018996937563007996 0.0038901690523747792 0 -0.018415171370977746 0.0058246788012075081 0 -0.017168512682841249 0.0050113265679244687 0 -0.015650197487741501 0.0045698643863592804 0 -0.017168512682841249 0.0050113265679244687 0 -0.017790636754696915 0.0032152013136298799 0 -0.015965913472089293 0.0030317178502630689 0 -0.015650197487741501 0.0045698643863592804 0 -0.017790636754696915 0.0032152013136298799 0 -0.018996937563007996 0.0038901690523747792 0 -0.017168512682841249 0.0050113265679244687 0 -0.017790636754696915 0.0032152013136298799 0 -0.018996937563007996 0.0038901690523747792 0 -0.019258242936919384 0.0025788551356245928 0 -0.017790636754696915 0.0032152013136298799 0 -0.060304392216965388 -0.0027844669577672398 0 -0.060349636890288716 -0.002830171366623167 0 -0.060365340475485869 -0.0027775578676896241 0 -0.060349636890288716 -0.002830171366623167 0 -0.060365340475485869 -0.0027775578676896241 0 -0.060237530032052483 -0.0027763534576129055 0 -0.057387016703233762 -0.0029647511715090689 0 -0.057849179234918974 -0.0047447342249312243 0 -0.054641186059199494 -0.0042732955582680818 0 -0.057387016703233762 -0.0029647511715090689 0 -0.054641186059199494 -0.0042732955582680818 0 -0.054266798914213273 -0.0035733361466631273 0 -0.038338880554566829 0.0018995352008801818 0 -0.03879101406517288 -0.00073806867697582765 0 -0.055887127962447172 -0.001165459492556329 0 -0.041918369566715893 -0.0016888294026258721 0 -0.015392812439320388 0.0071978721025029004 0 -0.018433875746686097 0.0079676411260621877 0 -0.013917857325244684 0.0084677352090859453 0 -0.014069245184564497 0.0074161895604839875 0 -0.015392812439320388 0.0071978721025029004 0 -0.013917857325244684 0.0084677352090859453 0 -0.060349636890288716 -0.002830171366623167 0 -0.060114634417011363 -0.00291737385556068 0 -0.060237530032052483 -0.0027763534576129055 0 -0.041918369566715893 -0.0016888294026258721 0 -0.04454026253010375 -0.0026894354408501572 0 -0.060114634417011363 -0.00291737385556068 0 -0.060030715995137478 -0.0027871398979292935 0 -0.060237530032052483 -0.0027763534576129055 0 -0.03635028679668835 0.00035733020884634776 0 -0.036994986543381757 0.00049437892493036262 0 -0.036816500686285517 -0.00054068809708917513 0 -0.03879101406517288 -0.00073806867697582765 0 -0.031341307608220077 -0.00090945915936135641 0 -0.012988902754629968 0.0074604665413983487 0 -0.013917857325244684 0.0084677352090859453 0 -0.011525128311772258 0.0086095042149440752 0 -0.040211593570189247 -0.0026254096626716836 0 -0.039390977073908907 -0.0010662178789361302 0 -0.035660162982551334 -0.001853075729575324 0 -0.03879101406517288 -0.00073806867697582765 0 -0.041918369566715893 -0.0016888294026258721 0 -0.012988902754629968 0.0074604665413983487 0 -0.014069245184564497 0.0074161895604839875 0 -0.013917857325244684 0.0084677352090859453 0 -0.011409605321046883 0.0070763856777536337 0 -0.012988902754629968 0.0074604665413983487 0 -0.011525128311772258 0.0086095042149440752 0 -0.041918369566715893 -0.0016888294026258721 0 -0.031341307608220077 -0.00090945915936135641 0 -0.028600630198311456 0.00023291858103645599 0 -0.027082452166140161 -8.4850447718397122e-05 0 -0.027062791767980751 0.00049490043147753105 0 -0.036994986543381757 0.00049437892493036262 0 -0.037362752549581935 -0.0001475493033037657 0 -0.037788673507461297 0.00035254919201686114 0 -0.031341307608220077 -0.00090945915936135641 0 -0.027082679149748382 -0.00058264070892482742 0 -0.031341307608220077 -0.00090945915936135641 0 -0.024582721546570385 -0.00086704206740446043 0 -0.011409605321046883 0.0070763856777536337 0 -0.011525128311772258 0.0086095042149440752 0 -0.0094014006717628839 0.0080275724653119489 0 -0.036994986543381757 0.00049437892493036262 0 -0.037362752549581935 -0.0001475493033037657 0 -0.036816500686285517 -0.00054068809708917513 0 -0.037287452904083834 -0.0014376267365013085 0 -0.036816500686285517 -0.00054068809708917513 0 -0.037850322329237698 -0.00089780976808784957 0 -0.037362752549581935 -0.0001475493033037657 0 -0.036816500686285517 -0.00054068809708917513 0 -0.037850322329237698 -0.00089780976808784957 0 -0.044551400093875176 -0.0026372061027613337 0 -0.04454026253010375 -0.0026894354408501572 0 -0.060152192255358519 -0.0025480950192276401 0 -0.059894460624763265 -0.002632246448586287 0 -0.060105733082819392 -0.0026842320976300611 0 -0.060152192255358519 -0.0025480950192276401 0 -0.060105733082819392 -0.0026842320976300611 0 -0.060254031356913339 -0.0026642817226812882 0 -0.060030715995137478 -0.0027871398979292935 0 -0.060105733082819392 -0.0026842320976300611 0 -0.060237530032052483 -0.0027763534576129055 0 -0.059894460624763265 -0.002632246448586287 0 -0.060030715995137478 -0.0027871398979292935 0 -0.060105733082819392 -0.0026842320976300611 0 -0.060237530032052483 -0.0027763534576129055 0 -0.060254031356913339 -0.0026642817226812882 0 -0.060376011714583101 -0.0027044444776774417 0 -0.060105733082819392 -0.0026842320976300611 0 -0.060237530032052483 -0.0027763534576129055 0 -0.060254031356913339 -0.0026642817226812882 0 -0.060152192255358519 -0.0025480950192276401 0 -0.060254031356913339 -0.0026642817226812882 0 -0.060402083602775859 -0.0025800248978888642 0 -0.060535670093325722 -0.0026250097890521541 0 -0.060402083602775859 -0.0025800248978888642 0 -0.060376011714583101 -0.0027044444776774417 0 -0.060254031356913339 -0.0026642817226812882 0 -0.060402083602775859 -0.0025800248978888642 0 -0.060376011714583101 -0.0027044444776774417 0 -0.060365340475485869 -0.0027775578676896241 0 -0.060237530032052483 -0.0027763534576129055 0 -0.060376011714583101 -0.0027044444776774417 0 -0.060433475118712603 -0.0027312249380128184 0 -0.060365340475485869 -0.0027775578676896241 0 -0.060376011714583101 -0.0027044444776774417 0 -0.02301607137513054 -0.0025269185240026607 0 -0.024257375573519157 -0.0012704439437214565 0 -0.02301607137513054 -0.0025269185240026607 0 -0.032190986624721397 -0.0016689906133713465 0 -0.027037953722375028 -0.0026998173317071923 0 -0.027929996056580555 -0.0028144227566298833 0 -0.027906527061106589 -0.0016446311758031122 0 -0.0320031953462519 -0.0028099553359693325 0 -0.032340925170039461 -0.0031342607782854377 0 -0.032367369594989578 -0.0027540134101847998 0 -0.01744463643975817 -0.0034589950328965612 0 -0.017480686775667935 -0.0025293543006595816 0 -0.01613839077862313 -0.0022050921275010948 0 -0.022206101927537525 -0.0032478364742577989 0 -0.02301607137513054 -0.0025269185240026607 0 -0.017480686775667935 -0.0025293543006595816 0 -0.016042340324320382 -0.0021888473157160629 0 -0.01687859033965023 -0.0011348941577565689 0 -0.021629806429946212 -0.0022872787081913695 0 -0.02301607137513054 -0.0025269185240026607 0 -0.016844717383207669 0.00079579097963551235 0 -0.01687859033965023 -0.0011348941577565689 0 -0.018681097642733038 -0.00079223905153048715 0 -0.02301607137513054 -0.0025269185240026607 0 -0.022340981664996318 -0.0028423442383918732 0 -0.016844717383207669 0.00079579097963551235 0 -0.01687859033965023 -0.0011348941577565689 0 -0.01582708433516548 -0.00058654867809825083 0 -0.015997298293319875 -0.0022268935109689874 0 -0.01687859033965023 -0.0011348941577565689 0 -0.01582708433516548 -0.00058654867809825083 0 -0.016092086181109997 -0.0022883268560148747 0 -0.014258615095931069 -0.0006010815229193781 0 -0.01365550174711321 -0.0019525036204142449 0 -0.015172433566558416 0.00023534405589545806 0 -0.01582708433516548 -0.00058654867809825083 0 -0.014258615095931069 -0.0006010815229193781 0 -0.015997298293319875 -0.0022268935109689874 0 -0.01582708433516548 -0.00058654867809825083 0 -0.014258615095931069 -0.0006010815229193781 0 -0.02301607137513054 -0.0025269185240026607 0 -0.020149114969561354 -0.00081320759053914605 0 -0.016729751459450798 9.3706386935391687e-05 0 -0.016567257569602169 -0.00011999832092733395 0 -0.017028753252490533 -0.00069048762157916319 0 -0.013605269208748046 0.001019223361896376 0 -0.014258615095931069 -0.0006010815229193781 0 -0.01365550174711321 -0.0019525036204142449 0 -0.018881838124030503 0.00053909240788845556 0 -0.024257375573519157 -0.0012704439437214565 0 -0.016979918387400872 0.00039886174035754971 0 -0.016729751459450798 9.3706386935391687e-05 0 -0.017028753252490533 -0.00069048762157916319 0 -0.027082679149748382 -0.00058264070892482742 0 -0.024257375573519157 -0.0012704439437214565 0 -0.016567257569602169 -0.00011999832092733395 0 -0.016094265417299976 -0.00051426894058718866 0 -0.017028753252490533 -0.00069048762157916319 0 -0.016567257569602169 -0.00011999832092733395 0 -0.016086846430906569 -0.00023121696618454268 0 -0.016094265417299976 -0.00051426894058718866 0 -0.022882809083362366 -0.0010760024759659146 0 -0.024582721546570385 -0.00086704206740446043 0 -0.024582721546570385 -0.00086704206740446043 0 -0.027082679149748382 -0.00058264070892482742 0 -0.027082679149748382 -0.00058264070892482742 0 -0.033631163850932018 -0.00081419254840844684 0 -0.03188294875047272 -0.00082614043933961466 0 -0.031849954056841351 -0.00077131825494002331 0 -0.031901209007089135 -0.00073568486338669277 0 -0.037362752549581935 -0.0001475493033037657 0 -0.037788673507461297 0.00035254919201686114 0 -0.037850322329237698 -0.00089780976808784957 0 -0.03188294875047272 -0.00082614043933961466 0 -0.031809677180611493 -0.0008148055992930897 0 -0.031849954056841351 -0.00077131825494002331 0 -0.031809677180611493 -0.0008148055992930897 0 -0.031849954056841351 -0.00077131825494002331 0 -0.031821038329099514 -0.00072909486189922821 0 -0.024257375573519157 -0.0012704439437214565 0 -0.032190986624721397 -0.0016689906133713465 0 -0.031849954056841351 -0.00077131825494002331 0 -0.031821038329099514 -0.00072909486189922821 0 -0.031901209007089135 -0.00073568486338669277 0 -0.037908715723201696 -0.002152943417917439 0 -0.037287452904083834 -0.0014376267365013085 0 -0.037850322329237698 -0.00089780976808784957 0 -0.039243480337283747 -0.00087225491282295333 0 -0.033631163850932018 -0.00081419254840844684 0 -0.031926477403958174 -0.00062991716954938063 0 -0.031901209007089135 -0.00073568486338669277 0 -0.031869772363204596 -0.00068012929348369754 0 -0.038584979888165782 -0.0013144528354839943 0 -0.032190986624721397 -0.0016689906133713465 0 -0.031821038329099514 -0.00072909486189922821 0 -0.031901209007089135 -0.00073568486338669277 0 -0.031869772363204596 -0.00068012929348369754 0 -0.040873579588805296 -0.0014935318374014459 0 -0.040962336840209702 -0.0051014036104491825 0 -0.042498961186833752 -0.0032314231317638977 0 -0.032190986624721397 -0.0016689906133713465 0 -0.035941955768221213 -0.0012687490002633816 0 -0.032909061075699735 -0.0017645109614641125 0 -0.032904702417610857 -0.0024734716568763204 0 -0.03226046603643544 -0.0022667842252092722 0 -0.032340925170039461 -0.0031342607782854377 0 -0.032904702417610857 -0.0024734716568763204 0 -0.032367369594989578 -0.0027540134101847998 0 -0.032904702417610857 -0.0024734716568763204 0 -0.032367369594989578 -0.0027540134101847998 0 -0.03226046603643544 -0.0022667842252092722 0 -0.0320031953462519 -0.0028099553359693325 0 -0.032367369594989578 -0.0027540134101847998 0 -0.03226046603643544 -0.0022667842252092722 0 -0.0320031953462519 -0.0028099553359693325 0 -0.03226046603643544 -0.0022667842252092722 0 -0.031690195272086566 -0.0025151162352451762 0 -0.032195557291824738 -0.0016963532146293289 0 -0.031702835815768625 -0.0019125145365377601 0 -0.03226046603643544 -0.0022667842252092722 0 -0.025040773472804111 -0.0035629301236422281 0 -0.025773271238261033 -0.003648888806861132 0 -0.02543008776519267 -0.0014379905829767904 0 -0.031702835815768625 -0.0019125145365377601 0 -0.03226046603643544 -0.0022667842252092722 0 -0.031690195272086566 -0.0025151162352451762 0 -0.027106988387718578 -0.0027597604770270433 0 -0.019979708971847917 -0.0030363277395830889 0 -0.025040773472804111 -0.0035629301236422281 0 -0.02543008776519267 -0.0014379905829767904 0 -0.02500565135261883 -0.001043153936080508 0 -0.022171005038176914 -0.0036580577176396857 0 -0.018182018999564117 -0.0029351394649460064 0 -0.01349989855839376 -0.0030334444060421272 0 -0.018182018999564117 -0.0029351394649460064 0 -0.010264981937823204 -0.0042368985978134752 0 -0.00908614976145216 -0.0030616724873675206 0 -0.010097307636138367 -0.0031159523375638401 0 -0.011605648314910677 -0.0054296979568777661 0 -0.011677356816373613 -0.0054355360213811463 0 -0.011705843927091421 -0.0054951496525090454 0 -0.0097490118310728287 -0.0027502651137296871 0 -0.0094496636561330546 -0.0023869709259316946 0 -0.010282062234808691 -0.0024246336713309997 0 -0.0097490118310728287 -0.0027502651137296871 0 -0.00908614976145216 -0.0030616724873675206 0 -0.010097307636138367 -0.0031159523375638401 0 -0.0097490118310728287 -0.0027502651137296871 0 -0.0094496636561330546 -0.0023869709259316946 0 -0.00908614976145216 -0.0030616724873675206 0 -0.018182018999564117 -0.0029351394649460064 0 -0.016329779280266601 -0.0021002917830972093 0 -0.019979708971847917 -0.0030363277395830889 0 -0.015843458532405444 -0.002007016798014123 0 -0.0092250491640774555 -0.0030681556203332062 0 -0.0090117775686179551 -0.0028820770647384518 0 -0.0089408541308633668 -0.0019313014023052352 0 -0.01744463643975817 -0.0034589950328965612 0 -0.018684357932852894 -0.0046216536036483725 0 -0.018677413849264277 -0.0027308210212105598 0 -0.0094496636561330546 -0.0023869709259316946 0 -0.00908614976145216 -0.0030616724873675206 0 -0.0089578198863492931 -0.0018213378361877292 0 -0.018182018999564117 -0.0029351394649460064 0 -0.019979708971847917 -0.0030363277395830889 0 -0.022206101927537525 -0.0032478364742577989 0 -0.019979708971847917 -0.0030363277395830889 0 -0.0092250491640774555 -0.0030681556203332062 0 -0.0089578198863492931 -0.0018213378361877292 0 -0.0089408541308633668 -0.0019313014023052352 0 -0.017480686775667935 -0.0025293543006595816 0 -0.018677413849264277 -0.0027308210212105598 0 -0.018681097642733038 -0.00079223905153048715 0 -0.01744463643975817 -0.0034589950328965612 0 -0.017480686775667935 -0.0025293543006595816 0 -0.018677413849264277 -0.0027308210212105598 0 -0.0089578198863492931 -0.0018213378361877292 0 -0.0089408541308633668 -0.0019313014023052352 0 -0.0089329893149136703 -0.0010199501924907043 0 -0.0094496636561330546 -0.0023869709259316946 0 -0.0099316617782184737 -0.0018700816262953433 0 -0.010282062234808691 -0.0024246336713309997 0 -0.0094496636561330546 -0.0023869709259316946 0 -0.0089578198863492931 -0.0018213378361877292 0 -0.0099316617782184737 -0.0018700816262953433 0 -0.0089578198863492931 -0.0018213378361877292 0 -0.0099316617782184737 -0.0018700816262953433 0 -0.0089329893149136703 -0.0010199501924907043 0 -0.0099316617782184737 -0.0018700816262953433 0 -0.0099539580955682865 -0.00076436775584280312 0 -0.0088905477810932946 -0.00096959646988624231 0 -0.011211481616301099 -0.00048139054692939158 0 -0.012230731208949021 -0.00062158395075992379 0 -0.017480686775667935 -0.0025293543006595816 0 -0.01687859033965023 -0.0011348941577565689 0 -0.018681097642733038 -0.00079223905153048715 0 -0.015843458532405444 -0.002007016798014123 0 -0.012230731208949021 -0.00062158395075992379 0 -0.011039688461197867 -0.0016090675112490388 0 -0.011941465810028799 -0.00085020320074248633 0 -0.010905843908565492 -0.00052625253368197226 0 -0.0099316617782184737 -0.0018700816262953433 0 -0.0099539580955682865 -0.00076436775584280312 0 -0.011039688461197867 -0.0016090675112490388 0 -0.0099539580955682865 -0.00076436775584280312 0 -0.011039688461197867 -0.0016090675112490388 0 -0.010905843908565492 -0.00052625253368197226 0 -0.0099316617782184737 -0.0018700816262953433 0 -0.011039688461197867 -0.0016090675112490388 0 -0.010282062234808691 -0.0024246336713309997 0 -0.011039688461197867 -0.0016090675112490388 0 -0.011014867719478896 -0.0027268250617600233 0 -0.010282062234808691 -0.0024246336713309997 0 -0.011039688461197867 -0.0016090675112490388 0 -0.011014867719478896 -0.0027268250617600233 0 -0.011821630616771857 -0.0024484044013695985 0 -0.011014867719478896 -0.0027268250617600233 0 -0.011625426667053981 -0.003303044928644082 0 -0.011821630616771857 -0.0024484044013695985 0 -0.011014867719478896 -0.0027268250617600233 0 -0.010282062234808691 -0.0024246336713309997 0 -0.010097307636138367 -0.0031159523375638401 0 -0.011014867719478896 -0.0027268250617600233 0 -0.010097307636138367 -0.0031159523375638401 0 -0.010841848436486837 -0.0035679779261790999 0 -0.0097490118310728287 -0.0027502651137296871 0 -0.010282062234808691 -0.0024246336713309997 0 -0.010097307636138367 -0.0031159523375638401 0 -0.010264981937823204 -0.0042368985978134752 0 -0.010097307636138367 -0.0031159523375638401 0 -0.010841848436486837 -0.0035679779261790999 0 -0.011124300222369413 -0.0043492200540169307 0 -0.010264981937823204 -0.0042368985978134752 0 -0.010841848436486837 -0.0035679779261790999 0 -0.011014867719478896 -0.0027268250617600233 0 -0.010841848436486837 -0.0035679779261790999 0 -0.011625426667053981 -0.003303044928644082 0 -0.011571394769509507 -0.0040992810777797052 0 -0.011124300222369413 -0.0043492200540169307 0 -0.010841848436486837 -0.0035679779261790999 0 -0.011571394769509507 -0.0040992810777797052 0 -0.010841848436486837 -0.0035679779261790999 0 -0.011625426667053981 -0.003303044928644082 0 -0.011571394769509507 -0.0040992810777797052 0 -0.011625426667053981 -0.003303044928644082 0 -0.0122963970440341 -0.0038961208063226036 0 -0.011625426667053981 -0.003303044928644082 0 -0.0122963970440341 -0.0038961208063226036 0 -0.012319896441241268 -0.0030965806660026266 0 -0.0122963970440341 -0.0038961208063226036 0 -0.0130777899598827 -0.0035264202693835256 0 -0.012319896441241268 -0.0030965806660026266 0 -0.013078428448246101 -0.0045699870298965212 0 -0.0122963970440341 -0.0038961208063226036 0 -0.0130777899598827 -0.0035264202693835256 0 -0.013078428448246101 -0.0045699870298965212 0 -0.0130777899598827 -0.0035264202693835256 0 -0.014136690774196402 -0.0040757941314102826 0 -0.012761954776625317 -0.002485344477896302 0 -0.013941692453553107 -0.0029382898578498135 0 -0.013353143647755666 -0.0018851682898877401 0 -0.0130777899598827 -0.0035264202693835256 0 -0.012761954776625317 -0.002485344477896302 0 -0.012319896441241268 -0.0030965806660026266 0 -0.0130777899598827 -0.0035264202693835256 0 -0.012761954776625317 -0.002485344477896302 0 -0.013941692453553107 -0.0029382898578498135 0 -0.012761954776625317 -0.002485344477896302 0 -0.011821630616771857 -0.0024484044013695985 0 -0.012319896441241268 -0.0030965806660026266 0 -0.011625426667053981 -0.003303044928644082 0 -0.011821630616771857 -0.0024484044013695985 0 -0.012319896441241268 -0.0030965806660026266 0 -0.015509163036504691 -0.0036864302833187848 0 -0.014136690774196402 -0.0040757941314102826 0 -0.013941692453553107 -0.0029382898578498135 0 -0.014962311662684248 -0.0046125686466846599 0 -0.015509163036504691 -0.0036864302833187848 0 -0.014136690774196402 -0.0040757941314102826 0 -0.0130777899598827 -0.0035264202693835256 0 -0.014136690774196402 -0.0040757941314102826 0 -0.013941692453553107 -0.0029382898578498135 0 -0.015509163036504691 -0.0036864302833187848 0 -0.013941692453553107 -0.0029382898578498135 0 -0.015274010890241959 -0.0022524418128383786 0 -0.023772192455387135 -0.0030494716654753239 0 -0.02134950031532656 -0.0021876256047272656 0 -0.015274010890241959 -0.0022524418128383786 0 -0.013646033934074351 -0.001073888623306626 0 -0.015156115174654866 -0.00065775945162422343 0 -0.013941692453553107 -0.0029382898578498135 0 -0.015274010890241959 -0.0022524418128383786 0 -0.013353143647755666 -0.0018851682898877401 0 -0.015274010890241959 -0.0022524418128383786 0 -0.013353143647755666 -0.0018851682898877401 0 -0.013646033934074351 -0.001073888623306626 0 -0.013646033934074351 -0.001073888623306626 0 -0.015156115174654866 -0.00065775945162422343 0 -0.014100610776016461 0.00064409408600339224 0 -0.013353143647755666 -0.0018851682898877401 0 -0.013646033934074351 -0.001073888623306626 0 -0.012791391161897821 -0.0010714173391184422 0 -0.011039688461197867 -0.0016090675112490388 0 -0.011821630616771857 -0.0024484044013695985 0 -0.012270960380860473 -0.0016098834254904479 0 -0.012761954776625317 -0.002485344477896302 0 -0.011821630616771857 -0.0024484044013695985 0 -0.012270960380860473 -0.0016098834254904479 0 -0.012761954776625317 -0.002485344477896302 0 -0.013353143647755666 -0.0018851682898877401 0 -0.012270960380860473 -0.0016098834254904479 0 -0.013353143647755666 -0.0018851682898877401 0 -0.012270960380860473 -0.0016098834254904479 0 -0.012791391161897821 -0.0010714173391184422 0 -0.012791391161897821 -0.0010714173391184422 0 -0.011941465810028799 -0.00085020320074248633 0 -0.012856036717774759 -0.00024551122370542513 0 -0.013646033934074351 -0.001073888623306626 0 -0.012791391161897821 -0.0010714173391184422 0 -0.012856036717774759 -0.00024551122370542513 0 -0.012270960380860473 -0.0016098834254904479 0 -0.012791391161897821 -0.0010714173391184422 0 -0.011941465810028799 -0.00085020320074248633 0 -0.011039688461197867 -0.0016090675112490388 0 -0.012270960380860473 -0.0016098834254904479 0 -0.011941465810028799 -0.00085020320074248633 0 -0.0092954018346521079 0.00020232074028853048 0 -0.012856036717774759 -0.00024551122370542513 0 -0.011028960944090659 0.0013439915858249457 0 -0.011941465810028799 -0.00085020320074248633 0 -0.011681149837947791 -0.00010943436371222399 0 -0.012856036717774759 -0.00024551122370542513 0 -0.010390919247503575 0.00050958612255599543 0 -0.011518287638719963 0.0001636088235582161 0 -0.012856036717774759 -0.00024551122370542513 0 -0.01282148997862761 0.00052497385960434569 0 -0.011028960944090659 0.0013439915858249457 0 -0.01282148997862761 0.00052497385960434569 0 -0.011028960944090659 0.0013439915858249457 0 -0.011525817269243821 0.0035235499184622446 0 -0.012420776703272737 0.0014539432302993159 0 -0.011552972411082213 0.0035739617282351658 0 -0.01234986342754526 0.0016878042900841607 0 -0.012775786566618619 0.0029836232583896607 0 -0.011344973348504771 0.0041161766051661117 0 -0.011028960944090659 0.0013439915858249457 0 -0.011525817269243821 0.0035235499184622446 0 -0.0085859716108050658 0.0030628616338559378 0 -0.0092954018346521079 0.00020232074028853048 0 -0.011028960944090659 0.0013439915858249457 0 -0.0085859716108050658 0.0030628616338559378 0 -0.015156115174654866 -0.00065775945162422343 0 -0.015455700696447854 0.0011865391177561771 0 -0.014100610776016461 0.00064409408600339224 0 -0.015455700696447854 0.0011865391177561771 0 -0.014100610776016461 0.00064409408600339224 0 -0.013757869309937436 0.0021903059095401021 0 -0.012899803343007298 0.00029196011895736053 0 -0.012420776703272737 0.0014539432302993159 0 -0.013646033934074351 -0.001073888623306626 0 -0.01234986342754526 0.0016878042900841607 0 -0.014100610776016461 0.00064409408600339224 0 -0.013646033934074351 -0.001073888623306626 0 -0.012856036717774759 -0.00024551122370542513 0 -0.01282148997862761 0.00052497385960434569 0 -0.01234986342754526 0.0016878042900841607 0 -0.014100610776016461 0.00064409408600339224 0 -0.013757869309937436 0.0021903059095401021 0 -0.012775786566618619 0.0029836232583896607 0 -0.013757869309937436 0.0021903059095401021 0 -0.013673803271141014 0.0039190469907321619 0 -0.01234986342754526 0.0016878042900841607 0 -0.012775786566618619 0.0029836232583896607 0 -0.013757869309937436 0.0021903059095401021 0 -0.016224218570970603 0.0033532253680723422 0 -0.015455700696447854 0.0011865391177561771 0 -0.013757869309937436 0.0021903059095401021 0 -0.016224218570970603 0.0033532253680723422 0 -0.013757869309937436 0.0021903059095401021 0 -0.013673803271141014 0.0039190469907321619 0 -0.016224218570970603 0.0033532253680723422 0 -0.015138181163814369 0.0050798028212587359 0 -0.013673803271141014 0.0039190469907321619 0 -0.015138181163814369 0.0050798028212587359 0 -0.013673803271141014 0.0039190469907321619 0 -0.012815772813702501 0.0062177918933658989 0 -0.013673803271141014 0.0039190469907321619 0 -0.012815772813702501 0.0062177918933658989 0 -0.011344973348504771 0.0041161766051661117 0 -0.012775786566618619 0.0029836232583896607 0 -0.013673803271141014 0.0039190469907321619 0 -0.011344973348504771 0.0041161766051661117 0 -0.015190739118536939 0.0069391059438408459 0 -0.015138181163814369 0.0050798028212587359 0 -0.012815772813702501 0.0062177918933658989 0 -0.011525817269243821 0.0035235499184622446 0 -0.010181333235981169 0.0064371668941871196 0 -0.0085859716108050658 0.0030628616338559378 0 -0.011552972411082213 0.0035739617282351658 0 -0.01102220962225979 0.0048680129081710372 0 -0.012815772813702501 0.0062177918933658989 0 -0.011344973348504771 0.0041161766051661117 0 -0.010181333235981169 0.0064371668941871196 0 -0.0076033604935605154 0.007723098807410715 0 -0.010181333235981169 0.0064371668941871196 0 -0.007198613005083461 0.0051909949936291017 0 -0.010181333235981169 0.0064371668941871196 0 -0.007198613005083461 0.0051909949936291017 0 -0.0085859716108050658 0.0030628616338559378 0 -0.007198613005083461 0.0051909949936291017 0 -0.0085859716108050658 0.0030628616338559378 0 -0.005302129580985809 0.0035888552843679816 0 -0.0076033604935605154 0.007723098807410715 0 -0.007198613005083461 0.0051909949936291017 0 -0.0051213638954173898 0.0058401077690798447 0 -0.007198613005083461 0.0051909949936291017 0 -0.005302129580985809 0.0035888552843679816 0 -0.0051213638954173898 0.0058401077690798447 0 -0.005302129580985809 0.0035888552843679816 0 -0.0051213638954173898 0.0058401077690798447 0 -0.0027356074777413388 0.0051566818757315747 0 -0.0042127911512712035 0.0074759882641966041 0 -0.0051213638954173898 0.0058401077690798447 0 -0.0027356074777413388 0.0051566818757315747 0 -0.0091148460404351615 0.0032187234164877832 0 -0.0094455959202296869 0.002966676895880893 0 -0.0092278427454118555 0.0025956467430936739 0 -0.0065431311572581637 0.0038010625628888163 0 -0.0084485214483983676 0.0021867771220642029 0 -0.0094455959202296869 0.002966676895880893 0 -0.0092278427454118555 0.0025956467430936739 0 -0.0094650638606817473 0.0021311169037297796 0 -0.005302129580985809 0.0035888552843679816 0 -0.0027356074777413388 0.0051566818757315747 0 -0.0027330244772212865 0.0019284483986090073 0 -0.0084485214483983676 0.0021867771220642029 0 -0.0086414236578264587 0.0012824594169766337 0 -0.005302129580985809 0.0035888552843679816 0 -0.0027330244772212865 0.0019284483986090073 0 -0.0059251954727674834 0.0010807606951580948 0 -0.0089761171945056378 0.0016262990188309772 0 -0.0093191101388616273 0.0021679900845962374 0 -0.0094701640563381352 0.0021295855704069949 0 -0.0089603810759637768 0.0022191423520483882 0 -0.0092278427454118555 0.0025956467430936739 0 -0.0093191101388616273 0.0021679900845962374 0 -0.0092278427454118555 0.0025956467430936739 0 -0.0093191101388616273 0.0021679900845962374 0 -0.0094650638606817473 0.0021311169037297796 0 -0.0084830992259360711 0.0021800361584198907 0 -0.0084485214483983676 0.0021867771220642029 0 -0.012230731208949021 -0.00062158395075992379 0 -0.0084485214483983676 0.0021867771220642029 0 -0.012426026536328343 0.00078675362333132054 0 -0.012230731208949021 -0.00062158395075992379 0 -0.0089761171945056378 0.0016262990188309772 0 -0.0094875525532622431 0.0011903282742023176 0 -0.0094701640563381352 0.0021295855704069949 0 -0.0099539580955682865 -0.00076436775584280312 0 -0.0088853194477493871 0.00061691467152585292 0 -0.010307461543797785 0.0002506072665369947 0 -0.0099539580955682865 -0.00076436775584280312 0 -0.0088905477810932946 -0.00096959646988624231 0 -0.0088853194477493871 0.00061691467152585292 0 -0.0099539580955682865 -0.00076436775584280312 0 -0.010905843908565492 -0.00052625253368197226 0 -0.010307461543797785 0.0002506072665369947 0 -0.011681149837947791 -0.00010943436371222399 0 -0.010905843908565492 -0.00052625253368197226 0 -0.010307461543797785 0.0002506072665369947 0 -0.010390919247503575 0.00050958612255599543 0 -0.0086414236578264587 0.0012824594169766337 0 -0.011941465810028799 -0.00085020320074248633 0 -0.011681149837947791 -0.00010943436371222399 0 -0.010905843908565492 -0.00052625253368197226 0 -0.0092954018346521079 0.00020232074028853048 0 -0.0085859716108050658 0.0030628616338559378 0 -0.0059251954727674834 0.0010807606951580948 0 -0.0085859716108050658 0.0030628616338559378 0 -0.005302129580985809 0.0035888552843679816 0 -0.0059251954727674834 0.0010807606951580948 0 
</DataArray>
</PointData>
<CellData Scalars="region_id,cross_section_updated," Vectors="" Tensors="stress,">
<DataArray type="Float64" Name="region_id" format="ascii">
5 5 6 5 5 5 5 6 5 5 5 5 5 5 5 5 5 5 5 5 6 5 5 5 5 6 5 5 5 5 5 5 5 6 5 5 5 5 5 5 5 5 6 5 5 5 5 5 5 5 5 5 5 5 6 6 5 5 5 5 5 5 5 5 6 5 5 5 5 5 5 5 5 5 5 5 5 5 5 5 5 5 5 5 5 5 5 6 5 5 5 5 5 5 5 5 5 5 5 6 5 5 5 6 5 5 5 5 5 5 5 5 5 5 5 5 5 5 5 5 5 5 5 5 5 5 5 5 5 5 5 5 5 5 5 5 5 5 5 5 5 5 5 5 5 5 5 5 5 6 5 6 5 5 5 5 5 5 5 5 5 5 5 5 5 5 5 5 5 5 5 5 5 5 5 5 5 5 6 5 5 6 5 6 5 5 5 5 5 5 5 5 5 5 5 5 5 5 6 5 6 5 5 5 5 5 5 5 6 5 6 5 5 5 5 5 5 6 5 5 6 5 5 5 5 5 5 6 6 5 5 6 5 6 5 6 6 5 5 5 6 5 5 5 5 5 5 5 5 5 5 5 5 5 6 5 5 5 5 5 5 5 6 5 5 5 5 5 5 5 6 5 5 5 5 6 5 5 5 5 5 5 6 5 5 5 6 5 5 5 5 5 5 5 6 5 5 5 5 5 5 6 5 5 5 5 5 5 6 5 5 5 5 5 5 5 6 5 5 5 5 5 5 5 5 5 5 5 5 5 5 5 5 5 5 5 5 5 6 6 5 5 5 5 5 6 5 5 5 5 5 5 5 6 5 6 5 5 5 6 5 5 5 6 5 6 5 5 5 5 5 5 5 6 5 5 5 5 5 5 5 6 5 5 5 6 5 5 5 5 5 5 5 5 5 5 5 5 5 5 5 5 5 5 5 5 5 5 5 5 5 5 5 5 5 5 5 5 6 5 5 5 5 5 5 5 5 5 5 5 5 5 5 5 5 5 5 5 5 5 5 5 5 5 5 5 5 5 5 5 5 6 5 5 5 5 5 5 5 5 5 5 5 5 5 5 5 5 5 5 5 5 6 5 5 5 5 5 5 5 6 5 5 5 5 5 6 5 5 6 5 6 5 5 5 5 6 5 5 6 5 5 5 5 5 5 6 5 5 5 5 5 5 5 5 5 5 5 5 5 5 5 5 5 5 5 6 5 5 5 5 5 5 5 5 5 5 5 6 6 5 5 5 5 5 5 5 5 5 5 5 5 5 5 5 5 5 5 5 5 5 6 5 6 6 5 5 6 5 5 5 5 5 5 5 5 5 5 5 5 5 6 5 5 5 5 5 5 5 6 6 5 5 5 5 5 5 5 5 6 6 5 5 5 6 5 5 5 5 5 5 5 5 5 5 5 5 5 5 5 5 5 5 5 5 5 5 5 5 5 5 5 5 5 5 5 5 5 5 5 6 5 5 6 5 5 5 5 6 5 5 5 6 5 5 5 6 5 5 6 5 5 5 5 5 5 5 5 5 5 5 5 5 5 5 5 5 5 5 5 5 6 5 5 5 6 5 5 5 5 5 6 5 5 5 5 5 5 6 5 5 5 5 5 5 5 5 5 5 5 5 5 5 5 5 5 5 6 5 5 5 5 5 5 5 5 5 5 5 5 5 5 5 5 5 5 5 5 5 6 5 5 5 5 5 5 5 5 5 5 5 5 5 5 5 6 5 5 5 5 5 5 5 5 5 5 5 5 5 5 5 5 5 5 6 5 5 5 5 5 5 5 6 5 5 5 5 5 5 5 5 5 5 5 5 5 5 5 5 5 5 5 5 5 6 5 5 5 5 5 5 5 5 5 6 5 5 5 5 5 5 5 5 6 5 5 5 5 5 5 5 5 5 5 5 5 5 5 5 5 5 5 5 6 5 5 5 5 5 6 5 5 5 6 5 5 5 5 5 5 6 5 5 5 5 5 5 5 5 5 5 6 5 5 5 5 5 5 5 5 5 5 5 5 6 5 6 5 5 5 5 5 5 5 6 5 6 5 5 5 5 5 5 5 5 5 5 5 5 5 5 5 5 5 5 5 5 5 5 5 5 5 5 5 5 5 5 5 5 5 5 5 5 5 5 5 5 5 5 5 5 5 6 6 5 5 6 5 5 5 5 5 5 5 5 5 5 5 5 5 5 5 5 6 5 5 5 5 6 5 5 6 5 5 5 5 5 5 6 5 6 5 5 6 5 5 5 5 5 5 5 5 5 5 6 5 5 5 5 5 6 6 5 5 5 5 6 5 5 6 5 6 5 5 5 5 5 6 5 5 6 5 5 5 5 5 5 5 5 5 5 5 5 6 5 5 5 5 5 5 5 5 5 5 5 5 5 5 5 6 5 6 5 6 6 5 6 5 5 6 5 5 5 5 5 5 6 5 6 5 5 6 5 5 5 6 5 5 6 5 5 5 5 5 6 5 5 6 5 5 5 5 5 6 5 6 5 5 6 5 5 6 5 5 5 5 5 5 5 5 6 5 5 5 5 5 5 5 5 5 5 6 5 5 5 5 6 5 5 6 5 5 5 5 5 6 5 5 5 5 5 6 5 6 5 5 5 5 5 5 6 5 5 5 5 5 5 5 5 6 6 6 5 5 5 5 6 5 6 5 5 5 6 6 5 5 5 6 5 5 5 6 5 6 5 6 6 5 6 5 5 5 5 6 5 5 5 6 5 6 5 6 5 5 5 5 5 5 5 6 5 5 5 5 6 5 5 5 5 5 5 5 5 6 5 6 6 5 5 5 6 5 5 5 5 6 6 5 5 6 6 5 5 5 5 5 6 5 5 5 5 5 5 5 5 6 5 6 5 5 5 5 5 5 5 5 5 5 5 5 5 5 5 5 5 6 5 5 5 5 5 5 5 5 5 5 5 5 5 5 5 5 5 5 5 5 5 5 5 5 5 6 5 6 5 5 5 5 5 6 6 5 5 5 5 6 6 5 6 5 5 6 5 5 6 5 5 5 5 6 6 5 5 5 5 5 5 5 5 6 5 5 6 5 5 5 6 5 5 6 5 5 5 5 5 5 6 5 5 5 5 5 5 6 5 5 5 5 5 6 5 5 6 6 5 5 6 5 5 6 5 5 5 5 5 5 5 5 5 5 5 5 6 5 6 5 5 6 5 5 5 5 5 5 6 5 5 5 6 6 6 5 5 5 6 6 5 6 6 5 5 6 5 5 6 5 6 5 6 5 5 5 6 6 5 5 6 6 6 6 5 5 5 6 6 5 5 6 6 6 5 6 6 5 5 6 5 6 6 5 6 5 5 6 5 6 6 5 5 5 5 6 6 5 5 6 5 5 5 6 5 5 5 5 5 5 5 5 5 5 5 5 5 5 5 5 5 5 5 5 5 5 5 5 5 5 5 5 5 5 5 5 5 5 5 5 5 5 5 5 5 5 5 5 5 5 5 5 5 5 5 5 5 5 5 5 5 5 6 5 6 5 5 5 5 5 5 5 5 5 5 5 5 5 5 6 5 5 5 5 5 5 5 5 5 5 6 5 5 5 5 5 5 5 5 5 5 5 5 5 5 5 5 5 5 5 5 5 5 5 5 5 5 5 5 5 5 5 5 5 5 5 5 5 5 5 5 5 5 5 5 5 5 6 5 5 5 6 5 6 5 5 5 5 5 6 5 6 5 5 5 5 5 5 5 5 5 5 5 5 5 5 5 5 5 5 5 5 5 5 5 5 5 6 5 5 5 5 5 5 6 5 6 5 5 5 6 5 5 6 5 5 5 5 5 5 5 5 5 5 5 5 5 5 5 5 5 5 5 5 5 5 5 5 5 5 5 5 5 5 5 5 5 5 5 5 5 6 5 6 5 5 5 5 5 5 5 5 5 5 6 5 5 5 5 5 5 5 5 5 5 5 5 5 5 5 5 5 6 5 5 5 6 6 5 6 5 5 5 5 5 5 5 5 6 5 5 5 5 6 5 5 5 5 5 5 5 6 5 5 6 5 6 5 5 6 5 5 6 6 5 5 5 5 5 5 5 5 5 5 5 5 5 5 5 6 5 6 5 5 5 6 5 6 5 5 5 5 5 5 5 5 5 5 5 5 6 5 6 5 5 5 5 5 5 5 5 6 5 5 6 5 5 5 6 6 5 5 5 5 5 5 5 5 5 5 5 5 5 5 5 5 5 5 5 5 5 6 5 5 5 5 5 6 5 6 5 5 5 5 6 5 5 6 5 5 5 5 5 6 5 5 5 5 6 5 5 5 5 5 5 5 6 5 5 5 6 5 5 5 5 5 5 5 5 5 5 5 6 5 5 5 5 5 5 5 5 6 5 5 5 5 5 5 6 5 5 5 5 5 5 6 5 5 5 5 5 5 5 5 5 5 5 6 5 5 5 6 5 5 5 6 5 6 5 5 5 5 5 5 6 5 5 5 5 5 5 5 5 5 5 5 5 5 5 5 6 5 5 5 5 5 6 5 5 5 5 5 5 5 5 6 5 5 5 5 5 5 5 5 5 5 5 5 5 5 5 5 6 5 5 5 5 6 5 5 5 5 5 5 5 5 5 5 5 5 5 5 5 5 5 5 5 5 5 5 5 5 5 5 6 5 5 5 6 5 6 5 5 5 5 6 5 6 5 5 5 5 5 6 5 5 5 5 5 5 5 5 5 6 5 5 5 5 5 5 5 5 5 5 5 5 5 5 5 5 5 5 5 5 5 5 5 5 6 6 5 5 5 5 5 6 5 5 5 6 5 5 5 6 5 5 6 5 6 5 5 5 5 6 5 5 5 5 6 6 5 5 5 5 5 5 5 5 5 5 5 5 6 5 5 5 5 6 5 5 5 5 5 6 5 5 6 5 5 5 5 5 5 5 5 5 5 5 5 5 5 5 5 6 5 5 6 5 5 5 6 5 5 5 5 5 5 5 5 5 5 5 6 5 5 5 5 5 5 5 5 5 5 5 5 5 5 5 5 6 5 5 6 5 6 5 5 6 5 6 5 6 5 5 5 5 5 5 5 5 5 5 5 5 5 6 5 6 6 5 5 6 6 5 5 6 6 5 5 5 6 5 6 5 5 6 5 5 5 5 6 6 5 6 5 5 6 6 5 5 6 5 5 5 6 5 5 5 6 6 6 5 5 6 5 6 6 5 5 5 5 5 5 5 5 5 5 5 6 6 5 6 5 6 5 6 5 5 5 6 5 5 5 5 5 6 5 5 5 5 5 5 5 5 5 5 5 5 5 5 5 5 5 5 5 5 5 5 5 5 6 5 5 5 5 5 5 5 5 5 5 5 5 5 5 5 5 5 5 6 5 5 5 5 5 5 5 5 5 5 5 6 5 5 5 5 5 6 5 5 5 5 5 5 5 5 5 5 5 5 5 5 6 5 5 5 5 5 5 5 5 5 5 5 5 5 5 6 5 6 5 5 5 5 6 5 5 5 5 5 5 5 5 5 5 5 5 6 5 6 5 5 5 5 6 5 5 5 5 5 5 5 6 5 5 5 5 5 5 5 6 5 5 5 6 5 6 5 5 5 5 5 5 5 5 5 6 5 5 5 5 5 5 5 5 5 5 5 5 5 5 5 5 5 5 5 5 5 5 5 5 5 5 5 5 5 5 5 5 5 5 5 5 5 5 5 5 5 5 5 6 5 5 6 5 5 5 5 5 5 5 5 5 5 6 5 5 5 5 5 6 5 5 6 5 5 5 5 5 5 6 5 5 5 5 6 5 5 6 5 6 5 5 5 5 5 5 5 5 5 5 5 6 5 6 5 5 5 5 6 5 5 5 5 5 5 5 5 5 5 5 5 5 5 5 5 5 5 5 5 5 6 5 5 5 5 6 5 5 5 5 5 5 5 6 5 5 5 5 5 6 5 5 5 6 5 5 5 6 5 5 6 5 5 5 6 5 5 6 5 5 5 5 5 5 5 5 5 5 5 5 5 5 5 5 5 5 5 5 5 5 5 5 5 5 5 5 5 5 5 6 5 5 5 5 5 5 5 5 5 5 5 6 5 5 5 5 5 5 5 5 5 5 5 5 5 5 5 6 6 5 5 5 6 5 5 5 5 6 5 5 6 5 5 5 5 5 5 5 5 5 5 5 5 5 6 6 5 5 5 5 5 5 5 5 5 5 5 6 5 5 6 5 5 5 5 5 5 5 5 5 5 5 5 5 5 5 5 5 5 5 6 5 5 5 6 5 5 5 5 5 6 5 5 5 5 5 5 5 5 5 5 5 5 5 5 5 5 5 5 5 5 6 5 5 6 5 5 5 5 5 5 5 5 5 5 5 5 5 5 5 5 5 5 5 6 5 5 5 5 5 5 5 5 5 5 5 5 5 5 5 5 5 5 5 5 5 5 5 5 5 5 5 5 5 5 5 5 6 5 5 5 5 5 5 6 5 5 5 5 5 6 5 5 5 5 6 5 5 5 5 5 5 5 5 5 5 5 5 5 5 5 5 5 5 5 5 5 5 6 5 5 5 5 5 5 5 6 5 5 6 5 5 6 5 5 5 5 5 5 6 5 5 5 5 5 5 5 5 5 5 6 5 6 5 5 5 5 5 5 5 5 6 5 5 6 5 5 5 6 5 5 5 6 5 5 5 6 6 5 5 6 5 5 6 5 5 6 5 5 5 5 5 5 5 5 5 6 5 5 5 6 5 5 5 6 5 5 5 6 5 6 5 5 6 5 5 5 5 5 5 5 5 6 5 5 6 5 5 5 5 5 5 5 5 5 5 5 5 5 6 5 6 5 5 5 6 6 5 6 5 5 5 5 6 5 6 5 5 5 5 5 5 5 5 5 6 5 5 5 5 5 5 5 5 5 5 5 5 5 5 5 5 5 5 5 5 5 5 5 5 5 5 5 5 6 5 5 5 5 5 5 6 5 5 5 5 5 5 6 5 5 5 5 5 5 6 5 5 5 6 5 5 5 6 5 5 6 5 5 5 5 5 5 6 5 5 5 6 6 5 5 5 5 5 5 5 5 5 5 5 5 5 5 5 5 5 6 5 5 5 5 5 5 5 6 5 5 5 5 5 6 5 5 5 5 5 6 5 5 6 5 5 5 5 6 5 5 5 5 5 5 6 5 6 5 6 6 5 6 5 5 5 6 5 5 5 5 5 6 5 5 5 6 5 5 5 5 6 6 6 5 5 5 5 6 6 5 6 5 5 5 5 5 5 6 5 6 5 5 6 5 5 5 6 5 5 6 5 5 5 5 5 5 5 5 5 5 5 5 6 5 5 5 5 6 5 5 5 5 6 5 5 5 5 5 5 5 5 5 6 6 6 5 5 5 6 6 5 5 6 5 6 5 5 5 5 5 5 5 6 5 5 5 5 5 5 5 5 5 5 5 5 5 5 5 5 6 5 5 5 5 5 5 5 5 5 6 5 5 6 5 6 5 6 5 5 6 5 5 5 6 6 5 5 6 5 5 5 6 5 5 5 5 6 5 5 5 5 5 5 5 5 5 5 5 6 6 5 5 5 5 5 5 5 5 5 5 5 5 5 5 5 5 5 5 5 5 5 5 5 5 5 5 5 5 5 5 5 5 6 5 5 5 5 5 5 5 5 5 5 5 5 5 5 5 5 5 5 5 6 5 5 5 5 5 5 6 6 5 5 6 6 5 5 5 6 5 5 5 5 5 5 5 5 5 5 5 5 5 5 5 5 5 5 5 5 5 5 5 6 5 6 5 6 5 5 5 5 5 5 6 5 6 6 5 5 6 5 5 5 5 5 5 6 6 5 5 6 6 5 5 6 6 5 5 5 5 5 5 5 5 6 5 5 5 5 5 6 5 5 6 5 5 5 6 5 5 5 5 5 5 5 5 5 5 5 5 5 5 5 5 5 5 5 5 5 5 5 5 5 5 5 5 5 5 5 5 5 5 6 5 5 6 5 6 6 5 5 5 5 5 5 5 5 5 6 5 5 5 5 5 6 5 5 5 5 5 5 5 6 5 5 5 5 5 5 5 5 6 5 5 5 5 5 6 5 5 5 5 5 5 5 5 5 5 5 5 5 5 5 5 5 5 5 5 5 5 5 5 5 5 5 5 5 5 6 6 5 5 5 5 5 5 5 6 5 5 5 6 5 6 5 5 5 5 5 5 5 5 5 5 5 5 5 5 5 5 5 5 5 5 5 6 5 5 5 5 5 5 6 5 5 5 5 5 5 5 6 5 5 6 5 5 5 5 5 5 6 5 5 5 6 5 5 6 6 5 5 5 5 5 5 5 5 5 5 5 5 5 5 5 5 5 5 5 5 5 5 5 5 5 5 5 5 6 5 5 5 5 5 5 5 5 5 5 5 5 5 5 5 5 5 5 5 6 5 5 5 6 6 5 5 5 5 5 6 5 5 5 6 5 5 5 5 5 6 5 5 5 5 5 5 5 5 5 5 5 5 5 5 5 5 5 5 5 5 5 6 5 5 5 5 5 5 6 5 5 5 5 5 5 5 5 5 5 5 5 6 5 5 5 5 6 5 6 5 5 5 5 5 5 5 5 5 5 5 5 5 6 5 5 5 5 5 6 5 5 5 5 5 5 6 5 5 5 5 5 5 5 5 5 5 5 5 6 5 5 6 5 5 6 5 5 6 5 5 5 5 5 5 5 5 5 5 6 5 5 5 5 5 5 5 5 6 5 5 5 6 5 5 5 6 5 5 6 5 5 5 6 5 5 5 5 5 6 5 6 5 5 5 5 6 6 5 5 5 6 5 5 5 5 6 5 5 5 5 5 5 5 5 5 5 5 5 5 5 5 6 5 5 6 6 5 5 5 5 6 5 5 5 5 5 5 6 5 5 5 5 5 5 6 5 5 5 5 5 5 5 5 6 5 5 5 5 5 5 5 5 5 5 6 5 5 6 5 5 6 5 5 5 5 5 6 6 5 5 6 6 5 6 5 6 5 6 6 5 5 6 5 6 5 6 5 6 5 6 5 5 6 5 6 5 6 5 5 5 5 5 5 6 5 5 5 6 5 5 5 5 5 5 5 5 5 6 5 5 6 5 6 5 6 5 5 5 6 6 5 5 5 5 5 5 5 5 5 5 5 6 5 5 5 5 5 6 5 5 5 5 5 5 5 5 5 5 5 5 5 5 5 5 5 6 5 5 5 5 5 5 6 5 5 5 6 5 5 6 5 5 5 6 5 6 6 5 5 5 5 5 5 5 5 5 6 5 5 5 5 5 5 5 6 5 6 5 6 5 5 5 5 5 5 5 5 5 5 5 5 5 5 5 5 5 5 5 5 5 5 5 5 5 5 5 5 5 5 5 5 5 5 5 5 5 6 5 5 6 6 5 5 5 5 6 5 5 5 5 5 6 5 5 6 6 5 5 5 5 5 5 6 5 6 5 5 6 6 5 6 5 5 5 6 5 5 5 5 6 5 5 5 6 5 5 6 6 5 5 5 6 5 5 5 5 6 5 5 6 5 5 5 6 5 5 6 5 5 5 6 5 6 5 5 6 5 5 6 6 5 5 6 5 6 6 5 5 5 5 6 5 5 5 5 6 5 5 5 5 5 5 5 5 5 5 5 5 6 5 5 5 5 6 5 6 5 5 5 5 5 6 6 6 5 5 5 5 5 5 5 5 6 5 5 5 5 5 5 6 5 5 5 5 6 5 5 5 5 5 5 5 5 5 5 5 5 5 5 5 5 5 5 6 5 6 5 5 6 6 5 6 5 5 6 5 6 5 6 5 6 5 5 5 5 6 5 5 5 6 5 5 5 5 5 5 5 5 5 5 5 5 5 5 5 5 5 5 5 5 5 5 5 5 5 6 5 5 5 5 5 6 5 5 5 5 5 5 5 5 5 5 5 6 5 5 5 5 5 6 5 5 6 6 5 5 5 6 5 5 6 6 5 6 5 5 5 5 5 5 5 5 5 5 5 5 5 5 5 5 6 5 5 5 5 6 5 5 5 5 5 5 5 5 6 6 5 5 6 5 5 5 5 5 5 5 5 5 6 6 5 5 6 5 5 5 6 5 5 5 5 5 5 5 5 5 5 5 5 5 5 5 5 5 5 5 5 5 5 5 5 5 5 6 5 5 5 5 5 5 5 5 5 5 5 5 5 5 5 5 5 5 5 5 6 5 5 5 6 6 5 5 5 6 5 5 6 5 5 5 5 5 6 5 6 5 5 5 5 5 5 5 5 6 5 5 5 6 5 5 6 5 6 5 5 5 6 5 5 5 6 5 5 5 5 5 5 5 5 5 5 5 5 5 5 5 5 5 6 5 5 5 5 5 5 5 5 5 6 5 5 5 5 5 5 5 5 6 5 5 5 5 5 5 5 5 5 5 5 5 5 6 5 5 5 6 5 5 5 5 5 5 5 5 5 5 5 5 5 5 5 5 5 5 5 6 5 5 5 6 5 6 5 5 5 6 5 5 5 6 6 5 5 5 5 5 5 5 5 5 5 5 5 5 5 5 5 5 5 5 5 5 5 6 5 5 5 5 6 5 5 5 5 6 5 5 5 5 5 5 5 6 5 5 5 5 6 5 5 5 5 5 5 6 5 5 5 5 5 5 6 5 5 5 6 5 5 5 5 5 5 5 5 5 6 5 5 5 5 5 5 6 5 5 5 5 5 5 5 5 5 5 5 6 5 5 6 5 5 5 5 5 6 5 5 6 5 5 5 5 5 5 5 6 6 5 5 5 5 6 5 5 5 5 5 5 6 5 5 5 5 5 5 5 5 5 5 6 5 5 5 5 5 5 5 5 5 5 5 5 6 5 6 5 5 5 6 5 5 6 5 5 5 5 6 5 5 5 5 5 6 5 5 5 5 5 5 5 5 6 5 5 5 5 6 5 5 5 5 5 5 5 6 5 5 5 5 5 5 5 5 5 5 6 5 5 5 6 5 6 5 5 5 5 5 5 6 5 6 5 6 5 5 5 5 6 5 5 5 5 5 5 5 5 5 5 5 5 5 5 6 5 6 5 5 5 5 5 5 5 6 5 5 5 5 5 5 5 5 5 5 5 5 5 6 5 5 5 5 6 5 5 5 5 5 5 5 5 5 5 5 5 5 5 5 5 5 5 5 5 5 5 5 5 6 5 5 5 5 6 5 5 5 6 5 5 6 5 5 6 5 5 5 5 5 5 5 5 5 5 5 5 5 5 5 6 5 5 6 5 5 5 5 5 5 5 6 5 5 5 5 5 6 5 5 5 6 5 5 5 6 5 5 5 5 5 5 5 6 5 5 5 6 5 6 6 5 5 5 5 5 6 5 5 5 5 5 5 5 5 5 5 6 5 5 5 5 5 5 5 5 5 5 5 5 5 5 5 5 5 5 5 5 5 5 5 5 5 5 5 5 5 5 5 5 5 5 5 5 5 6 5 5 5 5 5 5 5 5 5 5 5 5 5 5 5 5 6 5 5 5 5 5 5 5 5 5 6 5 5 5 5 5 5 5 6 5 5 5 5 5 5 5 5 5 5 5 5 5 5 5 5 5 5 5 5 5 6 5 5 5 5 5 5 5 5 5 5 5 5 5 5 5 5 5 6 5 5 5 5 5 5 5 5 5 5 5 5 5 5 5 5 5 5 5 5 5 5 5 5 5 5 5 5 5 5 5 5 5 5 5 5 5 5 5 5 5 5 5 5 5 5 6 5 5 5 5 5 5 5 5 5 5 5 5 5 6 5 6 5 5 5 5 5 6 5 5 5 5 5 6 6 5 5 5 5 5 5 5 5 5 5 5 5 5 5 5 5 5 6 6 5 5 5 5 5 5 6 5 6 5 5 5 5 5 5 5 5 5 6 5 5 5 5 5 5 5 5 5 5 5 5 5 5 5 5 5 5 5 6 5 5 5 5 5 6 5 6 5 5 5 5 5 5 5 6 5 5 5 6 5 5 5 6 5 5 6 5 5 5 6 5 5 6 5 6 5 6 5 5 6 5 5 5 5 5 5 5 5 5 5 5 5 5 5 5 5 5 5 5 5 5 6 5 6 5 5 5 5 5 5 5 6 5 5 5 5 5 5 5 5 5 5 5 5 5 5 5 5 5 5 5 6 5 5 5 6 5 5 5 5 5 5 5 5 5 5 6 5 5 5 5 6 5 5 6 5 5 5 5 5 6 5 5 5 5 6 5 6 5 5 6 5 5 5 5 5 5 5 6 5 5 6 5 6 5 5 5 5 5 5 5 5 5 5 5 5 5 5 5 5 5 5 6 5 5 5 5 5 5 5 6 5 5 5 5 6 5 5 5 5 5 5 5 5 5 6 5 5 5 5 6 5 5 5 5 5 5 5 5 5 5 5 5 6 5 5 5 5 5 5 5 5 5 6 5 5 5 5 5 5 5 5 5 5 5 5 6 5 5 6 5 5 5 5 5 5 5 5 5 6 6 6 5 5 5 6 5 5 5 5 5 5 6 5 5 5 6 6 5 5 5 5 5 5 5 5 5 5 5 5 6 5 5 5 6 6 5 5 5 5 5 6 5 5 5 5 6 5 5 5 5 6 5 5 5 5 5 6 6 6 5 5 5 6 6 5 5 5 5 5 5 5 5 5 6 6 5 5 5 6 6 5 5 5 5 5 5 5 5 5 5 5 5 5 5 5 5 5 6 5 6 5 5 5 5 6 5 5 5 5 5 5 5 6 5 5 5 5 5 5 5 6 5 5 6 5 6 6 5 5 5 6 6 5 5 5 6 6 5 5 5 5 5 5 5 5 5 5 6 5 5 5 5 5 5 5 6 5 5 5 5 6 5 5 5 5 5 5 6 5 5 5 5 6 5 6 5 5 5 5 5 5 5 5 5 5 5 5 5 5 6 5 5 5 5 5 5 5 6 5 5 5 5 6 5 5 5 6 5 5 5 5 5 5 5 5 5 5 5 5 5 5 5 5 5 5 5 5 5 5 6 5 6 5 5 6 5 5 5 6 5 5 6 5 5 5 5 5 5 5 5 5 5 5 5 5 5 5 5 5 5 5 5 6 6 6 5 5 5 5 5 5 5 5 5 5 5 5 5 6 5 5 5 6 5 5 6 5 5 5 5 6 5 5 6 6 5 5 5 5 6 5 5 6 5 6 5 5 5 5 5 5 5 5 5 5 5 5 6 5 5 5 5 5 5 5 6 5 6 5 5 5 5 6 5 5 5 5 5 5 5 5 5 5 5 5 5 5 5 5 5 5 5 5 5 5 5 6 5 5 5 6 5 6 5 5 5 6 5 5 5 5 5 6 5 5 6 5 5 5 5 5 5 5 5 6 5 5 5 5 5 6 5 5 5 5 5 5 5 5 5 5 5 5 5 5 6 5 5 5 5 6 5 5 5 5 5 5 5 5 5 5 5 5 6 5 5 5 5 6 5 5 5 5 5 5 5 5 5 5 5 5 5 6 5 5 6 5 5 5 6 5 5 5 5 5 5 5 5 5 5 5 5 5 6 6 5 6 6 5 5 5 6 6 5 6 5 6 5 6 5 5 5 6 5 6 5 5 5 5 6 5 5 5 5 5 5 6 5 5 5 5 5 6 5 5 6 5 5 6 5 5 6 5 5 5 5 5 6 5 6 5 5 5 5 5 5 5 5 5 5 5 5 5 6 5 5 6 5 5 5 5 5 5 5 5 5 6 5 5 5 5 5 5 5 5 5 6 5 5 6 5 6 5 5 5 5 5 5 5 6 5 5 5 5 5 5 5 6 5 6 5 5 6 5 5 5 6 5 5 5 5 6 5 5 5 5 5 6 5 5 5 5 5 5 5 5 5 5 5 5 5 5 5 5 5 5 5 5 5 6 5 5 6 5 5 5 6 5 5 5 5 6 5 5 5 5 5 5 5 5 5 5 5 5 5 5 5 5 5 5 5 5 5 5 5 6 5 5 5 5 5 5 6 5 5 5 5 5 5 5 5 5 5 5 5 5 6 5 6 5 5 6 5 5 5 5 6 6 5 6 5 6 5 5 5 5 5 6 5 5 6 6 5 5 5 5 5 6 5 5 6 5 5 5 5 5 5 5 5 6 6 5 5 5 6 5 6 5 5 5 5 5 6 5 6 5 5 5 5 5 6 6 5 5 5 5 6 5 5 5 5 6 5 5 5 5 5 5 5 5 5 5 5 5 5 5 5 5 5 6 5 5 6 5 5 5 6 5 5 5 5 5 5 5 5 5 5 5 5 5 5 5 5 5 5 5 6 5 5 5 5 5 5 5 5 5 5 5 5 5 5 6 6 5 5 5 6 5 5 5 5 5 6 5 5 5 5 5 5 5 5 5 5 5 6 5 5 6 5 5 5 5 5 5 5 5 5 5 6 5 5 5 6 5 6 5 6 5 5 5 6 6 5 6 5 5 6 5 5 6 6 5 5 5 6 5 5 6 5 6 5 5 5 6 5 5 6 6 5 6 5 5 6 5 6 5 5 5 5 5 5 5 5 5 6 5 5 5 5 5 6 5 5 5 5 5 5 5 5 5 5 6 5 5 5 5 6 6 5 5 6 5 6 5 5 5 5 5 6 5 5 6 5 6 5 5 5 5 5 5 5 6 5 5 5 5 5 5 5 5 5 6 5 6 5 6 5 6 5 5 5 5 6 5 5 5 5 5 6 6 5 5 5 5 5 5 6 5 5 5 5 5 6 5 5 5 5 6 5 5 6 5 6 5 5 5 6 5 6 5 5 6 6 6 5 5 5 5 5 5 6 6 6 5 5 5 5 6 5 6 5 6 5 5 5 5 5 5 6 5 5 5 5 5 5 5 5 5 5 5 5 5 5 5 5 5 5 5 5 5 5 5 5 5 5 5 5 5 5 5 5 5 5 5 5 5 5 5 5 5 5 5 5 5 5 5 5 5 6 5 5 5 6 6 5 5 5 5 5 5 5 5 5 5 5 5 5 5 5 5 5 5 5 6 5 5 5 5 5 5 5 6 5 5 6 5 5 6 5 5 6 5 6 5 5 6 5 5 5 6 5 6 5 6 6 5 5 5 6 6 5 5 6 5 5 6 5 5 5 5 5 5 5 5 5 5 5 5 6 5 5 5 5 6 5 5 5 5 6 5 5 5 5 5 5 5 5 5 6 5 6 5 5 5 5 6 5 5 5 6 5 5 5 5 5 5 6 5 5 6 5 5 5 6 5 5 5 5 5 5 5 6 5 5 5 5 5 6 5 5 5 5 5 5 5 5 5 5 5 5 5 5 5 6 5 5 5 5 5 6 5 5 6 5 6 5 5 5 5 6 6 5 5 6 5 5 5 5 5 5 5 5 5 5 5 6 5 6 5 5 5 5 5 6 5 5 5 6 5 5 5 6 5 5 5 5 5 5 5 5 5 5 5 5 5 6 5 5 5 5 5 5 5 6 5 6 5 5 5 5 5 5 5 6 6 5 5 5 5 5 5 5 5 5 6 5 5 5 5 5 5 6 6 6 5 6 5 5 5 5 5 5 6 5 6 5 6 5 6 5 5 5 5 5 5 6 5 5 6 5 5 5 5 6 5 5 5 5 5 5 5 5 5 5 5 5 5 5 5 5 5 5 5 5 5 6 5 6 5 5 5 5 5 5 5 5 5 5 5 5 5 5 5 5 5 5 5 5 5 5 5 5 5 5 5 5 5 5 5 5 5 5 5 5 5 5 5 5 5 5 5 5 5 5 5 5 5 5 5 5 5 5 5 5 5 5 6 5 5 5 5 5 5 5 5 5 5 5 5 5 5 5 5 5 5 5 5 5 5 5 6 5 5 5 6 5 6 5 5 5 5 5 5 5 5 5 5 5 5 5 5 5 5 5 5 5 5 5 5 5 5 5 5 5 5 5 5 5 5 5 5 5 5 5 5 5 6 5 6 5 5 5 5 5 5 5 5 5 5 5 5 5 5 5 5 5 5 5 5 5 5 5 5 5 6 5 5 5 5 5 5 5 5 5 5 5 5 5 5 5 5 5 5 5 5 5 5 5 5 5 5 5 5 5 5 5 5 5 5 5 5 5 5 5 5 5 5 5 5 5 5 5 5 5 5 5 5 5 5 5 5 5 5 5 5 5 5 5 5 5 5 5 5 5 6 5 5 5 5 5 5 5 6 5 5 6 5 5 5 5 5 5 5 5 5 5 5 5 5 5 5 5 5 5 5 5 6 5 5 5 5 5 5 5 5 5 5 5 5 5 5 5 5 5 5 5 5 5 5 5 5 5 5 5 5 5 5 5 5 6 5 5 5 5 6 5 6 5 5 5 5 5 5 6 5 5 6 5 5 6 6 5 6 5 5 5 6 5 5 5 5 5 5 5 5 5 5 5 5 5 5 5 6 5 5 5 5 5 5 5 5 6 5 5 5 5 5 5 5 5 5 5 5 5 5 5 5 5 5 5 5 5 5 5 5 5 5 5 5 5 5 5 5 5 5 5 5 5 6 5 5 5 5 5 5 5 6 5 5 6 5 6 5 5 5 5 5 5 5 5 5 5 5 6 6 5 5 6 5 5 6 6 5 5 5 5 6 5 6 5 5 6 5 6 6 5 6 5 6 5 5 5 5 5 5 5 6 5 6 5 5 5 5 5 6 5 5 5 6 5 5 6 5 6 5 6 6 5 5 6 5 5 5 5 5 5 6 5 5 5 5 5 5 5 5 6 6 5 5 5 6 5 5 5 5 6 6 5 6 5 5 5 6 5 5 5 5 5 5 5 5 5 5 5 5 5 5 5 5 6 5 5 5 5 5 5 6 5 6 5 5 5 6 6 5 5 6 5 6 5 5 5 5 5 5 5 5 5 5 5 5 6 6 5 5 5 5 5 6 5 5 5 5 5 5 5 6 5 5 5 6 5 6 5 5 6 5 5 5 5 5 5 5 5 5 6 5 5 6 5 5 5 5 5 5 5 5 5 5 5 6 5 5 5 5 5 5 5 5 5 5 5 5 5 5 5 5 5 5 5 5 5 5 6 5 5 5 5 5 5 5 5 5 5 5 6 5 5 5 5 6 5 5 5 5 5 5 5 5 5 5 5 6 5 5 5 5 5 6 5 6 5 5 5 5 5 5 5 5 5 6 5 5 6 5 5 6 5 5 5 5 6 5 5 5 5 5 5 5 5 5 5 5 5 5 5 5 5 5 5 5 5 5 6 5 5 6 5 6 5 5 5 5 5 5 5 5 5 6 5 5 6 6 6 5 5 5 6 5 5 5 5 5 5 6 6 5 6 5 5 6 5 5 6 5 5 5 5 6 5 5 5 5 6 5 5 5 5 5 5 5 5 5 5 5 6 5 5 6 5 6 6 5 5 6 6 6 5 5 5 5 5 5 5 5 5 5 6 5 5 5 5 5 5 5 5 5 6 5 5 5 5 5 6 5 5 5 5 5 5 5 5 5 5 6 5 5 5 5 5 5 5 5 5 5 5 5 5 5 5 5 5 5 5 5 5 5 5 5 6 6 5 5 5 5 5 5 5 5 6 5 5 5 5 5 5 5 5 5 5 5 5 5 5 5 5 6 5 5 5 5 6 5 5 5 6 6 5 5 5 5 5 5 6 5 6 5 5 5 6 5 5 5 5 5 5 5 5 6 5 6 6 5 5 5 5 5 5 5 5 5 5 5 5 6 5 5 6 5 6 5 5 5 5 5 5 5 5 5 5 5 5 5 5 5 5 5 5 5 5 5 5 5 6 5 5 5 5 5 6 5 5 5 5 5 5 5 5 5 5 6 5 5 5 6 5 5 5 5 5 5 5 5 5 5 5 6 6 5 5 5 5 5 6 5 5 5 6 5 5 5 5 5 5 5 5 5 5 6 5 5 5 5 5 5 5 6 6 5 6 5 5 5 5 6 5 5 5 5 5 6 5 5 5 5 5 5 5 5 5 5 6 5 5 5 5 5 5 5 5 5 5 6 5 5 5 5 5 5 5 6 5 5 5 5 5 5 5 5 5 5 5 5 5 5 5 5 5 5 5 5 6 5 5 5 6 5 5 5 5 5 5 5 5 5 5 5 5 5 6 5 6 6 5 6 6 5 5 5 5 5 6 5 5 5 5 5 5 5 6 5 5 6 5 5 6 5 5 6 5 5 6 6 6 6 5 5 6 6 5 5 6 5 5 6 5 5 5 5 6 6 6 6 5 5 5 6 5 6 5 6 5 6 6 5 5 5 5 5 5 5 6 5 5 6 5 6 5 5 6 6 5 5 5 5 5 5 5 5 5 5 5 5 5 5 5 5 5 6 5 5 5 5 5 5 5 5 5 5 5 5 5 5 5 5 5 6 5 5 5 5 5 5 5 5 5 5 5 5 5 5 6 6 5 5 5 5 6 5 6 5 5 5 6 6 5 6 5 5 5 5 5 5 5 5 5 5 5 5 5 5 5 5 5 5 5 6 5 6 5 5 5 5 6 5 5 5 5 5 5 5 5 5 5 5 5 5 5 5 5 5 5 5 5 6 5 5 5 5 5 5 5 5 5 5 5 5 5 5 6 5 5 5 5 5 5 5 5 5 5 5 5 5 5 5 5 5 5 5 5 5 5 5 5 5 5 5 5 5 5 5 5 5 5 5 5 5 5 5 5 5 5 5 5 5 5 5 5 5 5 5 5 5 5 5 5 5 5 5 5 5 5 6 5 5 5 6 5 5 6 5 5 5 5 5 5 5 5 5 5 5 6 5 5 5 5 6 5 5 5 5 5 5 5 5 5 5 5 5 5 5 5 5 5 5 5 5 5 5 5 5 5 5 5 5 5 6 5 5 5 5 6 5 5 5 5 5 5 5 5 5 5 6 5 5 6 5 5 5 5 5 5 5 5 5 5 5 5 6 5 5 5 5 5 5 5 5 6 5 5 5 5 5 5 5 5 5 5 6 5 6 5 5 5 6 5 5 5 6 5 6 5 6 6 5 5 5 5 5 6 5 5 5 5 5 5 5 5 5 5 5 5 5 5 5 5 5 5 5 5 5 5 5 6 5 5 6 5 5 5 6 5 6 5 5 5 5 5 5 5 5 5 5 5 5 6 5 5 5 5 5 5 5 5 5 5 5 5 5 5 5 5 5 5 5 6 5 5 5 5 5 5 5 5 5 5 5 5 5 5 5 5 5 5 5 5 5 5 5 5 5 5 5 6 5 5 5 5 5 5 5 5 5 5 5 5 5 5 5 5 5 5 6 5 5 5 6 5 5 5 6 6 5 5 5 5 5 6 5 5 5 5 5 5 5 6 6 5 5 5 6 5 6 5 5 5 5 5 5 6 6 5 5 6 6 5 5 5 5 5 5 5 5 5 5 6 5 5 5 5 5 5 6 5 5 5 5 5 5 5 5 5 5 5 5 5 5 5 5 5 6 5 5 5 5 6 5 5 6 5 5 5 5 5 5 5 5 5 5 5 6 5 6 5 6 5 5 5 5 5 5 5 5 5 5 5 5 5 5 5 5 5 5 5 6 5 5 6 5 5 5 6 5 5 6 5 5 5 5 6 5 5 5 5 5 5 5 6 5 5 5 5 5 5 5 5 5 5 5 5 5 5 5 5 5 5 5 5 5 5 5 5 5 5 5 5 5 6 5 5 5 5 5 5 5 5 5 5 5 5 5 5 5 5 5 5 5 5 5 5 5 5 5 5 5 5 5 5 5 5 5 5 5 5 5 6 6 6 5 5 6 5 5 5 6 5 6 5 5 5 5 5 6 5 5 5 5 5 5 5 6 5 5 5 5 5 5 5 5 5 5 5 5 5 5 6 5 5 5 6 5 6 5 5 5 5 5 5 5 5 6 5 5 5 5 5 5 5 6 5 6 5 6 5 5 5 5 5 5 5 5 6 5 5 6 6 6 5 6 5 6 5 5 5 5 5 5 5 5 5 5 5 5 5 5 5 5 5 5 5 5 5 6 5 5 6 6 5 5 5 6 5 5 5 5 5 5 5 6 5 6 5 5 5 5 6 5 5 6 5 5 5 5 5 5 5 6 5 5 6 5 5 5 6 5 5 5 5 5 5 5 5 5 6 5 5 5 5 5 5 6 5 5 6 5 5 5 5 6 5 5 5 5 5 5 6 6 6 5 5 5 6 5 6 5 6 5 5 5 5 5 5 6 5 5 5 6 5 5 5 6 5 5 5 5 5 5 5 5 5 5 5 5 6 5 5 5 6 5 5 5 5 5 6 6 5 5 6 5 6 6 6 5 5 5 6 5 5 5 5 5 6 5 5 5 5 5 5 5 5 5 5 5 5 6 5 5 5 5 5 5 6 5 5 6 5 5 6 5 5 5 5 5 6 5 5 6 5 6 5 6 5 5 5 5 5 5 6 5 5 5 5 6 5 5 5 5 5 5 5 5 5 5 6 5 5 5 5 5 6 5 5 5 5 5 5 5 5 5 5 5 5 5 5 5 6 5 5 5 5 5 6 5 6 5 5 5 5 5 6 5 5 5 5 5 6 5 5 5 5 5 6 5 5 5 5 5 5 5 5 5 5 6 5 6 5 6 5 5 6 5 5 5 5 5 5 5 5 6 5 6 5 5 5 5 5 5 5 5 5 5 6 5 5 5 5 5 5 5 5 5 5 6 5 5 5 6 5 6 6 5 5 5 6 5 5 5 6 6 5 5 5 5 5 5 5 5 5 5 6 6 5 5 5 5 5 6 5 5 5 5 5 5 5 5 5 5 6 5 6 6 6 5 5 5 5 5 5 5 5 6 5 5 5 5 5 5 5 5 5 5 5 5 5 5 5 5 5 5 5 5 5 5 5 5 5 5 5 5 5 6 5 5 5 5 6 5 5 5 5 5 5 5 5 6 5 5 5 5 5 5 5 5 6 5 5 5 5 5 5 5 5 5 5 5 5 5 5 5 5 5 5 5 5 5 5 5 5 5 5 6 5 5 5 5 5 5 6 5 6 5 5 6 5 5 5 6 5 6 5 5 5 6 5 5 5 6 5 5 5 5 5 5 6 5 5 5 5 5 5 5 5 5 5 5 5 5 5 5 5 5 5 5 5 5 5 5 5 5 5 5 6 5 6 5 5 5 5 6 5 5 5 5 5 5 5 5 5 5 5 5 5 6 5 5 6 5 5 6 5 5 5 5 5 6 5 5 5 5 5 5 5 5 6 5 6 5 5 5 5 5 6 6 5 5 6 5 5 5 6 5 5 5 5 5 5 5 6 5 5 5 5 5 5 5 5 5 5 5 5 5 5 5 5 6 5 5 5 5 5 6 5 6 5 5 5 5 5 5 5 5 5 5 5 5 6 5 6 5 5 5 5 5 5 6 6 5 5 5 5 5 5 5 5 5 5 5 5 5 5 5 5 5 5 5 5 5 6 5 5 6 5 5 5 5 5 6 5 5 5 5 5 5 6 5 5 5 5 5 5 5 5 5 5 5 5 5 5 5 5 6 5 5 6 5 5 5 5 6 5 5 5 5 5 5 5 5 5 5 5 6 5 5 5 5 5 5 5 5 5 5 5 5 5 5 5 5 5 5 5 6 5 5 5 5 5 5 5 5 5 5 5 5 6 5 5 5 5 5 5 5 5 5 5 5 5 5 6 6 5 5 5 5 5 5 6 5 5 5 5 5 5 5 5 5 5 5 5 5 5 5 5 5 5 5 5 5 5 5 5 5 5 5 5 5 5 5 5 5 5 5 6 5 5 5 5 5 5 5 5 6 5 5 5 5 5 5 5 5 5 5 5 5 6 5 5 5 5 6 5 6 5 5 5 5 5 5 5 5 6 5 5 5 5 5 5 5 5 5 5 6 5 5 5 6 5 5 6 5 5 5 5 6 5 5 6 5 5 5 5 5 5 5 5 6 5 5 5 6 5 5 5 5 5 5 5 6 5 6 5 6 5 6 6 5 5 5 6 6 6 5 5 6 5 5 5 6 5 5 5 5 6 5 5 5 5 5 5 5 5 5 5 5 5 5 5 5 5 5 5 5 5 5 5 5 5 5 5 5 5 5 5 5 5 5 5 5 5 5 5 6 5 5 5 5 5 5 5 5 6 5 5 5 5 6 5 5 6 5 5 6 5 5 5 5 6 5 5 5 5 5 6 5 5 5 5 5 5 5 5 5 5 5 5 5 6 6 5 5 5 6 5 5 5 5 5 5 5 5 5 5 5 5 5 5 6 5 5 5 5 5 5 6 5 5 6 5 5 5 5 5 5 5 5 5 5 6 5 5 5 5 5 6 5 5 5 5 5 5 5 5 5 5 6 5 5 5 5 5 5 5 5 5 5 5 5 5 5 5 6 5 5 5 5 5 5 5 5 5 5 5 5 5 5 5 5 5 5 5 5 5 5 5 6 5 6 5 5 5 6 5 5 5 5 5 5 5 5 5 6 5 5 5 6 5 5 5 5 5 5 5 5 5 5 5 5 5 5 5 5 6 5 5 5 5 5 6 5 5 5 6 5 6 5 5 5 5 5 5 6 5 5 5 5 5 5 5 5 5 5 5 5 5 5 5 5 5 5 5 5 5 5 5 5 5 5 5 6 5 5 6 5 5 5 5 5 5 5 6 5 5 5 5 6 5 5 6 5 5 5 5 5 5 6 5 5 5 6 5 5 5 6 5 5 5 5 5 6 5 5 5 5 5 6 5 5 5 5 5 5 5 5 6 5 5 6 5 5 5 5 6 5 5 5 5 6 5 5 5 5 6 5 5 5 6 5 6 5 5 5 5 5 5 5 5 5 5 6 5 5 5 5 5 5 5 6 6 5 5 5 5 5 6 5 5 5 5 5 6 5 5 5 6 5 5 6 5 5 6 5 5 5 6 5 5 5 5 5 5 6 5 5 5 5 5 6 5 5 5 5 5 6 5 5 5 5 5 5 6 5 5 5 5 6 5 5 5 5 5 6 5 5 5 5 5 5 5 5 5 5 6 5 5 5 5 5 5 5 6 5 5 5 5 6 6 5 5 6 5 5 5 5 5 5 5 6 5 5 5 5 5 5 5 6 5 6 5 5 6 5 5 5 5 6 5 6 5 5 5 5 5 5 5 5 5 5 6 5 5 5 5 5 6 5 5 5 6 5 5 5 5 6 5 5 6 5 5 5 5 5 6 5 6 5 6 6 5 5 5 5 6 6 5 5 5 5 5 5 5 5 5 5 5 5 5 6 5 5 5 5 5 5 6 6 5 5 5 5 5 5 5 5 5 5 5 5 5 6 5 5 5 5 5 5 5 5 5 5 5 5 5 5 5 5 5 5 5 5 5 5 5 5 5 5 5 5 5 5 5 5 5 6 5 5 6 5 5 5 5 5 5 5 6 5 5 5 6 5 5 6 5 5 5 6 6 5 5 5 5 6 6 5 5 5 5 5 5 5 5 5 5 5 5 5 5 6 5 5 6 5 5 5 6 5 5 5 5 6 5 5 6 5 5 5 5 5 5 5 5 5 5 5 6 5 5 5 5 5 5 5 6 5 5 5 5 5 5 5 5 5 5 5 5 5 5 5 5 5 5 6 5 5 5 5 5 5 6 5 6 5 5 5 5 5 6 5 5 6 5 5 5 6 5 5 5 6 5 5 5 5 5 5 5 5 5 5 5 5 5 5 6 5 5 5 5 6 6 5 5 5 5 5 5 5 5 5 5 5 5 5 5 5 5 5 5 5 6 5 5 5 5 5 5 5 5 6 5 6 5 5 5 5 5 5 5 6 5 6 5 5 5 5 5 6 5 5 5 5 5 5 6 5 5 5 5 5 6 6 5 5 5 6 6 6 5 5 5 5 5 6 5 5 5 5 5 6 5 5 5 5 6 5 6 6 5 6 6 5 5 5 6 5 5 5 6 5 5 5 6 5 5 5 6 5 5 5 5 5 5 5 5 6 5 5 5 6 5 5 5 5 5 5 6 5 5 5 5 5 5 6 5 5 5 5 5 5 5 5 5 5 5 5 5 5 6 5 6 5 5 5 6 5 5 6 5 6 5 6 5 5 6 5 5 5 5 5 5 6 5 5 5 5 6 5 5 5 5 5 5 6 5 5 5 5 5 5 5 5 5 5 6 5 5 5 5 5 5 5 5 5 5 5 5 5 5 5 5 5 5 5 6 6 5 5 5 6 5 5 6 5 5 6 5 5 6 5 5 6 6 5 5 5 5 6 5 5 5 5 5 5 5 5 5 5 5 6 6 5 5 5 6 5 6 5 6 5 5 5 5 5 6 5 5 6 5 6 5 5 6 6 6 5 5 5 5 6 5 5 6 5 6 5 5 6 5 5 5 5 5 5 5 5 6 5 6 6 5 5 5 5 5 6 6 5 5 5 6 6 5 5 5 5 5 5 5 5 6 5 6 5 5 5 5 5 5 5 5 5 5 5 5 5 5 5 5 5 5 5 5 5 5 5 5 5 5 5 5 5 6 5 5 5 5 5 5 5 5 5 5 5 5 5 5 5 6 5 5 6 5 5 5 5 5 6 5 5 5 5 5 5 5 5 5 5 5 5 5 6 5 5 5 5 5 5 5 5 5 6 5 5 6 5 5 5 5 6 6 6 5 5 5 5 5 6 5 5 5 
</DataArray>
<DataArray type="Float64" Name="stress" NumberOfComponents="9" format="ascii">
-3274988095.568924 940317.92503933772 0 940317.92503933772 -1291295.3919423581 0 0 0 0 -4091424737.0154037 1155740452.8494596 0 1155740452.8494596 143216.34603173006 0 0 0 0 -7276761.5861485824 1267548.4682179689 0 1267548.4682179689 237895.05412725543 0 0 0 0 -3818859422.2519226 1128278613.5998042 0 1128278613.5998042 -87555617.610723853 0 0 0 0 -2871942076.7292175 420714945.72539991 0 420714945.72539991 -1596694.492716915 0 0 0 0 -2681944783.0434036 814003882.46347034 0 814003882.46347034 258052009.38049233 0 0 0 0 -2815317046.5313416 575806854.02341318 0 575806854.02341318 -159375791.59613532 0 0 0 0 -7507607.822887525 1048318.1341198981 0 1048318.1341198981 422441.89189405378 0 0 0 0 -3205092127.2474365 583938133.06126988 0 583938133.06126988 475354104.41441673 0 0 0 0 -2936506346.761322 972941088.67869353 0 972941088.67869353 721447495.83826363 0 0 0 0 -2937915489.5647564 805627226.38758099 0 805627226.38758099 278434919.25184047 0 0 0 0 -2038163519.912323 966631579.44984102 0 966631579.44984102 47115305.777107358 0 0 0 0 -2611635656.3953705 1066407819.1848912 0 1066407819.1848912 66858786.056681052 0 0 0 0 -2782599273.9341125 1922752781.6011057 0 1922752781.6011057 149709867.73253304 0 0 0 0 -4090802212.2887344 1402534531.8331974 0 1402534531.8331974 669860206.0060612 0 0 0 0 -952913391.07681274 346574748.22101295 0 346574748.22101295 -267749794.65831685 0 0 0 0 -2108461939.0795746 796363236.71372175 0 796363236.71372175 -101678612.48799233 0 0 0 0 -1180930300.4689484 581816305.58210588 0 581816305.58210588 -133204858.39494726 0 0 0 0 -1237670387.1121292 92813933.650672346 0 92813933.650672346 -18185249.135803223 0 0 0 0 -679009413.03416443 471638208.52651495 0 471638208.52651495 -339839208.47894406 0 0 0 0 -777911.44383961335 146035.85477090627 0 146035.85477090627 -357904.17928331293 0 0 0 0 -2293878608.9017944 349734989.005575 0 349734989.005575 202622681.52456376 0 0 0 0 -2207651598.9393005 395237601.81208766 0 395237601.81208766 -132489490.5020864 0 0 0 0 -2591639729.4016266 687544800.80338287 0 687544800.80338287 -91202120.890906304 0 0 0 0 -2322742633.2161407 374371106.21583843 0 374371106.21583843 696395.2398193964 0 0 0 0 -1734833.1650856715 506133.41013403237 0 506133.41013403237 -211107.64348203974 0 0 0 0 -814181319.67689133 109114342.78131275 0 109114342.78131275 33315840.464543074 0 0 0 0 -2111561200.067627 480361098.23285162 0 480361098.23285162 -63131593.157337032 0 0 0 0 -747541935.94319153 102217172.39092551 0 102217172.39092551 104501.91963861381 0 0 0 0 -679134492.55119324 131084122.96472812 0 131084122.96472812 -7826202.8992396891 0 0 0 0 -679221303.1563102 210101325.78066769 0 210101325.78066769 51954622.778300703 0 0 0 0 -762923500.02055359 142172927.64098102 0 142172927.64098102 22103998.959459394 0 0 0 0 -271866159.14591599 -162668250.79180926 0 -162668250.79180926 136806270.60491648 0 0 0 0 -1437260.134002991 -549685.94266026467 0 -549685.94266026467 94638.074626902278 0 0 0 0 -166237480.5194397 159741971.39742851 0 159741971.39742851 -98143442.368507698 0 0 0 0 -419652363.18081665 128316653.34178232 0 128316653.34178232 -36919.689150925158 0 0 0 0 -406251546.66131592 261576525.59237966 0 261576525.59237966 -45090809.275603935 0 0 0 0 -423504701.42195129 117055947.45184965 0 117055947.45184965 -29752517.711156331 0 0 0 0 -1011768466.9586182 482003125.20466125 0 482003125.20466125 -183526539.5794194 0 0 0 0 -1731633697.2132721 708006745.15080941 0 708006745.15080941 -25271115.727694571 0 0 0 0 -1032248135.203949 41983060.148602486 0 41983060.148602486 312591191.49166012 0 0 0 0 -590781628.80632401 156815115.68155089 0 156815115.68155089 51562665.750760317 0 0 0 0 -3100923.3924784064 -1573255.9089027718 0 -1573255.9089027718 -156332.5760624425 0 0 0 0 -549998801.96131706 6520750.2913398445 0 6520750.2913398445 98533572.828612089 0 0 0 0 -120714355.99575806 -13779899.907930374 0 -13779899.907930374 60295434.610459805 0 0 0 0 -656240064.99749756 -47997817.085962296 0 -47997817.085962296 164989852.34711075 0 0 0 0 -214019451.28887939 42756570.5546453 0 42756570.5546453 77854930.835277081 0 0 0 0 -717442376.13772583 -215447556.92823601 0 -215447556.92823601 115707585.65250492 0 0 0 0 -1037585556.0010223 -28932953.042536616 0 -28932953.042536616 331695491.69487047 0 0 0 0 -1787377036.3610229 225236499.35067746 0 225236499.35067746 111147809.89574501 0 0 0 0 -1120667829.0770111 -20340434.801460043 0 -20340434.801460043 -35366328.24182497 0 0 0 0 -700210115.12689209 193849768.73844188 0 193849768.73844188 -180352545.99313748 0 0 0 0 -664081508.91809845 439608521.33356422 0 439608521.33356422 -181230852.99933892 0 0 0 0 -1343180.2854003906 -214994451.06372941 0 -214994451.06372941 139932231.3321619 0 0 0 0 -3312254.0177325383 -2090089.4344068356 0 -2090089.4344068356 -624331.85467926192 0 0 0 0 218710.96898370981 -48237.304362844676 0 -48237.304362844676 -565581.61882036552 0 0 0 0 -1382191276.0560827 303511481.13620651 0 303511481.13620651 -467758442.54161 0 0 0 0 -1406837925.2796173 593486186.70993733 0 593486186.70993733 -159519162.92669916 0 0 0 0 -976778219.58349609 64510723.3537848 0 64510723.3537848 -336781807.68852866 0 0 0 0 -940325018.78677368 80747721.190442801 0 80747721.190442801 -50447455.630699277 0 0 0 0 -911417611.73709106 200552721.56210589 0 200552721.56210589 -176767174.46813893 0 0 0 0 328696686.79854965 -134518018.83084226 0 -134518018.83084226 -192417079.01027107 0 0 0 0 -792387889.24838257 -465433227.9690479 0 -465433227.9690479 -26100285.614528894 0 0 0 0 -538495879.4520874 -100585881.77022132 0 -100585881.77022132 -147068948.16181612 0 0 0 0 -798516.19397358596 -1455478.7018191069 0 -1455478.7018191069 -2469234.6933843275 0 0 0 0 -806204457.71430969 -88234533.009703875 0 -88234533.009703875 29360949.479789972 0 0 0 0 -583549603.98770142 -90903447.158231974 0 -90903447.158231974 16094602.265285373 0 0 0 0 -534127056.4345932 57820151.623539597 0 57820151.623539597 -42128314.860276937 0 0 0 0 -679936183.82763672 115523965.38722706 0 115523965.38722706 -62737734.098596096 0 0 0 0 -1191973981.4647217 -283832917.40066147 0 -283832917.40066147 25902330.474916458 0 0 0 0 -801718667.04202271 -72066323.897166729 0 -72066323.897166729 105047435.9198122 0 0 0 0 -598563098.29853821 -289927131.78446293 0 -289927131.78446293 30185877.295285225 0 0 0 0 -84664046.828704834 -154150493.0955286 0 -154150493.0955286 -18250318.351675987 0 0 0 0 -50794795.695831299 295002555.0643487 0 295002555.0643487 -241284235.14372182 0 0 0 0 -457692748.05943298 -5606936.6604218483 0 -5606936.6604218483 -147794201.67673278 0 0 0 0 -271308547.55488586 -249286077.28257012 0 -249286077.28257012 104157895.81758308 0 0 0 0 -537988551.57461548 -223668845.40879142 0 -223668845.40879142 -508194964.08524132 0 0 0 0 -1220950145.1305847 -117488763.81790495 0 -117488763.81790495 -218778326.34581995 0 0 0 0 -1180691280.9514771 -162038981.33533931 0 -162038981.33533931 -227089543.23396492 0 0 0 0 -795973937.09962463 256271022.33423996 0 256271022.33423996 -556025822.58100986 0 0 0 0 -450658975.45498657 -177619023.46403432 0 -177619023.46403432 -65939801.215250015 0 0 0 0 -224732452.89115906 246334762.75428247 0 246334762.75428247 92067264.644308329 0 0 0 0 -249954080.97828674 -102487322.77973843 0 -102487322.77973843 214126561.78586721 0 0 0 0 -685373670.43664551 293294377.09714675 0 293294377.09714675 -85891787.020788819 0 0 0 0 -684758635.94044435 -177904839.18462276 0 -177904839.18462276 93530656.227010727 0 0 0 0 -724931501.01376343 -136692936.55333638 0 -136692936.55333638 83282289.76208353 0 0 0 0 377143025.28355408 44760992.808276892 0 44760992.808276892 -295053204.19064045 0 0 0 0 -427424.37192359194 -665115.80859751999 0 -665115.80859751999 -1639510.924770135 0 0 0 0 -262260573.44837952 335874939.72607517 0 335874939.72607517 168862736.46491385 0 0 0 0 -150357818.17337036 421625534.72935247 0 421625534.72935247 280176622.48208976 0 0 0 0 -418159417.64876366 200632935.29970878 0 200632935.29970878 338377962.54862261 0 0 0 0 -319957037.59757996 -95929461.048639774 0 -95929461.048639774 -120178662.3364439 0 0 0 0 -424944014.43751526 450554163.27954996 0 450554163.27954996 416096213.41657352 0 0 0 0 -196682323.31004333 192169987.70789564 0 192169987.70789564 61414192.048322916 0 0 0 0 -6927685.5699462891 587450125.30538189 0 587450125.30538189 139195520.91946125 0 0 0 0 124260907.63969421 440800084.50329161 0 440800084.50329161 368590000.61629629 0 0 0 0 5412237.6482086182 650929329.29627514 0 650929329.29627514 492248688.11259985 0 0 0 0 474332739.45373535 581309318.02700257 0 581309318.02700257 333501479.31148958 0 0 0 0 468572184.32719421 694239299.29984736 0 694239299.29984736 339592382.32897568 0 0 0 0 -5894895.4381084675 3343828.2038323395 0 3343828.2038323395 -3040747.1565949647 0 0 0 0 -4095091423.1763458 191418369.40076235 0 191418369.40076235 -95284290.297094449 0 0 0 0 -3313585767.3812675 1203331005.3429048 0 1203331005.3429048 -438551077.43058443 0 0 0 0 737077036.69332886 510490968.19917035 0 510490968.19917035 298097528.27321291 0 0 0 0 -1982172.5115476325 1141371.8454397023 0 1141371.8454397023 -1283224.8174357335 0 0 0 0 1291087063.9598083 329423558.8619473 0 329423558.8619473 270109629.86463928 0 0 0 0 -6514229316.818985 2314384791.4948468 0 2314384791.4948468 -729384792.96082163 0 0 0 0 3245990212.9279785 887090926.03712392 0 887090926.03712392 -891795551.74589515 0 0 0 0 -159905710.177948 645153230.51047087 0 645153230.51047087 421590396.43742466 0 0 0 0 577941813.97796631 1046346229.3189383 0 1046346229.3189383 108954518.65133715 0 0 0 0 -87058473.911262512 637526598.21429706 0 637526598.21429706 -358741446.29336214 0 0 0 0 1067006745.3170624 2145242756.754488 0 2145242756.754488 -1104924359.7604198 0 0 0 0 -321336640.57641602 886245160.14170337 0 886245160.14170337 132141646.77521592 0 0 0 0 -2451955314.2711792 2580361716.2724519 0 2580361716.2724519 -568600714.08558691 0 0 0 0 -4096476445.8055038 3696912936.5854883 0 3696912936.5854883 -1258132115.0994742 0 0 0 0 -2954766710.4814453 2052145797.8100991 0 2052145797.8100991 28012940.062854983 0 0 0 0 -2487691323.6875 1830882995.8481624 0 1830882995.8481624 120220534.35406193 0 0 0 0 -1754117393.0859833 1249637050.817817 0 1249637050.817817 -295244360.33990872 0 0 0 0 -1028589673.8690948 1056882331.1788062 0 1056882331.1788062 -244037981.36357844 0 0 0 0 -1835713153.6322784 2287257338.5899038 0 2287257338.5899038 -439699464.71031916 0 0 0 0 -1163250230.2062378 565472914.59246171 0 565472914.59246171 -267592592.87013566 0 0 0 0 -789776453.03436279 468161463.948295 0 468161463.948295 -176437313.35402751 0 0 0 0 -724921232.55709839 507261852.01898825 0 507261852.01898825 -295287044.51912493 0 0 0 0 -1045952878.1957245 325414561.23863721 0 325414561.23863721 -242796809.07273841 0 0 0 0 -753085205.36297607 260833407.78564978 0 260833407.78564978 -231408217.35172758 0 0 0 0 -878014827.07917786 317466117.34934121 0 317466117.34934121 -137782957.72689509 0 0 0 0 -679869937.55020142 182076874.03571963 0 182076874.03571963 97487802.059739411 0 0 0 0 -477995500.2587986 215000993.00990081 0 215000993.00990081 -124583545.68166924 0 0 0 0 -518412523.12559128 546916406.89469838 0 546916406.89469838 -166951743.60967255 0 0 0 0 -588150224.87600708 431909273.46387529 0 431909273.46387529 117161149.50393268 0 0 0 0 -841083224.90551758 1019352317.3576207 0 1019352317.3576207 -478893259.46952748 0 0 0 0 11448859.570846558 -46613039.094860412 0 -46613039.094860412 42739932.935737297 0 0 0 0 -1372678.2678375244 -65799189.778858513 0 -65799189.778858513 104359834.562365 0 0 0 0 88887280.923049927 -135167947.80707079 0 -135167947.80707079 134837623.50438869 0 0 0 0 -82769116.833892822 -61079790.569689788 0 -61079790.569689788 151974789.57721615 0 0 0 0 -73886015.673574448 -21337024.889364235 0 -21337024.889364235 145494891.18594557 0 0 0 0 -127594436.2674408 -14695532.822331533 0 -14695532.822331533 144065434.27038491 0 0 0 0 -24025322.36882019 -76751349.204109877 0 -76751349.204109877 140271901.30658612 0 0 0 0 -3139591.4418945312 -56084588.293238357 0 -56084588.293238357 156232396.17933425 0 0 0 0 -213014815.69718933 -32762145.279172681 0 -32762145.279172681 -441228.64421200141 0 0 0 0 -133066981.84939575 -93577734.313443139 0 -93577734.313443139 15989079.366020888 0 0 0 0 -60339351.653518677 -38004766.36217086 0 -38004766.36217086 6995735.7758199349 0 0 0 0 -90050978.909942627 -26268667.453249466 0 -26268667.453249466 110839695.92546311 0 0 0 0 -46854391.439651489 -65653116.04052069 0 -65653116.04052069 28275398.387125894 0 0 0 0 -62694101.444297791 -43439871.901341677 0 -43439871.901341677 105666.66655663202 0 0 0 0 -47514547.085225105 -47138554.190402687 0 -47138554.190402687 91819874.929785535 0 0 0 0 -85570545.192581177 -9672884.4320296347 0 -9672884.4320296347 237115655.01542485 0 0 0 0 -63502164.519515991 -39397285.783964306 0 -39397285.783964306 116107042.49718836 0 0 0 0 -38544025.001068115 9073983.4421291873 0 9073983.4421291873 102213752.55968989 0 0 0 0 22697615.655776978 112138796.79110207 0 112138796.79110207 214585764.94508716 0 0 0 0 -1039412.5214677081 -887347.45896699652 0 -887347.45896699652 -471870.0614894504 0 0 0 0 60523681.721435547 144867929.05434602 0 144867929.05434602 221210450.85379797 0 0 0 0 -1126344.4844448846 -452426.87263376266 0 -452426.87263376266 973183.69942894252 0 0 0 0 -88302971.986923218 47495161.114424109 0 47495161.114424109 384671903.91335773 0 0 0 0 -86165909.782440186 -84158253.826796696 0 -84158253.826796696 116388113.52073082 0 0 0 0 -69988089.902923584 -103563177.54770449 0 -103563177.54770449 12956.393481914478 0 0 0 0 -126531608.00669861 13764843.180238411 0 13764843.180238411 -45629141.540848807 0 0 0 0 -370239282.20465088 -72147934.076215044 0 -72147934.076215044 -259327.1282911512 0 0 0 0 -166637612.61184692 -161908867.26668763 0 -161908867.26668763 112731563.01626191 0 0 0 0 -229562415.26118469 148652514.62087217 0 148652514.62087217 69649531.692574024 0 0 0 0 -796509337.14575195 -69918155.116048127 0 -69918155.116048127 33496635.520097136 0 0 0 0 -814625951.45957947 176154580.5752269 0 176154580.5752269 -24300974.535612792 0 0 0 0 -906784172.6656189 3174710.8300768062 0 3174710.8300768062 -230070171.35758466 0 0 0 0 -1512176432.5491943 255202668.70160851 0 255202668.70160851 29866.640974069818 0 0 0 0 -1590923388.8262634 -15528002.372614205 0 -15528002.372614205 33652973.274300516 0 0 0 0 -1237885589.0699768 -2467554.6083045006 0 -2467554.6083045006 238937223.93028533 0 0 0 0 -938470829.42411804 223357384.7574746 0 223357384.7574746 46961209.53431052 0 0 0 0 -1003807809.4925537 -15929656.888087511 0 -15929656.888087511 400528794.13619339 0 0 0 0 -875630008.96157837 116519718.61083984 0 116519718.61083984 259973077.68267608 0 0 0 0 -874719375.68174744 133097044.88812721 0 133097044.88812721 532590970.43112898 0 0 0 0 -797857956.13241577 -110806402.29063606 0 -110806402.29063606 484619406.02859509 0 0 0 0 -340779324.35067749 49544100.978506804 0 49544100.978506804 39637715.680501938 0 0 0 0 -978683171.91165161 51726047.182544947 0 51726047.182544947 286807239.26743782 0 0 0 0 -826119456.36960602 -6440810.4220265746 0 -6440810.4220265746 288909894.39616299 0 0 0 0 -1146905148.7233353 70105569.253270358 0 70105569.253270358 -316947097.18637466 0 0 0 0 -1311599163.7744751 -110148112.81508303 0 -110148112.81508303 214207419.88178778 0 0 0 0 -738633645.7196579 549581163.54727411 0 549581163.54727411 -246160786.09721088 0 0 0 0 -356814836.02536011 -25721711.751291752 0 -25721711.751291752 88474063.441774845 0 0 0 0 126694859.93460083 94168716.670926094 0 94168716.670926094 -161396551.22071087 0 0 0 0 -8007119.9088133723 3999759.157615101 0 3999759.157615101 1184353.0559978066 0 0 0 0 -146029109.76551819 -8434621.544532299 0 -8434621.544532299 112816369.53115559 0 0 0 0 -2415212964.9775848 382765149.01113558 0 382765149.01113558 -54364651.569311142 0 0 0 0 -993753.06161591411 -36510.415654623532 0 -36510.415654623532 422013.11641388939 0 0 0 0 -2538169279.4733887 -10015875.959971428 0 -10015875.959971428 -126713927.81400871 0 0 0 0 -1268064.0673991293 1448092.1942546517 0 1448092.1942546517 149471.65752975177 0 0 0 0 -1224109098.782728 -260516907.99647307 0 -260516907.99647307 -903464932.76070595 0 0 0 0 -1877465467.5771484 423842208.66917896 0 423842208.66917896 -681705603.73721623 0 0 0 0 -1327900570.2957458 -914196274.20793629 0 -914196274.20793629 -645302590.53090382 0 0 0 0 -2715839905.8521423 -651749104.94047976 0 -651749104.94047976 -124857779.99396324 0 0 0 0 -1999200920.5874023 -1408628535.1543484 0 -1408628535.1543484 -841962930.76446986 0 0 0 0 -1436025499.7900391 -441252884.64568424 0 -441252884.64568424 115646703.40498114 0 0 0 0 -1789691065.9531403 -252210353.009377 0 -252210353.009377 21049340.449777603 0 0 0 0 -1289739334.7810364 176733751.17410231 0 176733751.17410231 -70587797.571771622 0 0 0 0 -1162282482.7161865 -234115141.64433289 0 -234115141.64433289 261576842.72314954 0 0 0 0 -1193297525.0931091 -260407234.8747468 0 -260407234.8747468 471946565.78159904 0 0 0 0 -1345501063.7865829 -568937696.24535298 0 -568937696.24535298 123720206.75425529 0 0 0 0 -1214801921.5743446 -522865898.01789033 0 -522865898.01789033 -77562963.140137672 0 0 0 0 -50583939.831375122 7835991.0912430286 0 7835991.0912430286 18065175.573747635 0 0 0 0 -16556126.590042114 2603312.2474503517 0 2603312.2474503517 5387254.9051442146 0 0 0 0 -3809290.841472514 -974862.62292349339 0 -974862.62292349339 7935046.1653677365 0 0 0 0 17828442.226135254 25690364.69300127 0 25690364.69300127 -5484782.9104309082 0 0 0 0 -3337055.4578978848 2791527.8229949102 0 2791527.8229949102 -4538012.3636180144 0 0 0 0 -26289054.56942749 37639933.055386782 0 37639933.055386782 6157859.09582901 0 0 0 0 12553434.271911621 -40027455.66088295 0 -40027455.66088295 -42308251.667636633 0 0 0 0 -17607180.819625854 3652059.9087446928 0 3652059.9087446928 -4027351.1013529301 0 0 0 0 -8663106.2570571899 18635029.000423849 0 18635029.000423849 -11539204.911733627 0 0 0 0 -9512771.789855957 4751315.77024436 0 4751315.77024436 -4719892.4380558729 0 0 0 0 -6806195.8024902344 2547773.5094993114 0 2547773.5094993114 -2925900.632614851 0 0 0 0 -17364240.196929932 -619477.44749844074 0 -619477.44749844074 5348205.259775877 0 0 0 0 -7417602.1977557987 214035.0636690883 0 214035.0636690883 -2363895.9193003811 0 0 0 0 -31555830.201416016 105707744.78386068 0 105707744.78386068 -161588550.99905872 0 0 0 0 -4397563.4314457439 -111994.98190452904 0 -111994.98190452904 3361770.8570832652 0 0 0 0 -10418941.607318878 1572669.9639748931 0 1572669.9639748931 -1474079.3112069368 0 0 0 0 -10287944.32383728 -2598625.3085142374 0 -2598625.3085142374 -2023970.9337694645 0 0 0 0 -29348425.988754272 -7357305.4740231037 0 -7357305.4740231037 16712073.326756775 0 0 0 0 -30148800.859947681 -26341412.474497471 0 -26341412.474497471 -15823714.464798927 0 0 0 0 -42052064.308074951 20222935.285743043 0 20222935.285743043 84498689.206196174 0 0 0 0 -27000344.909957886 4148658.0628510844 0 4148658.0628510844 82485372.110888153 0 0 0 0 -4020051.4074996263 -3087702.132860858 0 -3087702.132860858 -1541819.4402738069 0 0 0 0 -25366401.459320068 -4080371.0433573429 0 -4080371.0433573429 91769817.816554159 0 0 0 0 -16749070.512496948 -13286381.968485177 0 -13286381.968485177 -3896886.9277534485 0 0 0 0 -7253084.7202250957 -1934572.7865234674 0 -1934572.7865234674 -4045747.1463873698 0 0 0 0 -1188422.219329834 2737681.070754528 0 2737681.070754528 -10227214.039082244 0 0 0 0 -5282295.9020805359 5328069.1796384454 0 5328069.1796384454 -11013759.181211233 0 0 0 0 2762317.2864990234 6767101.4715656042 0 6767101.4715656042 -11103575.319498539 0 0 0 0 9095381.1610412598 -1616322.8076910973 0 -1616322.8076910973 -14038856.317289189 0 0 0 0 2638366.42918396 4619475.349380374 0 4619475.349380374 -16251441.664192677 0 0 0 0 -3498000.5794029236 -1538277.1888330281 0 -1538277.1888330281 -14031586.519701719 0 0 0 0 -6246169.4580828175 -5023314.549003236 0 -5023314.549003236 -8610711.6957601886 0 0 0 0 -7313579.4779771864 -8566307.3175455146 0 -8566307.3175455146 -14552404.140151333 0 0 0 0 -9641771.4853744507 -33900997.537054062 0 -33900997.537054062 42771234.904565811 0 0 0 0 -1167825407.5843124 947353805.40781403 0 947353805.40781403 513109475.5513382 0 0 0 0 -1059250.2337396443 -2809073.4607179984 0 -2809073.4607179984 -3480695.0448144712 0 0 0 0 -235301439.66467285 -1342211000.1798153 0 -1342211000.1798153 -1129426986.6545467 0 0 0 0 -8355371.2547315173 -7247972.0494137332 0 -7247972.0494137332 -7374179.6355431825 0 0 0 0 -1807450294.1735992 1297970702.9954309 0 1297970702.9954309 1035201672.4057961 0 0 0 0 -106591.21171051264 -2533277.8195814611 0 -2533277.8195814611 -1894887.8522200491 0 0 0 0 -8243449.9808608741 -5344980.5527134333 0 -5344980.5527134333 -4151596.1896846434 0 0 0 0 -686758.35673522949 -30932571.663492352 0 -30932571.663492352 16032045.75921143 0 0 0 0 -3881160.1301269531 -4513171.8484237194 0 -4513171.8484237194 -1595767.8932189941 0 0 0 0 -22604902.815330505 -13310365.751473816 0 -13310365.751473816 48338239.62879692 0 0 0 0 -10030210.076054513 -9706735.9236733429 0 -9706735.9236733429 -7747358.6778865531 0 0 0 0 -5216692.7179489136 -26985526.191352326 0 -26985526.191352326 62320166.892832592 0 0 0 0 -1414135314.4516754 -65026300.509266853 0 -65026300.509266853 -19432113.602962494 0 0 0 0 -473345761.16798401 -107327697.88872528 0 -107327697.88872528 19116988.585327148 0 0 0 0 -389781872.93840027 -80831842.125864029 0 -80831842.125864029 -15882918.022687912 0 0 0 0 -183743596.92144775 -87340198.564847946 0 -87340198.564847946 -57975627.492202759 0 0 0 0 -182476492.01227283 -75002887.480452657 0 -75002887.480452657 39245272.64320755 0 0 0 0 -238289994.68841553 -113642013.76859283 0 -113642013.76859283 1624422.1440992355 0 0 0 0 -433364584.91963196 -27805637.763519287 0 -27805637.763519287 43739515.999954224 0 0 0 0 -471031199.67693329 50209952.595707893 0 50209952.595707893 37242335.588489532 0 0 0 0 -458880428.94173431 -130161464.69162846 0 -130161464.69162846 41505167.557014465 0 0 0 0 -307712247.42364883 32777291.885192871 0 32777291.885192871 76184685.309841156 0 0 0 0 114645429.65328979 -150438953.50905418 0 -150438953.50905418 9803027.9167928696 0 0 0 0 -179090964.81056213 -14852949.154157639 0 -14852949.154157639 69888178.313346863 0 0 0 0 -5982792.0067844614 -7656416.9927290715 0 -7656416.9927290715 -15475041.925367933 0 0 0 0 25652448.249084473 -426707.94184112549 0 -426707.94184112549 -15155638.000206351 0 0 0 0 73103650.320281982 -5803272.3604510427 0 -5803272.3604510427 -27226594.687125921 0 0 0 0 3529799.3523712158 26060151.507565439 0 26060151.507565439 -12864905.240832806 0 0 0 0 -13097179.237319946 16711613.114924908 0 16711613.114924908 -8498759.0556752682 0 0 0 0 29381677.26663208 -15019323.522776604 0 -15019323.522776604 669598.67202627659 0 0 0 0 31252433.134597778 30480966.028742492 0 30480966.028742492 -18716495.334458113 0 0 0 0 291942360.47388458 -16345802.620523572 0 -16345802.620523572 -59817693.308132648 0 0 0 0 -6426228.0490623042 -6766016.2585640736 0 -6766016.2585640736 -15247815.639073677 0 0 0 0 37078146.001525879 166750034.99397206 0 166750034.99397206 109101978.73509312 0 0 0 0 122115439.83041382 -37956952.238039017 0 -37956952.238039017 -52835075.440418243 0 0 0 0 191267262.33321762 -201589036.77266502 0 -201589036.77266502 53974002.692234039 0 0 0 0 41162942.105026245 -73147242.466306686 0 -73147242.466306686 -17546973.362808228 0 0 0 0 42665454.329452515 -38213034.592784882 0 -38213034.592784882 -92082317.183950424 0 0 0 0 302501290.50510406 -141196128.3789711 0 -141196128.3789711 -55190811.002174377 0 0 0 0 183510366.90628052 -17476909.354314804 0 -17476909.354314804 -22896444.874102592 0 0 0 0 -8844593.2523624338 -5152434.29175869 0 -5152434.29175869 -13724843.012877863 0 0 0 0 161441059.08148193 33408415.559013367 0 33408415.559013367 -815552467.27139282 0 0 0 0 501666090.42675781 -369918276.34180379 0 -369918276.34180379 -622682838.37674475 0 0 0 0 -352114285.5060463 -62902293.979307145 0 -62902293.979307145 174595766.3288641 0 0 0 0 -258221476.63519287 58355321.926707029 0 58355321.926707029 214166555.54125071 0 0 0 0 -85417.215210396796 -317999.59030878544 0 -317999.59030878544 -1247534.2961586101 0 0 0 0 165648445.95727539 -175270195.65708342 0 -175270195.65708342 -217649883.57435265 0 0 0 0 -486995366.47186279 -542782686.30637681 0 -542782686.30637681 -21759610.647989437 0 0 0 0 50567050.349159241 -332611775.14982563 0 -332611775.14982563 5003526.3214168549 0 0 0 0 -445546715.39086914 -299626855.35437202 0 -299626855.35437202 37909543.524092913 0 0 0 0 -264591811.07976532 -120604478.48504019 0 -120604478.48504019 431299058.3012023 0 0 0 0 918733881.93182373 346875918.8041569 0 346875918.8041569 -1271546996.5596311 0 0 0 0 -243450.16452229768 -252613.81555463374 0 -252613.81555463374 265791.9329444411 0 0 0 0 -130744151.78384399 -38474987.45757401 0 -38474987.45757401 -44527561.046072602 0 0 0 0 -111452543.68475342 -52276441.704395413 0 -52276441.704395413 -75300616.622699499 0 0 0 0 22445694.940155029 100308373.21160126 0 100308373.21160126 -60182909.330577955 0 0 0 0 -558551.66583338194 20386.27446719259 0 20386.27446719259 -3133520.1217930391 0 0 0 0 -146875299.84068298 37461195.419643819 0 37461195.419643819 7094944.4592044353 0 0 0 0 -45812850.177505493 13045002.479794741 0 13045002.479794741 -1402980.9002703428 0 0 0 0 -12969390.473554611 16844915.941734344 0 16844915.941734344 -18444882.797927141 0 0 0 0 -24513394.913284302 26451883.171915472 0 26451883.171915472 -13190152.050107002 0 0 0 0 -13077110.032592773 13947116.188273191 0 13947116.188273191 -11902812.429281652 0 0 0 0 99624210.71900177 80298884.111490965 0 80298884.111490965 -13662974.05794239 0 0 0 0 -146593004.57595825 116352897.63269615 0 116352897.63269615 146978037.01900721 0 0 0 0 -1467867.6995726433 861119.34938047826 0 861119.34938047826 -4194841.1192242429 0 0 0 0 -193852346.17979431 -33804814.16566515 0 -33804814.16566515 96784419.33984375 0 0 0 0 184145920.27462769 -39101615.192051351 0 -39101615.192051351 -247434263.10637474 0 0 0 0 -2023090272.5553131 918317718.36457527 0 918317718.36457527 465409818.7805078 0 0 0 0 598740831.6864624 -295126536.79131067 0 -295126536.79131067 -1982993456.7513206 0 0 0 0 -1291852515.7832489 -129781739.47497842 0 -129781739.47497842 367795058.16847283 0 0 0 0 -801210182.93466187 454588743.9922542 0 454588743.9922542 620156547.25260568 0 0 0 0 -1716964.3190923668 -406878.40049947798 0 -406878.40049947798 3376972.4492571577 0 0 0 0 -765794520.52293396 -124185625.06941497 0 -124185625.06941497 479733783.16061985 0 0 0 0 -1194740808.5810547 -409117942.78076541 0 -409117942.78076541 1033444634.6324673 0 0 0 0 -2081488768.2596588 -69520161.447976828 0 -69520161.447976828 1181730495.6454582 0 0 0 0 -942271386.33203125 -796105261.32734108 0 -796105261.32734108 1397176926.5481863 0 0 0 0 -2676611138.3384171 441828857.78069806 0 441828857.78069806 186460654.48123741 0 0 0 0 13423286.330101013 1298002092.9506962 0 1298002092.9506962 -2952719434.1757212 0 0 0 0 -6210966.0085135102 2264314.4773928039 0 2264314.4773928039 311868.6648838034 0 0 0 0 -834562338.19155884 -1016969579.9333632 0 -1016969579.9333632 -1222242564.4341135 0 0 0 0 -381038645.0844574 702171499.39445448 0 702171499.39445448 191657420.61011171 0 0 0 0 -1169809861.0401764 24054951.65413785 0 24054951.65413785 366306746.49380541 0 0 0 0 -296433434.96600342 133982420.91232872 0 133982420.91232872 373189268.79499972 0 0 0 0 209799331.60638428 703040852.50972509 0 703040852.50972509 102881956.10181379 0 0 0 0 711064030.48726654 451901943.88430023 0 451901943.88430023 -64495095.145817757 0 0 0 0 -965735430.22058105 360119130.629493 0 360119130.629493 -148648168.10178947 0 0 0 0 -2724618.5431000367 -2003295.946904514 0 -2003295.946904514 1306246.4448857363 0 0 0 0 183543047.21612549 27501971.338093758 0 27501971.338093758 185448196.6966815 0 0 0 0 -288203268.84811401 -21608681.431483269 0 -21608681.431483269 -106432741.9186821 0 0 0 0 -325352261.27684021 183143604.34320211 0 183143604.34320211 294179022.44170856 0 0 0 0 -70774228.68157959 240869759.54927254 0 240869759.54927254 305225474.19444609 0 0 0 0 -453419092.25601196 23495878.034024239 0 23495878.034024239 315927360.30564499 0 0 0 0 -236728974.10296631 101587029.29325104 0 101587029.29325104 304151916.64832187 0 0 0 0 -350869596.69662476 -64395237.51627326 0 -64395237.51627326 263114386.79345512 0 0 0 0 -212005138.44793701 80625055.452889919 0 80625055.452889919 303766065.15778351 0 0 0 0 163157683.39513397 166010365.97456682 0 166010365.97456682 207823508.64992142 0 0 0 0 -87972411.875488281 121156288.88217545 0 121156288.88217545 273395213.64681625 0 0 0 0 -62816742.638977051 96321074.517861366 0 96321074.517861366 234693216.55557442 0 0 0 0 -26125648.370452881 111573762.50080776 0 111573762.50080776 219933787.4752779 0 0 0 0 13218480.892974854 70460197.969188213 0 70460197.969188213 60958517.248153687 0 0 0 0 -60573752.565002441 69688762.001563072 0 69688762.001563072 191275243.90146255 0 0 0 0 -120793259.3298645 7172409.8542656898 0 7172409.8542656898 229887540.6199646 0 0 0 0 -149120046.36636353 93206663.18243885 0 93206663.18243885 263080725.22313499 0 0 0 0 -176606259.69797516 21663100.308830976 0 21663100.308830976 250309175.07681847 0 0 0 0 -75877460.206066132 36327781.997318745 0 36327781.997318745 128263931.51111984 0 0 0 0 -55271308.737380981 28019604.706991196 0 28019604.706991196 117736474.83354568 0 0 0 0 -68834899.135040283 67120767.56952095 0 67120767.56952095 190480608.50418282 0 0 0 0 -70432530.287250519 23697854.906744003 0 23697854.906744003 -11323323.486455917 0 0 0 0 -13345441.453066915 92439.682457156479 0 92439.682457156479 7153991.9647418847 0 0 0 0 -5204891.9365913942 4611815.9387563467 0 4611815.9387563467 1475885.7643675171 0 0 0 0 -194206593.2184906 -115913183.78066063 0 -115913183.78066063 305503622.12093925 0 0 0 0 18439886.473770142 91296790.084639072 0 91296790.084639072 136794344.34187317 0 0 0 0 -56586648.232421875 -22415775.997612 0 -22415775.997612 141350100.11933899 0 0 0 0 22495948.84173584 38660359.524614334 0 38660359.524614334 212912903.81408596 0 0 0 0 9046204.7317962646 191733685.95227003 0 191733685.95227003 -46145711.446979523 0 0 0 0 -23539496.115668505 14437898.265402228 0 14437898.265402228 -4582483.8664732696 0 0 0 0 -15632829.750045776 -2087511.25723207 0 -2087511.25723207 -14067852.287350416 0 0 0 0 -29862165.505958557 29012046.342777789 0 29012046.342777789 24722695.985329866 0 0 0 0 -44742067.560005188 13451312.347304881 0 13451312.347304881 33626784.479432583 0 0 0 0 -25700335.995666504 8517024.4731890559 0 8517024.4731890559 30171723.373227596 0 0 0 0 -7944096.4138641357 29266194.510168195 0 29266194.510168195 23403885.228893816 0 0 0 0 -63495289.702827454 11283951.391396582 0 11283951.391396582 38203542.949639201 0 0 0 0 -27647600.938766479 11950541.342607379 0 11950541.342607379 1606998.7136110067 0 0 0 0 -14848732.045679292 3300427.8322318904 0 3300427.8322318904 1285133.3122596615 0 0 0 0 -23941727.614273071 -4598673.2097740173 0 -4598673.2097740173 -24371246.386655807 0 0 0 0 -26227966.544466741 11609775.470109582 0 11609775.470109582 35072.105239680968 0 0 0 0 -263407.76528930664 37487675.275372505 0 37487675.275372505 2489139.465051651 0 0 0 0 -60777323.0703125 5306292.5102529526 0 5306292.5102529526 30840897.638426304 0 0 0 0 -51385289.143081665 15179359.129376411 0 15179359.129376411 34952584.3131814 0 0 0 0 -21514427.335651256 -4377673.038068451 0 -4377673.038068451 -1350118.8747651903 0 0 0 0 -23082331.640289307 10956989.012500763 0 10956989.012500763 12250638.283026695 0 0 0 0 -50257225.666870117 23085533.934355736 0 23085533.934355736 20025509.910143375 0 0 0 0 -31804231.992736816 -11641428.981260777 0 -11641428.981260777 -8022720.0485218167 0 0 0 0 -10901508.625664778 -6337650.8263641708 0 -6337650.8263641708 5154455.3176764995 0 0 0 0 -41579271.957496643 14514416.728204727 0 14514416.728204727 63600148.472861886 0 0 0 0 -2502919.325430207 115116.54385817051 0 115116.54385817051 617425.46957026143 0 0 0 0 -44359897.486572266 15564579.175955534 0 15564579.175955534 62959242.252545357 0 0 0 0 -15911746.477478027 -10659682.589720786 0 -10659682.589720786 74954741.396733999 0 0 0 0 116061659.50913239 -60269931.760736957 0 -60269931.760736957 -135386728.74588859 0 0 0 0 -77340922.139068604 -91295352.353248835 0 -91295352.353248835 -1812267.764321804 0 0 0 0 -89588752.584564209 -836626.56102752686 0 -836626.56102752686 114860743.39874649 0 0 0 0 -83961466.824789047 -48460964.431095302 0 -48460964.431095302 115744406.59137583 0 0 0 0 160170968.29592896 53061283.835577011 0 53061283.835577011 -11544319.411079407 0 0 0 0 -17498177.890990317 13268353.836064178 0 13268353.836064178 -8260504.6175812231 0 0 0 0 158888799.61329269 59264697.382601738 0 59264697.382601738 -7960319.2517929077 0 0 0 0 -31397260.632736206 37196139.105536461 0 37196139.105536461 52501967.137200356 0 0 0 0 164563076.74664307 33526492.861076355 0 33526492.861076355 7466116.373840332 0 0 0 0 163686530.33215332 41727000.911170959 0 41727000.911170959 -21636421.437309265 0 0 0 0 168457218.15667725 964261.45878601074 0 964261.45878601074 -31792049.527851105 0 0 0 0 177962649.08180237 -12352743.758972168 0 -12352743.758972168 -24562627.692352295 0 0 0 0 95174007.905540466 -231685584.70221323 0 -231685584.70221323 242821080.05104828 0 0 0 0 -15186957.554705981 -2299382.8768510818 0 -2299382.8768510818 -9895170.7032961063 0 0 0 0 169336298.29003906 2008821.8926811218 0 2008821.8926811218 -35776766.575984955 0 0 0 0 177982526.77944279 -10727655.841926128 0 -10727655.841926128 -49373820.031600952 0 0 0 0 168356947.64959717 8538889.6619224548 0 8538889.6619224548 5479828.0919723511 0 0 0 0 -3484925.8076716438 -276912.12494593859 0 -276912.12494593859 1201924.9042049246 0 0 0 0 -61698303.589630127 -61903145.927746773 0 -61903145.927746773 -21970778.973082542 0 0 0 0 54114329.077972412 -15164893.96844101 0 -15164893.96844101 116517105.97011185 0 0 0 0 -65613493.60319519 -26494850.924036503 0 -26494850.924036503 146269105.78187561 0 0 0 0 -135268176.87854004 -32404282.415834427 0 -32404282.415834427 146709235.41308284 0 0 0 0 -91663630.553955078 -112779003.4100132 0 -112779003.4100132 279845466.37489319 0 0 0 0 -164968555.3664856 -25068176.312432766 0 -25068176.312432766 253435533.21991217 0 0 0 0 -183484301.82189941 -4151250.4993753433 0 -4151250.4993753433 284635152.2039299 0 0 0 0 -195033582.13034058 -63840759.71566391 0 -63840759.71566391 207416398.9123745 0 0 0 0 -153909618.07791138 -92572088.183298111 0 -92572088.183298111 175652653.57442188 0 0 0 0 -64215067.791809082 21091661.248345852 0 21091661.248345852 -183275600.99215257 0 0 0 0 -98504134.062210083 -22520613.361935139 0 -22520613.361935139 212840223.92585087 0 0 0 0 -226962784.22238159 144046122.73082352 0 144046122.73082352 345731865.94014835 0 0 0 0 -135532851.50409698 -185140776.80686563 0 -185140776.80686563 406158767.22380257 0 0 0 0 158533027.55422974 -102441404.10875893 0 -102441404.10875893 20684789.891222954 0 0 0 0 153105066.74530029 -12584681.815219879 0 -12584681.815219879 -8412439.6504735947 0 0 0 0 91506209.14390564 2605771.1304626465 0 2605771.1304626465 -65913506.433591843 0 0 0 0 179629310.602108 -50323629.408792973 0 -50323629.408792973 -107737941.72352219 0 0 0 0 1464552.5971679688 26464360.997507095 0 26464360.997507095 -118878161.41096306 0 0 0 0 64946411.505401611 -49614246.06903553 0 -49614246.06903553 -166232588.04648209 0 0 0 0 120839269.96528625 34703900.357862473 0 34703900.357862473 -73334224.684972763 0 0 0 0 161986144.40672302 17534002.825139999 0 17534002.825139999 -114087869.71714401 0 0 0 0 146151299.45376587 -48112437.589183807 0 -48112437.589183807 -70853171.171592712 0 0 0 0 170552547.61361694 -2416441.0221786499 0 -2416441.0221786499 -68012228.410089731 0 0 0 0 166132579.25358582 39441434.100387573 0 39441434.100387573 -42384816.3698349 0 0 0 0 164632046.62942505 46776519.796947479 0 46776519.796947479 -63065491.049521923 0 0 0 0 145254119.96230316 25073984.381585121 0 25073984.381585121 -79511379.994045258 0 0 0 0 121127895.68034363 96248679.226694107 0 96248679.226694107 -38112042.502986908 0 0 0 0 162932151.7252655 72712960.875455856 0 72712960.875455856 -89518619.673336029 0 0 0 0 166658916.74047852 69079795.895877838 0 69079795.895877838 -36630324.45283699 0 0 0 0 159768236.19876099 55681697.066215515 0 55681697.066215515 -29638913.470619202 0 0 0 0 160929370.31445312 95958541.327934265 0 95958541.327934265 -27796589.517625332 0 0 0 0 212319872.78297424 202001629.7286377 0 202001629.7286377 27266997.886525154 0 0 0 0 -15712436.030400384 14043084.688405465 0 14043084.688405465 -8165186.2462850614 0 0 0 0 135896351.17260742 143735780.30106354 0 143735780.30106354 88765594.183117867 0 0 0 0 146024490.08810425 69266954.640504837 0 69266954.640504837 52190516.667961121 0 0 0 0 172020001.9352417 137318149.2578125 0 137318149.2578125 -16215920.704636812 0 0 0 0 133841432.15930176 98215015.096473694 0 98215015.096473694 -14363903.963058472 0 0 0 0 142192970.62692261 72349131.981057167 0 72349131.981057167 -11914642.728034973 0 0 0 0 103515600.27801514 138524920.42695427 0 138524920.42695427 -46029091.554788351 0 0 0 0 96805269.262817383 149597569.89540291 0 149597569.89540291 8217595.3404779434 0 0 0 0 98969126.181152344 131005340.43883705 0 131005340.43883705 -44524010.969833374 0 0 0 0 25683603.667724609 124412202.64141846 0 124412202.64141846 -56733350.150123596 0 0 0 0 63980274.521697998 94264732.130954742 0 94264732.130954742 -39824018.614573956 0 0 0 0 98151719.242401123 91572083.482426643 0 91572083.482426643 -129337834.82006073 0 0 0 0 107686498.17129517 63330314.227056503 0 63330314.227056503 -60314617.417856216 0 0 0 0 120565692.18607163 22941263.755876213 0 22941263.755876213 -168939889.4105072 0 0 0 0 25889169.13494873 57254878.318729401 0 57254878.318729401 -99059088.03644371 0 0 0 0 -66758261.558242798 111621092.56344032 0 111621092.56344032 -123362623.21514893 0 0 0 0 31499326.35760498 59414944.447532654 0 59414944.447532654 -238851950.08534527 0 0 0 0 7260962.2828559875 70613567.601765156 0 70613567.601765156 -115743329.72631836 0 0 0 0 -47566338.701446533 190883448.27153587 0 190883448.27153587 -40372315.047847748 0 0 0 0 -179046736.19195938 113061962.24169779 0 113061962.24169779 -274926577.77452469 0 0 0 0 -212135073.77502441 218107353.91511154 0 218107353.91511154 -71293358.31994772 0 0 0 0 -214823697.92056274 127473085.66689205 0 127473085.66689205 -339256737.44220734 0 0 0 0 -102802896.72609329 6037760.8728256226 0 6037760.8728256226 -210235721.46479416 0 0 0 0 -309895081.9723053 -167313408.03711033 0 -167313408.03711033 -323132816.99435043 0 0 0 0 -81792895.797225952 -62686077.122436523 0 -62686077.122436523 -185569585.38513851 0 0 0 0 -120652576.30814362 -8805459.8302106857 0 -8805459.8302106857 -221757052.72556305 0 0 0 0 -129662512.34520817 -59717717.953534603 0 -59717717.953534603 -124928300.04108047 0 0 0 0 -128550960.19796753 -49221361.603696823 0 -49221361.603696823 -47887486.849868774 0 0 0 0 -339699583.15838623 -162859644.94513702 0 -162859644.94513702 -159928790.73490334 0 0 0 0 -386216769.92129898 -75289677.192879677 0 -75289677.192879677 -72486555.410484314 0 0 0 0 -407752293.66060448 -144834444.21545696 0 -144834444.21545696 -91864468.624389648 0 0 0 0 500660427.47406769 432982620.97031134 0 432982620.97031134 669841834.7797389 0 0 0 0 340054055.82051373 -882956148.43117428 0 -882956148.43117428 258511687.2768876 0 0 0 0 1914827.647685051 7411248.6265018368 0 7411248.6265018368 1155695.9331123154 0 0 0 0 -153877272.20974731 562870172.04179084 0 562870172.04179084 1488510775.6442089 0 0 0 0 -642825835.64016724 -55045594.782270908 0 -55045594.782270908 2200348860.8866029 0 0 0 0 -389748984.24452209 -116249489.05378671 0 -116249489.05378671 1192569785.1910388 0 0 0 0 -116779026.32187653 -82946739.266659051 0 -82946739.266659051 82035059.298073739 0 0 0 0 -426874767.54423523 5895963.2742177956 0 5895963.2742177956 102820124.26152325 0 0 0 0 -99343036.634925842 21514762.495247364 0 21514762.495247364 -948288558.54298759 0 0 0 0 -216965102.15680695 -324251272.72295463 0 -324251272.72295463 -561405232.76948202 0 0 0 0 -936514396.78562927 -952819597.55774236 0 -952819597.55774236 -31885124.810900047 0 0 0 0 -465931906.08914185 -224232732.95061877 0 -224232732.95061877 -67095474.132001922 0 0 0 0 171858473.23008728 -277685920.1439805 0 -277685920.1439805 -73759353.133565068 0 0 0 0 -1705013113.1097946 -510590296.93462312 0 -510590296.93462312 -192293032.5442951 0 0 0 0 -2318136416.5751495 -1453485425.9105279 0 -1453485425.9105279 22658850.945548926 0 0 0 0 -846130440.07695007 -503816273.53629857 0 -503816273.53629857 175190885.9378984 0 0 0 0 -1338358806.7758789 -1104617284.8648129 0 -1104617284.8648129 -13396991.378475688 0 0 0 0 -2280739368.333725 -1532763078.8927445 0 -1532763078.8927445 161514979.14064926 0 0 0 0 -3615877750.8020782 -1623599603.8821144 0 -1623599603.8821144 187989117.21279097 0 0 0 0 -4097381712.1344376 -2820147915.878325 0 -2820147915.878325 -1695103413.8492889 0 0 0 0 1028683893.7762909 -784257163.05227089 0 -784257163.05227089 -1102554078.2744522 0 0 0 0 -2286109533.0783234 -2414266110.8202362 0 -2414266110.8202362 -534741613.72135103 0 0 0 0 614264892.97891235 -1349213329.801856 0 -1349213329.801856 -1816370378.5218711 0 0 0 0 -162337.22887267172 -12975.302779731806 0 -12975.302779731806 437433.37230269454 0 0 0 0 -1010968380.6608124 -709153014.37909031 0 -709153014.37909031 1061527781.7060031 0 0 0 0 -1002821025.8722229 -196706328.97091857 0 -196706328.97091857 444412385.67584515 0 0 0 0 -1162405764.4072113 -1261165105.7638488 0 -1261165105.7638488 118779755.5064882 0 0 0 0 -95803041.340576172 313136398.73635197 0 313136398.73635197 -117641547.62247753 0 0 0 0 89534129.611480713 129386598.85719967 0 129386598.85719967 -316687142.33878893 0 0 0 0 -181074264.93753052 55232401.418414116 0 55232401.418414116 199262127.19873238 0 0 0 0 2852940.8091125488 16816734.483358383 0 16816734.483358383 38435000.177035332 0 0 0 0 -1712376.0476312186 -474672.96520745382 0 -474672.96520745382 -1969275.238404382 0 0 0 0 -5576067537.1777191 -957795548.82184744 0 -957795548.82184744 -413543087.76834059 0 0 0 0 -4093617153.1050262 267024227.50081584 0 267024227.50081584 193099696.88739899 0 0 0 0 -323582190.94596863 249713152.07420707 0 249713152.07420707 364721077.88363743 0 0 0 0 -65718986.813598633 -98364126.676467896 0 -98364126.676467896 351730119.29230922 0 0 0 0 81653925.95362854 -135357535.33680248 0 -135357535.33680248 218520786.24582005 0 0 0 0 -4954442.1484548785 -2269164.6154212616 0 -2269164.6154212616 -4989385.3150776736 0 0 0 0 -19755092.278831482 -47775606.603827477 0 -47775606.603827477 172465466.54285622 0 0 0 0 -3533731149.5392399 -848413008.22365212 0 -848413008.22365212 -207206567.36865503 0 0 0 0 274633.77217052132 -1089508.9573564511 0 -1089508.9573564511 -9341904.6519092731 0 0 0 0 341642165.13615417 418145824.73745441 0 418145824.73745441 322531063.69330931 0 0 0 0 -20090726.524608709 4110156.3049039599 0 4110156.3049039599 -1620588.6386957953 0 0 0 0 290133164.45685196 507034805.05892748 0 507034805.05892748 558358701.7547102 0 0 0 0 102632368.62458038 423786833.84624159 0 423786833.84624159 710741660.22493553 0 0 0 0 38720437.940612793 563617857.65325069 0 563617857.65325069 907521326.35227871 0 0 0 0 121394123.89300537 672062937.32954931 0 672062937.32954931 932172570.06894886 0 0 0 0 -25807742.785022303 4477477.38071399 0 4477477.38071399 974022.19382818672 0 0 0 0 -34037501.167409897 160181805.34952193 0 160181805.34952193 80008059.852147579 0 0 0 0 -161130984.87921143 -48739409.950059414 0 -48739409.950059414 45989589.136488438 0 0 0 0 -31353500.538877741 3754655.4055165891 0 3754655.4055165891 3707721.9482959597 0 0 0 0 -17202638.480102539 384568154.63989091 0 384568154.63989091 1167579408.4185433 0 0 0 0 71308458.497467041 54190709.590978146 0 54190709.590978146 -20017708.357795715 0 0 0 0 -101786426.50253105 224990963.38465127 0 224990963.38465127 681269423.11436272 0 0 0 0 -52195724.742477417 570450740.7857914 0 570450740.7857914 581230653.78530216 0 0 0 0 282656648.70259094 566512692.97777534 0 566512692.97777534 734802591.35345268 0 0 0 0 -320798463.99520874 285616279.62649035 0 285616279.62649035 792555878.71538115 0 0 0 0 -216684.75972610712 53613.546061776578 0 53613.546061776578 -325225.56620426802 0 0 0 0 -478027225.79669189 191081355.12211788 0 191081355.12211788 708423605.35064125 0 0 0 0 -252524737.78900146 290522676.43086123 0 290522676.43086123 1504269533.6799531 0 0 0 0 -90904285.419342041 44480580.282869816 0 44480580.282869816 759251384.81687665 0 0 0 0 6059113.2944946289 377869529.1361233 0 377869529.1361233 1198682879.3805189 0 0 0 0 -21860240.057006836 496251579.3500514 0 496251579.3500514 854442724.08130801 0 0 0 0 8327051.6520080566 213732134.9789362 0 213732134.9789362 794906534.73353982 0 0 0 0 -176895343.31181717 136711441.46640962 0 136711441.46640962 1288732976.8588386 0 0 0 0 -109169356.6912384 112944716.21617424 0 112944716.21617424 229761275.78841329 0 0 0 0 -679379820.43769836 -288017883.37329459 0 -288017883.37329459 784948639.70979249 0 0 0 0 17128731.271284103 33183180.38368699 0 33183180.38368699 279577743.04512405 0 0 0 0 -179216646.28430176 45644351.434759855 0 45644351.434759855 851059553.85019803 0 0 0 0 89201412.687316895 204505698.83276844 0 204505698.83276844 872593974.22816563 0 0 0 0 -353307296.50164795 36057925.244311094 0 36057925.244311094 2070062251.0185158 0 0 0 0 77465569.213363647 -203902572.12037361 0 -203902572.12037361 1417269997.3399959 0 0 0 0 129607197.93043518 121434750.692276 0 121434750.692276 826824962.60707009 0 0 0 0 -233454362.95175171 337240252.15441805 0 337240252.15441805 1699865666.642108 0 0 0 0 -352275661.75343323 986514047.44118464 0 986514047.44118464 -345236373.85163796 0 0 0 0 -366025073.25584412 934483587.87072468 0 934483587.87072468 -311224147.90205348 0 0 0 0 -169803155.21298218 731385330.4137907 0 731385330.4137907 -783188592.39959335 0 0 0 0 -17557850.949531406 6262573.5368887708 0 6262573.5368887708 1354787.5750144934 0 0 0 0 -344862187.89811707 1343753776.9779472 0 1343753776.9779472 233239177.70052052 0 0 0 0 -177000991.02796936 61917088.888794899 0 61917088.888794899 428348218.53431511 0 0 0 0 52301208.929382324 1308535551.1322856 0 1308535551.1322856 -905938478.28110313 0 0 0 0 -80334994.490905762 1039724169.4253483 0 1039724169.4253483 -879662456.58730412 0 0 0 0 -297277076.6269989 1111888703.9171362 0 1111888703.9171362 -130971463.74877477 0 0 0 0 -292418277.41452932 978215431.05743074 0 978215431.05743074 -419378187.64755523 0 0 0 0 -340783826.53395081 798396643.62331963 0 798396643.62331963 -634440528.49906492 0 0 0 0 -429252875.15518188 830044225.30947876 0 830044225.30947876 -302573369.7275151 0 0 0 0 304187377.83765793 17242541.660619538 0 17242541.660619538 149188323.88945422 0 0 0 0 -151303795.21878052 -488464882.1467092 0 -488464882.1467092 1347584725.3642991 0 0 0 0 -313076215.49191284 1107192417.8445451 0 1107192417.8445451 869904514.16684437 0 0 0 0 -1206672.633314766 -3400986.3123526787 0 -3400986.3123526787 3411073.6689223591 0 0 0 0 -27023739.097910255 10770703.730282951 0 10770703.730282951 2616818.379098691 0 0 0 0 -758089096.82495117 720165733.77479017 0 720165733.77479017 2303285271.3488774 0 0 0 0 -185298436.94351196 -19041159.049263 0 -19041159.049263 66792760.187199384 0 0 0 0 805259482.49177551 953909296.07336974 0 953909296.07336974 -136234206.75357187 0 0 0 0 -421230051.91405487 103072384.60360011 0 103072384.60360011 -1661012.2407078743 0 0 0 0 -373487947.42855835 1045049747.1262758 0 1045049747.1262758 -119930518.65794304 0 0 0 0 -683822946.75460815 1602880061.9638827 0 1602880061.9638827 -820709794.688375 0 0 0 0 25088374.722198486 962369961.89072609 0 962369961.89072609 -1509586992.9284134 0 0 0 0 -1588985924.3208923 1167757964.6466279 0 1167757964.6466279 -863799083.31627083 0 0 0 0 -753802870.63531494 -97730511.032721996 0 -97730511.032721996 -1450589831.797327 0 0 0 0 -783103810.64329529 385244952.65891504 0 385244952.65891504 32844152.272340417 0 0 0 0 -300709544.98442841 -222933534.15989268 0 -222933534.15989268 -1018589826.8862603 0 0 0 0 -565744733.89744473 505354321.38466752 0 505354321.38466752 -1274724926.2308912 0 0 0 0 -553794325.6225605 607418521.86072087 0 607418521.86072087 -3080080271.2799377 0 0 0 0 -1727246006.5825348 1862163192.3631954 0 1862163192.3631954 -1620571564.6160617 0 0 0 0 -2324451242.052063 391892190.22851992 0 391892190.22851992 -1455205309.0692062 0 0 0 0 -927600329.30633545 364060031.38690853 0 364060031.38690853 -2070950334.2943487 0 0 0 0 -1745919110.640564 2042111712.6788025 0 2042111712.6788025 -4129269186.3588524 0 0 0 0 -879629355.52885437 1695580050.0414116 0 1695580050.0414116 -2060823149.2261238 0 0 0 0 334384513.77774048 243386109.32718658 0 243386109.32718658 -2980862946.1119051 0 0 0 0 -258035732.89766312 -1267958639.1408293 0 -1267958639.1408293 -1146489812.2715454 0 0 0 0 -2071943610.5339966 -33838904.826000214 0 -33838904.826000214 537004465.67208135 0 0 0 0 -1750381.1823740304 917018.39157855511 0 917018.39157855511 -749846.76187728182 0 0 0 0 -446759848.27093506 1430629424.3727112 0 1430629424.3727112 -4630555120.3541489 0 0 0 0 -324380.51590672135 108715.74526500329 0 108715.74526500329 -1016503.7943873103 0 0 0 0 -2607392.6504635215 5811213.5968762357 0 5811213.5968762357 -4722752.3453461397 0 0 0 0 -3174465.9858932495 4649009.7996161431 0 4649009.7996161431 1346808.3148612976 0 0 0 0 -42364548.805292606 292203808.70812905 0 292203808.70812905 -495909748.22999811 0 0 0 0 -5365302.5496792318 1625432.318851646 0 1625432.318851646 -2343410.6934130266 0 0 0 0 -1019849173.8563919 240164993.46667445 0 240164993.46667445 235655135.41835237 0 0 0 0 -722325176.40355682 644418598.53181088 0 644418598.53181088 -579343498.61928201 0 0 0 0 -1230590654.0637131 965454993.03526855 0 965454993.03526855 -398610344.06797683 0 0 0 0 73974148.594787598 644308631.60010815 0 644308631.60010815 -580603389.00281811 0 0 0 0 -412676033.44934082 211510943.06090593 0 211510943.06090593 -85366482.397188187 0 0 0 0 71564173.939422607 109726178.79652786 0 109726178.79652786 -207066983.31552124 0 0 0 0 -214521582.81694794 501523527.75564384 0 501523527.75564384 -651271200.09159088 0 0 0 0 297344393.28417969 239804308.87465763 0 239804308.87465763 -944502571.17996979 0 0 0 0 18880382.421035767 325410240.92243385 0 325410240.92243385 -752391760.90750122 0 0 0 0 11783300.740650177 862324042.52539659 0 862324042.52539659 -1339192727.2890768 0 0 0 0 211667885.9876709 10803210.893486023 0 10803210.893486023 -1001258162.5505114 0 0 0 0 209266988.91677856 351353070.9412632 0 351353070.9412632 -1073004370.961853 0 0 0 0 -310238654.88339233 159369406.74898338 0 159369406.74898338 -451071163.58885479 0 0 0 0 -10042793.175553255 6429428.3487783354 0 6429428.3487783354 -2603864.4662425872 0 0 0 0 -3922690.4709625244 6597742.4970097542 0 6597742.4970097542 2019089.6365180016 0 0 0 0 -3726327.366607666 2308430.3408241272 0 2308430.3408241272 -1081389.6772994995 0 0 0 0 194266313.33224106 -183032971.33522707 0 -183032971.33522707 -153263967.72624588 0 0 0 0 -84201196.602966309 187233552.98078918 0 187233552.98078918 130003768.78872871 0 0 0 0 10807301.412628174 182845336.41646194 0 182845336.41646194 -135383762.03258133 0 0 0 0 -25674631.562942505 -85253337.39302063 0 -85253337.39302063 6108682.4488806725 0 0 0 0 -21283323.850791931 23217803.988822103 0 23217803.988822103 -15726069.105164886 0 0 0 0 -15225874.092111655 5938772.3371163048 0 5938772.3371163048 338841.37620527775 0 0 0 0 -11389989.707639821 2642995.2540022694 0 2642995.2540022694 -581504.12011566386 0 0 0 0 -21447290.337768555 34179190.252065271 0 34179190.252065271 -14349613.689409018 0 0 0 0 9835316.3869018555 -20222092.38818109 0 -20222092.38818109 23542446.568726268 0 0 0 0 -34144325.232717514 4035401.6613416672 0 4035401.6613416672 22644334.804022789 0 0 0 0 -37455838.096702576 27568947.784829795 0 27568947.784829795 56129121.388584375 0 0 0 0 -347308593.21369171 178171529.15638345 0 178171529.15638345 -462192099.39070415 0 0 0 0 -871564149.40235901 460806283.19110739 0 460806283.19110739 -161899035.87575543 0 0 0 0 136218896.95159912 82874026.794511199 0 82874026.794511199 -247740808.03829074 0 0 0 0 -5830433.4429321289 3157818.7034840584 0 3157818.7034840584 -1404345.7373914719 0 0 0 0 -5761124.0659379149 684233.22738721967 0 684233.22738721967 -3054476.9692059662 0 0 0 0 -6203790.072307324 1437575.1727283299 0 1437575.1727283299 4767242.4836577568 0 0 0 0 -20468036.211090088 802467.59273648262 0 802467.59273648262 33900436.606318712 0 0 0 0 -60056630.536643982 -781363.72964423895 0 -781363.72964423895 20881700.03602618 0 0 0 0 -502140459.8210907 84238136.361967981 0 84238136.361967981 -10149226.70687139 0 0 0 0 -8244900.4031416774 -2362989.9627705812 0 -2362989.9627705812 -1701803.8434003936 0 0 0 0 -1244638026.0542297 898606502.69387794 0 898606502.69387794 -528191331.60005516 0 0 0 0 -444112508.41215515 466472201.52094394 0 466472201.52094394 -562090311.41581821 0 0 0 0 -1807893223.1108398 744337428.51727057 0 744337428.51727057 -441084488.00199139 0 0 0 0 -1433429311.7990303 608666496.26334655 0 608666496.26334655 -437752993.71631098 0 0 0 0 -2010618539.6671295 415729797.23439443 0 415729797.23439443 -320123416.09368807 0 0 0 0 -929573406.30674744 879490297.37330818 0 879490297.37330818 -626841529.73767829 0 0 0 0 -888470137.23446655 611561823.81564009 0 611561823.81564009 -705027433.46735239 0 0 0 0 -627949746.72259521 616633204.72680998 0 616633204.72680998 -961134684.2706002 0 0 0 0 -1379740190.272728 577484954.22040784 0 577484954.22040784 -702986983.75588691 0 0 0 0 -657717719.72150421 899267836.93551052 0 899267836.93551052 -1618574313.8934019 0 0 0 0 -2142850884.245224 192876864.74775296 0 192876864.74775296 -488328383.59686732 0 0 0 0 -1297475918.8601151 131937299.82543588 0 131937299.82543588 -496946030.58163172 0 0 0 0 -1343531896.6189651 249486287.45022807 0 249486287.45022807 -796228642.52290583 0 0 0 0 -578082579.84761047 58217134.004138798 0 58217134.004138798 -750646778.42547679 0 0 0 0 -1246327686.5252724 -151020051.40633813 0 -151020051.40633813 -589402541.41423643 0 0 0 0 -328350993.95692444 56451936.015420556 0 56451936.015420556 -901928460.79572213 0 0 0 0 -319539751.2273407 484850261.88993239 0 484850261.88993239 -1445718168.662147 0 0 0 0 -608316077.80011082 396199892.69534367 0 396199892.69534367 -1247698239.2916498 0 0 0 0 -4092295654.0605698 -958078820.81951725 0 -958078820.81951725 456530124.73420525 0 0 0 0 -2131092888.9584808 -374400348.00755727 0 -374400348.00755727 -376814419.11634827 0 0 0 0 -1094022128.4246044 -509483002.31906527 0 -509483002.31906527 -377500028.33308041 0 0 0 0 -2690269396.5502129 -2854105.3014367446 0 -2854105.3014367446 -107253124.38688895 0 0 0 0 -2970664659.5114594 -633508894.56451178 0 -633508894.56451178 416964377.03945887 0 0 0 0 -3174045546.2003784 277523630.5534144 0 277523630.5534144 3276067.3532239944 0 0 0 0 -4094378528.2836652 13345559.502593057 0 13345559.502593057 350351995.06255621 0 0 0 0 -3123412723.323761 222891249.74236929 0 222891249.74236929 -105579049.09716137 0 0 0 0 -2142934517.6485748 157270495.22052574 0 157270495.22052574 -133934492.60921045 0 0 0 0 -2108965136.0366135 544616119.70132816 0 544616119.70132816 -352541812.69506288 0 0 0 0 -2993284140.0548248 514911017.89778483 0 514911017.89778483 -261211670.45312303 0 0 0 0 -4096037756.8981323 540687816.94050145 0 540687816.94050145 -61323670.826236762 0 0 0 0 -3095486905.2120056 811871146.84511304 0 811871146.84511304 -992906212.41876996 0 0 0 0 -2681929815.1549606 1539834763.6962907 0 1539834763.6962907 -566933191.38645661 0 0 0 0 -2814820794.3434267 -166520519.61142114 0 -166520519.61142114 -481280628.16272742 0 0 0 0 -4085292696.0257301 1790314614.8159118 0 1790314614.8159118 -100766476.99601348 0 0 0 0 -9570471.2457809448 -226537431.52254289 0 -226537431.52254289 -824889980.80268621 0 0 0 0 -2820476.3053757027 -1077602.2765252776 0 -1077602.2765252776 -991087.43067936157 0 0 0 0 -1817640301.8629379 791021671.5306102 0 791021671.5306102 -445406932.72823715 0 0 0 0 -950300837.17597961 1637375630.4433031 0 1637375630.4433031 -1402396871.5807536 0 0 0 0 -2073385.7657706812 711824.0578940101 0 711824.0578940101 40426.67700523336 0 0 0 0 -205588878.74752045 -178664741.05458596 0 -178664741.05458596 -496164338.66618162 0 0 0 0 183459481.68312073 -1160801181.8061719 0 -1160801181.8061719 -393247539.22685146 0 0 0 0 -364312861.23910522 -820931126.23327208 0 -820931126.23327208 461628963.40775096 0 0 0 0 -395095541.91235447 -535364923.54507542 0 -535364923.54507542 404163943.3372817 0 0 0 0 -3876915.2846674882 884861.39645743743 0 884861.39645743743 1023938.7034202979 0 0 0 0 -4765099.4296875 -108496635.69201052 0 -108496635.69201052 114971987.4755069 0 0 0 0 -824119457.77788544 -617129617.81791401 0 -617129617.81791401 464137673.01830912 0 0 0 0 -642503733.3649292 -16103380.305723965 0 -16103380.305723965 1141845733.3571973 0 0 0 0 -5924119.9531975761 2261024.3594524628 0 2261024.3594524628 -21083.474121088628 0 0 0 0 -331306874.71026611 856059979.03385663 0 856059979.03385663 1348589206.617291 0 0 0 0 246722963.11051941 57010433.840182781 0 57010433.840182781 717871456.89338315 0 0 0 0 272202933.33282471 -435042014.5444296 0 -435042014.5444296 -198923885.15846473 0 0 0 0 -2199580.7108299211 1071946.135355155 0 1071946.135355155 -192779.5144796797 0 0 0 0 188978958.3691864 724033200.82730961 0 724033200.82730961 -370747346.175982 0 0 0 0 584230016.5813942 405830279.93833685 0 405830279.93833685 -220455494.70593643 0 0 0 0 -3566251.658071883 1430632.0391203165 0 1430632.0391203165 186506.5900193071 0 0 0 0 -1874780310.0363464 -1290565118.5446138 0 -1290565118.5446138 461438736.75764036 0 0 0 0 -1088079277.8085709 2055071878.5874853 0 2055071878.5874853 -495653284.323277 0 0 0 0 -220512135.84947968 -878741994.21568489 0 -878741994.21568489 600694892.78419089 0 0 0 0 216697058.80853653 789334972.29580307 0 789334972.29580307 207108601.75286126 0 0 0 0 -381111746.97627258 67165899.516389191 0 67165899.516389191 186993894.03147247 0 0 0 0 -4089081150.7592812 -115334275.97898984 0 -115334275.97898984 1150631497.6847668 0 0 0 0 -1733353621.9070663 105802.40305115283 0 105802.40305115283 818607761.59969997 0 0 0 0 -4089892450.3903618 1243585037.956465 0 1243585037.956465 260074849.74769971 0 0 0 0 -1382178639.468668 1740870446.0196178 0 1740870446.0196178 -2066902421.3993621 0 0 0 0 -284694300.18321991 114453120.46407059 0 114453120.46407059 -431059527.33413124 0 0 0 0 -187066814.70401001 439001314.93872786 0 439001314.93872786 -623430892.98969388 0 0 0 0 -1638838396.9981928 714199975.35039735 0 714199975.35039735 11402389.264959812 0 0 0 0 -150653675.30640602 714807327.27207673 0 714807327.27207673 52718124.325798035 0 0 0 0 223162100.13069153 332756078.31289053 0 332756078.31289053 -287686794.48055971 0 0 0 0 -179188925.54846191 370062415.24503922 0 370062415.24503922 -176785373.3719517 0 0 0 0 250329334.548563 666471432.21709418 0 666471432.21709418 -160637145.33993888 0 0 0 0 235603589.13528442 619821633.01537395 0 619821633.01537395 -128650831.62516114 0 0 0 0 -18857193.92401123 612925948.12116694 0 612925948.12116694 -36196650.38355577 0 0 0 0 264550929.44646263 609062590.46428323 0 609062590.46428323 -126284351.36186415 0 0 0 0 24324202.15473175 473481397.89427578 0 473481397.89427578 259766852.53970945 0 0 0 0 210887481.80969238 893610415.96472323 0 893610415.96472323 -601326597.85581255 0 0 0 0 -7086437.2632303648 3816125.4963066401 0 3816125.4963066401 643904.97922496637 0 0 0 0 -174124775.00646973 317471643.93626475 0 317471643.93626475 702992949.15759838 0 0 0 0 103387756.32911682 161999451.3923018 0 161999451.3923018 156713314.762398 0 0 0 0 -170108565.25392151 250326474.0286386 0 250326474.0286386 -270960360.82599568 0 0 0 0 -8676229.0586282238 3240236.6052005808 0 3240236.6052005808 432460.77026745956 0 0 0 0 104144279.3719101 207554186.21841407 0 207554186.21841407 -329832359.97224689 0 0 0 0 -1725360407.7187729 -356790051.57605028 0 -356790051.57605028 1397871322.2213504 0 0 0 0 527786509.73727798 1016097592.7806945 0 1016097592.7806945 -1070988863.948127 0 0 0 0 496957818.90196991 557033454.89401245 0 557033454.89401245 -1152692268.9989438 0 0 0 0 -28446356.923927307 -130826175.85052168 0 -130826175.85052168 -37968690.211382098 0 0 0 0 -1078480.9443156235 2236779.8148365635 0 2236779.8148365635 -2575109.8056467818 0 0 0 0 -727274910.91335869 787852930.99130189 0 787852930.99130189 -669602354.1745522 0 0 0 0 -724109637.15769958 443445267.65345132 0 443445267.65345132 27710233.482339829 0 0 0 0 -1180461975.7635574 835369302.30902696 0 835369302.30902696 -565004982.94122744 0 0 0 0 -760268721.76688385 359338437.20698988 0 359338437.20698988 -371312131.70416069 0 0 0 0 -1829532767.5481033 148737786.9448424 0 148737786.9448424 324479523.22900999 0 0 0 0 -782426873.33399534 -1333852175.8973737 0 -1333852175.8973737 -31630196.224385619 0 0 0 0 -4436384.4634868801 2443575.8676001271 0 2443575.8676001271 -190596.29711734445 0 0 0 0 -4086254922.8006516 -158971556.99966556 0 -158971556.99966556 355317946.08281428 0 0 0 0 -83088818.038703918 964864493.20751703 0 964864493.20751703 -657264427.62072897 0 0 0 0 -201320811.86582565 -248642042.00844538 0 -248642042.00844538 -318162420.60041869 0 0 0 0 -196792326.01633453 -175092968.71636283 0 -175092968.71636283 -13517660.684061538 0 0 0 0 -68368692.378234863 -361905424.08137345 0 -361905424.08137345 -182012199.88519287 0 0 0 0 -135858316.24820709 -299371693.39478588 0 -299371693.39478588 -15656986.8005476 0 0 0 0 -58591620.14289856 -254729774.15345955 0 -254729774.15345955 85031256.230113506 0 0 0 0 -81520639.09702301 -193813797.57257605 0 -193813797.57257605 161064287.43757439 0 0 0 0 -368343045.48696136 -162185455.88634348 0 -162185455.88634348 299678755.78561211 0 0 0 0 -157584435.06349945 -27257503.096884727 0 -27257503.096884727 190407194.98284149 0 0 0 0 -921247083.07202911 -156196124.1922071 0 -156196124.1922071 169983057.48402375 0 0 0 0 -180880141.28180695 -135282076.45237303 0 -135282076.45237303 372384761.99524021 0 0 0 0 -237048235.69701385 107412811.83495712 0 107412811.83495712 354459120.61448503 0 0 0 0 113969937.31406403 731844167.67822266 0 731844167.67822266 483418472.52271616 0 0 0 0 -306784533.37672424 592025583.28130841 0 592025583.28130841 -645770266.20800304 0 0 0 0 602336646.23808479 227049366.16344231 0 227049366.16344231 -512252164.30917788 0 0 0 0 -108792973.9393692 44011372.136766434 0 44011372.136766434 -793892094.64068985 0 0 0 0 -317764635.2665863 667546328.05508029 0 667546328.05508029 -470477172.81250882 0 0 0 0 -2611644.0186736956 1883464.0155446713 0 1883464.0155446713 270212.37314333348 0 0 0 0 -739660469.97852325 1153904932.2308264 0 1153904932.2308264 -1860128067.9264767 0 0 0 0 -409093931.9001236 -512528936.88649601 0 -512528936.88649601 828709279.99172819 0 0 0 0 -159540868.74508667 566406856.37649202 0 566406856.37649202 373777476.29411745 0 0 0 0 -414791754.45065308 994688154.64656889 0 994688154.64656889 -307972147.35570097 0 0 0 0 -561852598.53527832 816089443.18357193 0 816089443.18357193 138760777.79219443 0 0 0 0 -1378348101.8047028 -156802131.33083951 0 -156802131.33083951 948554107.80511224 0 0 0 0 -953129845.33829498 1062381255.6168003 0 1062381255.6168003 54872384.1311481 0 0 0 0 -1015646938.7299957 270559862.58128762 0 270559862.58128762 -273326415.40993679 0 0 0 0 -1095988255.3417816 -283031197.83400792 0 -283031197.83400792 780315357.9016273 0 0 0 0 -1118442585.8562012 15558173.708102196 0 15558173.708102196 -310800213.37656975 0 0 0 0 -378342727.92818069 387256267.00739586 0 387256267.00739586 -835608481.15758467 0 0 0 0 -1180975080.3474884 -405252524.94550991 0 -405252524.94550991 -299673286.13050926 0 0 0 0 104793138.12695694 285898092.43018383 0 285898092.43018383 77702916.221829534 0 0 0 0 -127396750.01130676 -76477314.207357243 0 -76477314.207357243 -379285297.47479677 0 0 0 0 -26926896.990447998 454970683.32460922 0 454970683.32460922 -307639121.70700884 0 0 0 0 -375737555.98844337 149224395.95222113 0 149224395.95222113 -495469085.7263298 0 0 0 0 -414435728.9815979 238581413.9639312 0 238581413.9639312 -72670096.650069714 0 0 0 0 -339937860.7769928 202087954.65286258 0 202087954.65286258 199098943.03329206 0 0 0 0 -147506148.77033997 426329796.80380273 0 426329796.80380273 -103331470.66403398 0 0 0 0 -100709175.19433212 303598569.28185171 0 303598569.28185171 180498001.33407176 0 0 0 0 -1328119330.2716675 929500471.50804615 0 929500471.50804615 -759147780.76064587 0 0 0 0 -1707157.2737734653 86085.146028170362 0 86085.146028170362 748173.89508299483 0 0 0 0 -829054019.12892151 -993808006.18440664 0 -993808006.18440664 -839463507.44686007 0 0 0 0 -1653002221.0579987 -1150347687.8763323 0 -1150347687.8763323 -469478716.18231106 0 0 0 0 -1327395398.4556122 -604293289.94169164 0 -604293289.94169164 -277829850.03579545 0 0 0 0 -1895122447.5284786 -253485233.3221249 0 -253485233.3221249 -201915272.65654778 0 0 0 0 -744291581.26502991 -89265370.672950506 0 -89265370.672950506 -276091883.58672923 0 0 0 0 -831068589.77024078 -25503925.195727229 0 -25503925.195727229 -189249449.73473907 0 0 0 0 -123882895.35440063 253772538.43134737 0 253772538.43134737 -172803027.24563667 0 0 0 0 300487826.41886902 -140470539.89771897 0 -140470539.89771897 9574423.7232956216 0 0 0 0 -597190532.33229065 -171310862.442397 0 -171310862.442397 -293059978.96195358 0 0 0 0 -684237602.82258606 -278712382.12240374 0 -278712382.12240374 832428.67995655537 0 0 0 0 -726702834.15710449 -199151276.86072701 0 -199151276.86072701 -42883284.113926649 0 0 0 0 -557441827.28277588 -676459077.220613 0 -676459077.220613 -833161554.61892569 0 0 0 0 -677750696.35984039 -485672359.23205948 0 -485672359.23205948 105623901.51485705 0 0 0 0 -271221050.08059692 44191760.132750273 0 44191760.132750273 795954485.18500376 0 0 0 0 -702056182.26607513 -533633169.89437717 0 -533633169.89437717 683011787.41075957 0 0 0 0 -1869260.4096485409 564679.74215428904 0 564679.74215428904 1704716.1400010837 0 0 0 0 171154839.8318882 255167759.9050574 0 255167759.9050574 278098598.9631176 0 0 0 0 105689011.4307642 -286803783.25404453 0 -286803783.25404453 366823756.76006031 0 0 0 0 -44778851.062728882 7733584.3380479813 0 7733584.3380479813 31952707.740254283 0 0 0 0 -31580619.421112061 -50558838.01234901 0 -50558838.01234901 171594182.3631382 0 0 0 0 -118506349.47774887 209553940.18251911 0 209553940.18251911 190466514.62461281 0 0 0 0 -256825115.56741714 139290067.902421 0 139290067.902421 375249073.67528975 0 0 0 0 -96038303.200098038 530669831.8767513 0 530669831.8767513 447243261.42809904 0 0 0 0 -233895730.61082458 18963980.437747777 0 18963980.437747777 869752249.8945471 0 0 0 0 -35919949.383563995 -99753797.044070661 0 -99753797.044070661 308879102.84519434 0 0 0 0 17344391.609580994 -45818279.70239532 0 -45818279.70239532 40098697.029975057 0 0 0 0 -56475948.184242249 15157858.945406854 0 15157858.945406854 117634729.40763807 0 0 0 0 -51981810.586896896 28217147.734188288 0 28217147.734188288 87609977.445580721 0 0 0 0 -35864382.807189941 87839050.944943786 0 87839050.944943786 167026427.89383996 0 0 0 0 125509.75229263306 56495475.263874114 0 56495475.263874114 32208131.497980595 0 0 0 0 -1500124.7412319183 150598066.70523328 0 150598066.70523328 74896229.995326757 0 0 0 0 -14542376.081764221 143113167.96359682 0 143113167.96359682 153144180.18058032 0 0 0 0 -102138327.01878357 -27781959.41185154 0 -27781959.41185154 3423430.5236139297 0 0 0 0 80601369.488960266 122350026.01402724 0 122350026.01402724 77240453.796870232 0 0 0 0 -6699708.5954466909 502272.53594256565 0 502272.53594256565 -267052.65033923183 0 0 0 0 -36006481.01802063 -34087507.113366663 0 -34087507.113366663 -13477059.618108928 0 0 0 0 -22433692.668815613 16524544.678828076 0 16524544.678828076 3822873.4560306072 0 0 0 0 -28465283.087600708 7199366.4901475906 0 7199366.4901475906 -7825783.8064500093 0 0 0 0 -56225707.7525177 36986677.896945238 0 36986677.896945238 -14012682.124160528 0 0 0 0 -52696758.324630737 34101747.850291938 0 34101747.850291938 -22247953.126976967 0 0 0 0 -48463309.009628296 -7713122.7588201165 0 -7713122.7588201165 -15059471.444758356 0 0 0 0 -34497476.539154053 131817648.63490579 0 131817648.63490579 -331163563.70515096 0 0 0 0 -2862045.281013675 -1528845.7433225857 0 -1528845.7433225857 1041151.1177968571 0 0 0 0 380624.38214111328 35325917.691856861 0 35325917.691856861 -156352462.59852886 0 0 0 0 15038910.939575195 -9873126.0203871131 0 -9873126.0203871131 -86279910.006533861 0 0 0 0 -35168396.255203247 -10152298.886601865 0 -10152298.886601865 60739324.954320535 0 0 0 0 -47064901.737426758 101156520.546969 0 101156520.546969 -56062079.613439649 0 0 0 0 -62774381.500823975 84420014.30161792 0 84420014.30161792 -28751669.207653403 0 0 0 0 -169381082.45472717 190088911.25471282 0 190088911.25471282 62694799.835669518 0 0 0 0 -78092627.479949951 169627875.51905376 0 169627875.51905376 -185905571.59393978 0 0 0 0 -44281163.933692932 12400063.008401811 0 12400063.008401811 20535693.887535393 0 0 0 0 -134664509.76422501 61027123.069387622 0 61027123.069387622 86165540.583213687 0 0 0 0 -124743977.81083679 83061940.554970115 0 83061940.554970115 -7254900.0843691826 0 0 0 0 -104506113.82568359 58355438.697355598 0 58355438.697355598 21931345.353511453 0 0 0 0 -91954945.10194397 5173407.717515856 0 5173407.717515856 -9824562.6188492775 0 0 0 0 -79914620.815441132 7076685.831723839 0 7076685.831723839 -13888565.660070658 0 0 0 0 -109999060.00842285 43488312.32591781 0 43488312.32591781 -12516774.066055149 0 0 0 0 -135988163.2729454 28319433.207513213 0 28319433.207513213 -1809416.7405851632 0 0 0 0 -178844337.52384949 -7866329.8725075722 0 -7866329.8725075722 4657981.2821415216 0 0 0 0 -104124292.82343674 51966755.041379519 0 51966755.041379519 3137238.6166068912 0 0 0 0 -122305274.13327026 14513585.653705686 0 14513585.653705686 10926002.400566079 0 0 0 0 -63025480.552253723 21188041.644668713 0 21188041.644668713 -10123816.311062992 0 0 0 0 -109395778.84413147 72616295.281001866 0 72616295.281001866 -44787584.651506275 0 0 0 0 -116682950.37750244 16919479.417097747 0 16919479.417097747 -45887951.416428082 0 0 0 0 -774972.3853226956 -59604.195052642375 0 -59604.195052642375 -304528.0446811617 0 0 0 0 -400596478.89890289 7032273.9159437418 0 7032273.9159437418 18593227.668412119 0 0 0 0 -190286574.41765976 -4353198.3502802402 0 -4353198.3502802402 -16945578.050024539 0 0 0 0 270153068.49454498 70653726.021757364 0 70653726.021757364 20352277.655271649 0 0 0 0 463260662.90855408 84861789.323181808 0 84861789.323181808 -149517399.56135476 0 0 0 0 137962784.60359573 179989425.65887904 0 179989425.65887904 -100696265.0042001 0 0 0 0 236120583.77284241 200196231.44020253 0 200196231.44020253 -240050491.5219717 0 0 0 0 191673169.0759964 143761547.58572927 0 143761547.58572927 55606349.379999101 0 0 0 0 40598740.156425476 314384492.9380827 0 314384492.9380827 -79027918.532387018 0 0 0 0 305389861.21858025 219496659.89363667 0 219496659.89363667 -6936604.6347236633 0 0 0 0 -2893989.6495307907 53182.209309201688 0 53182.209309201688 -554834.98148812191 0 0 0 0 -131835476.48151398 105653764.60468531 0 105653764.60468531 137542858.41353703 0 0 0 0 -69892322.217147827 58859897.695667267 0 58859897.695667267 171143077.37064362 0 0 0 0 -51604400.284088135 109427091.72530937 0 109427091.72530937 69225732.880436689 0 0 0 0 -111744252.71046448 93870544.575707436 0 93870544.575707436 68925365.066106796 0 0 0 0 -56203311.730758667 99666726.091269493 0 99666726.091269493 108194119.88303375 0 0 0 0 27363562.302307129 85551644.440467358 0 85551644.440467358 84473196.755285263 0 0 0 0 -22528593.424118042 116363933.58843899 0 116363933.58843899 103935166.91990328 0 0 0 0 100313837.36034012 174932485.88484621 0 174932485.88484621 83591955.147731781 0 0 0 0 -13316682.440610029 13805390.622578848 0 13805390.622578848 -7429960.7819512654 0 0 0 0 136808926.29364777 59345614.980289131 0 59345614.980289131 6699652.0589191914 0 0 0 0 27900016.717002869 157289213.33491993 0 157289213.33491993 54216120.766895294 0 0 0 0 45664958.031478882 120553814.7170229 0 120553814.7170229 125475868.67033005 0 0 0 0 -4897270.2984619141 122582605.33508301 0 122582605.33508301 68733543.858093262 0 0 0 0 -337178731.02874756 375901106.43575191 0 375901106.43575191 -314314751.22942114 0 0 0 0 215705736.93464661 99640158.751443863 0 99640158.751443863 20828019.426580429 0 0 0 0 -156643345.80470276 -219508971.66903037 0 -219508971.66903037 344553840.2940945 0 0 0 0 -297666929.0932312 413959138.60354984 0 413959138.60354984 -261906256.08980936 0 0 0 0 -936373740.15934753 223190284.22373414 0 223190284.22373414 552476499.49402857 0 0 0 0 -184782035.86682129 110557041.28309798 0 110557041.28309798 37283911.672680095 0 0 0 0 -43756140.632156372 17006252.075395018 0 17006252.075395018 27466453.21934855 0 0 0 0 145654728.5953598 -80507617.170101166 0 -80507617.170101166 42757101.527621031 0 0 0 0 34031283.405158997 24970524.37966568 0 24970524.37966568 -28629778.6620069 0 0 0 0 -16010633.741031647 35856754.621454448 0 35856754.621454448 -21445288.5350146 0 0 0 0 -25344783.524673462 55252033.070072189 0 55252033.070072189 -36500515.383293003 0 0 0 0 37499878.221168518 24674771.475685999 0 24674771.475685999 -32342887.084734648 0 0 0 0 4407650.3386688232 35859411.535004556 0 35859411.535004556 -58387850.472124957 0 0 0 0 -30282226.644210815 14576770.088100731 0 14576770.088100731 -28200479.840634614 0 0 0 0 13014999.246833801 11037844.042409752 0 11037844.042409752 -28241418.337759674 0 0 0 0 8398992.0054697171 8774059.0963371992 0 8774059.0963371992 -4490336.4591437681 0 0 0 0 38362060.108909607 9600124.6024459004 0 9600124.6024459004 -11149807.469982315 0 0 0 0 30439925.658786774 33603890.678678967 0 33603890.678678967 -15936652.124859303 0 0 0 0 26075947.529319763 34011220.015266038 0 34011220.015266038 8245647.1344011147 0 0 0 0 -13759424.624245644 -2020286.8705489039 0 -2020286.8705489039 171808564.89159775 0 0 0 0 -7409180.6452026367 27243445.917190552 0 27243445.917190552 92657005.573216796 0 0 0 0 -8800787.0006039441 12726750.532925578 0 12726750.532925578 -7080084.7893334376 0 0 0 0 -322985945.58778381 -175122077.88989544 0 -175122077.88989544 93298360.790397167 0 0 0 0 -37661920.174003601 12641196.364275455 0 12641196.364275455 -89880839.343545914 0 0 0 0 -908070226.77348328 22712875.425915718 0 22712875.425915718 53266265.935165405 0 0 0 0 431259.29294092208 -45921.359647117555 0 -45921.359647117555 -344579.68223650847 0 0 0 0 458789533.17648315 123291241.4558239 0 123291241.4558239 -185247694.97608089 0 0 0 0 -198994661.62840271 99968108.271530151 0 99968108.271530151 225813961.33087206 0 0 0 0 -553533649.41516113 -108045463.81642628 0 -108045463.81642628 446252735.24905109 0 0 0 0 -607063135.15393829 -779319.27688765526 0 -779319.27688765526 281182804.17801666 0 0 0 0 -377882626.36923218 360566793.16419506 0 360566793.16419506 -69767212.811440945 0 0 0 0 -563243919.00836182 22835191.180336475 0 22835191.180336475 271355601.38287926 0 0 0 0 -2852077.2496182024 2040935.2058365494 0 2040935.2058365494 -2030082.768520629 0 0 0 0 -474205832.36207581 303502164.07313669 0 303502164.07313669 301744504.90307188 0 0 0 0 -324654041.48623657 80632228.707203627 0 80632228.707203627 481428290.1444729 0 0 0 0 44797798.777252197 36914344.770625114 0 36914344.770625114 -285764453.26544714 0 0 0 0 -94343158.174942017 -84352920.498933077 0 -84352920.498933077 -875004390.26775742 0 0 0 0 -613584493.45909119 -438010479.70862174 0 -438010479.70862174 -236644295.84176922 0 0 0 0 145115161.14185333 -249330928.76125693 0 -249330928.76125693 -237057003.88987541 0 0 0 0 -115564645.61709213 -82855485.554141521 0 -82855485.554141521 -159786870.32656956 0 0 0 0 33481048.140090942 -40479034.033378124 0 -40479034.033378124 -269308351.22773838 0 0 0 0 110199581.70797729 -254705232.79905128 0 -254705232.79905128 -76734735.779927254 0 0 0 0 132982802.69830322 -24177821.841510296 0 -24177821.841510296 -136739134.50735998 0 0 0 0 -13723.904226794839 1802812.479475487 0 1802812.479475487 -579512.04894710518 0 0 0 0 73718773.244354248 -132423543.71472263 0 -132423543.71472263 -68896007.656382561 0 0 0 0 80948913.319015503 -91069066.125638485 0 -91069066.125638485 46829255.229819298 0 0 0 0 139070844.78677368 9363871.8729379177 0 9363871.8729379177 2258528.2359342575 0 0 0 0 74590969.598022461 46768813.066431999 0 46768813.066431999 9400891.2126203775 0 0 0 0 102099087.45483398 71911865.256536007 0 71911865.256536007 8487595.8328142166 0 0 0 0 42059133.32152462 68658680.847894713 0 68658680.847894713 -33800556.186253071 0 0 0 0 157013797.57192993 -7318401.9422163963 0 -7318401.9422163963 12899373.915399551 0 0 0 0 250982415.48144531 -1323862.4067817628 0 -1323862.4067817628 13235788.930645891 0 0 0 0 192197053.8979187 101550728.10709995 0 101550728.10709995 35855645.38528195 0 0 0 0 137996977.08807373 103318244.26951747 0 103318244.26951747 35832389.114664078 0 0 0 0 84918142.460968018 104834765.27278227 0 104834765.27278227 65596156.588304281 0 0 0 0 102190168.80230713 109707120.84037088 0 109707120.84037088 66687484.53210026 0 0 0 0 -18838839.665766276 4264358.4159370586 0 4264358.4159370586 2480060.9467872204 0 0 0 0 83372670.627563477 94589723.52403754 0 94589723.52403754 57168733.99031496 0 0 0 0 -5431225.2307932749 6797288.9717908241 0 6797288.9717908241 2444609.4989449731 0 0 0 0 71781034.035827637 76308350.630712032 0 76308350.630712032 30837789.156793594 0 0 0 0 104111738.12640381 110571683.58302307 0 110571683.58302307 56236272.717621803 0 0 0 0 -93704526.325866699 -28136668.699203014 0 -28136668.699203014 14972987.732628584 0 0 0 0 60273243.964256287 130401330.88803577 0 130401330.88803577 -61635246.654600143 0 0 0 0 19452350.103477478 -54470928.016510844 0 -54470928.016510844 8244362.2071352601 0 0 0 0 4592219.0022125244 7322378.964799732 0 7322378.964799732 30613424.164502978 0 0 0 0 13501500.946983337 15666518.479449794 0 15666518.479449794 -60697419.493208289 0 0 0 0 10096159.505264938 8348102.6660202611 0 8348102.6660202611 -3922481.5795709621 0 0 0 0 -25323990.991920471 47508864.705886602 0 47508864.705886602 -19464435.355010986 0 0 0 0 -13793399.114685096 10231794.580487516 0 10231794.580487516 3923498.379561652 0 0 0 0 -8026259.2243156433 8161284.5902407765 0 8161284.5902407765 1285224.4429426193 0 0 0 0 -3486798.3990192413 4357922.1733713448 0 4357922.1733713448 -1743096.9696211815 0 0 0 0 -824360.68146514893 11395478.924683571 0 11395478.924683571 -7462037.0123090744 0 0 0 0 -14214226.769592285 11907507.002422333 0 11907507.002422333 -4862704.3466081619 0 0 0 0 -5548709.3726806641 10891950.191751957 0 10891950.191751957 -5474746.1242213249 0 0 0 0 -10223541.95803833 9120631.4777104855 0 9120631.4777104855 6414987.6881127357 0 0 0 0 -21832264.592498779 15545775.297245622 0 15545775.297245622 11576789.719744027 0 0 0 0 -17072488.05897522 16117869.20400238 0 16117869.20400238 -330723.71498060226 0 0 0 0 -16012114.054191589 17255938.901373744 0 17255938.901373744 -6866051.6230459213 0 0 0 0 -32614398.153121948 24981669.984034061 0 24981669.984034061 6584242.7648751736 0 0 0 0 -21781445.423187256 15021473.634862065 0 15021473.634862065 13318253.65871644 0 0 0 0 -60017233.701431274 29060436.835132718 0 29060436.835132718 21394015.048265219 0 0 0 0 -31626010.929351807 6417523.9236986637 0 6417523.9236986637 35738742.409564614 0 0 0 0 -32985349.428504944 20797793.99824363 0 20797793.99824363 -3014335.4617843628 0 0 0 0 -43992037.487243652 -109448.32060432434 0 -109448.32060432434 18360251.081664562 0 0 0 0 -57062275.390457153 26118077.933051825 0 26118077.933051825 -3856011.7756009102 0 0 0 0 -14235341.915649414 15976478.021878719 0 15976478.021878719 -2247755.1774988174 0 0 0 0 -32823252.601501465 5214917.1245965958 0 5214917.1245965958 -21025423.355659485 0 0 0 0 -27015497.291778564 23897193.2148242 0 23897193.2148242 -26575564.898013115 0 0 0 0 -12361524.987091064 14691119.967828751 0 14691119.967828751 -11967121.369432926 0 0 0 0 -27516318.154724121 19606732.46112299 0 19606732.46112299 -6475877.1652297974 0 0 0 0 -29666826.116394043 13021921.461078644 0 13021921.461078644 -2558028.0596132278 0 0 0 0 -51652708.268753052 21934680.707976818 0 21934680.707976818 -32810397.587999344 0 0 0 0 -35529704.639099121 -62362022.86140728 0 -62362022.86140728 -22079679.080425382 0 0 0 0 -109579679.16156006 53476236.581272125 0 53476236.581272125 -81089919.040513992 0 0 0 0 69324538.492126465 -40961298.360023499 0 -40961298.360023499 -194736230.96180344 0 0 0 0 -285075111.61505127 82780343.263978004 0 82780343.263978004 -36115643.146540642 0 0 0 0 88199775.543128967 78681510.242015004 0 78681510.242015004 -301801963.05934906 0 0 0 0 -126191473.96725082 181306287.29081464 0 181306287.29081464 -201349632.90788269 0 0 0 0 -177775351.86547852 2966897.7350726128 0 2966897.7350726128 -13046673.398428917 0 0 0 0 -118741506.07354736 19944019.646555901 0 19944019.646555901 -15690234.807823002 0 0 0 0 -61246264.820724487 38513808.076788425 0 38513808.076788425 -36970016.744763374 0 0 0 0 -97278976.180755615 69435640.580887318 0 69435640.580887318 -105210624.06022167 0 0 0 0 -82281453.137512207 13182708.913099766 0 13182708.913099766 -23482984.099305153 0 0 0 0 -93038362.473419189 29349818.793151855 0 29349818.793151855 13914407.766812325 0 0 0 0 -111805112.28277588 7638094.6697390079 0 7638094.6697390079 6101422.071190834 0 0 0 0 -62943361.928860664 -3566098.3541243821 0 -3566098.3541243821 48533389.219725132 0 0 0 0 -93699361.347686768 -2164515.5068945885 0 -2164515.5068945885 73733910.233662128 0 0 0 0 -171061962.23220825 -21931468.02358079 0 -21931468.02358079 14714056.618897438 0 0 0 0 -83793895.891424179 -32000669.556425929 0 -32000669.556425929 10149676.930557251 0 0 0 0 -23090084.335517883 -29101379.838490367 0 -29101379.838490367 -44624331.70805645 0 0 0 0 -79195037.248725891 -88406540.286699533 0 -88406540.286699533 -67679965.618149757 0 0 0 0 -48600481.877861023 -30251014.349285901 0 -30251014.349285901 27278138.808923364 0 0 0 0 192478879.73511505 159257444.38280463 0 159257444.38280463 -88530023.688918114 0 0 0 0 -7456789.4923248291 49872488.995556712 0 49872488.995556712 -84470661.506996155 0 0 0 0 -12718180.974372894 917889.25163668697 0 917889.25163668697 1196243.9472065927 0 0 0 0 -2308095.937740162 -547095.12277626619 0 -547095.12277626619 500521.36413110606 0 0 0 0 -221569509.42993355 -96920412.376691163 0 -96920412.376691163 -31931640.512252331 0 0 0 0 158793656.2676239 142248709.44060206 0 142248709.44060206 122302203.90042925 0 0 0 0 1488708.7668919042 1272334.8888307619 0 1272334.8888307619 -608342.89924144372 0 0 0 0 183924856.93877411 -50387891.471696436 0 -50387891.471696436 -11318961.658706486 0 0 0 0 444263161.46456146 136793435.76803899 0 136793435.76803899 -64733331.847585678 0 0 0 0 522037575.2698288 -200308571.90667343 0 -200308571.90667343 -437251354.748528 0 0 0 0 466432150.48561478 -34298738.573019981 0 -34298738.573019981 -321451619.86265182 0 0 0 0 365646275.73228455 -89681551.007091209 0 -89681551.007091209 -86504263.076880097 0 0 0 0 221026682.34474182 31234428.452267639 0 31234428.452267639 -81233374.036017969 0 0 0 0 -34775357.022598267 69152016.700379252 0 69152016.700379252 -17289804.375601351 0 0 0 0 -239771654.80509949 143997053.6056059 0 143997053.6056059 -61756923.026165217 0 0 0 0 -50880083.56048584 95649121.890343964 0 95649121.890343964 -135372092.7934171 0 0 0 0 -68774299.453048706 -5514129.2815088034 0 -5514129.2815088034 -36061941.030826271 0 0 0 0 33026412.000801086 -46534954.640032887 0 -46534954.640032887 -17421750.53442502 0 0 0 0 -39895614.270198822 58608359.100670934 0 58608359.100670934 -81860422.702465177 0 0 0 0 -93721420.972579956 11761774.24289459 0 11761774.24289459 -27542502.555643857 0 0 0 0 37938825.725036621 27658757.075570285 0 27658757.075570285 -51873878.514685452 0 0 0 0 -70511957.287193298 49921411.844716698 0 49921411.844716698 39789843.69595325 0 0 0 0 -13686582.645584106 -2492657.4803984165 0 -2492657.4803984165 -13515219.721660614 0 0 0 0 4525464.6466946453 4773921.389508293 0 4773921.389508293 -2277271.7413102682 0 0 0 0 -14807878.306079865 -18779529.656577528 0 -18779529.656577528 28873256.981204033 0 0 0 0 -24819974.628692627 16910625.740488052 0 16910625.740488052 -16959874.320990562 0 0 0 0 -31836437.358428955 10687749.23375988 0 10687749.23375988 15420478.20532608 0 0 0 0 3225609.9294433594 20761822.321558952 0 20761822.321558952 12173708.877229452 0 0 0 0 -10613488.531263269 6230047.8073124774 0 6230047.8073124774 2577567.7618047204 0 0 0 0 -21009089.035446167 675938.01702356339 0 675938.01702356339 9527040.4290342331 0 0 0 0 -11276454.460494995 11851571.962627172 0 11851571.962627172 -2153686.2146090269 0 0 0 0 -1620460.5991796404 627916.61271840334 0 627916.61271840334 567764.16760647902 0 0 0 0 -14737837.080417633 7903030.8533593714 0 7903030.8533593714 9480825.8180150986 0 0 0 0 -9238975.0473632812 8655755.6822602749 0 8655755.6822602749 1226735.9410706758 0 0 0 0 -13434302.221319199 12514296.986773163 0 12514296.986773163 9928069.0128264427 0 0 0 0 -7156643.5885009766 184121.18186831474 0 184121.18186831474 12736332.770888507 0 0 0 0 -21269959.30891037 -11075508.490219593 0 -11075508.490219593 22438032.713790894 0 0 0 0 -42524196.476776123 34384686.511823654 0 34384686.511823654 8499754.6273958683 0 0 0 0 -8926468.7120406143 5994626.3393058758 0 5994626.3393058758 3269849.589553351 0 0 0 0 -35067948.367340088 40585350.210803032 0 40585350.210803032 -9631493.399241209 0 0 0 0 -10664118.941796146 6863301.6290567145 0 6863301.6290567145 4739493.4255969618 0 0 0 0 -36605217.333770752 50344650.080072403 0 50344650.080072403 -25987262.632246971 0 0 0 0 25782505.688796997 -41222683.717735291 0 -41222683.717735291 59226055.533247709 0 0 0 0 -1162770.0225206539 -2050153.717657961 0 -2050153.717657961 2153477.9270881936 0 0 0 0 115253169.5474205 -96958916.633556604 0 -96958916.633556604 36806663.522623062 0 0 0 0 38572444.056793213 701719.54310894012 0 701719.54310894012 -3696584.425658226 0 0 0 0 23706164.459308624 -4032402.2898669243 0 -4032402.2898669243 -1131708.0816650391 0 0 0 0 203815226.47472382 -4773696.761269033 0 -4773696.761269033 -145598749.18402147 0 0 0 0 -11091788.042222023 33686969.531741671 0 33686969.531741671 54559691.306728363 0 0 0 0 160815493.96528625 59388429.561608315 0 59388429.561608315 16651573.390399933 0 0 0 0 232693468.05330658 -110214235.77988625 0 -110214235.77988625 -81790643.375057459 0 0 0 0 234913390.68352509 -160035078.51772118 0 -160035078.51772118 -50375122.655446529 0 0 0 0 105812205.26036763 -51740828.611031979 0 -51740828.611031979 7634407.8389549255 0 0 0 0 99974857.352112293 -188035028.65476549 0 -188035028.65476549 104937810.15733528 0 0 0 0 -14590533.510913845 7001380.1100622118 0 7001380.1100622118 3774761.8454807871 0 0 0 0 27969612.046871185 -77468498.925409079 0 -77468498.925409079 111336102.77860641 0 0 0 0 -5599724.2184448242 3677085.2305922508 0 3677085.2305922508 4161303.8949411809 0 0 0 0 -7122103.91431427 3441183.9549710751 0 3441183.9549710751 4251166.843829155 0 0 0 0 -13086843.342506409 3195240.8165258141 0 3195240.8165258141 8523717.2342605293 0 0 0 0 -13421521.834983826 3235526.6673474312 0 3235526.6673474312 14565906.314124107 0 0 0 0 -11692058.260627829 6714118.02554629 0 6714118.02554629 752896.74252060463 0 0 0 0 -403529.036670506 -514668.33565046382 0 -514668.33565046382 937197.8362519528 0 0 0 0 5146476.674446106 -12240570.255246162 0 -12240570.255246162 6241859.4689759314 0 0 0 0 -5070405.7511901855 17141774.669730067 0 17141774.669730067 -28147240.915385485 0 0 0 0 -20782971.017837524 52204289.756315112 0 52204289.756315112 28191122.83042568 0 0 0 0 -19794975.653068542 4968243.4759275913 0 4968243.4759275913 27169597.231223106 0 0 0 0 -19888712.677146964 3571472.7866113763 0 3571472.7866113763 4236030.6447910322 0 0 0 0 5071154.1328430176 -12373628.795358658 0 -12373628.795358658 -4278763.3147907257 0 0 0 0 6064439.7131462097 -18646098.50335896 0 -18646098.50335896 18135414.376844406 0 0 0 0 -19835403.56336394 2799525.399732301 0 2799525.399732301 4288096.3813422024 0 0 0 0 11154235.07661438 469926.44191908836 0 469926.44191908836 -1363824.5170903206 0 0 0 0 -13141854.223567903 1828297.1634274111 0 1828297.1634274111 3372005.177862783 0 0 0 0 -50304408.150325775 18371469.131996274 0 18371469.131996274 41282035.8471241 0 0 0 0 -13359979.528289795 10663950.107495129 0 10663950.107495129 18448289.46160005 0 0 0 0 -86894916.887733459 9611819.0792579651 0 9611819.0792579651 39782757.916462719 0 0 0 0 -9012565.9724884033 10958428.334987134 0 10958428.334987134 10561435.850026771 0 0 0 0 16318811.792008877 38917779.26586394 0 38917779.26586394 5247783.0964853764 0 0 0 0 -12835773.357658545 2318466.2188004823 0 2318466.2188004823 2259816.6337204697 0 0 0 0 -31429794.096244812 -25030659.09445858 0 -25030659.09445858 78969675.298823357 0 0 0 0 -114528530.49872589 -39526565.319675207 0 -39526565.319675207 39890979.556962565 0 0 0 0 -135462.56813373417 182222.09343830822 0 182222.09343830822 309944.13539355749 0 0 0 0 65533344.542907715 -25360804.699485123 0 -25360804.699485123 -64411861.237997048 0 0 0 0 -24756637.549285889 -26189536.613253117 0 -26189536.613253117 -17884108.993996143 0 0 0 0 1152348.3644866943 9616009.2524614334 0 9616009.2524614334 38347587.62030077 0 0 0 0 -17577583.902870178 -13770476.920074463 0 -13770476.920074463 15756057.991152763 0 0 0 0 12206416.658573151 -17381290.938596725 0 -17381290.938596725 14418277.684177399 0 0 0 0 16782444.224372864 14053694.731915474 0 14053694.731915474 15603144.526367188 0 0 0 0 -16161854.127113342 -40283512.224869728 0 -40283512.224869728 35859127.649988174 0 0 0 0 -28698835.255423546 -9658044.5919977427 0 -9658044.5919977427 -1872112.0493335724 0 0 0 0 -14146613.628929138 7216084.7585391998 0 7216084.7585391998 15275524.587559938 0 0 0 0 -25419816.554065704 -1803330.6818852425 0 -1803330.6818852425 -45026109.902736664 0 0 0 0 -72196110.053043365 -24266911.030590534 0 -24266911.030590534 10702840.855793953 0 0 0 0 -63196486.929149628 32738244.582457304 0 32738244.582457304 -7171054.7409949303 0 0 0 0 -7694560.34153286 2037272.046981452 0 2037272.046981452 -726459.18744634371 0 0 0 0 -31851109.354312897 26995879.288652658 0 26995879.288652658 -35542532.02280426 0 0 0 0 -40181330.972072601 22840304.559909821 0 22840304.559909821 -6680065.0838260651 0 0 0 0 -25059503.639774323 11919583.727599859 0 11919583.727599859 -8240793.1366276741 0 0 0 0 -18945015.657917023 -234619.17984223366 0 -234619.17984223366 -3549686.0639266968 0 0 0 0 -6199085.4141845703 6057150.6510686874 0 6057150.6510686874 -806237.07550191879 0 0 0 0 -14242937.153613091 -14110284.983206391 0 -14110284.983206391 14793701.887595177 0 0 0 0 -23743358.363853455 -6648273.8006875515 0 -6648273.8006875515 3836271.8809312582 0 0 0 0 -15360314.486274719 -8138735.3548307419 0 -8138735.3548307419 2707734.8777813911 0 0 0 0 -20474001.24146843 -7749845.8134701252 0 -7749845.8134701252 25581501.119241714 0 0 0 0 -15506241.129749298 -4790993.9086852074 0 -4790993.9086852074 2011761.9927024841 0 0 0 0 -17370008.192187786 -9750934.5006110072 0 -9750934.5006110072 10889563.424799919 0 0 0 0 -16156274.372123718 -11240325.768411636 0 -11240325.768411636 11333589.793545723 0 0 0 0 -11183504.013072968 1096401.2734560966 0 1096401.2734560966 20549931.975614071 0 0 0 0 -1850333.7956848145 -2205539.9034166336 0 -2205539.9034166336 6655656.7849911451 0 0 0 0 -10700946.319387436 -7534778.1566130966 0 -7534778.1566130966 6193458.749630928 0 0 0 0 -6900781.3523818217 156909.47977997456 0 156909.47977997456 2192935.1057660691 0 0 0 0 10174985.422637939 9705752.7300394792 0 9705752.7300394792 -1040342.5976441652 0 0 0 0 -696862.36167595163 729867.81015147641 0 729867.81015147641 528675.7003314686 0 0 0 0 -8001888.2648620605 5615323.1889414787 0 5615323.1889414787 16438033.566157579 0 0 0 0 -6456099.0567626022 -2566271.7215518905 0 -2566271.7215518905 4517363.6685678409 0 0 0 0 -8506957.4061915018 6310318.5859865043 0 6310318.5859865043 227527.05809116882 0 0 0 0 -5463881.1222991943 -6846931.4896425009 0 -6846931.4896425009 9958976.8811020255 0 0 0 0 -11964714.274697982 1839686.3895858275 0 1839686.3895858275 2764631.9360421728 0 0 0 0 -19436104.409614563 1656907.8127288818 0 1656907.8127288818 32318233.185533524 0 0 0 0 -12932482.982688904 -28366612.255444527 0 -28366612.255444527 36676350.63349247 0 0 0 0 -1703648.0438790824 -2517801.1090067243 0 -2517801.1090067243 2113325.1899907156 0 0 0 0 -29211971.408210754 2560349.5397319198 0 2560349.5397319198 44592007.715882599 0 0 0 0 -35903867.576717377 13915669.895179749 0 13915669.895179749 -26362.163780212402 0 0 0 0 -33575198.801717758 15161826.722688198 0 15161826.722688198 -749000.80595397949 0 0 0 0 -79463949.332923889 41231605.727912337 0 41231605.727912337 12571776.367949545 0 0 0 0 -33695780.569149017 -20948778.606335908 0 -20948778.606335908 20393742.496459246 0 0 0 0 -34658620.281271935 13094223.738565445 0 13094223.738565445 -2518865.3731002808 0 0 0 0 -30662460.629190352 5829542.8591237264 0 5829542.8591237264 5222224.248106014 0 0 0 0 -22556751.483474731 -7574443.6179215312 0 -7574443.6179215312 36649850.578238904 0 0 0 0 -6895770.406382598 1783721.2641158588 0 1783721.2641158588 1603910.2186270233 0 0 0 0 -36459529.438163757 -69914070.110052153 0 -69914070.110052153 87753588.495021656 0 0 0 0 -38260967.663291931 6249882.2395700216 0 6249882.2395700216 40811745.197157383 0 0 0 0 -23298799.061413694 -1768958.4884328498 0 -1768958.4884328498 5963263.5261652125 0 0 0 0 -39421176.884355545 16079511.34211731 0 16079511.34211731 -1510360.9327220917 0 0 0 0 -36709039.640830994 12378664.139627457 0 12378664.139627457 -792349.36695861816 0 0 0 0 -37435852.460189819 22882401.836751938 0 22882401.836751938 5915375.3935232162 0 0 0 0 -19093963.839911014 6186455.0246155746 0 6186455.0246155746 5664623.9570316179 0 0 0 0 -10546538.911102295 -8117757.4982681274 0 -8117757.4982681274 16371599.179637909 0 0 0 0 -51418191.250610352 8512264.9392471313 0 8512264.9392471313 -6940823.1042366028 0 0 0 0 -1327105.6014252082 -2162583.3091900516 0 -2162583.3091900516 1224946.2670918722 0 0 0 0 -9143419.9825286865 57012711.925554276 0 57012711.925554276 19860381.11056757 0 0 0 0 -29714531.554412842 -4015261.730009079 0 -4015261.730009079 48701706.371600807 0 0 0 0 -37064072.211013794 18870785.993653059 0 18870785.993653059 27309503.485890388 0 0 0 0 -26097573.718307495 9787249.3012547046 0 9787249.3012547046 31800948.023618937 0 0 0 0 -28644225.464126587 11396938.576762199 0 11396938.576762199 32268531.209577918 0 0 0 0 -14649066.888114799 -1070749.6866802326 0 -1070749.6866802326 4209358.8625491243 0 0 0 0 -12508703.082267761 3195919.0573229343 0 3195919.0573229343 22173427.106094122 0 0 0 0 19930591.894962072 -5261973.9071902819 0 -5261973.9071902819 20677526.922688484 0 0 0 0 -14491752.965950783 4876792.7250710391 0 4876792.7250710391 2841512.3838538597 0 0 0 0 -86649218.982727051 -18196018.12405777 0 -18196018.12405777 24390519.689874649 0 0 0 0 -38930541.765029907 71807811.807915688 0 71807811.807915688 48392526.089532375 0 0 0 0 -40206846.935649872 22246443.399214745 0 22246443.399214745 -11129335.992278099 0 0 0 0 -37866101.877422333 21219356.969773054 0 21219356.969773054 -13713139.62506485 0 0 0 0 -85934121.09128952 50301001.400613308 0 50301001.400613308 52552396.555088997 0 0 0 0 -2498048.0585309025 210301.16743691824 0 210301.16743691824 165060.27715768758 0 0 0 0 -49112523.653219223 27686845.082497716 0 27686845.082497716 -13960765.64678371 0 0 0 0 -14523623.961331632 1913967.8157815291 0 1913967.8157815291 4189783.1615670966 0 0 0 0 -34416117.647232056 15780139.004290581 0 15780139.004290581 -4688599.3276968002 0 0 0 0 -39833738.479156494 18185247.702906609 0 18185247.702906609 -5234929.9177060127 0 0 0 0 -14210997.024907734 3020982.101022236 0 3020982.101022236 4955132.7708911458 0 0 0 0 -38446892.653340816 13824869.772496223 0 13824869.772496223 -944072.93691635132 0 0 0 0 -35101618.150871277 13856716.029388428 0 13856716.029388428 -3852434.8789577484 0 0 0 0 -34780218.194661744 6288547.6887686774 0 6288547.6887686774 11945912.471732043 0 0 0 0 -35006103.967416525 12275904.186466932 0 12275904.186466932 1137438.3816890717 0 0 0 0 18060636.958641052 -640548.817029953 0 -640548.817029953 11194793.891498566 0 0 0 0 -211818357.29109955 -101555581.83145905 0 -101555581.83145905 -83511627.892756939 0 0 0 0 -9634476.1785163879 -114799463.46290779 0 -114799463.46290779 -283834741.79254913 0 0 0 0 -97587245.389850616 -116644761.58956909 0 -116644761.58956909 130627085.75492859 0 0 0 0 -37462310.262542725 -150048855.86437225 0 -150048855.86437225 -86199531.136343002 0 0 0 0 -107206802.94557762 -89714724.704730988 0 -89714724.704730988 336131515.08351898 0 0 0 0 32193481.242515564 -161355401.59548569 0 -161355401.59548569 139470798.50439453 0 0 0 0 -32229799.108019039 4116599.9258286953 0 4116599.9258286953 13729704.840728771 0 0 0 0 -35784354.142972946 13016111.238155842 0 13016111.238155842 -3143995.4461798668 0 0 0 0 -32815527.14629364 -227754367.10849762 0 -227754367.10849762 278171178.39832306 0 0 0 0 -22938941.187113762 -96744383.894079208 0 -96744383.894079208 241059929.26145935 0 0 0 0 1690905.4078140259 -90970663.893089294 0 -90970663.893089294 -45852398.838699341 0 0 0 0 3513710.855178833 -36517682.607505798 0 -36517682.607505798 -33406859.01128006 0 0 0 0 39926901.933710098 -112430362.59085655 0 -112430362.59085655 108085470.90343666 0 0 0 0 -35591526.338439465 14279573.069947362 0 14279573.069947362 -6460711.4417800903 0 0 0 0 -34308286.710410118 15588462.614677548 0 15588462.614677548 -7264335.9018821716 0 0 0 0 -33050174.653699875 15276947.336801529 0 15276947.336801529 -7325243.1509876251 0 0 0 0 -33508957.471448898 14771406.587157726 0 14771406.587157726 -7018217.9241380692 0 0 0 0 -30119554.171224698 2793942.5204463778 0 2793942.5204463778 15539935.546963073 0 0 0 0 37141117.82136786 -17795541.033310175 0 -17795541.033310175 -32869571.046611786 0 0 0 0 2539799.5139598846 -16077400.417422295 0 -16077400.417422295 7912280.4013748169 0 0 0 0 -17332099.545349121 -10011437.401264191 0 -10011437.401264191 40842637.620415211 0 0 0 0 -9794758.5237898827 -13717453.129313946 0 -13717453.129313946 21028323.064598083 0 0 0 0 249593.3682403937 -4035480.9348656787 0 -4035480.9348656787 3393080.3170120073 0 0 0 0 60382253.526161194 -9247541.0973949432 0 -9247541.0973949432 -146108565.04971313 0 0 0 0 19186449.714950562 4163990.5757293701 0 4163990.5757293701 -114992524.72445297 0 0 0 0 -2443859.3151570745 -2467656.9110124474 0 -2467656.9110124474 1706040.6650231266 0 0 0 0 -990327.75033950806 10437468.066209793 0 10437468.066209793 27829384.08385849 0 0 0 0 -21754370.155771255 21889559.993536949 0 21889559.993536949 22354619.910881042 0 0 0 0 10749006.9333992 22570024.549823761 0 22570024.549823761 4507886.7587661743 0 0 0 0 -137433722.23007965 65742171.966164589 0 65742171.966164589 -71874897.515556335 0 0 0 0 17718488.568515778 9744222.9206180573 0 9744222.9206180573 11473926.720146179 0 0 0 0 -1298893.0592162535 1025461.1731122425 0 1025461.1731122425 6734905.70719162 0 0 0 0 -161925295.04339981 53596339.313102722 0 53596339.313102722 -49429743.109893799 0 0 0 0 -255734650.22104645 97168876.152015686 0 97168876.152015686 -43840478.931114197 0 0 0 0 -134285178.81958008 39138106.708320618 0 39138106.708320618 95003120.111083984 0 0 0 0 -144685195.12622356 122882262.3664484 0 122882262.3664484 -73845355.591644287 0 0 0 0 -252650079.39981842 41665700.525047302 0 41665700.525047302 63181057.685417175 0 0 0 0 -3254.2044997513294 56208.34222183004 0 56208.34222183004 129990.80354037229 0 0 0 0 -50659028.279640198 111032102.28532028 0 111032102.28532028 -236735547.51000977 0 0 0 0 -865558.87469763122 -1233246.5274976417 0 -1233246.5274976417 795274.37507785484 0 0 0 0 -143379281.91188812 28344773.666618347 0 28344773.666618347 4467905.1279315948 0 0 0 0 -204072011.12326813 -144769441.88002968 0 -144769441.88002968 -141294060.17808533 0 0 0 0 -26319940.865653992 -11772437.161325693 0 -11772437.161325693 12759396.601533651 0 0 0 0 -38835372.101646423 18566621.302778125 0 18566621.302778125 -17852102.909393907 0 0 0 0 -42597713.706939697 21942940.995278239 0 21942940.995278239 55052288.077280283 0 0 0 0 -133604960.86362076 -73966166.943427712 0 -73966166.943427712 78051593.96572338 0 0 0 0 -901115.40904905647 -494537.92330058292 0 -494537.92330058292 13869.085466659395 0 0 0 0 -9194902.4018249512 49446759.632114649 0 49446759.632114649 -26669552.455312133 0 0 0 0 -34580270.24028492 -46102269.347214282 0 -46102269.347214282 11671024.423836708 0 0 0 0 -25394735.127811432 -11839194.38460958 0 -11839194.38460958 -3143563.8678035736 0 0 0 0 -16824992.148780823 -11212130.804316044 0 -11212130.804316044 -5533091.1697218418 0 0 0 0 -19798995.425425529 -1728514.6144736409 0 -1728514.6144736409 -5484758.2835793495 0 0 0 0 -35453829.63010788 733474.87704277039 0 733474.87704277039 -3548545.3082752228 0 0 0 0 -41998788.505943298 6352688.8758158684 0 6352688.8758158684 -6394438.1728563309 0 0 0 0 -49424540.381702423 19581759.241807878 0 19581759.241807878 -6753745.4284679424 0 0 0 0 -17338518.808755212 6959633.5810694583 0 6959633.5810694583 -3636918.5841520047 0 0 0 0 -11452797.399401387 -1508090.9831402479 0 -1508090.9831402479 4277772.0712903179 0 0 0 0 -26751215.840633757 697867.76189079043 0 697867.76189079043 17407957.759168148 0 0 0 0 -17143850.799954414 4610224.71367836 0 4610224.71367836 -128922.04864501953 0 0 0 0 -30943157.844733238 15069490.331855774 0 15069490.331855774 -11566733.317328453 0 0 0 0 -30912429.214935303 16464354.063495159 0 16464354.063495159 -11866164.228553951 0 0 0 0 -40805247.210500717 -1477640.5532138348 0 -1477640.5532138348 5708104.477285862 0 0 0 0 -18804856.437289707 8061527.8374321442 0 8061527.8374321442 -5574282.2867935905 0 0 0 0 -13639759.513837814 4694920.328081131 0 4694920.328081131 -1172246.3166646957 0 0 0 0 -3729148.7057627584 -6496171.4527347609 0 -6496171.4527347609 8282253.7256888496 0 0 0 0 -8380725.433059454 -918912.00568771362 0 -918912.00568771362 622408.90957546234 0 0 0 0 -7570331.7784833908 -3275276.3247666359 0 -3275276.3247666359 7886347.9183826447 0 0 0 0 49268987.281112671 -42994573.135364532 0 -42994573.135364532 66266977.453636169 0 0 0 0 -35898439.404974774 7099174.9351807451 0 7099174.9351807451 8410180.4038550444 0 0 0 0 2457561.3690008074 -2067965.6734414697 0 -2067965.6734414697 1578188.0217565857 0 0 0 0 28949672.92111659 -87739610.641568184 0 -87739610.641568184 66518972.535140991 0 0 0 0 5312515.1408691406 -70428117.29864502 0 -70428117.29864502 111470979.30606079 0 0 0 0 26524696.688346863 -34051004.938907623 0 -34051004.938907623 14267050.137195587 0 0 0 0 4209513.6172250658 -10398543.545773439 0 -10398543.545773439 6668150.7530256119 0 0 0 0 21466446.134750366 -19646904.346191406 0 -19646904.346191406 13200471.442760468 0 0 0 0 -1570160.4691085815 -15175859.760404587 0 -15175859.760404587 18218564.067111969 0 0 0 0 -6894552.7021598816 -203856.15368461609 0 -203856.15368461609 5144307.0003962517 0 0 0 0 -9836139.9481540583 -2360270.5960399145 0 -2360270.5960399145 6603557.6912367456 0 0 0 0 -12083093.453168869 417643.77123451233 0 417643.77123451233 8819737.001663208 0 0 0 0 -713495.39017000049 -6966126.0613649851 0 -6966126.0613649851 9709269.9119806774 0 0 0 0 -206034.52503204346 -3502326.021484375 0 -3502326.021484375 4412255.219285965 0 0 0 0 -6843478.8815448787 856436.4441456059 0 856436.4441456059 2553128.4631713126 0 0 0 0 -23905413.533348501 1497880.0531975832 0 1497880.0531975832 10959244.952311151 0 0 0 0 -8862075.6880111694 -9376901.8525724411 0 -9376901.8525724411 13606991.560386658 0 0 0 0 358195.99765350297 -1319735.0957317734 0 -1319735.0957317734 976383.81212408282 0 0 0 0 3567592.6718597412 2512865.5051383972 0 2512865.5051383972 5338798.2083520889 0 0 0 0 -15385296.191450119 -14635364.345988274 0 -14635364.345988274 16480218.112086058 0 0 0 0 -34168392.855026245 38339503.208491206 0 38339503.208491206 -6398870.0187778473 0 0 0 0 -35708424.666835785 19838033.471076861 0 19838033.471076861 -43463241.303209782 0 0 0 0 -15692308.777596503 543585.68653919827 0 543585.68653919827 3202646.7636184408 0 0 0 0 -25640161.277740479 52060534.953766972 0 52060534.953766972 -6850055.8835631013 0 0 0 0 -3647142.1103630066 20388986.276621222 0 20388986.276621222 13003928.979306579 0 0 0 0 -34024717.394796371 32340304.542980045 0 32340304.542980045 8380258.2349765301 0 0 0 0 -453026.15389570408 -309142.2128037829 0 -309142.2128037829 -313439.35127113399 0 0 0 0 -55738625.366746902 2541860.8547683954 0 2541860.8547683954 -9588968.3005857468 0 0 0 0 -26040791.303676941 450662.82219904126 0 450662.82219904126 11463427.41497349 0 0 0 0 -38110442.894416809 -12904626.593067169 0 -12904626.593067169 13255028.939483643 0 0 0 0 -19882540.471526727 5687385.676135879 0 5687385.676135879 2883902.9153505694 0 0 0 0 338945977.74171114 202461857.58413497 0 202461857.58413497 -87184192.72445628 0 0 0 0 -769744374.60311127 -47667716.10076797 0 -47667716.10076797 58849749.802797437 0 0 0 0 235375379.95271254 -269171460.3157416 0 -269171460.3157416 -834455018.75649846 0 0 0 0 -713193738.89935637 271993691.72333992 0 271993691.72333992 476716730.35384679 0 0 0 0 -11558540.448913574 -13321179.880785465 0 -13321179.880785465 2905205.8474093676 0 0 0 0 17174378.511413574 56679423.155702591 0 56679423.155702591 1037172.9611894786 0 0 0 0 64450342.261041641 36785902.922569096 0 36785902.922569096 -13889689.121593952 0 0 0 0 -721879.76318994421 -270663.17247700598 0 -270663.17247700598 3757.5977997527225 0 0 0 0 -31251343.484077454 -15259116.996332526 0 -15259116.996332526 14775174.648228645 0 0 0 0 -5560421.7860565186 11992610.76870966 0 11992610.76870966 17517759.835368395 0 0 0 0 24027774.533363342 7049856.2083046436 0 7049856.2083046436 11922021.549890757 0 0 0 0 -35640087.645293236 27476909.846913993 0 27476909.846913993 22595625.888190269 0 0 0 0 -15432887.186007872 3654940.7103195107 0 3654940.7103195107 2305587.5799573152 0 0 0 0 -20091149.37021637 12536956.449961424 0 12536956.449961424 -4098315.4538850784 0 0 0 0 -31155743.446329355 3232863.5070263147 0 3232863.5070263147 14471048.907912731 0 0 0 0 -41100563.984375 292332371.68819404 0 292332371.68819404 312445650.44398952 0 0 0 0 -8561168.6732673645 3736595.0904319286 0 3736595.0904319286 -1983072.2457103729 0 0 0 0 -18777081.09012413 19667046.057851911 0 19667046.057851911 1111264.9372119904 0 0 0 0 -14223809.142295837 7012327.5139920712 0 7012327.5139920712 6233428.303602457 0 0 0 0 -28900251.222536087 3880287.2558777332 0 3880287.2558777332 8227007.9513192177 0 0 0 0 -9112268.3811340332 3491135.4484004974 0 3491135.4484004974 4395596.7024240494 0 0 0 0 553202.83507869765 1182416.8769830726 0 1182416.8769830726 -43565.059615095437 0 0 0 0 -17073219.447086334 7668205.5544185638 0 7668205.5544185638 -2602167.3339037895 0 0 0 0 -2472508.4612381388 -158817.95290410146 0 -158817.95290410146 150509.11059816158 0 0 0 0 -2431250.920209825 -217763.68646931276 0 -217763.68646931276 -143344.80943744676 0 0 0 0 12059828.346393585 16656519.801776677 0 16656519.801776677 -654293.606757164 0 0 0 0 353943.82405853271 9853867.0407314301 0 9853867.0407314301 2906354.1927318573 0 0 0 0 -5509010.5787582397 3954210.4417037964 0 3954210.4417037964 8736737.4943294525 0 0 0 0 -11161252.00186855 -945231.11507690884 0 -945231.11507690884 1930115.0579989261 0 0 0 0 -58840168.581920385 -34367152.001292348 0 -34367152.001292348 8274076.5277328491 0 0 0 0 -7673723.349407196 515854.13530921936 0 515854.13530921936 9633427.7284998894 0 0 0 0 -8126766.7400245667 1212131.2838950157 0 1212131.2838950157 10301593.123969078 0 0 0 0 -6410746.0997934341 26330362.032441497 0 26330362.032441497 18275538.95259878 0 0 0 0 -10964790.724470658 2220149.0132550984 0 2220149.0132550984 1456202.8428546232 0 0 0 0 -11868427.007022263 -2498570.5332159381 0 -2498570.5332159381 1948748.1967373155 0 0 0 0 -7448192.9277877808 1424702.6954493523 0 1424702.6954493523 9627673.560608387 0 0 0 0 48144066.925951242 -113175282.50142336 0 -113175282.50142336 74584009.634855747 0 0 0 0 -14463336.465672866 3218824.2932934281 0 3218824.2932934281 4757083.6266304264 0 0 0 0 -9066362.2995648906 1170385.8854283886 0 1170385.8854283886 2571324.9359574476 0 0 0 0 68573866.894059777 -74400620.231806874 0 -74400620.231806874 140256421.97033787 0 0 0 0 62110063.413422167 -69860608.898173571 0 -69860608.898173571 147686771.88875151 0 0 0 0 47104869.110152602 -94045535.327391028 0 -94045535.327391028 232292252.36952889 0 0 0 0 41841874.476282835 -122730869.46933854 0 -122730869.46933854 120842208.94755226 0 0 0 0 1630633.0061750412 27403765.979442894 0 27403765.979442894 -32316900.222517967 0 0 0 0 -1961647.7590559232 360732.40671659692 0 360732.40671659692 -36124.139248474501 0 0 0 0 -152007253.65244865 -17906997.299007811 0 -17906997.299007811 -6174498.5948056616 0 0 0 0 -117576504.57928729 -164981834.23612294 0 -164981834.23612294 -179225196.08912849 0 0 0 0 276197825.97052157 -299091371.76199424 0 -299091371.76199424 -178798416.27648124 0 0 0 0 -112469854.66823268 82811107.216996819 0 82811107.216996819 146348018.50944805 0 0 0 0 114012490.14842224 -133251937.11483294 0 -133251937.11483294 -143704219.8745048 0 0 0 0 50771930.939970016 -451001682.40421844 0 -451001682.40421844 55440123.231967926 0 0 0 0 -444705356.02152836 -329230116.01352829 0 -329230116.01352829 119826725.76117325 0 0 0 0 -378136781.63268757 490387189.89483279 0 490387189.89483279 -303145226.93686879 0 0 0 0 -2054859.7518926789 -776579.70858308463 0 -776579.70858308463 -157338.93942037266 0 0 0 0 -85413327.145462036 230661668.53029513 0 230661668.53029513 -139855897.71337876 0 0 0 0 -5663892.5706293713 -1625943.9890333698 0 -1625943.9890333698 -2885.2126929833903 0 0 0 0 -268406893.58698559 24618640.718769912 0 24618640.718769912 228856981.59467337 0 0 0 0 44778681.582937717 -483577105.50183815 0 -483577105.50183815 676870349.07451427 0 0 0 0 258626250.94790983 -100275123.23017225 0 -100275123.23017225 -95364864.370154738 0 0 0 0 -447251093.55183363 -204579909.90025938 0 -204579909.90025938 986983492.86111665 0 0 0 0 -208864904.37148523 -294074924.58010924 0 -294074924.58010924 -461798901.54332149 0 0 0 0 -100205425.68573475 -70988027.738541052 0 -70988027.738541052 -41679183.905890465 0 0 0 0 165747898.13647652 -74665331.672866344 0 -74665331.672866344 -351926487.52355456 0 0 0 0 146284101.98815489 -237414198.49710661 0 -237414198.49710661 -228688759.75791019 0 0 0 0 -3024833917.7111177 289231406.877621 0 289231406.877621 620161625.75196564 0 0 0 0 -958689692.37704659 1489544417.3986499 0 1489544417.3986499 -408785967.50565076 0 0 0 0 -283600387.80524254 -339559036.05448771 0 -339559036.05448771 16348601.13148799 0 0 0 0 -820673570.20211363 321057305.20225865 0 321057305.20225865 51774720.078431249 0 0 0 0 -2089378332.4001598 -645389193.98765218 0 -645389193.98765218 -198688930.04319024 0 0 0 0 -3323132875.1376247 82160129.837674081 0 82160129.837674081 570173904.179726 0 0 0 0 -2025267407.9155121 470273240.56124574 0 470273240.56124574 601056186.54593396 0 0 0 0 -4093493015.5961766 -609203189.66345155 0 -609203189.66345155 99042973.107616246 0 0 0 0 -2800569807.2236671 -917936090.85349405 0 -917936090.85349405 160016896.79566476 0 0 0 0 -2280338.0845108628 17004.701181332115 0 17004.701181332115 -618648.60598408792 0 0 0 0 -2637820522.0163612 21836797.769289315 0 21836797.769289315 21472030.089278519 0 0 0 0 -1640083744.5450869 -1211362009.0610864 0 -1211362009.0610864 -681027960.56998134 0 0 0 0 -485008096.52668571 -103131876.16954905 0 -103131876.16954905 -124723409.21631317 0 0 0 0 10244920.492725015 336649637.0751555 0 336649637.0751555 19531152.513093948 0 0 0 0 57769806.136547089 -424529739.74646807 0 -424529739.74646807 -608630663.01490331 0 0 0 0 21932077.793956161 272184818.47938478 0 272184818.47938478 -62547677.385718346 0 0 0 0 83185832.360088587 -288553654.72244483 0 -288553654.72244483 -244016328.83674753 0 0 0 0 144673179.4777813 -68564977.832940042 0 -68564977.832940042 -155224419.02321219 0 0 0 0 -1963830458.2200537 -1070429278.542498 0 -1070429278.542498 -499485781.54328144 0 0 0 0 -1024430757.4703197 126527875.17980754 0 126527875.17980754 53748892.771939635 0 0 0 0 -52957887.410598755 -176270713.48986125 0 -176270713.48986125 -451201191.43786877 0 0 0 0 -4090385173.1533566 -1677050969.5651698 0 -1677050969.5651698 175921443.0796774 0 0 0 0 -2756399000.744936 -796805956.82183349 0 -796805956.82183349 233679820.4942162 0 0 0 0 14389867.31230402 -45617719.267533422 0 -45617719.267533422 -105339996.48341751 0 0 0 0 19617376.312657356 -22329123.290552616 0 -22329123.290552616 -63720413.118493557 0 0 0 0 -265979.20387649536 18251802.833879784 0 18251802.833879784 -237851169.14080894 0 0 0 0 -15292641.729437351 -18095063.200548798 0 -18095063.200548798 -261961978.52797341 0 0 0 0 -123798223.18783188 82501393.587841868 0 82501393.587841868 -322470206.84624773 0 0 0 0 -382579241.48743963 -214070620.70764682 0 -214070620.70764682 -462204883.7924161 0 0 0 0 -6739433.1356296539 185839032.44789457 0 185839032.44789457 -352323628.73945868 0 0 0 0 -146157284.25348663 113405240.86445618 0 113405240.86445618 82018949.736763 0 0 0 0 -121243597.30073547 116062239.29089308 0 116062239.29089308 -89464703.035203934 0 0 0 0 -33776456.052014828 -22595861.095580757 0 -22595861.095580757 -12056133.827119827 0 0 0 0 -182426188.32082939 29708480.717758417 0 29708480.717758417 98084416.340331554 0 0 0 0 94998197.866374969 -24469672.05099535 0 -24469672.05099535 39402321.594921112 0 0 0 0 -3090416.0747558544 3195637.1806647601 0 3195637.1806647601 1821365.5731579973 0 0 0 0 -95985883.844388962 -65106635.378420353 0 -65106635.378420353 116850999.29422772 0 0 0 0 -7315082.5502669048 1003168.7248133128 0 1003168.7248133128 -137393.50069740531 0 0 0 0 -342229455.5852356 -148942774.53372765 0 -148942774.53372765 244261992.4574337 0 0 0 0 -218870758.47421455 58629491.162962914 0 58629491.162962914 467448371.42902422 0 0 0 0 -218510299.49511337 68712293.780946255 0 68712293.780946255 62200807.376496792 0 0 0 0 271285871.41067886 79926690.431088805 0 79926690.431088805 5740870.7183345556 0 0 0 0 186993994.31275177 -106146076.18840554 0 -106146076.18840554 71117896.212508082 0 0 0 0 -669161.00115557667 1172633.7045143542 0 1172633.7045143542 240001.45456559627 0 0 0 0 -1876847.3877204941 -10905.975816338789 0 -10905.975816338789 1142194.9606275018 0 0 0 0 271073563.707798 75484151.19644773 0 75484151.19644773 -11010735.822312713 0 0 0 0 -20799314.627563477 12443270.043273449 0 12443270.043273449 -11723911.110110283 0 0 0 0 -44428133.933563232 6439619.0253437757 0 6439619.0253437757 9853335.7452770472 0 0 0 0 24976828.567634583 6843121.1048357487 0 6843121.1048357487 -11417331.112211078 0 0 0 0 -5980615.71579355 7064785.6236964576 0 7064785.6236964576 2809362.2076854873 0 0 0 0 -11406824.135350157 286349.42343783565 0 286349.42343783565 2192806.8720191251 0 0 0 0 -2770805.6315307617 -2512633.7177467346 0 -2512633.7177467346 13965757.361151695 0 0 0 0 -11406271.719310544 -3195187.0082770651 0 -3195187.0082770651 -1695534.6441519633 0 0 0 0 -16897013.858103752 46056180.931014061 0 46056180.931014061 74195273.58712256 0 0 0 0 -20014706.105171204 -5749638.1768655777 0 -5749638.1768655777 42354649.614758492 0 0 0 0 -12971802.95589092 -7563359.4136370197 0 -7563359.4136370197 1139407.4950907216 0 0 0 0 38481058.825805187 -22433920.294549108 0 -22433920.294549108 -19984605.47658062 0 0 0 0 -55431207.004381299 33624352.955652773 0 33624352.955652773 -37486909.957836628 0 0 0 0 -11424930.293348003 1886133.0281031255 0 1886133.0281031255 1293420.7542979904 0 0 0 0 -6514411.4977264404 19093497.708261013 0 19093497.708261013 -10275617.192558885 0 0 0 0 -15082911.552871704 -31615729.269263744 0 -31615729.269263744 145523484.65190315 0 0 0 0 -55170469.883499146 -4340451.0092511177 0 -4340451.0092511177 4321974.7117891312 0 0 0 0 -2248670.8332672119 -2839084.8300634623 0 -2839084.8300634623 17252685.391993701 0 0 0 0 -8848572.1500965208 3837631.3982740585 0 3837631.3982740585 1675502.1646233024 0 0 0 0 -16461622.906151157 2843046.1973150815 0 2843046.1973150815 -2309089.4050249737 0 0 0 0 -28306338.952438354 7743909.5438461304 0 7743909.5438461304 28371142.583474636 0 0 0 0 -165137245.75985718 -105544812.35261345 0 -105544812.35261345 305302904.21691382 0 0 0 0 -51632185.387819767 84786687.854066014 0 84786687.854066014 280059877.60765696 0 0 0 0 -92559580.805183411 -207656193.38331246 0 -207656193.38331246 -61487064.073900461 0 0 0 0 -56843486.498016357 -21337218.734342098 0 -21337218.734342098 107502512.71932745 0 0 0 0 -97087632.412712097 -54909094.672816277 0 -54909094.672816277 140164804.00137138 0 0 0 0 -47927540.890075684 -17048690.507752419 0 -17048690.507752419 -19423712.520978928 0 0 0 0 87313308.633857727 -91774848.006621838 0 -91774848.006621838 -18270612.860794067 0 0 0 0 -2906933.3238358311 279168.06127493037 0 279168.06127493037 -1508716.0859402313 0 0 0 0 -1993192603.2146263 -2153731788.3405204 0 -2153731788.3405204 -1696329627.1339095 0 0 0 0 -207986341.20204163 540449741.31594503 0 540449741.31594503 -699289254.96793342 0 0 0 0 -5747411.0531068631 3238277.7603670182 0 3238277.7603670182 -2442661.3696750747 0 0 0 0 -591892192.87862587 195236974.82751346 0 195236974.82751346 190586496.55290711 0 0 0 0 56878726.789684296 130338735.52528369 0 130338735.52528369 199721892.5284977 0 0 0 0 -207986341.20191956 2369655.8413392305 0 2369655.8413392305 1487983.7773380131 0 0 0 0 -8181335.0733481701 2337052.2755880943 0 2337052.2755880943 -2923040.9206875446 0 0 0 0 -4086996348.2949333 -266834373.67497796 0 -266834373.67497796 349302693.2640577 0 0 0 0 -4090192374.6767044 -264364765.25691947 0 -264364765.25691947 348309003.6331107 0 0 0 0 -3867620.1424625292 415018.60633093398 0 415018.60633093398 -2614500.1260031834 0 0 0 0 159191910.74067688 765938253.29843163 0 765938253.29843163 -857024949.07031894 0 0 0 0 -140474342.98055124 -329737512.85277009 0 -329737512.85277009 22389649.248279095 0 0 0 0 -493944447.40771103 356340891.10113418 0 356340891.10113418 -409421500.35074282 0 0 0 0 -511625902.40305328 290019406.19025236 0 290019406.19025236 -599903125.61765349 0 0 0 0 -4089166031.3722734 1063972862.3003575 0 1063972862.3003575 258149101.6766459 0 0 0 0 -1542413611.6136551 1582025590.4481261 0 1582025590.4481261 -1016411309.1410406 0 0 0 0 163840.05022900552 437708.20213100145 0 437708.20213100145 -60099.466688159257 0 0 0 0 -131208423.56474304 -70345321.47154206 0 -70345321.47154206 179787248.11834899 0 0 0 0 37716825.243244171 -63939289.61655724 0 -63939289.61655724 -310238098.93812609 0 0 0 0 -64607011.86173439 -129315937.13427937 0 -129315937.13427937 -202629249.83492577 0 0 0 0 -571115867.26958084 407931599.70143002 0 407931599.70143002 -426720334.41402423 0 0 0 0 193300356.75321579 -6486046.5329591632 0 -6486046.5329591632 -118846470.83742523 0 0 0 0 53567314.561504364 -107292854.69031745 0 -107292854.69031745 -78922622.372141361 0 0 0 0 -4571231.7852440998 4873286.8835730329 0 4873286.8835730329 -4537306.7563968096 0 0 0 0 117449624.50665665 73179143.616295755 0 73179143.616295755 26020727.361732244 0 0 0 0 9005487.0411682129 -1857875.8935636282 0 -1857875.8935636282 -5229865.0861629248 0 0 0 0 -20663591.304229736 -29188140.073620319 0 -29188140.073620319 -15644391.076473832 0 0 0 0 -2165286.8554668427 -115941046.19853747 0 -115941046.19853747 58312607.203020096 0 0 0 0 84422354.175243378 -54726003.557726979 0 -54726003.557726979 8277018.897213459 0 0 0 0 519080.36355243623 546634.43778417585 0 546634.43778417585 -242922.43680357817 0 0 0 0 1679950.4664001465 -6612226.8436861038 0 -6612226.8436861038 31743761.766962051 0 0 0 0 10160507.869148254 -381426.18306708336 0 -381426.18306708336 -6451613.7218179703 0 0 0 0 -664954.68163324893 1863104.0838993983 0 1863104.0838993983 -977863.36101292062 0 0 0 0 -10055178.779641151 4773369.5902190227 0 4773369.5902190227 -2232583.5099487514 0 0 0 0 -7912835.4639358521 2782032.0521249771 0 2782032.0521249771 2406531.4703400135 0 0 0 0 1910277.6615438461 6482503.1904003024 0 6482503.1904003024 1112893.2133114338 0 0 0 0 110316.90711096674 -2216277.9535642527 0 -2216277.9535642527 1111993.7785059416 0 0 0 0 10189700.471214533 9512203.8531389311 0 9512203.8531389311 -1540715.6962623596 0 0 0 0 7030580.2605895996 -6194062.124145031 0 -6194062.124145031 -13890582.648498058 0 0 0 0 33117.59876139462 71348.833008982241 0 71348.833008982241 -133665.9654184003 0 0 0 0 -247697284.89363861 11473519.684029579 0 11473519.684029579 594984484.38951588 0 0 0 0 -39064214.071815491 208832062.25838947 0 208832062.25838947 566770772.31535757 0 0 0 0 -83307199.371276855 -75135638.940341949 0 -75135638.940341949 289970556.84848809 0 0 0 0 -170066369.98321533 -108058762.18455791 0 -108058762.18455791 357295327.67712402 0 0 0 0 19154325.281738281 3975337.1392993927 0 3975337.1392993927 345319829.24867582 0 0 0 0 -99691758.882980347 -199101184.58710098 0 -199101184.58710098 165227545.05135918 0 0 0 0 -81629475.37928772 -76327806.570547104 0 -76327806.570547104 194995398.40724754 0 0 0 0 -86511417.66519165 -62079555.113459826 0 -62079555.113459826 349826386.86957932 0 0 0 0 -57548595.151428223 -130302188.62214565 0 -130302188.62214565 249273101.90544891 0 0 0 0 -57601372.208374023 -127108737.97185135 0 -127108737.97185135 82763877.967650414 0 0 0 0 -22185426.306732178 -24429987.330766678 0 -24429987.330766678 76304467.074360847 0 0 0 0 -59727793.104705811 9886125.5710029602 0 9886125.5710029602 237486360.05246735 0 0 0 0 -13678687.89342545 2004774.0365447544 0 2004774.0365447544 4086590.80522478 0 0 0 0 -39945962.720901489 20126471.454156876 0 20126471.454156876 95483940.122238159 0 0 0 0 -11007239.946181923 1780108.2758692745 0 1780108.2758692745 1741994.8600772338 0 0 0 0 -4978094.6449737549 1685458.3487758636 0 1685458.3487758636 2537836.0624862909 0 0 0 0 -4910128.7132453918 1853649.0363607407 0 1853649.0363607407 2780203.6778182983 0 0 0 0 -8780605.2914313637 -354547.59138443507 0 -354547.59138443507 2864917.6136073149 0 0 0 0 -2947980.0907211304 3235801.3948767185 0 3235801.3948767185 2939674.8032050133 0 0 0 0 39382.158264160156 5134346.8166046143 0 5134346.8166046143 10493681.176109672 0 0 0 0 -3918051.9153137207 -935391.04045963287 0 -935391.04045963287 11249754.283377647 0 0 0 0 10719353.294387817 8541450.3992710114 0 8541450.3992710114 349750456.63820267 0 0 0 0 1517689.0194396973 119976576.82617188 0 119976576.82617188 323467595.68062305 0 0 0 0 31591030.559143066 -54163873.07271862 0 -54163873.07271862 48772537.83089447 0 0 0 0 -2886060.8658530973 1094864.4610830247 0 1094864.4610830247 1850900.3348251833 0 0 0 0 -2711165.9601144791 14842483.867085159 0 14842483.867085159 27813209.008460999 0 0 0 0 -2407995.9074630737 3769942.8884811103 0 3769942.8884811103 10149910.702135086 0 0 0 0 -4319273.7346954346 30144.152690410614 0 30144.152690410614 4847961.9025787711 0 0 0 0 -6054835.2744859532 -1937145.017143989 0 -1937145.017143989 3150186.3197395764 0 0 0 0 -11843458.010451607 723758.10858910484 0 723758.10858910484 673027.93187013955 0 0 0 0 -278045.41054199822 73321.639893528074 0 73321.639893528074 131002.60669313883 0 0 0 0 11296547.84942627 -9155038.2998244762 0 -9155038.2998244762 -12584186.628861427 0 0 0 0 8640623.5692672729 -6881796.0005345345 0 -6881796.0005345345 9864441.7213506699 0 0 0 0 -3635380.85597229 2970317.7673151493 0 2970317.7673151493 4139525.1167535782 0 0 0 0 -5676471.1878232919 -2753739.8145163674 0 -2753739.8145163674 3352177.9113705531 0 0 0 0 -2053551.3045034744 2121994.7450586259 0 2121994.7450586259 1969688.6856146161 0 0 0 0 -2544899.6213817596 467984.61078447104 0 467984.61078447104 8058967.0166780949 0 0 0 0 -10685301.317409299 559270.91543116793 0 559270.91543116793 2157932.7619716641 0 0 0 0 -8153173.4760023504 1664717.4709760502 0 1664717.4709760502 2050443.5057310571 0 0 0 0 1380936.63306427 -24760566.089692116 0 -24760566.089692116 21703878.457937241 0 0 0 0 4625702.264705658 -27543149.2224617 0 -27543149.2224617 1114843.4620084763 0 0 0 0 -4764839.7422928326 3039947.1921551102 0 3039947.1921551102 1507171.6965975536 0 0 0 0 -3753592.7084197998 1946550.5636119843 0 1946550.5636119843 2594954.3488645554 0 0 0 0 -2638991.5948486328 -319550.62681007385 0 -319550.62681007385 6896443.2526035309 0 0 0 0 -2597304.8024936505 -1106793.1050854353 0 -1106793.1050854353 3482657.8515562061 0 0 0 0 -4478618.2618255615 2136281.3280320168 0 2136281.3280320168 3639395.0114145279 0 0 0 0 -3265827.7297124118 1027969.3745788308 0 1027969.3745788308 3267345.5795273227 0 0 0 0 -4521091.3623371124 2444854.8159682453 0 2444854.8159682453 2563765.5635509491 0 0 0 0 -3107430.0021880269 2496427.3382753525 0 2496427.3382753525 570077.02426338557 0 0 0 0 -2441972.3404541016 1803899.4600510597 0 1803899.4600510597 3725615.8122398853 0 0 0 0 -2714031.4228668213 3316815.1852037907 0 3316815.1852037907 3321713.4313049316 0 0 0 0 -1535731.5539245605 3603049.4171390533 0 3603049.4171390533 10170024.728352547 0 0 0 0 -12877402.673874302 2007700.1486067791 0 2007700.1486067791 2653678.3333169352 0 0 0 0 -11071366.024223933 755568.3901659362 0 755568.3901659362 2345670.9226292521 0 0 0 0 -5622089.6788520813 2948952.6708050966 0 2948952.6708050966 2482639.0587501526 0 0 0 0 -3860595.7313537598 1319834.6362226009 0 1319834.6362226009 5614748.6536334753 0 0 0 0 -10318461.951190503 -1023008.2024787106 0 -1023008.2024787106 3728507.2698935065 0 0 0 0 -5633679.2982202992 -403599.98442729935 0 -403599.98442729935 2828020.1509828051 0 0 0 0 -2442087.2419030704 745493.87878888752 0 745493.87878888752 1859880.0175661049 0 0 0 0 -4372882.7703581527 3481548.180397491 0 3481548.180397491 1200957.3802299022 0 0 0 0 -4273377.2804107666 3562678.9544403553 0 3562678.9544403553 1996985.7379558086 0 0 0 0 -4117885.7722129822 3408142.2827899456 0 3408142.2827899456 2041879.9758434296 0 0 0 0 -4800159.6907501221 2223508.7882810235 0 2223508.7882810235 2295166.5983633399 0 0 0 0 -3879057.3462062664 2825079.1240548291 0 2825079.1240548291 2241496.3258662941 0 0 0 0 -13393624.543388471 2072432.9395731464 0 2072432.9395731464 1858988.9204129449 0 0 0 0 -4171353.0329437256 1792462.6368067265 0 1792462.6368067265 3363626.9526315928 0 0 0 0 -5051578.4013175964 3146295.0640283823 0 3146295.0640283823 2414266.1607513428 0 0 0 0 -8137623.5013000593 740587.26502263919 0 740587.26502263919 1513276.9588075252 0 0 0 0 -9634533.852417592 4936971.730541016 0 4936971.730541016 2443076.9648483074 0 0 0 0 -7134495.6800933592 4841660.5020628879 0 4841660.5020628879 -481385.01862146199 0 0 0 0 -12059066.003318787 9566281.6733491421 0 9566281.6733491421 3379701.9791200161 0 0 0 0 -4650084.726200847 3423810.0662730476 0 3423810.0662730476 -288816.52677162783 0 0 0 0 -5500524.7793813348 21070.515655409545 0 21070.515655409545 2259811.5990865487 0 0 0 0 -12678737.6484375 4285121.2965869904 0 4285121.2965869904 -1602174.3957748413 0 0 0 0 -7793300.1609916687 714872.55097991228 0 714872.55097991228 767887.35093212128 0 0 0 0 -5688229.1317270808 -1458400.2997278962 0 -1458400.2997278962 1836442.1654750875 0 0 0 0 -31809185.204479218 17555925.492515087 0 17555925.492515087 9626149.5012729689 0 0 0 0 -8596768.861732848 3921898.0729712676 0 3921898.0729712676 -261228.47498714091 0 0 0 0 -9214075.7965266481 1554434.169101228 0 1554434.169101228 1498127.8768193824 0 0 0 0 -9403499.3502750397 2975871.4775736779 0 2975871.4775736779 3905536.0438909829 0 0 0 0 -12030296.053302396 5045702.0047949627 0 5045702.0047949627 3312114.4716695254 0 0 0 0 -9942091.3429756165 4706017.0573683716 0 4706017.0573683716 3828383.7343865782 0 0 0 0 -2390425.5562133789 193911.08290338516 0 193911.08290338516 7692524.1802835464 0 0 0 0 -6300610.8274728768 2883676.2520248326 0 2883676.2520248326 2708269.5424705632 0 0 0 0 -10914998.743252277 492051.50570369512 0 492051.50570369512 5526352.1825627089 0 0 0 0 -11798041.546212651 3836970.4729058775 0 3836970.4729058775 2934109.9676445364 0 0 0 0 -4784487.6336968616 2031413.7666601958 0 2031413.7666601958 2461361.3385407515 0 0 0 0 -2222406.6859455109 -2301858.463167429 0 -2301858.463167429 17369505.819468498 0 0 0 0 -2254869.8899612427 51155989.773291111 0 51155989.773291111 89034267.402212143 0 0 0 0 -36827136.716217041 -18492900.251130104 0 -18492900.251130104 59408729.886591911 0 0 0 0 -7605143.4887809753 2763474.8256332874 0 2763474.8256332874 1943993.2163162231 0 0 0 0 -4931086.0122679435 4117586.3853034535 0 4117586.3853034535 454682.85741060111 0 0 0 0 -14064269.494414736 2446116.7999220937 0 2446116.7999220937 493729.24436198932 0 0 0 0 930786.85061645508 15130102.198137283 0 15130102.198137283 -30105097.144206047 0 0 0 0 14824460.247314453 -15304384.660306931 0 -15304384.660306931 6746058.9741420746 0 0 0 0 -2754300.6276529208 170200.70153180137 0 170200.70153180137 1774466.2806541119 0 0 0 0 -98201617.379512787 409723.06473040581 0 409723.06473040581 77251846.274719238 0 0 0 0 -116285431.86773682 136933500.66588545 0 136933500.66588545 -2774122.7864079475 0 0 0 0 60603098.752818108 -170371185.97044826 0 -170371185.97044826 38538004.023373604 0 0 0 0 -2567132.83212585 1085975.0618488472 0 1085975.0618488472 433122.21289671352 0 0 0 0 -6963384.2298736572 127341996.24899387 0 127341996.24899387 -27537061.485056728 0 0 0 0 26154250.060161591 1902303.7392091751 0 1902303.7392091751 -81180552.056528091 0 0 0 0 -189262411.54216766 -12532401.674674988 0 -12532401.674674988 34744764.047878265 0 0 0 0 -80695779.708023071 -70881790.894498825 0 -70881790.894498825 -30080139.993434906 0 0 0 0 -3668983.3653144836 -15414182.329200506 0 -15414182.329200506 9422675.1951961517 0 0 0 0 -71303220.457336426 -27381627.08711338 0 -27381627.08711338 62412398.895003319 0 0 0 0 -42741015.218261719 -933400.16907501221 0 -933400.16907501221 35603131.405291557 0 0 0 0 25561526.218696594 -39511056.028939247 0 -39511056.028939247 -212143714.4301281 0 0 0 0 29330403.031845093 -16689281.48615694 0 -16689281.48615694 -227439929.16543102 0 0 0 0 18148930.873319626 -18168135.701579452 0 -18168135.701579452 -109333645.04950905 0 0 0 0 11815995.978096008 -64486126.172921181 0 -64486126.172921181 -156522093.10262871 0 0 0 0 30101477.396713257 -12122767.090621948 0 -12122767.090621948 -122453502.96126223 0 0 0 0 92337.931663513184 -26467128.360168457 0 -26467128.360168457 -65727600.777787209 0 0 0 0 19779933.130771637 -37480872.386847496 0 -37480872.386847496 -103696400.88368416 0 0 0 0 12996681.09072876 -79831317.735517502 0 -79831317.735517502 -145385033.32899141 0 0 0 0 839929.36968231201 -125354208.734972 0 -125354208.734972 -133823020.40497923 0 0 0 0 248919.30321121216 -87811766.838528633 0 -87811766.838528633 -145149897.54659653 0 0 0 0 5582205.1529159546 -137455210.5860796 0 -137455210.5860796 -198155759.94826365 0 0 0 0 41054371.651363373 -94140876.740374923 0 -94140876.740374923 -266897233.00350761 0 0 0 0 40044600.919792175 -90086940.955740929 0 -90086940.955740929 -187068756.93386841 0 0 0 0 1888555.168510437 -120277028.53219891 0 -120277028.53219891 -228947641.26702976 0 0 0 0 12159202.025978088 -99289028.722430229 0 -99289028.722430229 -291032417.04913712 0 0 0 0 -123914925.21435547 -141599259.13357353 0 -141599259.13357353 -294797471.86539268 0 0 0 0 -407836480.30395508 -178185178.53971767 0 -178185178.53971767 -210665810.5837574 0 0 0 0 -275428497.10286713 -153056546.82514 0 -153056546.82514 -362276548.28672695 0 0 0 0 -120493447.32979584 -129519217.57027602 0 -129519217.57027602 -375926860.41519737 0 0 0 0 -75870925.672714233 -121068841.26960325 0 -121068841.26960325 -465265201.45317173 0 0 0 0 -70661433.893943787 87065550.514640331 0 87065550.514640331 -363415307.63354063 0 0 0 0 -181549505.30892944 -18707287.694676399 0 -18707287.694676399 -291771868.51953793 0 0 0 0 16539609.623931885 52435613.545278549 0 52435613.545278549 -268608929.05311012 0 0 0 0 10738841.378005981 -68165502.141360044 0 -68165502.141360044 -251181782.1863327 0 0 0 0 -679705.94533538818 -25517844.077825546 0 -25517844.077825546 -357695837.83557558 0 0 0 0 8292665.015247345 35095526.197161436 0 35095526.197161436 -107388239.02332115 0 0 0 0 -39389227.158355713 -6286571.3351831436 0 -6286571.3351831436 -227257628.84589291 0 0 0 0 -73471674.920249939 151474100.86715722 0 151474100.86715722 -90330057.288643837 0 0 0 0 -54706573.35461998 55789395.326731026 0 55789395.326731026 -300072042.77971458 0 0 0 0 -57773588.050006866 98809843.466711342 0 98809843.466711342 126765642.09016395 0 0 0 0 -54804123.141991615 77442829.437406123 0 77442829.437406123 80982078.221618176 0 0 0 0 -32713060.076599121 20157194.202854156 0 20157194.202854156 2358705.1175671816 0 0 0 0 -15946411.480201721 52535547.47086668 0 52535547.47086668 52175188.064060688 0 0 0 0 5334497.1523933411 50869602.231447458 0 50869602.231447458 -56684163.9872365 0 0 0 0 -5462028.0847473145 5808670.5333299637 0 5808670.5333299637 -71971316.043675184 0 0 0 0 20862924.658008575 22503900.547461987 0 22503900.547461987 -99144045.977776527 0 0 0 0 20608263.323776245 9921930.4352712631 0 9921930.4352712631 -59033920.597196579 0 0 0 0 12647616.70866394 14006740.352008343 0 14006740.352008343 -22049143.978255868 0 0 0 0 3997552.4842300415 10458363.727053165 0 10458363.727053165 -20860728.367844582 0 0 0 0 -17267.008087158203 -7384628.8694677353 0 -7384628.8694677353 -4596332.3762960434 0 0 0 0 9780178.4660692215 37366762.759272009 0 37366762.759272009 21657771.872058868 0 0 0 0 8596096.1278915405 17526215.940192819 0 17526215.940192819 70690827.834667683 0 0 0 0 9193023.4049530029 60992826.967246413 0 60992826.967246413 75835403.890516043 0 0 0 0 -14656774.121875763 46030360.494180441 0 46030360.494180441 130910405.65196437 0 0 0 0 -2351346344.7453918 1096872542.3074589 0 1096872542.3074589 -623937636.82702494 0 0 0 0 6575390.0947875977 30839297.293818474 0 30839297.293818474 50832550.100151062 0 0 0 0 -1960619.4291534424 9565342.8365163803 0 9565342.8365163803 59092543.861605167 0 0 0 0 3904115.0793304443 5923338.7721915245 0 5923338.7721915245 91903162.692461014 0 0 0 0 25454802.231796265 8065223.4631595612 0 8065223.4631595612 90917693.80874908 0 0 0 0 2017650606.2520905 -1308450709.3631961 0 -1308450709.3631961 -1024854065.7671609 0 0 0 0 -40231106.522705078 2916372.2256383896 0 2916372.2256383896 169713177.99971628 0 0 0 0 -11009308.846184339 -343516.88777493965 0 -343516.88777493965 1560639.6510069713 0 0 0 0 -16511306.660182953 60601111.300617695 0 60601111.300617695 167005201.91638994 0 0 0 0 -3090770.4750794843 -1935199.6908959225 0 -1935199.6908959225 40601.726400251362 0 0 0 0 50116871.85742569 40131504.81200242 0 40131504.81200242 82142910.262898445 0 0 0 0 17807419.646518707 41821462.828049779 0 41821462.828049779 83684964.450679779 0 0 0 0 1329172.7831115723 5109652.2496438026 0 5109652.2496438026 60593928.611637592 0 0 0 0 10593820.057426453 23867837.98106432 0 23867837.98106432 35865942.602391243 0 0 0 0 2556701.7367095947 -29019236.312880516 0 -29019236.312880516 33474318.314939499 0 0 0 0 1481752.3020233512 39145157.568139248 0 39145157.568139248 103377737.83872414 0 0 0 0 -7195473.983543396 -2594741.8709506989 0 -2594741.8709506989 -15546879.194150448 0 0 0 0 7290251.44678545 18731302.948551834 0 18731302.948551834 -929932.26303005219 0 0 0 0 12449706.157841682 -16708330.382571161 0 -16708330.382571161 -6003326.2441062927 0 0 0 0 -8616141.0955352783 5605464.5497531891 0 5605464.5497531891 -17522151.538244724 0 0 0 0 16736972.44594574 13482350.348760605 0 13482350.348760605 -13501701.465588808 0 0 0 0 -1223376.6095581055 -16898278.352600098 0 -16898278.352600098 -27829718.391366482 0 0 0 0 5533536.7577638626 -8825297.0620757937 0 -8825297.0620757937 28425500.21225071 0 0 0 0 -213580760.16651535 -793156584.5006578 0 -793156584.5006578 -583379019.77672243 0 0 0 0 -8791525.5958130322 -2365244.5078206831 0 -2365244.5078206831 367451.74326362071 0 0 0 0 -408117803.94036865 -49204465.309744358 0 -49204465.309744358 312123422.06612444 0 0 0 0 -231379831.93590546 -314010603.40913057 0 -314010603.40913057 -594460724.11174655 0 0 0 0 -16445037.270851135 -39815454.630841732 0 -39815454.630841732 138225794.13523912 0 0 0 0 21637203.133872986 27328767.977072716 0 27328767.977072716 -78096803.64125824 0 0 0 0 -59401351.517791748 84678167.267527103 0 84678167.267527103 -64371964.792160988 0 0 0 0 -61816385.975799561 77176639.96096468 0 77176639.96096468 -81193742.815463066 0 0 0 0 90917263.536182404 -30498605.15130496 0 -30498605.15130496 -45723287.759131432 0 0 0 0 -367915033.83017731 243582119.90448117 0 243582119.90448117 -47426078.3001194 0 0 0 0 -96418411.351100922 190630389.40637624 0 190630389.40637624 -80879141.089771748 0 0 0 0 -729292743.67509842 124872331.8605423 0 124872331.8605423 66129116.102977753 0 0 0 0 -4140279.538706325 -798191.53589390451 0 -798191.53589390451 958679.13436166104 0 0 0 0 -263483319.74883175 29362670.020597816 0 29362670.020597816 28301431.524481773 0 0 0 0 -211297717.49082184 135310323.94245863 0 135310323.94245863 -64612031.787324429 0 0 0 0 -93021417.740683556 54065016.949114442 0 54065016.949114442 -52309683.992801666 0 0 0 0 -93217919.272810936 52657560.457663655 0 52657560.457663655 -62140783.857954025 0 0 0 0 -14677747.406349182 64213331.66693306 0 64213331.66693306 -86589298.533572197 0 0 0 0 -151866194.95748138 54995062.9808321 0 54995062.9808321 -45479655.260495663 0 0 0 0 -106486703.9949646 25153716.425456524 0 25153716.425456524 -43383009.449748993 0 0 0 0 -268213209.7469368 13009250.555620193 0 13009250.555620193 11773579.516848564 0 0 0 0 -171873552.45027637 -16622459.23333478 0 -16622459.23333478 -10635090.986508369 0 0 0 0 -34494150.071968079 -31306904.637827873 0 -31306904.637827873 -86027264.482532501 0 0 0 0 3467810.5808601379 -4811349.2100943327 0 -4811349.2100943327 -68564111.64186573 0 0 0 0 -9513090.3066558838 -35060147.338880062 0 -35060147.338880062 -82468629.446146011 0 0 0 0 18301672.141517639 -5987597.9981501102 0 -5987597.9981501102 -70338802.699544907 0 0 0 0 14898007.694473267 -13689965.005605698 0 -13689965.005605698 -64506954.903932571 0 0 0 0 10817557.317485809 18577773.691289663 0 18577773.691289663 -60906489.571397781 0 0 0 0 -34637321.816833496 5807569.4703025818 0 5807569.4703025818 -63366161.386120796 0 0 0 0 -9551860.0614242554 13231048.26707077 0 13231048.26707077 -77716991.455291748 0 0 0 0 -59834493.75699234 3053217.5656242371 0 3053217.5656242371 -73450164.594844818 0 0 0 0 -46943137.294792175 34856160.950421333 0 34856160.950421333 -68182925.106534958 0 0 0 0 -98122165.371299744 30745699.816040993 0 30745699.816040993 -66944936.857631683 0 0 0 0 -77690278.923995972 10082581.101230145 0 10082581.101230145 -55557168.503591537 0 0 0 0 -82766387.290473938 1479092.672290802 0 1479092.672290802 -69322613.138008118 0 0 0 0 -54102983.254981995 -45955320.166376591 0 -45955320.166376591 -86197964.388812065 0 0 0 0 -18812224.971061707 -34049890.905902386 0 -34049890.905902386 -87103495.688004494 0 0 0 0 -32463220.876060486 -74331949.50147438 0 -74331949.50147438 -122285966.00225306 0 0 0 0 -58244400.671180725 -102023525.51444721 0 -102023525.51444721 -94511514.806991577 0 0 0 0 -121225834.3214798 -58309058.40128994 0 -58309058.40128994 -76274354.939002991 0 0 0 0 -99280336.127655029 -123659636.86539936 0 -123659636.86539936 -79148577.693617821 0 0 0 0 -131213657.45478439 -5261247.114149332 0 -5261247.114149332 -52452215.553480148 0 0 0 0 -105509512.34123993 -41215503.697229862 0 -41215503.697229862 -58515102.456321716 0 0 0 0 -153909887.90067291 -69322972.540639877 0 -69322972.540639877 -92087778.309244156 0 0 0 0 -268523053.08929253 -75272561.37442255 0 -75272561.37442255 -52637326.526573181 0 0 0 0 -171596684.65742111 -37727179.670685768 0 -37727179.670685768 1289057.4813263416 0 0 0 0 -223713308.63651657 -183192794.18850517 0 -183192794.18850517 -241418926.6025219 0 0 0 0 -219772698.79402542 -114696227.4259243 0 -114696227.4259243 -78426424.83216095 0 0 0 0 -191370498.33611584 -135554782.2234385 0 -135554782.2234385 -65599381.755516052 0 0 0 0 -179093758.68996429 -45443493.593743324 0 -45443493.593743324 -49601690.545145988 0 0 0 0 -114148237.71914291 -22732427.085118532 0 -22732427.085118532 -25465298.565023422 0 0 0 0 -119336230.90914154 -22951430.904152393 0 -22951430.904152393 -19370282.770003319 0 0 0 0 -108073795.70113564 20990475.020015717 0 20990475.020015717 -25511186.281178474 0 0 0 0 -91313692.183849335 14330372.350930214 0 14330372.350930214 -43342740.530553952 0 0 0 0 -118087196.4442234 38739403.571919441 0 38739403.571919441 94875312.077389717 0 0 0 0 -4961325.1755599976 217121.17618751526 0 217121.17618751526 -23800831.861796439 0 0 0 0 -44864697.205940247 43045299.132572174 0 43045299.132572174 101156014.87994576 0 0 0 0 -21493575.767348289 8493171.0272386074 0 8493171.0272386074 17196373.028808594 0 0 0 0 107357693.7003212 121762662.14577007 0 121762662.14577007 69799054.169032097 0 0 0 0 -1104431.5471628718 93362.83516303543 0 93362.83516303543 804049.69439401478 0 0 0 0 -338221463.47829819 -160097280.63711166 0 -160097280.63711166 -91658447.139408112 0 0 0 0 -386962951.96004486 -212356861.77698326 0 -212356861.77698326 -113586470.7283144 0 0 0 0 23384470.989398956 100635445.08260536 0 100635445.08260536 81784100.454846859 0 0 0 0 -2397024.563500179 46408.14071155712 0 46408.14071155712 1573034.7839609236 0 0 0 0 -359057751.15847397 -182769825.59358025 0 -182769825.59358025 -40630149.771884918 0 0 0 0 -72887.311134981457 100814.52450721525 0 100814.52450721525 -270434.75507931225 0 0 0 0 -421874099.30740356 -246148071.02836609 0 -246148071.02836609 -103426671.97459412 0 0 0 0 -378819655.5802269 -149569686.19091034 0 -149569686.19091034 -96401279.051332474 0 0 0 0 -473883463.03496552 -326054584.97473526 0 -326054584.97473526 -130218457.95516777 0 0 0 0 -206299449.47544336 -73819597.776676178 0 -73819597.776676178 -54748054.964881897 0 0 0 0 -119130698.09934998 -92193694.157503128 0 -92193694.157503128 -99326640.00989151 0 0 0 0 -250547.23866912222 -451930.74223924428 0 -451930.74223924428 -640820.33216894511 0 0 0 0 5195541.4238572121 -90220304.502319157 0 -90220304.502319157 -51708195.060269356 0 0 0 0 1261454.0398993976 -3992032.2078383141 0 -3992032.2078383141 1785220.7210667385 0 0 0 0 369348.95547485352 -11238988.437550545 0 -11238988.437550545 29852124.237810612 0 0 0 0 746007.99868774414 -64150320.357129574 0 -64150320.357129574 -121099698.57551193 0 0 0 0 -21961456.255624771 -43010914.282159805 0 -43010914.282159805 333855750.31004143 0 0 0 0 3920569.0351448059 -33214830.012235641 0 -33214830.012235641 10958817.23267746 0 0 0 0 -14520943.951171875 -46571387.371293068 0 -46571387.371293068 19342722.647759438 0 0 0 0 64884261.355974436 -14391673.717126071 0 -14391673.717126071 -73110905.117446899 0 0 0 0 -5368833.774307251 -193824205.86651134 0 -193824205.86651134 -168091107.83726645 0 0 0 0 -157446062.3857193 -211209353.73663568 0 -211209353.73663568 -92955084.914991379 0 0 0 0 -29770865.377883911 -159546937.46913624 0 -159546937.46913624 91866047.699008942 0 0 0 0 86166483.038898468 -220517452.84998274 0 -220517452.84998274 -125942455.26792622 0 0 0 0 22418363.038124084 -173365467.28459692 0 -173365467.28459692 -169235951.9510479 0 0 0 0 16747464.574932098 -175077773.58445787 0 -175077773.58445787 -147967534.60383034 0 0 0 0 37623356.7645154 -135912999.90120524 0 -135912999.90120524 -247743984.58513641 0 0 0 0 36533727.717934728 -169261777.45677102 0 -169261777.45677102 -168042906.87238312 0 0 0 0 -12936932.95262146 -221054459.79894066 0 -221054459.79894066 -108054596.76537657 0 0 0 0 -72792982.208229065 -133174300.09850693 0 -133174300.09850693 -113616371.3579464 0 0 0 0 -107879449.42662048 -155616147.16533947 0 -155616147.16533947 -101237098.68691254 0 0 0 0 -206547053.35968113 -141525924.36513162 0 -141525924.36513162 -206799576.55884743 0 0 0 0 -196189096.57815742 -91493412.71377027 0 -91493412.71377027 -176886003.74906731 0 0 0 0 -32500750.45324707 -57362657.763522148 0 -57362657.763522148 -186178618.98225307 0 0 0 0 92522249.055084229 -204434479.62833405 0 -204434479.62833405 -205518376.17154598 0 0 0 0 216268775.33974838 -151586416.58077955 0 -151586416.58077955 -178700576.24102008 0 0 0 0 82466832.884183884 -269477432.17308259 0 -269477432.17308259 114936998.67166328 0 0 0 0 -154611470.81250381 262156260.91048527 0 262156260.91048527 107927341.18499279 0 0 0 0 -783817062.81466293 -37122200.093553543 0 -37122200.093553543 308846832.42992973 0 0 0 0 698261.88286180049 -1156521.9802465253 0 -1156521.9802465253 472123.10054489132 0 0 0 0 321157142.88576889 -24711299.62985754 0 -24711299.62985754 -370868994.57322025 0 0 0 0 227839896.75429535 63229143.971397877 0 63229143.971397877 -80230154.8171525 0 0 0 0 23152272.304992676 -338350810.60945034 0 -338350810.60945034 -186170413.71285152 0 0 0 0 -1830068204.7675781 -410366891.35262108 0 -410366891.35262108 -53575746.101852238 0 0 0 0 -927713506.88495636 356516028.32490587 0 356516028.32490587 -429417290.18473816 0 0 0 0 -740560743.48723793 -79744629.760599375 0 -79744629.760599375 -82804934.143091202 0 0 0 0 -532157.38189221732 2453032.5991980415 0 2453032.5991980415 -14994683.525054906 0 0 0 0 -1195769148.9092712 -238498318.50936365 0 -238498318.50936365 99306834.962441444 0 0 0 0 262713.60871864669 37171.954711867496 0 37171.954711867496 -5282891.0004303176 0 0 0 0 -533984334.21785545 -464213354.71158147 0 -464213354.71158147 -49402955.965435028 0 0 0 0 243313931.00390625 553099595.86875534 0 553099595.86875534 499299126.9631834 0 0 0 0 569177087.24299526 25058828.805465698 0 25058828.805465698 3317404.4163560867 0 0 0 0 -3756227.6224380033 8805932.4331508856 0 8805932.4331508856 -12840233.829523327 0 0 0 0 530147060.44846702 614240837.48419714 0 614240837.48419714 432980403.63816452 0 0 0 0 -142286453.62401962 80977861.485572815 0 80977861.485572815 164145182.39804077 0 0 0 0 -2981451.2790008262 7364376.8706422662 0 7364376.8706422662 -24167214.334455013 0 0 0 0 -52618804.497880936 -166973073.51809692 0 -166973073.51809692 26799289.56952858 0 0 0 0 154092478.9022069 176916436.36885643 0 176916436.36885643 194562488.21926117 0 0 0 0 236069792.87902927 147996043.28383255 0 147996043.28383255 -79874.169662475586 0 0 0 0 10086642.368995667 -34078984.560073853 0 -34078984.560073853 -111664487.60594559 0 0 0 0 -759760181.62137985 2685925.3409552574 0 2685925.3409552574 133760933.17568493 0 0 0 0 -798833910.28572655 -67376628.288358927 0 -67376628.288358927 43216541.34221077 0 0 0 0 -603868756.00255585 -30039759.882194519 0 -30039759.882194519 36066381.618650794 0 0 0 0 -695631117.68024826 -128345158.28663874 0 -128345158.28663874 31697143.851491928 0 0 0 0 -693267055.07010651 -81686142.947515011 0 -81686142.947515011 29795578.798542976 0 0 0 0 -693891528.90629578 -76500809.763933182 0 -76500809.763933182 -1941559.8253107071 0 0 0 0 -141923375.14687347 -41990041.210525513 0 -41990041.210525513 -396359715.14709473 0 0 0 0 -156065619.94489288 2105630.3034744263 0 2105630.3034744263 -202383079.52321625 0 0 0 0 -375173838.89687347 108083386.7115097 0 108083386.7115097 -170783534.29205322 0 0 0 0 -198007288.31169128 100558656.34190369 0 100558656.34190369 -304577860.24747467 0 0 0 0 -316989155.45583725 107066745.93777561 0 107066745.93777561 -178899461.23976135 0 0 0 0 -309065370.57155418 77162248.490276337 0 77162248.490276337 -69717551.623977661 0 0 0 0 -250799278.82099915 30031448.770202637 0 30031448.770202637 -210268038.75986862 0 0 0 0 -255875104.41770935 120564717.59325409 0 120564717.59325409 -99430767.53412056 0 0 0 0 -303410978.59267044 125248433.63082886 0 125248433.63082886 -28360322.332781076 0 0 0 0 -400120301.48502159 172037933.53087234 0 172037933.53087234 -96112862.801719666 0 0 0 0 -349963918.12001038 100745065.45915985 0 100745065.45915985 -30061165.324714661 0 0 0 0 -380725704.85160065 53015307.622859955 0 53015307.622859955 -3098198.3908133507 0 0 0 0 -508572699.04453659 49556108.725261688 0 49556108.725261688 -2357463.6044821739 0 0 0 0 -604063943.92245483 135675290.59550095 0 135675290.59550095 -79069069.429931641 0 0 0 0 -458606387.78830719 231468785.3822155 0 231468785.3822155 -284056143.22823334 0 0 0 0 -694361284.62887955 29242619.756996155 0 29242619.756996155 -137757900.2237587 0 0 0 0 -609253716.26597512 -278575357.50452107 0 -278575357.50452107 -144289352.65544891 0 0 0 0 -1106351356.7236786 -291120528.304245 0 -291120528.304245 -130231846.11822128 0 0 0 0 -256912424.74601173 -109272168.33401299 0 -109272168.33401299 -76369208.808919907 0 0 0 0 -256854187.68017578 -108390749.86247253 0 -108390749.86247253 -63224014.170158386 0 0 0 0 396842705.17060757 218988202.20837784 0 218988202.20837784 136067168.37534714 0 0 0 0 548845672.23152542 358514790.30958366 0 358514790.30958366 97125631.70715332 0 0 0 0 273737397.82572269 385699598.68578529 0 385699598.68578529 203527875.72671509 0 0 0 0 176513099.15618706 188468094.84854507 0 188468094.84854507 18857345.999523163 0 0 0 0 -29794339.498736858 201643363.62845612 0 201643363.62845612 100254027.22293472 0 0 0 0 -327956386.71529007 -3100500.7247657776 0 -3100500.7247657776 166466389.49510193 0 0 0 0 -15675971.555134892 511089843.39260745 0 511089843.39260745 824606243.52625275 0 0 0 0 -8954348.4354133848 6210715.7404280882 0 6210715.7404280882 4873300.5829004347 0 0 0 0 898787463.59975243 1386637925.7092323 0 1386637925.7092323 1063721835.8009262 0 0 0 0 277224.06414396223 3095807.5167062581 0 3095807.5167062581 -6082841.1931721829 0 0 0 0 543965197.71993494 408233445.76542473 0 408233445.76542473 -294691823.0970993 0 0 0 0 1318415370.2422409 1351639689.2525558 0 1351639689.2525558 -291944889.5643158 0 0 0 0 -2476429110.2933159 514900781.99639893 0 514900781.99639893 1820705502.9792175 0 0 0 0 -1115633568.9829845 272499440.47616577 0 272499440.47616577 -220513199.66003418 0 0 0 0 -610484716.40969849 328867869.77333832 0 328867869.77333832 -1023114236.4965668 0 0 0 0 -611250810.09484255 165509975.65664744 0 165509975.65664744 -222908267.96986389 0 0 0 0 -286305646.98723602 122089841.20707703 0 122089841.20707703 -346182640.0718956 0 0 0 0 -428343835.76443863 -357748164.95495033 0 -357748164.95495033 -665727178.68347168 0 0 0 0 -1227145237.436779 -1138516732.3500443 0 -1138516732.3500443 -1369383650.4453564 0 0 0 0 -751512474.10599136 -95234242.257450104 0 -95234242.257450104 815016003.45680237 0 0 0 0 -8364851.3591512702 13888042.679675506 0 13888042.679675506 285953.09004871547 0 0 0 0 2177352.8641357422 1011207.952545166 0 1011207.952545166 725120883.91986084 0 0 0 0 -461342643.11599731 -150952938.8921814 0 -150952938.8921814 880094765.4571476 0 0 0 0 -99454467.652774811 246931168.87659454 0 246931168.87659454 576345102.5074501 0 0 0 0 -8856276.0393333435 -181800678.14848328 0 -181800678.14848328 74199367.008621216 0 0 0 0 -155306609.93425369 -50391861.059480667 0 -50391861.059480667 47314017.993286133 0 0 0 0 -403424738.54950714 -177664283.13357544 0 -177664283.13357544 205905021.69506073 0 0 0 0 -294996281.88198185 101127596.46269035 0 101127596.46269035 -286831628.04292297 0 0 0 0 -28789089.836994171 28119838.180919647 0 28119838.180919647 -419774661.53273773 0 0 0 0 -115642994.34856987 43867142.979797363 0 43867142.979797363 -346514693.87944031 0 0 0 0 -73244390.084747314 -123514150.47336197 0 -123514150.47336197 -118355940.83078003 0 0 0 0 -31227317.184341431 11869100.404574394 0 11869100.404574394 3193267.858165741 0 0 0 0 -31392428.531387329 13417301.180955887 0 13417301.180955887 -1510581.3621988297 0 0 0 0 -129043250.07062912 4577435.1863975525 0 4577435.1863975525 276203331.46131325 0 0 0 0 -97208215.603536129 131452638.29413605 0 131452638.29413605 4028448.0658493042 0 0 0 0 -43147021.898994446 106420692.8808136 0 106420692.8808136 -122726146.11235046 0 0 0 0 -39377840.594926834 52037480.725122452 0 52037480.725122452 -23408158.997917175 0 0 0 0 -73335805.980773926 31329568.362091064 0 31329568.362091064 4910819.1232607365 0 0 0 0 -41631076.760346413 12082384.492151853 0 12082384.492151853 11738284.023910576 0 0 0 0 -28916382.346183777 14723157.116676331 0 14723157.116676331 6084232.6906890869 0 0 0 0 13442403.105293274 177191485.80344296 0 177191485.80344296 -117661388.20215631 0 0 0 0 311800932.86782837 -66235421.867444992 0 -66235421.867444992 -79128655.469539642 0 0 0 0 -3905281.6623205841 3067597.4763248339 0 3067597.4763248339 1460757.7596034016 0 0 0 0 -21382454.564163785 34138380.801418871 0 34138380.801418871 -23376166.491423469 0 0 0 0 58702316.746954441 167024150.74422073 0 167024150.74422073 -117155150.02564621 0 0 0 0 -53033254.470883772 15261572.013801789 0 15261572.013801789 7116156.0864985241 0 0 0 0 -188774573.94621277 3438727.7000303268 0 3438727.7000303268 115152065.29120064 0 0 0 0 -93002526.325444221 8622265.2309894562 0 8622265.2309894562 -57622514.158332825 0 0 0 0 -9307360.1655197144 -51986341.277305603 0 -51986341.277305603 -57808593.838464737 0 0 0 0 -126723788.90960693 66539804.573316574 0 66539804.573316574 -48115515.946566582 0 0 0 0 2655605.715675354 -56131981.401591539 0 -56131981.401591539 40044302.794979095 0 0 0 0 -287597610.93562317 56116766.770611286 0 56116766.770611286 116121055.74507904 0 0 0 0 -160345980.83650017 -46744807.999528915 0 -46744807.999528915 172255857.23919964 0 0 0 0 -158152544.99577713 -59114541.595356464 0 -59114541.595356464 65140882.936745644 0 0 0 0 -5258816.3652808145 2513215.9829698913 0 2513215.9829698913 1954857.2239629352 0 0 0 0 -53897142.944549561 191316427.01892877 0 191316427.01892877 -407629767.33494902 0 0 0 0 -105270879.75052643 133743407.47245264 0 133743407.47245264 -100052814.67163301 0 0 0 0 145858945.98257446 46283605.794100285 0 46283605.794100285 -314479040.69585627 0 0 0 0 144976563.2999115 259174666.25371313 0 259174666.25371313 -666993762.91032267 0 0 0 0 576089.12860357016 -446694.49926677346 0 -446694.49926677346 -3851158.1948342584 0 0 0 0 -674253849.20824051 220095562.37673223 0 220095562.37673223 1035602912.4699802 0 0 0 0 238035402.50134277 -62643173.11370492 0 -62643173.11370492 -1023291661.2910433 0 0 0 0 -727218101.69311523 -1662179457.3835416 0 -1662179457.3835416 -515743727.19685936 0 0 0 0 -454048611.42395782 -402230444.15732586 0 -402230444.15732586 838874081.21398067 0 0 0 0 -222141919.17147827 -355794904.75797272 0 -355794904.75797272 -318222508.80693191 0 0 0 0 112684738.43676758 -78561029.437759399 0 -78561029.437759399 -31656173.51061821 0 0 0 0 -47100887.600769043 50832471.33127737 0 50832471.33127737 3857518.1774711609 0 0 0 0 8637314.7814129591 1953101.9172770828 0 1953101.9172770828 -5970775.7059954982 0 0 0 0 -290780085.08376658 233974875.68923268 0 233974875.68923268 723379214.90066481 0 0 0 0 -24357694.780193329 15037604.163444519 0 15037604.163444519 -1789446.5059547424 0 0 0 0 -46848539.88998393 26284425.790842086 0 26284425.790842086 -3075505.9274943359 0 0 0 0 -20182183.80480957 18418950.919179916 0 18418950.919179916 938375.61526298523 0 0 0 0 -24254174.292551704 14544189.697495621 0 14544189.697495621 -6201179.1944108941 0 0 0 0 -102091487.15102196 39739582.660256207 0 39739582.660256207 223401653.92176294 0 0 0 0 -3413936.2832946777 40204348.628317595 0 40204348.628317595 11599000.498967648 0 0 0 0 -7517633.7213432416 4112617.3671308309 0 4112617.3671308309 2264439.5486406586 0 0 0 0 332034420.52974701 -260063624.82718593 0 -260063624.82718593 -2595880458.2217741 0 0 0 0 -28805540.926750183 14701716.567958832 0 14701716.567958832 -6790386.7255945206 0 0 0 0 -29343928.21529568 6789793.315164892 0 6789793.315164892 3427323.9807504062 0 0 0 0 -1296928.3824514002 2269589.4131558975 0 2269589.4131558975 550282.41146151128 0 0 0 0 -28595860.759700775 15882388.619456291 0 15882388.619456291 -1523215.0033416748 0 0 0 0 -1325548957.0927811 -1040553262.0261936 0 -1040553262.0261936 -1183456252.1985059 0 0 0 0 -1562449273.6299038 -340843480.8323456 0 -340843480.8323456 -139763003.91272545 0 0 0 0 -792865121.6872406 -1728286869.3294873 0 -1728286869.3294873 -179474345.48511076 0 0 0 0 -335157353.12841797 285908493.09105492 0 285908493.09105492 -1958272864.8662963 0 0 0 0 -386814946.20244598 15632622.809515476 0 15632622.809515476 -360356883.18068886 0 0 0 0 -163951861.59748077 106855790.08329248 0 106855790.08329248 -783190402.3847332 0 0 0 0 -586567194.0338974 -418355292.86923695 0 -418355292.86923695 -569642199.94782233 0 0 0 0 -588345568.19061995 -274057151.6003505 0 -274057151.6003505 -407551410.92173386 0 0 0 0 -800849217.94358063 -184763002.73720741 0 -184763002.73720741 32715021.143121541 0 0 0 0 -288824510.70509338 -203919884.72417259 0 -203919884.72417259 -415205030.70971107 0 0 0 0 -548757029.7388382 -362153084.63240099 0 -362153084.63240099 -354711063.52743721 0 0 0 0 -1071072219.9199295 -445767142.08700752 0 -445767142.08700752 -206112328.75707817 0 0 0 0 -705511460.69326782 -145793291.13223171 0 -145793291.13223171 83566763.621419668 0 0 0 0 -988181989.11929798 55762603.160826206 0 55762603.160826206 94473902.352296829 0 0 0 0 -9388703.1301878709 16628678.498012032 0 16628678.498012032 -29571197.556797318 0 0 0 0 -69696853.000888824 282877408.57578969 0 282877408.57578969 -245308696.05621338 0 0 0 0 -35678596.282156318 16314607.675816612 0 16314607.675816612 -159778.84818405937 0 0 0 0 -77297465.96846199 -46713813.248325348 0 -46713813.248325348 -88601460.776359558 0 0 0 0 15841513.047367096 45765428.215682983 0 45765428.215682983 -152272371.00680542 0 0 0 0 -21248733.314426422 -49430019.462722063 0 -49430019.462722063 60923344.281175613 0 0 0 0 -17700172.518711325 7326901.042753322 0 7326901.042753322 7904169.6246284842 0 0 0 0 50215749.971488953 -9409186.671492815 0 -9409186.671492815 -5770759.5365598202 0 0 0 0 -6358291.4655962437 1519643.1609590091 0 1519643.1609590091 -3463584.8167334143 0 0 0 0 -397085851.75756836 -486632607.78297997 0 -486632607.78297997 -427868858.80854511 0 0 0 0 -483822936.05058289 -836586869.30103683 0 -836586869.30103683 -1015951692.2472553 0 0 0 0 -914037933.02629089 274974449.45610046 0 274974449.45610046 -112751697.4797411 0 0 0 0 -1462191119.7485809 -711469309.91183519 0 -711469309.91183519 223078295.83133507 0 0 0 0 -1266277186.6854706 195887010.55622935 0 195887010.55622935 45316830.725302339 0 0 0 0 -1820988029.7987976 -549407381.3514154 0 -549407381.3514154 502934966.05120516 0 0 0 0 180814738.28973007 328067447.24961567 0 328067447.24961567 -243414470.43893337 0 0 0 0 -360376294.47525024 -659155781.36820173 0 -659155781.36820173 -754148313.29673719 0 0 0 0 126487246.70272446 -143089457.38299131 0 -143089457.38299131 -605387879.61884928 0 0 0 0 -1276764338.9175186 -1106738772.4361758 0 -1106738772.4361758 -885080367.64697552 0 0 0 0 -1675150794.3234787 -856087571.14723492 0 -856087571.14723492 -233540359.78587294 0 0 0 0 -1706117918.5227814 421113642.99643278 0 421113642.99643278 179421.91086006165 0 0 0 0 -1665101.2191764899 -679455.50322254281 0 -679455.50322254281 -260035.47023505403 0 0 0 0 -877750070.22050476 -503661177.71328306 0 -503661177.71328306 25470694.837566376 0 0 0 0 -1385139.5507280291 1677100.5098996386 0 1677100.5098996386 2062301.2757746514 0 0 0 0 730969282.00428247 -439390713.09864658 0 -439390713.09864658 165505420.07491398 0 0 0 0 -1628603838.2225971 679306786.66952455 0 679306786.66952455 -12263172.346532822 0 0 0 0 -619758277.06130219 -541579661.08369422 0 -541579661.08369422 817974481.20514774 0 0 0 0 -1502737375.3029189 -1188356614.6416891 0 -1188356614.6416891 613941153.78068924 0 0 0 0 -365828782.74546814 124171729.82537079 0 124171729.82537079 199700574.37084627 0 0 0 0 -301789191.09802246 248675088.73926067 0 248675088.73926067 -326445215.9107002 0 0 0 0 3381778.6765365601 -147574627.55360788 0 -147574627.55360788 167326109.14678457 0 0 0 0 -97447638.474758148 -147707353.07206815 0 -147707353.07206815 304129549.7527166 0 0 0 0 -4948007.3227256425 -1640278.8242585864 0 -1640278.8242585864 497834.51995014586 0 0 0 0 -3895691.9970855713 -24739.18294095993 0 -24739.18294095993 2236674.8955860138 0 0 0 0 -5049555.7257728577 -366085.64414739609 0 -366085.64414739609 3418329.4698152542 0 0 0 0 -7751292.1475891285 193182.77766972035 0 193182.77766972035 2601960.5130637279 0 0 0 0 -6177866.3407669067 465820.75921010971 0 465820.75921010971 4113614.3579993248 0 0 0 0 -197453026.55552673 -228477840.04755878 0 -228477840.04755878 -167843983.78499603 0 0 0 0 -7951199.7725372314 2307526.4277915955 0 2307526.4277915955 2512586.0125316083 0 0 0 0 -5866538.0713995276 2885134.0002598092 0 2885134.0002598092 3594379.2927106312 0 0 0 0 -4759504.869183206 3476195.0445293114 0 3476195.0445293114 771485.4285606998 0 0 0 0 -464852995.09638572 34856725.992785588 0 34856725.992785588 -35317788.500489235 0 0 0 0 -4921984.0615539551 -668500.93430447578 0 -668500.93430447578 2295441.0092458725 0 0 0 0 -702873740.63407898 -351350730.20549393 0 -351350730.20549393 27155929.032132149 0 0 0 0 -1062257363.7863083 -346196943.98521233 0 -346196943.98521233 91790864.102344513 0 0 0 0 -1053935281.9591751 -272256222.78064609 0 -272256222.78064609 207993358.2139225 0 0 0 0 -1100222990.3756104 -85901566.970618248 0 -85901566.970618248 175812509.85532093 0 0 0 0 -696288205.55909419 -242970727.90457857 0 -242970727.90457857 -233552918.60095596 0 0 0 0 -623900266.75816345 -23479334.249026299 0 -23479334.249026299 -147862316.52714014 0 0 0 0 -982514532.40480804 -52708031.730935097 0 -52708031.730935097 262538302.40788269 0 0 0 0 -801513370.19358826 320830013.81517506 0 320830013.81517506 302748170.89764786 0 0 0 0 -1091216731.122467 -49668021.558969975 0 -49668021.558969975 293058923.74769974 0 0 0 0 -1686831739.9430695 -88821216.373998642 0 -88821216.373998642 422048432.57562923 0 0 0 0 -1315792541.1179848 155050800.57081127 0 155050800.57081127 153597257.62484741 0 0 0 0 -1453512894.2583466 -612550822.44666386 0 -612550822.44666386 108245013.60757828 0 0 0 0 -1309853721.2272453 113457331.56716633 0 113457331.56716633 423760154.89080811 0 0 0 0 -497599199.53036499 195080286.91695595 0 195080286.91695595 -343452525.89827728 0 0 0 0 -508313078.82408905 -25040498.997369766 0 -25040498.997369766 98259922.763989449 0 0 0 0 -1084897035.6314697 -307719516.45313835 0 -307719516.45313835 245331676.35197258 0 0 0 0 -532679865.91740417 -268666368.21594429 0 -268666368.21594429 -93486655.064224765 0 0 0 0 -931348411.52918625 -470720308.12666321 0 -470720308.12666321 -94474321.721057892 0 0 0 0 183861256.86181641 -359691119.79554749 0 -359691119.79554749 -570779205.64268494 0 0 0 0 -5702091.3045126647 -2370670.9474649876 0 -2370670.9474649876 4014654.1704414301 0 0 0 0 -454794413.79212189 -169192592.85566998 0 -169192592.85566998 -56867439.020519257 0 0 0 0 -2182325169.1780548 -1736911496.1804161 0 -1736911496.1804161 -1035321586.9727821 0 0 0 0 -729451679.72344971 -1151508217.0132008 0 -1151508217.0132008 -799950470.79632568 0 0 0 0 -709935323.34060669 -1226924672.1303577 0 -1226924672.1303577 -2114851336.4227982 0 0 0 0 -1694196189.7492218 -523213029.04753494 0 -523213029.04753494 81692836.576034546 0 0 0 0 -199838.11150347814 -188269.45295231044 0 -188269.45295231044 215846.58728430048 0 0 0 0 -1723079773.0512238 1271137823.3935833 0 1271137823.3935833 -286244110.0671463 0 0 0 0 -2752022.0682365447 288506.52729779109 0 288506.52729779109 818681.50680978037 0 0 0 0 -1891451405.2225952 865739275.99420071 0 865739275.99420071 -466435531.73240089 0 0 0 0 -3176468828.3636322 -92965948.256973267 0 -92965948.256973267 121332249.23662472 0 0 0 0 -3077788445.4186707 -1235893857.2758942 0 -1235893857.2758942 -263889941.71707535 0 0 0 0 400367651.37238312 339509925.92399311 0 339509925.92399311 -1657228807.8078003 0 0 0 0 29503.495593179017 -861389.81681004912 0 -861389.81681004912 -3591252.2669241466 0 0 0 0 -1607009192.711647 -296467850.51365757 0 -296467850.51365757 603899056.73326159 0 0 0 0 -2557166031.7839699 -302270775.17319655 0 -302270775.17319655 635370291.81120872 0 0 0 0 -3201411.8451648764 -486514.06345695257 0 -486514.06345695257 2013717.3234077664 0 0 0 0 -5776116.9411010742 17715.771103858948 0 17715.771103858948 1210087.8206272125 0 0 0 0 -593092804.97335434 -7160326.401216507 0 -7160326.401216507 -3494644.6990795135 0 0 0 0 -29577908.923721313 -22764316.039321899 0 -22764316.039321899 -38998022.700298309 0 0 0 0 -33433092.261482239 -4454227.4228918552 0 -4454227.4228918552 1019913.3509438038 0 0 0 0 -39519342.010986328 -26037254.206142902 0 -26037254.206142902 -18967199.230205059 0 0 0 0 -3556248.3645634674 2146114.8771457076 0 2146114.8771457076 1978934.8043875834 0 0 0 0 -5404046.4475708008 241332.53395366669 0 241332.53395366669 1189659.1450300217 0 0 0 0 -112094992.81060028 85041570.625290632 0 85041570.625290632 180293154.25015354 0 0 0 0 -27996971.180202484 -30600928.845907629 0 -30600928.845907629 -272532556.60769796 0 0 0 0 70273588.328933716 298866991.27159858 0 298866991.27159858 97754584.095462322 0 0 0 0 -11851305.62067119 -2068240.9142716192 0 -2068240.9142716192 6078952.0468709674 0 0 0 0 41008795.918579102 125268466.59492993 0 125268466.59492993 117505495.6375103 0 0 0 0 24151047.295883179 92467291.418536663 0 92467291.418536663 451244784.82896793 0 0 0 0 -197039002.74206543 209267970.96972704 0 209267970.96972704 87864763.793472528 0 0 0 0 -146500239.58798218 43322742.24339056 0 43322742.24339056 223588754.8814747 0 0 0 0 -162620696.42893982 69480154.761517406 0 69480154.761517406 182202690.0603404 0 0 0 0 -191008220.09310627 50400252.047768727 0 50400252.047768727 172955088.64657879 0 0 0 0 -416545837.00853729 430183865.70697975 0 430183865.70697975 -217735509.31913114 0 0 0 0 -4624428.6807261184 -372063.99699619133 0 -372063.99699619133 362931.35802657 0 0 0 0 -258615249.78944397 -635778590.84622002 0 -635778590.84622002 -305510430.15984184 0 0 0 0 16416346.400505066 162031628.34712541 0 162031628.34712541 -644709809.30209851 0 0 0 0 309355411.41457367 -1335796975.056917 0 -1335796975.056917 -1013831129.7495039 0 0 0 0 866153.25103687495 -1767520.9567615576 0 -1767520.9567615576 -8970944.9345932789 0 0 0 0 -723066357.57713318 201848955.89225519 0 201848955.89225519 406988361.81001472 0 0 0 0 -420578921.22149658 -180537343.15105891 0 -180537343.15105891 529374503.33293724 0 0 0 0 102851623.68012238 317396957.06670392 0 317396957.06670392 -306368073.46591091 0 0 0 0 -181851978.80838013 -262234296.37953758 0 -262234296.37953758 30054794.559097767 0 0 0 0 -339981343.76324463 256690492.49451256 0 256690492.49451256 90389261.840702057 0 0 0 0 607942344.24191284 -203200065.30439091 0 -203200065.30439091 -143095842.14565468 0 0 0 0 108321378.73681641 527362560.52869415 0 527362560.52869415 175831835.53393936 0 0 0 0 -544303606.56021118 37139383.433971405 0 37139383.433971405 115280493.10155702 0 0 0 0 -513950508.41653442 -17636302.873670578 0 -17636302.873670578 673237265.58651161 0 0 0 0 572755820.41271973 -808209758.93756962 0 -808209758.93756962 -659629909.13767815 0 0 0 0 591093670.75005341 169414375.58466172 0 169414375.58466172 -179561616.28300285 0 0 0 0 586685.40414682776 -1972585.792597495 0 -1972585.792597495 -8968366.7822961248 0 0 0 0 192534618.80813599 125035860.52930164 0 125035860.52930164 -161147610.63569498 0 0 0 0 -12704220.821975708 51204271.449447632 0 51204271.449447632 -31870288.710122108 0 0 0 0 19920811.089889526 -8713462.4772696495 0 -8713462.4772696495 167531356.00495815 0 0 0 0 -336853550.79786682 661104927.22816908 0 661104927.22816908 247378080.31085825 0 0 0 0 -863836563.52009964 -388588982.50915265 0 -388588982.50915265 3317409.2918720245 0 0 0 0 102980428.37875366 -12361734.873016357 0 -12361734.873016357 74397949.715400219 0 0 0 0 -10290711.918288231 -546912911.79983878 0 -546912911.79983878 -317824141.48113632 0 0 0 0 -843665445.57508087 302552340.25329447 0 302552340.25329447 307593416.02037573 0 0 0 0 -227723.61880647391 -1876053.8313870095 0 -1876053.8313870095 -1820935.1745288309 0 0 0 0 -305741326.3109436 -598441031.11973023 0 -598441031.11973023 -209508893.42528629 0 0 0 0 -507219518.18850708 466091414.04119182 0 466091414.04119182 -88797968.976912498 0 0 0 0 -496384216.24837875 21420893.178988218 0 21420893.178988218 69126534.557588577 0 0 0 0 -971177384.55626678 -115430372.42171526 0 -115430372.42171526 317887362.34916878 0 0 0 0 -246050497.11814117 161800676.73439646 0 161800676.73439646 135936010.34302521 0 0 0 0 165198886.85256195 -194964211.95156002 0 -194964211.95156002 186055014.40144444 0 0 0 0 -1614251.291727528 -4196783.572579613 0 -4196783.572579613 -3509954.8176733507 0 0 0 0 359523619.56199646 -364570698.63146305 0 -364570698.63146305 269988075.25353336 0 0 0 0 -319752897.14227676 -199946544.32986385 0 -199946544.32986385 638524555.27265263 0 0 0 0 137237887.73490143 -702003639.30336189 0 -702003639.30336189 766319765.96988583 0 0 0 0 259490137.03004074 40114285.742399812 0 40114285.742399812 -173420290.73048973 0 0 0 0 180070388.76046753 -62783783.945159912 0 -62783783.945159912 339450579.63564348 0 0 0 0 -20134473.235300064 -588009228.73468161 0 -588009228.73468161 714816298.91245079 0 0 0 0 -2726447.9037249461 -4656650.3927320642 0 -4656650.3927320642 -3520104.7880492331 0 0 0 0 -72578742.11660099 -454245938.83672869 0 -454245938.83672869 -112602178.80586243 0 0 0 0 -311816021.77858734 -540228793.8727808 0 -540228793.8727808 -257699341.37480545 0 0 0 0 -447673315.34275818 -468876671.55738735 0 -468876671.55738735 -141410129.4001255 0 0 0 0 -320584034.73505402 -409622629.45664597 0 -409622629.45664597 -120621691.87879753 0 0 0 0 -994685179.01847839 -53740099.531136513 0 -53740099.531136513 80155002.161522865 0 0 0 0 -403621339.06483459 -342548207.97866631 0 -342548207.97866631 -167564582.08392525 0 0 0 0 -218021630.66621399 100020643.58881664 0 100020643.58881664 199467224.90280229 0 0 0 0 -459056917.15253448 -81328006.607877731 0 -81328006.607877731 77395272.217007637 0 0 0 0 -595849063.62442017 87286216.287038803 0 87286216.287038803 255796012.65518665 0 0 0 0 -89626840.493598938 -265665685.49721456 0 -265665685.49721456 424840247.36976624 0 0 0 0 -986452726.96861267 621106424.23560333 0 621106424.23560333 -68318453.384382963 0 0 0 0 25268.774933189154 547783.17324347608 0 547783.17324347608 -1351068.3228070019 0 0 0 0 -170662419.46123505 -693722353.43949986 0 -693722353.43949986 -280458966.02880478 0 0 0 0 -675233824.51881409 -942379945.80124187 0 -942379945.80124187 -141504131.48267365 0 0 0 0 1225261658.3881226 259268502.26010895 0 259268502.26010895 338540686.74616241 0 0 0 0 -288037.85649341275 -18342.017166156322 0 -18342.017166156322 290701.63902021572 0 0 0 0 -168778104.47701693 -86687974.192511171 0 -86687974.192511171 219527931.7704277 0 0 0 0 -170719536.6998291 3861342.3180017471 0 3861342.3180017471 -84082868.156200409 0 0 0 0 -49735843.378288269 -39268322.605107784 0 -39268322.605107784 -35836958.128020287 0 0 0 0 -1928030.1224998683 -1506604.6488650143 0 -1506604.6488650143 495303.97089585289 0 0 0 0 -7345754.089430809 2777536.6911319792 0 2777536.6911319792 -543679.31310272217 0 0 0 0 -1908054.9314993881 2325251.3827959709 0 2325251.3827959709 -91967.789928901009 0 0 0 0 -197734118.63396311 -66282890.502224296 0 -66282890.502224296 65499798.893701553 0 0 0 0 -1630397070.8218079 -197916845.63097763 0 -197916845.63097763 201404161.3234396 0 0 0 0 -797354624.4881134 670681604.93642998 0 670681604.93642998 -487441017.80860996 0 0 0 0 -171659764.09304047 41661936.450651169 0 41661936.450651169 62904823.15307045 0 0 0 0 428684301.33639526 -722854499.55430698 0 -722854499.55430698 -1318708229.1283798 0 0 0 0 -175718180.72687149 408736970.96415496 0 408736970.96415496 -31702274.857378006 0 0 0 0 -1545247.6450011358 -2210587.171600569 0 -2210587.171600569 -1645108.97333718 0 0 0 0 -1745571001.8529358 439550401.45353985 0 439550401.45353985 978696920.61596632 0 0 0 0 -1633440793.376976 1000399689.2789369 0 1000399689.2789369 689067162.50039864 0 0 0 0 -1994283042.7907562 -120359807.5719738 0 -120359807.5719738 239168157.59826851 0 0 0 0 -1317915013.034853 154593973.73430467 0 154593973.73430467 158586608.24878311 0 0 0 0 -1008959146.4805679 -814629507.90579224 0 -814629507.90579224 -27667699.801557541 0 0 0 0 24295848.391967773 -863593801.05413914 0 -863593801.05413914 -197789015.84334469 0 0 0 0 -204910231.25810242 -544233435.36603737 0 -544233435.36603737 -27066552.441051483 0 0 0 0 -171668307.31284332 -480097476.23520088 0 -480097476.23520088 -236362257.73361969 0 0 0 0 -393373584.19805145 -397638480.14994621 0 -397638480.14994621 -139361702.05846405 0 0 0 0 -388900086.07589722 -110237255.06937027 0 -110237255.06937027 64443775.74048996 0 0 0 0 -192248461.09068298 -34214035.121774673 0 -34214035.121774673 73717967.537004471 0 0 0 0 -61266062.877410889 -57077290.782785416 0 -57077290.782785416 -75252104.489295959 0 0 0 0 -205454259.04678345 48007442.790005207 0 48007442.790005207 -138654992.28245354 0 0 0 0 444638258.3316431 -202338822.48572147 0 -202338822.48572147 89476858.295379639 0 0 0 0 -207270489.03666687 695226073.10080194 0 695226073.10080194 -337464710.95906067 0 0 0 0 -487336.95719052106 546780.94470949098 0 546780.94470949098 -1280521.8128455942 0 0 0 0 656145429.47218704 -66064377.977342129 0 -66064377.977342129 -354892559.40272331 0 0 0 0 -524200382.76277924 80922474.487565041 0 80922474.487565041 138561818.44623661 0 0 0 0 -295036439.01351547 -234741318.66036463 0 -234741318.66036463 -18546990.812561035 0 0 0 0 71780149.613357544 208595125.93716431 0 208595125.93716431 -243924262.65937805 0 0 0 0 20723083.747177124 -17110116.285975456 0 -17110116.285975456 22830879.363412857 0 0 0 0 -5724828.3321410483 1957901.3443500288 0 1957901.3443500288 2130077.0467397124 0 0 0 0 145552927.27618861 97643354.427154154 0 97643354.427154154 -77121639.125442505 0 0 0 0 -57925571.261764526 -45941352.326137543 0 -45941352.326137543 51739104.542457581 0 0 0 0 -74202895.732131958 -47494611.841358185 0 -47494611.841358185 65046927.413523674 0 0 0 0 -80231220.95425415 -12274918.760527611 0 -12274918.760527611 57850332.023260117 0 0 0 0 -60728627.229263306 -30751593.02091217 0 -30751593.02091217 74046665.718374252 0 0 0 0 -273721182.16606903 -48878500.156451225 0 -48878500.156451225 134874946.29459929 0 0 0 0 -106622583.81603241 -60438494.994054794 0 -60438494.994054794 125044716.9785862 0 0 0 0 141135781.58625031 -59225005.280981064 0 -59225005.280981064 -98927845.757903099 0 0 0 0 -1629847.1849986017 954746.36409375444 0 954746.36409375444 553665.22873006947 0 0 0 0 -68465651.61340332 -60446071.772226334 0 -60446071.772226334 49697657.482149363 0 0 0 0 164392028.55387115 -96687259.193475723 0 -96687259.193475723 -26287763.542770386 0 0 0 0 -46439657.647237778 -65489564.02773118 0 -65489564.02773118 117540430.84789658 0 0 0 0 -89720851.922668457 -13230028.41201973 0 -13230028.41201973 60647126.160024643 0 0 0 0 -13164239.903594971 34942091.196987152 0 34942091.196987152 90958358.393011093 0 0 0 0 -80229661.53993988 -11524778.093561172 0 -11524778.093561172 45878683.987276077 0 0 0 0 -95538008.690856934 15444915.051891327 0 15444915.051891327 100458733.89079666 0 0 0 0 -148782661.37573242 -20104543.464580536 0 -20104543.464580536 114179571.63235188 0 0 0 0 -109584596.04150391 -28342368.025637627 0 -28342368.025637627 142190097.97180176 0 0 0 0 -119328633.37471771 20770650.879622936 0 20770650.879622936 165207391.87772751 0 0 0 0 -197919463.029953 64289755.37370348 0 64289755.37370348 45055434.169186592 0 0 0 0 8686591.8139967918 -4096735.930321753 0 -4096735.930321753 802253.70508766174 0 0 0 0 10074418.408058167 -14030393.231591225 0 -14030393.231591225 4963721.8075561523 0 0 0 0 -23996722.081817627 -37797272.989135742 0 -37797272.989135742 146164321.23351824 0 0 0 0 21042713.403045654 29148770.378386497 0 29148770.378386497 -17300638.812280655 0 0 0 0 -88620406.917221069 -89237005.526290894 0 -89237005.526290894 -75963760.916226387 0 0 0 0 -187361.71516447514 -789373.89142671227 0 -789373.89142671227 -202844.18814149359 0 0 0 0 -79030711.973976135 62778117.810072899 0 62778117.810072899 -57053896.945710182 0 0 0 0 -169417952.50595856 -122491874.78238773 0 -122491874.78238773 -36530384.003715515 0 0 0 0 -208336381.19205475 -99974310.975231647 0 -99974310.975231647 -17213565.496400833 0 0 0 0 -131543946.97903442 -41184942.161503792 0 -41184942.161503792 -27894794.073801041 0 0 0 0 599515.87331466004 -124974.72143421508 0 -124974.72143421508 -708548.54782968666 0 0 0 0 31554014.202758789 -130816594.82110453 0 -130816594.82110453 -5021949.5624408722 0 0 0 0 -65853812.839859009 -57007837.167685032 0 -57007837.167685032 169028522.39400959 0 0 0 0 174025677.89914703 -100640481.23971653 0 -100640481.23971653 -65585724.014724731 0 0 0 0 -67628202.24206543 -90662599.240815639 0 -90662599.240815639 -181924949.03240967 0 0 0 0 -150555475.65907288 42379588.838665009 0 42379588.838665009 23713777.499432564 0 0 0 0 -32819464.829071045 -43162190.5370965 0 -43162190.5370965 -76555095.592941523 0 0 0 0 -28308935.830001831 -28912943.285470486 0 -28912943.285470486 -49797319.289345741 0 0 0 0 -41770808.337928772 -34990465.469852209 0 -34990465.469852209 -31536368.877994537 0 0 0 0 -44421816.44229126 -27045853.88793087 0 -27045853.88793087 -49743530.656052589 0 0 0 0 -14365341.06186676 -17903570.566884279 0 -17903570.566884279 -31083938.977525316 0 0 0 0 -38732150.939682007 -41614709.037599087 0 -41614709.037599087 -26990225.209874749 0 0 0 0 -71847387.826095581 -40337168.87887764 0 -40337168.87887764 -26985588.828561544 0 0 0 0 -60314281.286561966 -66551333.528778195 0 -66551333.528778195 -26134408.030573845 0 0 0 0 -111195465.10303497 -67332524.216684341 0 -67332524.216684341 -7336778.2771148682 0 0 0 0 -94686649.459965706 -130267566.16309351 0 -130267566.16309351 -224566.67409992218 0 0 0 0 -43634809.1847229 -131195534.5887413 0 -131195534.5887413 -30143600.615894079 0 0 0 0 -54188599.857036591 -124749630.15129828 0 -124749630.15129828 -32180903.630805969 0 0 0 0 -53178178.42093277 -111851823.52304292 0 -111851823.52304292 -76757439.073976517 0 0 0 0 -28148174.311851501 -69499731.991604805 0 -69499731.991604805 -33516598.237464905 0 0 0 0 -43013255.43447876 -54600879.533827782 0 -54600879.533827782 -48445490.67792511 0 0 0 0 -14317307.246482849 -26399076.15918684 0 -26399076.15918684 -79337240.803105354 0 0 0 0 -34655012.059448242 -43348369.162516356 0 -43348369.162516356 -44040945.933550835 0 0 0 0 -19514079.132507324 -47092002.420280457 0 -47092002.420280457 -84315290.096125126 0 0 0 0 86613745.458694458 -90958841.139947891 0 -90958841.139947891 -74598354.653060794 0 0 0 0 -38837241.415424347 -212401857.61998868 0 -212401857.61998868 -129002025.9598856 0 0 0 0 317165734.41395187 -197757210.815485 0 -197757210.815485 -160361758.17137432 0 0 0 0 -15184014.086568329 1664819.0276566045 0 1664819.0276566045 1642125.513793068 0 0 0 0 -20809117.163879395 -3027442.3430309296 0 -3027442.3430309296 -5240697.9169120789 0 0 0 0 -23428448.299705505 49676473.369611241 0 49676473.369611241 122237875.34240369 0 0 0 0 145588418.84406281 21145086.065656304 0 21145086.065656304 -65256589.218384743 0 0 0 0 -594079.49910558015 691479.5614415817 0 691479.5614415817 402491.1082309531 0 0 0 0 -69507012.44285965 -12605678.331561863 0 -12605678.331561863 240651079.50537312 0 0 0 0 -8217141.1655077785 546126.33412705921 0 546126.33412705921 640514.7194890019 0 0 0 0 10605578.114437103 11774410.080607504 0 11774410.080607504 81050712.765727758 0 0 0 0 -4021817.1614761353 -2524606.604747057 0 -2524606.604747057 7176828.4148216248 0 0 0 0 -37475908.607082367 -39453755.729739666 0 -39453755.729739666 -33313253.316485405 0 0 0 0 -31044604.166702271 -29334228.938553333 0 -29334228.938553333 -29840719.118858814 0 0 0 0 -8371919.8905451298 -2471059.919921183 0 -2471059.919921183 3036041.0456624329 0 0 0 0 -64368266.432403564 110570643.9326601 0 110570643.9326601 -288502404.96490097 0 0 0 0 29482.259149495512 -649575.34199344506 0 -649575.34199344506 -306674.72230022377 0 0 0 0 -135272089.35033417 152474761.32952744 0 152474761.32952744 -162065367.63342571 0 0 0 0 16850874.801021576 -7860077.2110548019 0 -7860077.2110548019 -81984630.988276482 0 0 0 0 -35938173.600341797 -50906465.532913208 0 -50906465.532913208 -9297844.5603251457 0 0 0 0 -3398070.0222625732 -22341314.323160172 0 -22341314.323160172 28059011.997506313 0 0 0 0 -21756753.452590942 -65224956.842446327 0 -65224956.842446327 -113732105.9653697 0 0 0 0 -2003773.9750710577 -897001.18512015045 0 -897001.18512015045 1402376.4140658709 0 0 0 0 29086763.201545715 -67228981.011608601 0 -67228981.011608601 -68362407.497490406 0 0 0 0 -95031022.74331665 23109845.162882328 0 23109845.162882328 -100797645.47410583 0 0 0 0 9374098.9031772614 65997460.402629077 0 65997460.402629077 -146377306.21718121 0 0 0 0 -318639822.0093689 221170791.01184702 0 221170791.01184702 -200431623.94320184 0 0 0 0 -203012106.46127319 212732037.13115072 0 212732037.13115072 -212775598.93154621 0 0 0 0 -683625227.0969696 212718456.10786009 0 212718456.10786009 -74754977.491252422 0 0 0 0 -383059352.28748322 78315009.877741814 0 78315009.877741814 -23854678.396418571 0 0 0 0 -429457458.84028625 93952155.659736633 0 93952155.659736633 -19772024.024843693 0 0 0 0 -251531142.23661804 -435810789.97598505 0 -435810789.97598505 -55155789.094969034 0 0 0 0 -14422175.283203509 1279184.221660601 0 1279184.221660601 1219016.182147562 0 0 0 0 -751521659.41857719 -127781998.68155143 0 -127781998.68155143 45206522.213302612 0 0 0 0 -93207793.923297882 -177792149.61645436 0 -177792149.61645436 -37107267.921027184 0 0 0 0 -361869499.86277771 -219025653.95246983 0 -219025653.95246983 64988146.582732916 0 0 0 0 -157461125.07499695 -38063307.602543831 0 -38063307.602543831 -71394578.038402796 0 0 0 0 -309713993.72988129 68430285.424381733 0 68430285.424381733 -54980155.458405495 0 0 0 0 -202290992.60593033 -41651322.632833958 0 -41651322.632833958 -21740297.752381325 0 0 0 0 -87664684.009101868 -82749964.247466087 0 -82749964.247466087 -9373665.0700447559 0 0 0 0 -130109085.35340881 -165788535.62919092 0 -165788535.62919092 -40560304.909778118 0 0 0 0 -91072174.198703766 -62734456.40920186 0 -62734456.40920186 27596094.914609909 0 0 0 0 -52441766.328170776 -64283176.663599014 0 -64283176.663599014 25098797.828316212 0 0 0 0 -162746636.66811752 2599140.9626073837 0 2599140.9626073837 43484157.744042397 0 0 0 0 -46469993.14995575 -6612888.3039560318 0 -6612888.3039560318 41873583.556795597 0 0 0 0 -97069062.58354187 26343140.150541782 0 26343140.150541782 95415919.824100494 0 0 0 0 -262032287.14657593 52894941.924313784 0 52894941.924313784 -51408175.536030769 0 0 0 0 -91733312.147377014 -18733308.667835236 0 -18733308.667835236 -37215507.057881355 0 0 0 0 -134407555.22391701 96134780.008939147 0 96134780.008939147 6762062.0968952179 0 0 0 0 -76126649.579627991 43656133.810083389 0 43656133.810083389 67984820.150429726 0 0 0 0 -34630726.861602783 -34256962.499659538 0 -34256962.499659538 -139796903.95270538 0 0 0 0 4654311.4817829132 195063372.71181893 0 195063372.71181893 102190572.80925846 0 0 0 0 -21364962.703590393 33320335.811102867 0 33320335.811102867 41665608.139024734 0 0 0 0 -16787818.501983643 104275897.44087315 0 104275897.44087315 77289986.694326401 0 0 0 0 72618209.517204285 46400279.758024693 0 46400279.758024693 91167964.418321609 0 0 0 0 -2153620.9367370605 172522.65205955505 0 172522.65205955505 1343054.2647814751 0 0 0 0 1289697.2084274292 81624268.861685753 0 81624268.861685753 120258638.12574959 0 0 0 0 -2378017.3850916512 -352528.53092745505 0 -352528.53092745505 1457147.2060692166 0 0 0 0 -990989.20058399439 429850.84159398079 0 429850.84159398079 1548854.6752205761 0 0 0 0 21259351.869178772 66319513.511973381 0 66319513.511973381 91743297.292563915 0 0 0 0 -1203244.9327163696 -333983.68289661407 0 -333983.68289661407 1330337.7730464935 0 0 0 0 -41189958.414558411 5479092.2333416939 0 5479092.2333416939 5090580.2625370026 0 0 0 0 -943548.92111206055 -439729.03636169434 0 -439729.03636169434 1204228.7464256287 0 0 0 0 -1018484.3644561768 -298208.3895149231 0 -298208.3895149231 1071936.9406642914 0 0 0 0 -1100697.5296661723 730468.11126036197 0 730468.11126036197 1246733.3693515072 0 0 0 0 -4815955.8971443176 -16767035.364557624 0 -16767035.364557624 67905901.542684555 0 0 0 0 -73230037.197647095 11853170.927812576 0 11853170.927812576 84772017.340068817 0 0 0 0 -26480831.993942261 -1003815.9067819118 0 -1003815.9067819118 86090835.469499588 0 0 0 0 -1999283.1122876965 -1262070.4358476419 0 -1262070.4358476419 1776826.9724560454 0 0 0 0 -604854.67626953125 -1591150.2252883911 0 -1591150.2252883911 1695562.9500732422 0 0 0 0 -20361746.800819397 14872681.751078606 0 14872681.751078606 99218399.171405315 0 0 0 0 -624878.95919799805 -1759706.2468471527 0 -1759706.2468471527 1903190.7025003433 0 0 0 0 -764160.30809429288 -1649164.5141184055 0 -1649164.5141184055 -213877.54485165677 0 0 0 0 19349055.973442078 18114450.109708786 0 18114450.109708786 17694133.803352356 0 0 0 0 -3214708.8065185547 -37697124.565026283 0 -37697124.565026283 83474538.829376221 0 0 0 0 639611.56836958975 -90301.826402029023 0 -90301.826402029023 -805526.77235508524 0 0 0 0 -14940516.414871216 3689547.3941230774 0 3689547.3941230774 143209355.87473106 0 0 0 0 -759825.51923473552 -808148.56503359042 0 -808148.56503359042 904158.59669311158 0 0 0 0 16983805.224517822 13096357.963689804 0 13096357.963689804 68177148.301551819 0 0 0 0 -1068813.3851776123 -36883714.457214355 0 -36883714.457214355 102970131.06902313 0 0 0 0 -5846195.8934326172 -13639304.277477264 0 -13639304.277477264 110019848.41630173 0 0 0 0 -3425766.710357666 1248421.9573888779 0 1248421.9573888779 2899689.1834373474 0 0 0 0 -565386.51956537366 -1159567.9605511955 0 -1159567.9605511955 142708.8295215955 0 0 0 0 -279767.44666290283 -15608410.709091187 0 -15608410.709091187 82834231.20822525 0 0 0 0 9926526.2953338623 -20924696.792015076 0 -20924696.792015076 28074227.305654526 0 0 0 0 1586204.2736721039 2147033.2695474625 0 2147033.2695474625 48511102.728366852 0 0 0 0 14318586.579284668 -8584438.5256328583 0 -8584438.5256328583 -55643118.109619141 0 0 0 0 -952899.68284514546 -1344384.9678364794 0 -1344384.9678364794 -445219.08126600133 0 0 0 0 380107.13223457709 -5363.3856005314738 0 -5363.3856005314738 -835493.407081577 0 0 0 0 16751858.950088501 -45205538.061800003 0 -45205538.061800003 51711448.91554451 0 0 0 0 14237597.131416321 -57536971.703635216 0 -57536971.703635216 38529256.514011383 0 0 0 0 5022243.4198303223 -61670269.564826965 0 -61670269.564826965 71789206.827219009 0 0 0 0 1000010.0532226562 -63000704.778211594 0 -63000704.778211594 71494883.513757706 0 0 0 0 1786926.4262313843 -58221394.659497261 0 -58221394.659497261 75661391.584983826 0 0 0 0 -6953862.2896957397 -61232183.153941154 0 -61232183.153941154 91466853.528423309 0 0 0 0 977788.27465820312 -41435640.041217804 0 -41435640.041217804 63120143.417825699 0 0 0 0 -3925397.4668426514 -58896491.036336899 0 -58896491.036336899 92160680.000344753 0 0 0 0 -3845327.4275894165 -60978267.281692505 0 -60978267.281692505 74621821.09570694 0 0 0 0 -11949982.43397522 -48943329.555486679 0 -48943329.555486679 89815729.543624878 0 0 0 0 -1127904.8818283081 -475681.19322872162 0 -475681.19322872162 1469044.2287502289 0 0 0 0 -3130566.4463348389 -3190475.117351532 0 -3190475.117351532 7275791.2095346451 0 0 0 0 -106799.84838088602 -1168010.7742566827 0 -1168010.7742566827 113184.06854308024 0 0 0 0 3018249.2968826294 -87195.068774223328 0 -87195.068774223328 -5364769.4293899536 0 0 0 0 -5586078.609588623 1936018.6785640717 0 1936018.6785640717 3732433.3917484283 0 0 0 0 25639456.471509933 -25917915.823628664 0 -25917915.823628664 14491362.818962097 0 0 0 0 -2526890.9017333984 6255818.6662540436 0 6255818.6662540436 -3217309.6262359619 0 0 0 0 342312.73676870391 -28775.545172262937 0 -28775.545172262937 -477574.62602665275 0 0 0 0 41430913.876144409 -84402164.922771454 0 -84402164.922771454 64524417.029172897 0 0 0 0 78756551.122070312 -56066680.056163788 0 -56066680.056163788 10137630.296847582 0 0 0 0 21017657.494743347 6333636.8577346802 0 6333636.8577346802 6760575.8919200897 0 0 0 0 -53793913.748374939 -45221740.425399065 0 -45221740.425399065 -22641216.743450165 0 0 0 0 12374254.602096558 -5724412.4384393692 0 -5724412.4384393692 -8602073.6961517334 0 0 0 0 -798035.27043290995 808288.54162649065 0 808288.54162649065 1537947.6869086688 0 0 0 0 -75588684.074615479 -35846640.728953362 0 -35846640.728953362 -24791051.16827774 0 0 0 0 -105692885.9624939 -7132998.4197130203 0 -7132998.4197130203 97543312.056034088 0 0 0 0 -383035.2240935415 514482.50643534958 0 514482.50643534958 671879.20300242677 0 0 0 0 100145479.11730957 -136681090.44521379 0 -136681090.44521379 107092800.09121513 0 0 0 0 178983069.85029602 -51917718.832181931 0 -51917718.832181931 25989420.325675011 0 0 0 0 -33439312.199745178 4113402.2342338562 0 4113402.2342338562 119956766.12619781 0 0 0 0 -106046199.06822205 -65369632.169743538 0 -65369632.169743538 175148311.92488861 0 0 0 0 -20565036.590415955 -118852282.29364586 0 -118852282.29364586 140805259.49716759 0 0 0 0 -1825708.3285293579 -36686008.41565609 0 -36686008.41565609 -17940513.707492828 0 0 0 0 -23652235.368169785 -67888128.916556835 0 -67888128.916556835 57671250.385726929 0 0 0 0 -59751079.883663177 -60417839.111890793 0 -60417839.111890793 60574343.22505188 0 0 0 0 59327623.195487976 -95659657.540949821 0 -95659657.540949821 35631163.74858284 0 0 0 0 39647825.240159035 4270821.6117522717 0 4270821.6117522717 6422514.6506309509 0 0 0 0 -97160674.173290253 -37277901.148381233 0 -37277901.148381233 687215.50128746033 0 0 0 0 -25410115.681686401 -47284664.591149807 0 -47284664.591149807 -79125406.430984497 0 0 0 0 -25902497.380203247 -38170098.54507637 0 -38170098.54507637 -16288105.55261898 0 0 0 0 -97136440.739479065 -221564009.84533691 0 -221564009.84533691 74226575.630321503 0 0 0 0 -4147059.1711273193 107074951.9913559 0 107074951.9913559 -91890146.679409027 0 0 0 0 -355771032.76959229 519975766.87865829 0 519975766.87865829 -576023502.8682785 0 0 0 0 -4183555.4859316871 -1754345.4507330768 0 -1754345.4507330768 -465871.02713993937 0 0 0 0 -80246124.642166138 -33334710.656303406 0 -33334710.656303406 -9434100.2279891968 0 0 0 0 -106586318.71408081 2920267.7908935547 0 2920267.7908935547 -35902430.228748322 0 0 0 0 525782.84530569427 455538.98702248372 0 455538.98702248372 -807013.3481012173 0 0 0 0 23897493.061775208 -340185.55518341064 0 -340185.55518341064 -86628020.924354553 0 0 0 0 -123742745.43927383 59138559.007336617 0 59138559.007336617 -27199361.538593769 0 0 0 0 -33575287.231796265 -12928790.482456207 0 -12928790.482456207 7063597.4492635727 0 0 0 0 749573.30879750103 664224.45323836245 0 664224.45323836245 -1119761.8321538363 0 0 0 0 -67894682.944137573 -68130488.469295502 0 -68130488.469295502 56764188.054358482 0 0 0 0 -153994643.12167358 124418226.52632236 0 124418226.52632236 -71811287.051200867 0 0 0 0 -391330022.45252991 -20448598.801521301 0 -20448598.801521301 196924612.17626762 0 0 0 0 -93826399.986610413 29506924.751699448 0 29506924.751699448 55712244.414674759 0 0 0 0 -15112900.396644592 -86840500.18447876 0 -86840500.18447876 168580798.6978817 0 0 0 0 -21736711.910301208 -16440654.773893356 0 -16440654.773893356 28191075.368882179 0 0 0 0 1352218.100982666 -69828740.473798275 0 -69828740.473798275 75429910.713178635 0 0 0 0 5036560.2508773804 -82519815.500291824 0 -82519815.500291824 76253584.555757523 0 0 0 0 -1913198.8868942261 -73644867.626544952 0 -73644867.626544952 71697186.102305412 0 0 0 0 -6054861.4272232056 -71822128.999386787 0 -71822128.999386787 84686877.624914169 0 0 0 0 -181071535.69649506 59637862.869384766 0 59637862.869384766 33913029.031990051 0 0 0 0 429211.66774580814 405781.36504546553 0 405781.36504546553 -525977.30129128508 0 0 0 0 -147739624.2807045 551011.25862836838 0 551011.25862836838 57780572.465866089 0 0 0 0 -78514983.530878067 5342781.7630631924 0 5342781.7630631924 29531992.574474335 0 0 0 0 -48726607.781036377 -2377657.2213726044 0 -2377657.2213726044 6493407.2896900177 0 0 0 0 -79763965.322029114 14596337.285797119 0 14596337.285797119 12124871.270801544 0 0 0 0 -68149781.747526169 20681813.011934757 0 20681813.011934757 2865357.0493278503 0 0 0 0 -62676017.628595352 2165187.445202589 0 2165187.445202589 5279866.9946174622 0 0 0 0 -33515947.824378967 10769693.429221153 0 10769693.429221153 578413.56770515442 0 0 0 0 -80799488.548461914 12256451.434988022 0 12256451.434988022 6097963.423306942 0 0 0 0 -100606822.52733612 24954323.646894455 0 24954323.646894455 3916947.4313583374 0 0 0 0 -106638016.6776886 48635494.575214386 0 48635494.575214386 -8605711.8627109528 0 0 0 0 -107928042.96820068 10384234.968910217 0 10384234.968910217 17588275.655740738 0 0 0 0 -68950301.839012146 18887039.653394699 0 18887039.653394699 25822071.062797546 0 0 0 0 -75415710.917360306 -36838856.055822372 0 -36838856.055822372 27680280.872463226 0 0 0 0 -50762168.255218506 -20278771.418273926 0 -20278771.418273926 -8131900.0299530029 0 0 0 0 -112093831.51929855 37738765.504749298 0 37738765.504749298 16193203.152774811 0 0 0 0 -13314937.064750671 -13626536.868021011 0 -13626536.868021011 -7859569.8750658035 0 0 0 0 -2609248.4927558564 594778.65888509899 0 594778.65888509899 -146186.6118656788 0 0 0 0 -50362056.003219128 9427692.3178263605 0 9427692.3178263605 80239802.30166626 0 0 0 0 7854034.9378585815 518183.77739048004 0 518183.77739048004 -24648565.31829834 0 0 0 0 -12609251.63953024 2409947.224985186 0 2409947.224985186 4284886.6148013566 0 0 0 0 -51932277.340530396 -52085580.280107498 0 -52085580.280107498 -29817070.949710846 0 0 0 0 -16344608.880173944 -3123314.6004733443 0 -3123314.6004733443 6818312.8041023742 0 0 0 0 -22607378.556594849 -2804999.825761795 0 -2804999.825761795 6997750.8173961639 0 0 0 0 -48719537.099624634 -27018440.291051865 0 -27018440.291051865 40128377.472793579 0 0 0 0 -13296277.127706744 -6529515.7383009344 0 -6529515.7383009344 3202896.1242623869 0 0 0 0 -53820212.514678955 13851089.135482788 0 13851089.135482788 22584829.408084869 0 0 0 0 -9651475.903468702 928094.293408731 0 928094.293408731 626670.70405129902 0 0 0 0 -21242224.899101257 11340848.615389347 0 11340848.615389347 -30796668.084434509 0 0 0 0 -15766768.891562581 -4755026.8320443248 0 -4755026.8320443248 4156550.2075034305 0 0 0 0 -8663256.9026184082 -6324556.0296840668 0 -6324556.0296840668 5921892.7609405518 0 0 0 0 -12897088.288347244 -7256866.0888257027 0 -7256866.0888257027 8970855.1431350708 0 0 0 0 -42687900.129078388 5803579.4631894231 0 5803579.4631894231 5227105.9814071655 0 0 0 0 -12659690.114805222 -6855507.1585462093 0 -6855507.1585462093 3128853.952381134 0 0 0 0 -63669533.011619568 47109018.379566193 0 47109018.379566193 -41425960.547134399 0 0 0 0 -88229534.152839661 48905831.313529968 0 48905831.313529968 14780530.992607117 0 0 0 0 -90699898.115325928 35103829.177331924 0 35103829.177331924 14263950.666061401 0 0 0 0 -51524124.04927063 22864821.131891251 0 22864821.131891251 -2923224.9397621155 0 0 0 0 -13143666.532272339 -8864187.2732334137 0 -8864187.2732334137 -2675538.3535175323 0 0 0 0 -44890369.619140625 1325731.0694503784 0 1325731.0694503784 10649819.461208344 0 0 0 0 -28455210.172363281 12678955.87947464 0 12678955.87947464 -12036829.056259155 0 0 0 0 -39248141.070861816 11320861.664081573 0 11320861.664081573 -1770871.8186786175 0 0 0 0 -32836749.9920578 -20044344.02155304 0 -20044344.02155304 8609270.0081071854 0 0 0 0 -15032168.001421623 -5350373.3633024059 0 -5350373.3633024059 4059365.313874485 0 0 0 0 -8194495.3673095703 -4686068.7610034943 0 -4686068.7610034943 8882346.522693634 0 0 0 0 -19534332.872467034 1216529.623867169 0 1216529.623867169 5271816.3209870644 0 0 0 0 -13304846.40067108 -9257076.0470463745 0 -9257076.0470463745 4560939.8138087401 0 0 0 0 -44462558.066101074 -31700917.450000763 0 -31700917.450000763 -58103137.811962128 0 0 0 0 -43186255.971115112 36682599.1341362 0 36682599.1341362 -113268100.96569633 0 0 0 0 -21564904.652350932 -2689534.8715030691 0 -2689534.8715030691 6319783.58976469 0 0 0 0 -6632924.7212803885 -4799290.8573630992 0 -4799290.8573630992 2485465.8798333947 0 0 0 0 -16590337.738632202 -9751682.4656200409 0 -9751682.4656200409 -44659380.613460183 0 0 0 0 -37545784.559692383 6754055.6242675781 0 6754055.6242675781 -33911263.847419739 0 0 0 0 -1003581.2961435691 -874041.13685454801 0 -874041.13685454801 421715.0329432711 0 0 0 0 -12906425.579865269 -7890946.1305427141 0 -7890946.1305427141 1354206.4424721585 0 0 0 0 -14657189.72328186 -3737987.3010978699 0 -3737987.3010978699 3270030.3583974838 0 0 0 0 -49048831.539581299 -16148314.33108902 0 -16148314.33108902 -7267786.4354324341 0 0 0 0 -12838489.661834717 -5322656.1574707031 0 -5322656.1574707031 12971654.78531456 0 0 0 0 -19291676.923841402 -10238336.29407965 0 -10238336.29407965 2273694.7505615605 0 0 0 0 -16431339.219512939 -5562364.4806480408 0 -5562364.4806480408 5009281.9486637115 0 0 0 0 -23282386.114089221 -6145614.4800463337 0 -6145614.4800463337 10480928.193256758 0 0 0 0 -12852992.28515625 -5465072.6264915466 0 -5465072.6264915466 13461581.915594101 0 0 0 0 -11420085.770927429 -4449929.9738445282 0 -4449929.9738445282 9528893.9308776855 0 0 0 0 -26507768.428143281 -1811484.2212660313 0 -1811484.2212660313 7221251.7399254628 0 0 0 0 -50704435.082855225 -15597212.970775411 0 -15597212.970775411 53600002.30411768 0 0 0 0 -18636542.904403687 -33580872.205115125 0 -33580872.205115125 -30930084.870900452 0 0 0 0 -15648972.221092224 -6843688.7353625298 0 -6843688.7353625298 2521416.0609340668 0 0 0 0 -17776416.380493164 -4215953.9147548676 0 -4215953.9147548676 1435566.7525517941 0 0 0 0 -12274345.852498591 -14325686.147128217 0 -14325686.147128217 -8682394.1289948672 0 0 0 0 -17302481.793648183 -11047951.200797934 0 -11047951.200797934 -4386169.2964542434 0 0 0 0 -26844642.578910828 -4048950.1530160904 0 -4048950.1530160904 7509597.865152359 0 0 0 0 -13496755.302574523 -5766362.8491527103 0 -5766362.8491527103 7701716.1087916624 0 0 0 0 -44229979.059555054 -25562044.68731308 0 -25562044.68731308 42900355.282333374 0 0 0 0 -13513586.278915405 -1200841.6511058807 0 -1200841.6511058807 2345300.4234716892 0 0 0 0 -14316534.045019798 -3509430.6924012303 0 -3509430.6924012303 7453195.0564974435 0 0 0 0 -55942.408896616296 -2352816.5495503694 0 -2352816.5495503694 31879.178408388048 0 0 0 0 -13797009.187683105 -4314706.887298584 0 -4314706.887298584 8270229.6786727905 0 0 0 0 -11127717.465087891 -6219203.0151634216 0 -6219203.0151634216 9910441.9260406494 0 0 0 0 -9105509.2519268095 -4459989.9539572261 0 -4459989.9539572261 6910007.652744785 0 0 0 0 -9400058.9514141083 -2137195.485663414 0 -2137195.485663414 4815352.9826889038 0 0 0 0 -78999739.93536377 -78008742.405422121 0 -78008742.405422121 -315720.83849260211 0 0 0 0 -76418402.518936157 60864633.993929029 0 60864633.993929029 16147372.818359256 0 0 0 0 -14289734.418451265 -3736830.2433891632 0 -3736830.2433891632 12326719.999868527 0 0 0 0 -7934110.2589416504 -5869754.9800224304 0 -5869754.9800224304 5400567.2028198242 0 0 0 0 -50409313.955352783 24316605.61383754 0 24316605.61383754 66000574.2837708 0 0 0 0 -13415910.290802002 -8768967.4630661011 0 -8768967.4630661011 2163512.9514961243 0 0 0 0 -13058874.227827713 -7937681.6106727347 0 -7937681.6106727347 1027386.1746307947 0 0 0 0 -10563731.552328149 -7113219.6862129793 0 -7113219.6862129793 7841921.0993964244 0 0 0 0 -17683871.176590085 -6943447.7399759963 0 -6943447.7399759963 21760758.595797651 0 0 0 0 -21454346.95848462 2707289.9405516721 0 2707289.9405516721 -18085995.522827148 0 0 0 0 -13519090.247650146 -8906025.535572052 0 -8906025.535572052 2000436.3685913086 0 0 0 0 -9688751.0459455103 -9406086.7012406997 0 -9406086.7012406997 11963292.998575419 0 0 0 0 -91684485.450576782 -9687007.0204472095 0 -9687007.0204472095 86389729.343055964 0 0 0 0 -11506290.354335232 -5810436.7535623983 0 -5810436.7535623983 25846291.850055866 0 0 0 0 -2627179.1271667555 -6068575.3798224777 0 -6068575.3798224777 -61240.600253533339 0 0 0 0 64111390.453041077 13480488.494222812 0 13480488.494222812 -15934317.85985291 0 0 0 0 -76167434.617645264 -2271335.8179883361 0 -2271335.8179883361 -35909355.682115853 0 0 0 0 -55350184.469085693 -33546836.206956834 0 -33546836.206956834 111422967.98380297 0 0 0 0 -52205354.940490723 -92620090.087253869 0 -92620090.087253869 -63709460.831818983 0 0 0 0 -107637953.36611938 -72846075.026033938 0 -72846075.026033938 88441187.747039765 0 0 0 0 -108159966.21100044 -45292789.20091141 0 -45292789.20091141 44025931.412716568 0 0 0 0 -115064518.54761314 -103305887.95545614 0 -103305887.95545614 37616389.493778706 0 0 0 0 -108384251.13197327 -32760999.172232419 0 -32760999.172232419 -22480208.961732224 0 0 0 0 -51776365.157333374 -84631439.5851776 0 -84631439.5851776 16682809.421088159 0 0 0 0 -24709731.628234863 -18694777.854867995 0 -18694777.854867995 -2873974.0279534459 0 0 0 0 20253521.618499756 32857619.55935955 0 32857619.55935955 41272790.371957779 0 0 0 0 -9743740.8372325338 -3792915.1301640123 0 -3792915.1301640123 -135157.49814982677 0 0 0 0 -12349526.329931911 -2537670.5694571659 0 -2537670.5694571659 7073392.3682384575 0 0 0 0 -10155325.397117615 -8427715.8199539185 0 -8427715.8199539185 2157319.5967321396 0 0 0 0 -27516143.548646986 -6473802.0501635484 0 -6473802.0501635484 6343200.4476600699 0 0 0 0 -5692347.0733642578 -9242692.6986865997 0 -9242692.6986865997 1097208.2535552979 0 0 0 0 -9865801.3984445333 -13316981.060839556 0 -13316981.060839556 -1792247.0576805626 0 0 0 0 -18737175.50818634 -14269493.613157809 0 -14269493.613157809 -9779309.005168438 0 0 0 0 -10336097.433894858 -14185813.766711157 0 -14185813.766711157 -9206531.1521792635 0 0 0 0 -31833612.946105957 -14655278.762265861 0 -14655278.762265861 281217.61048732698 0 0 0 0 -26807815.817260742 -13879995.827373743 0 -13879995.827373743 292361.74744233489 0 0 0 0 -23344237.048324585 -76723321.27810663 0 -76723321.27810663 -71335496.145065308 0 0 0 0 -2921427.8368174434 -7584957.2889776966 0 -7584957.2889776966 -1009057.1883738651 0 0 0 0 70956473.66456604 -52731982.651087001 0 -52731982.651087001 -3565836.408315748 0 0 0 0 -26743553.60987854 -19439481.749976605 0 -19439481.749976605 2038383.1772902012 0 0 0 0 -52218108.878250122 -22344268.625640363 0 -22344268.625640363 -17335080.629343271 0 0 0 0 -4230290.267364502 1162488.3344477415 0 1162488.3344477415 -27946823.21065703 0 0 0 0 316196087.04888916 73058587.000306726 0 73058587.000306726 -8796911.4124860168 0 0 0 0 -3141184.6517312191 -162387.98409362882 0 -162387.98409362882 1622363.3797367234 0 0 0 0 94839134.260406494 74282312.60041225 0 74282312.60041225 -1542609.3532009125 0 0 0 0 22024791.692901611 26032921.190885067 0 26032921.190885067 11858489.594819069 0 0 0 0 54820348.698547363 31867065.640163422 0 31867065.640163422 -2829043.6618270874 0 0 0 0 40142515.616363525 48673969.542701244 0 48673969.542701244 38517905.928702354 0 0 0 0 -11945048.871017456 62913483.42920208 0 62913483.42920208 99279805.083713055 0 0 0 0 32877080.188270569 73603279.874163747 0 73603279.874163747 -922627.86640071869 0 0 0 0 8729839.4453582764 24001286.908352852 0 24001286.908352852 57197299.264391899 0 0 0 0 -80486982.879577637 44144278.15912962 0 44144278.15912962 41951747.9638917 0 0 0 0 49048227.003631592 61125785.934152603 0 61125785.934152603 42230383.917146727 0 0 0 0 -115532503.10679626 -67739007.769689083 0 -67739007.769689083 124679937.69639063 0 0 0 0 -86971392.810073853 50804661.795129776 0 50804661.795129776 37337650.123559952 0 0 0 0 -287761272.94869995 15474545.284101963 0 15474545.284101963 56601076.165353298 0 0 0 0 -146426170.5010376 118267758.04357529 0 118267758.04357529 86358993.713950157 0 0 0 0 -186683261.03738403 11485778.410488546 0 11485778.410488546 12454070.031964302 0 0 0 0 -379119533.33258057 27518526.266330719 0 27518526.266330719 42031409.742363691 0 0 0 0 -409944073.19390869 -100368620.91558194 0 -100368620.91558194 -14764589.801894188 0 0 0 0 -438540568.53930664 -54492601.38430357 0 -54492601.38430357 51564379.035195827 0 0 0 0 -431253953.98379517 -78995178.64589262 0 -78995178.64589262 84960729.084631681 0 0 0 0 -501951471.66314697 -121479752.63637877 0 -121479752.63637877 107218261.72493935 0 0 0 0 -348087846.1725769 -185862360.69084883 0 -185862360.69084883 11333481.129264832 0 0 0 0 -346185635.7432251 -73433646.85958004 0 -73433646.85958004 75236995.04964447 0 0 0 0 -281370904.68395996 -76623273.612633228 0 -76623273.612633228 36997783.051434994 0 0 0 0 -512219693.16492844 -284633239.09075618 0 -284633239.09075618 49688505.732320786 0 0 0 0 218432110.27554321 -5992743.5261707306 0 -5992743.5261707306 -53957432.336780548 0 0 0 0 -755138.76338513196 1103528.2440330908 0 1103528.2440330908 534977.08889443637 0 0 0 0 77118051.561340332 -24950433.309378624 0 -24950433.309378624 8676414.6468496323 0 0 0 0 52857307.560058594 -23405563.322651386 0 -23405563.322651386 14503422.222290695 0 0 0 0 91524370.978271484 -24768557.974609375 0 -24768557.974609375 6200069.9662332535 0 0 0 0 134440162.54309082 28779405.707727432 0 28779405.707727432 6450783.7073540688 0 0 0 0 79566958.869384766 25680981.188523293 0 25680981.188523293 30351023.76897411 0 0 0 0 149826686.03936005 -32394336.370117784 0 -32394336.370117784 -13409881.632947922 0 0 0 0 94312969.159912109 -65064208.147520065 0 -65064208.147520065 -15391294.415568352 0 0 0 0 183011419.00688171 -106707212.27544141 0 -106707212.27544141 -99671191.015197754 0 0 0 0 102199641.72692871 -61669286.793187141 0 -61669286.793187141 -16128639.946142197 0 0 0 0 176539945.83154297 -83877706.197542191 0 -83877706.197542191 -33251544.950883865 0 0 0 0 -306396380.18359375 -329994702.54880238 0 -329994702.54880238 -129701836.5887661 0 0 0 0 -99565164.8984375 -227727675.51901531 0 -227727675.51901531 -242688719.98322392 0 0 0 0 -226194225.44366455 -85766215.700684786 0 -85766215.700684786 39571824.157966614 0 0 0 0 -209932982.56802368 -9813646.0411310196 0 -9813646.0411310196 91363276.80048275 0 0 0 0 -201652146.45101929 -132190523.98193836 0 -132190523.98193836 -60624210.600999832 0 0 0 0 -340187010.75408936 -153027333.98444843 0 -153027333.98444843 47474788.150948524 0 0 0 0 -207653299.46760559 -96172024.256998062 0 -96172024.256998062 10642458.089933395 0 0 0 0 -91861831.658042908 33849215.497775078 0 33849215.497775078 2038647.8079147339 0 0 0 0 -43025876.540063635 -9724829.8661068249 0 -9724829.8661068249 3824219.7368335845 0 0 0 0 -178643657.41562653 69011504.404094458 0 69011504.404094458 230341725.97123241 0 0 0 0 -19895163.3409729 62549102.723315239 0 62549102.723315239 -15434427.912595749 0 0 0 0 -26628250.287391663 -7264836.2710046768 0 -7264836.2710046768 -34253091.566129684 0 0 0 0 -43451493.841075897 -101949440.04168439 0 -101949440.04168439 45445497.720928192 0 0 0 0 15020944.924926758 -73439560.266371727 0 -73439560.266371727 -148777492.95669937 0 0 0 0 -12306488.593292236 -22083414.174089432 0 -22083414.174089432 -59388604.48046875 0 0 0 0 -19070580.246582031 -7329752.6172742844 0 -7329752.6172742844 -45880052.655570984 0 0 0 0 -17561906.209777832 -1096795.7121543884 0 -1096795.7121543884 -89698496.428937912 0 0 0 0 -68060544.27809906 -60351123.772203445 0 -60351123.772203445 -28561847.939142227 0 0 0 0 -48342010.416412354 -26638926.679243088 0 -26638926.679243088 -95539304.410676956 0 0 0 0 -46692014.83782959 -36550391.44241333 0 -36550391.44241333 -18287996.93321228 0 0 0 0 -8058496.2369982749 -11864202.500458542 0 -11864202.500458542 -4854032.2833317611 0 0 0 0 -51958976.890808105 -44161639.358917236 0 -44161639.358917236 -32368860.662477493 0 0 0 0 -49318848.90953064 -31301056.482128143 0 -31301056.482128143 -25459199.942115784 0 0 0 0 -46613557.864345551 -29872832.888110161 0 -29872832.888110161 -1437886.7907562256 0 0 0 0 -68938006.04989624 -35307155.400680542 0 -35307155.400680542 23409415.245887756 0 0 0 0 -71637135.361534119 -48563954.556136131 0 -48563954.556136131 12482484.715579987 0 0 0 0 -44326541.333532363 -12338520.291094787 0 -12338520.291094787 4450766.1791605121 0 0 0 0 -580274172.77153778 -274392507.61479473 0 -274392507.61479473 -234647970.17975616 0 0 0 0 -731348306.47712708 -133257086.04615974 0 -133257086.04615974 17947393.730150938 0 0 0 0 -1133524891.0254669 -134311468.89491749 0 -134311468.89491749 165888410.36335373 0 0 0 0 -841807215.60230255 -278587883.2544241 0 -278587883.2544241 -138743572.66545105 0 0 0 0 -839446224.4066925 -243005891.55960083 0 -243005891.55960083 -137243135.66636872 0 0 0 0 -1330207212.2770844 -743248507.0651741 0 -743248507.0651741 -618916599.58919525 0 0 0 0 -412476020.60690308 -100865431.08589935 0 -100865431.08589935 -212943578.94160223 0 0 0 0 -623254032.15856934 -392813779.00439358 0 -392813779.00439358 -607353671.20951462 0 0 0 0 -508842560.63067627 182214935.48712063 0 182214935.48712063 -552277338.86059952 0 0 0 0 -408797328.66420746 -7874536.6081066132 0 -7874536.6081066132 -195991434.66026688 0 0 0 0 -812763291.13668823 -104977959.42623138 0 -104977959.42623138 -185876433.83014393 0 0 0 0 -599142884.5065155 210892104.22098494 0 210892104.22098494 -292128109.20211601 0 0 0 0 -1144195265.8176193 460357494.68010044 0 460357494.68010044 -1150189120.0158806 0 0 0 0 -273183585.73539734 -656052170.10414219 0 -656052170.10414219 -1128117093.3573971 0 0 0 0 -2708200.837311618 -1346556.147659536 0 -1346556.147659536 -614132.83965518093 0 0 0 0 -1567159693.3001232 -480899829.01054168 0 -480899829.01054168 -163570433.92354012 0 0 0 0 -93132460.538864136 -155784037.20317411 0 -155784037.20317411 -203591929.86098099 0 0 0 0 -30097068.911048889 -51825934.25803566 0 -51825934.25803566 -155640023.16973877 0 0 0 0 -696732081.60978699 573854026.12627029 0 573854026.12627029 -295165995.33231354 0 0 0 0 -1724317664.3877449 14398220.95594883 0 14398220.95594883 97652062.71081543 0 0 0 0 -810160575.60069275 168433819.56592178 0 168433819.56592178 110383503.97555399 0 0 0 0 -257448371.2551651 181811623.10040855 0 181811623.10040855 -151028123.71931458 0 0 0 0 -680416584.84198761 22207133.838762283 0 22207133.838762283 62645308.31211853 0 0 0 0 -43339665.498901367 25256861.239349365 0 25256861.239349365 -35522491.337841034 0 0 0 0 -77780652.026611328 -13455266.288661957 0 -13455266.288661957 -44126741.296420097 0 0 0 0 -118814026.39840698 93005213.045001984 0 93005213.045001984 -71373214.957667351 0 0 0 0 77504405.898330688 -19191918.760873795 0 -19191918.760873795 -37213271.733581543 0 0 0 0 -70752619.127746582 9602945.5002250671 0 9602945.5002250671 53827435.194766998 0 0 0 0 -11596604.889511108 17006309.926670074 0 17006309.926670074 16873606.878898621 0 0 0 0 -3413874.5451477468 3693787.8614446111 0 3693787.8614446111 -3546708.2222045437 0 0 0 0 72831950.067549229 33801521.905888915 0 33801521.905888915 -13666059.248310089 0 0 0 0 -12890498.219482362 1675445.7392844614 0 1675445.7392844614 -102875.78928427445 0 0 0 0 39293879.031959534 -14178051.039972305 0 -14178051.039972305 -1815532.5892372131 0 0 0 0 9249677.5269775391 -9686708.7905273438 0 -9686708.7905273438 18041870.870141983 0 0 0 0 -103618411.59484863 -35537947.788158417 0 -35537947.788158417 85473806.496570587 0 0 0 0 37675843.319122314 -24305094.246291161 0 -24305094.246291161 -54800550.463127136 0 0 0 0 -7719687.3051612675 -2083194.0662700282 0 -2083194.0662700282 -1010939.5306378882 0 0 0 0 -135531610.63745117 -175696600.47324944 0 -175696600.47324944 -141230383.43686152 0 0 0 0 -172968174.21251297 -233431663.00410175 0 -233431663.00410175 -19886593.944988251 0 0 0 0 -137751014.39154053 -344437148.84880638 0 -344437148.84880638 -384945702.96435165 0 0 0 0 -184898535.48231506 -178942264.65326881 0 -178942264.65326881 -84167307.908313751 0 0 0 0 -163821039.52023315 -155144714.6942215 0 -155144714.6942215 -19026576.828670502 0 0 0 0 -104208662.17718506 -25960384.705059052 0 -25960384.705059052 66629619.884468079 0 0 0 0 -26917549.144897461 15425449.462615967 0 15425449.462615967 58646119.600549698 0 0 0 0 2852532.720993042 -20313186.140818596 0 -20313186.140818596 -34338754.763473511 0 0 0 0 -123384885.64845276 -33294976.566766739 0 -33294976.566766739 124334154.13201141 0 0 0 0 -105716642.83705902 23205209.923345566 0 23205209.923345566 61655603.394020081 0 0 0 0 -14315741.463623047 19590740.724830627 0 19590740.724830627 16826927.333927155 0 0 0 0 -22211064.885314941 27902343.324579239 0 27902343.324579239 -11074588.432769775 0 0 0 0 -16678432.810216654 11504661.69699927 0 11504661.69699927 -2229860.3647337556 0 0 0 0 53768097.310119629 125564293.91104507 0 125564293.91104507 169224453.54217911 0 0 0 0 -2771271.9943344593 2185385.04258826 0 2185385.04258826 1714039.6508570202 0 0 0 0 32603146.051269531 42403920.265048981 0 42403920.265048981 -17377093.113388062 0 0 0 0 5176823.6741638184 76828506.277004242 0 76828506.277004242 82932045.445083618 0 0 0 0 -95551349.58265686 -99299325.000200272 0 -99299325.000200272 106354210.78927612 0 0 0 0 -19320089.326400757 -15145286.859272003 0 -15145286.859272003 57375054.467842102 0 0 0 0 -4563819.924765531 1320829.9799851254 0 1320829.9799851254 1894937.0951358024 0 0 0 0 -79521970.901119232 123252664.17459583 0 123252664.17459583 239505440.91813278 0 0 0 0 -195584297.70615005 -36101329.931732655 0 -36101329.931732655 147265759.30873108 0 0 0 0 -63684397.860771179 40807820.318571091 0 40807820.318571091 43832910.387771606 0 0 0 0 -64527322.099334717 38157465.146879196 0 38157465.146879196 246545365.32485962 0 0 0 0 -146543216.80149078 197242004.60989857 0 197242004.60989857 37371102.910751343 0 0 0 0 -20739507.94720459 10477592.840209961 0 10477592.840209961 -1388190.0619773865 0 0 0 0 -40100491.615264893 -8260719.6092796326 0 -8260719.6092796326 6007660.0341758728 0 0 0 0 -21267454.235494129 -9012227.224386286 0 -9012227.224386286 5183566.2356523294 0 0 0 0 -28862136.102138519 -55740735.692831993 0 -55740735.692831993 41521404.494480133 0 0 0 0 -28460550.534378052 -4712560.5160903931 0 -4712560.5160903931 -10755406.696281433 0 0 0 0 -43745504.283660889 7310860.2597770691 0 7310860.2597770691 2794375.3934631348 0 0 0 0 -44888141.936340332 9213962.7338294983 0 9213962.7338294983 470965.14066314697 0 0 0 0 -43695618.309539795 11718584.775844574 0 11718584.775844574 -11155738.829299927 0 0 0 0 -58136469.573425293 16104184.265007019 0 16104184.265007019 5769027.8747558594 0 0 0 0 -53410677.578674316 21706457.78004837 0 21706457.78004837 -20115041.302062988 0 0 0 0 -937143.98304177821 2824506.9362660702 0 2824506.9362660702 228796.21216891799 0 0 0 0 -42747291.839355469 -16949741.966506958 0 -16949741.966506958 -9616207.475566864 0 0 0 0 -21124590.507949829 -6049489.6658878326 0 -6049489.6658878326 -21411941.469451904 0 0 0 0 -32396906.19291687 31372047.245605469 0 31372047.245605469 -7052870.973236084 0 0 0 0 -17768211.963057958 8775070.8739922158 0 8775070.8739922158 -880086.13381163031 0 0 0 0 -88855717.439819336 -13216219.936645508 0 -13216219.936645508 3667784.4531555176 0 0 0 0 1310658.4181070402 123695.41193017364 0 123695.41193017364 -915654.61066314019 0 0 0 0 -75849929.320007324 12009982.167167664 0 12009982.167167664 -503384.09471130371 0 0 0 0 -64951412.559143066 -11634373.347991943 0 -11634373.347991943 -6632469.9577560425 0 0 0 0 -42748872.408447266 276300.91975402832 0 276300.91975402832 -18269069.378379822 0 0 0 0 -50476912.226257324 7355751.746711731 0 7355751.746711731 -2009568.9002685547 0 0 0 0 -54910639.513244629 17137949.705860138 0 17137949.705860138 -13496425.993621826 0 0 0 0 -55115372.679901123 8998501.699596405 0 8998501.699596405 -1359930.5734405518 0 0 0 0 -53081023.958251953 14224339.062591553 0 14224339.062591553 6812453.6847457886 0 0 0 0 -53512795.247375488 14714243.830938339 0 14714243.830938339 27266214.724281311 0 0 0 0 -19528297.743772507 35580415.60463357 0 35580415.60463357 14881427.976699829 0 0 0 0 -10922735.82347855 4681002.3004633151 0 4681002.3004633151 1301844.1781225875 0 0 0 0 -53337319.125823975 7721591.1672401428 0 7721591.1672401428 15156535.56137085 0 0 0 0 -50900737.476257324 15175807.326751709 0 15175807.326751709 14464905.382019043 0 0 0 0 -47470375.585449219 8311907.2111816406 0 8311907.2111816406 17338957.409629822 0 0 0 0 -17631365.911499023 8844131.8127784729 0 8844131.8127784729 4977702.8096618652 0 0 0 0 -38327280.679870605 -9135534.3298721313 0 -9135534.3298721313 2062833.1261444092 0 0 0 0 -40085648.441711426 18756441.910137177 0 18756441.910137177 26054838.350143433 0 0 0 0 -47430220.7527771 49355440.221410751 0 49355440.221410751 24031067.611907959 0 0 0 0 -47786657.95690918 17528785.514831543 0 17528785.514831543 26425012.994567871 0 0 0 0 -40294414.936798096 27501350.417304993 0 27501350.417304993 38608066.361251831 0 0 0 0 -62360471.03125 8617061.8491897583 0 8617061.8491897583 45640764.499773413 0 0 0 0 -55021248.862159729 10523971.949781418 0 10523971.949781418 28314057.072113037 0 0 0 0 -52547897.370056152 16675929.044723511 0 16675929.044723511 40760778.997192383 0 0 0 0 -50058853.532012939 -37907.145095825195 0 -37907.145095825195 20214987.554353714 0 0 0 0 -62660165.716452599 1233889.8910901546 0 1233889.8910901546 40320563.562393188 0 0 0 0 -49560318.612686157 923817.87038040161 0 923817.87038040161 1813562.0575332642 0 0 0 0 -51708059.421356201 12921169.001167297 0 12921169.001167297 7103390.3842582703 0 0 0 0 -50970052.926498413 10712799.909557343 0 10712799.909557343 13266417.241287231 0 0 0 0 -80878431.901824951 -8010611.3730773926 0 -8010611.3730773926 53728747.984260559 0 0 0 0 -103831624.64151001 -9588416.6200790405 0 -9588416.6200790405 57731446.931335449 0 0 0 0 -86258314.852355957 -26404787.167842865 0 -26404787.167842865 25660181.07736969 0 0 0 0 -50177339.122284517 -20194714.63903603 0 -20194714.63903603 7262218.2161102295 0 0 0 0 -78937402.171295166 -11058472.577026367 0 -11058472.577026367 53369459.969772339 0 0 0 0 -72688709.453796387 -25057396.678100586 0 -25057396.678100586 60977783.223558426 0 0 0 0 -41594125.028312683 -26208563.070529938 0 -26208563.070529938 23783750.544754028 0 0 0 0 -79414626.215957642 -8549213.75274086 0 -8549213.75274086 52036377.79246521 0 0 0 0 -69492332.108581543 -4320027.8515853882 0 -4320027.8515853882 39792185.751430511 0 0 0 0 -71016472.190368652 2879826.138710022 0 2879826.138710022 45643111.612946004 0 0 0 0 -71910511.787780762 6527903.7985649109 0 6527903.7985649109 54568321.992477417 0 0 0 0 -71932179.111572266 7900621.6486358643 0 7900621.6486358643 83245216.444969177 0 0 0 0 -59548690.189025879 59898207.10175705 0 59898207.10175705 16722143.482666016 0 0 0 0 -62429194.001251221 30332734.866470337 0 30332734.866470337 51011119.877254486 0 0 0 0 -69324500.152038574 43852525.406707764 0 43852525.406707764 30323461.03125 0 0 0 0 -61318362.158660889 -2984641.7921600342 0 -2984641.7921600342 45241311.098556519 0 0 0 0 -57289178.24822998 -12385455.286945343 0 -12385455.286945343 59170042.240505219 0 0 0 0 -83356101.051818848 -2882267.7255096436 0 -2882267.7255096436 64587090.186813354 0 0 0 0 -85517699.786972046 20214223.025156021 0 20214223.025156021 58281855.85968399 0 0 0 0 -78008036.795440674 4450681.8685035706 0 4450681.8685035706 43693954.82964325 0 0 0 0 -33968171.190841675 13173372.401952744 0 13173372.401952744 29150712.843139648 0 0 0 0 -141380359.60960388 -25609889.431694031 0 -25609889.431694031 43239112.373725891 0 0 0 0 -356734719.30474854 -276763816.99454117 0 -276763816.99454117 -64994049.732507706 0 0 0 0 -118094872.50595093 -69818035.116760254 0 -69818035.116760254 -9818471.8933868408 0 0 0 0 -93094335.857879639 -33882287.866718292 0 -33882287.866718292 31539502.378295898 0 0 0 0 -63488160.374206543 -44899650.801826477 0 -44899650.801826477 -34300228.135604858 0 0 0 0 -2873083.2343430072 -198491.35859952122 0 -198491.35859952122 5578271.3563371189 0 0 0 0 -9913218.3456363752 10288547.428249478 0 10288547.428249478 27358867.336830139 0 0 0 0 -86452943.774108887 -76901342.556396484 0 -76901342.556396484 -39633366.245697021 0 0 0 0 -12877077.072157368 3690439.2977777757 0 3690439.2977777757 7303562.8417658862 0 0 0 0 -52147831.939483643 4132539.659658432 0 4132539.659658432 82415296.978240967 0 0 0 0 12859963.073455811 -8346845.3266677856 0 -8346845.3266677856 25418054.519876957 0 0 0 0 -43149642.413648762 3114813.2115192208 0 3114813.2115192208 61640838.111663818 0 0 0 0 -45379639.21774292 -21068824.517932892 0 -21068824.517932892 75656253.355331421 0 0 0 0 -38100821.753555298 -2808009.871088028 0 -2808009.871088028 29867829.799613953 0 0 0 0 -69703952.820465088 36547652.536663055 0 36547652.536663055 51163390.573257446 0 0 0 0 -193960849.82577515 271282219.76457405 0 271282219.76457405 266467273.3620224 0 0 0 0 -196343009.88540649 182099929.30919266 0 182099929.30919266 -76676600.686079025 0 0 0 0 30351667.071105957 27581194.1784935 0 27581194.1784935 -13529572.703910828 0 0 0 0 -354329635.69940186 -181085301.17071152 0 -181085301.17071152 -292630804.59690857 0 0 0 0 -902456.34319102764 -50854.206488680094 0 -50854.206488680094 1707498.0110765826 0 0 0 0 -132201145.41442871 115678703.57560349 0 115678703.57560349 -526547.69441223145 0 0 0 0 -210894429.22918701 168057307.62831783 0 168057307.62831783 43003457.698867798 0 0 0 0 608337748.16096497 517756204.39748764 0 517756204.39748764 3838996.89478302 0 0 0 0 -275769936.58093262 -249250049.57229614 0 -249250049.57229614 -237720739.82047653 0 0 0 0 -412228566.04806519 -659793002.22314072 0 -659793002.22314072 -271610933.45184231 0 0 0 0 -1835559.866052486 194199.98474789411 0 194199.98474789411 3535421.4574795589 0 0 0 0 -70931314.177360535 520915646.02776861 0 520915646.02776861 548687382.93351746 0 0 0 0 -1596638848.2724457 -214003723.74022293 0 -214003723.74022293 1007079036.9389114 0 0 0 0 -2714663.6397757679 2277313.2665098719 0 2277313.2665098719 460107.19077761844 0 0 0 0 -40441824.632865906 173266691.90742302 0 173266691.90742302 -313168294.48661041 0 0 0 0 -232627132.08056641 479740568.06863022 0 479740568.06863022 -211466018.03727913 0 0 0 0 379030411.529356 225686003.30982828 0 225686003.30982828 -84163322.555477142 0 0 0 0 -80199143.246383667 -607335708.53713417 0 -607335708.53713417 -430643055.86385536 0 0 0 0 441006591.92815781 576685944.06724072 0 576685944.06724072 499680747.1630249 0 0 0 0 991045929.2517395 378477066.47066879 0 378477066.47066879 -1366069301.7172775 0 0 0 0 -2627333.0801274478 5448925.7525536194 0 5448925.7525536194 -7415677.7291941158 0 0 0 0 -63687377.674575806 44094988.159675598 0 44094988.159675598 45549530.841163635 0 0 0 0 -827370.24914550781 -10373488.03409946 0 -10373488.03409946 -9454888.8039283752 0 0 0 0 -94197670.095851898 163852100.47077656 0 163852100.47077656 266039561.85393524 0 0 0 0 157184323.98699951 -80571034.312759399 0 -80571034.312759399 109618703.77255249 0 0 0 0 1625943.5008037835 355829.02913166583 0 355829.02913166583 -586599.51691032574 0 0 0 0 37914346.560852051 2367414.6519737244 0 2367414.6519737244 -27024291.546272278 0 0 0 0 -7361636.1270256042 -11027267.456861019 0 -11027267.456861019 -1718530.2160263062 0 0 0 0 -8503188.4050080478 4851307.6706494987 0 4851307.6706494987 -1141035.4637322649 0 0 0 0 -35325140.234436035 134362028.10658836 0 134362028.10658836 7593113.4293327332 0 0 0 0 -3328353.9436467886 2964392.1876912415 0 2964392.1876912415 -2400770.0094838832 0 0 0 0 -3942540.0396347046 22654844.755163193 0 22654844.755163193 12253432.167964935 0 0 0 0 -13778723.798109055 -379739.50572037697 0 -379739.50572037697 -47942734.769416809 0 0 0 0 -344312846.12414169 5436589.3863288164 0 5436589.3863288164 42785898.447841644 0 0 0 0 -198357590.74699402 -76311841.159223557 0 -76311841.159223557 34108378.046070099 0 0 0 0 -648895323.4552002 -4761627.5571861267 0 -4761627.5571861267 77492578.609199524 0 0 0 0 -345799389.90170288 41434145.647712708 0 41434145.647712708 15647718.696846008 0 0 0 0 -800177271.29434204 -111337486.81188107 0 -111337486.81188107 109838533.8025589 0 0 0 0 -846862906.84049988 -249713826.10253906 0 -249713826.10253906 -35730923.337902069 0 0 0 0 -533614477.91413116 -78805971.09438324 0 -78805971.09438324 36923992.554968834 0 0 0 0 2612478.5789880753 16066898.744715095 0 16066898.744715095 21967363.569313049 0 0 0 0 -527085016.54754639 -52634874.440401077 0 -52634874.440401077 57079651.275954247 0 0 0 0 -2622123.124682337 1939716.8061705865 0 1939716.8061705865 -1345762.7012741826 0 0 0 0 3649692.1838684082 -27484415.193626404 0 -27484415.193626404 -12615834.924449921 0 0 0 0 -757017.62728400528 3202612.1930240653 0 3202612.1930240653 -5694421.6016272735 0 0 0 0 -29933883.53503418 21332382.5834198 0 21332382.5834198 -41061923.402805328 0 0 0 0 -1349463242.0474548 -3896946.8657131195 0 -3896946.8657131195 87773430.696062088 0 0 0 0 -18485534.790669441 82096454.917021275 0 82096454.917021275 -117861868.39573669 0 0 0 0 -1591590089.50914 -388450652.98833847 0 -388450652.98833847 -2745175.6033172607 0 0 0 0 -1099914.7234203964 655835.14447675645 0 655835.14447675645 -395809.69420047104 0 0 0 0 13470312.40766716 34660127.556949139 0 34660127.556949139 -93636378.167625427 0 0 0 0 -747739003.89063263 -104096787.67070961 0 -104096787.67070961 5979038.3724899292 0 0 0 0 -1091046836.3455505 -277749096.66180801 0 -277749096.66180801 -102851270.69527149 0 0 0 0 -932183532.30310059 163822916.20564651 0 163822916.20564651 -305377255.85555649 0 0 0 0 -557821276.89051819 2283756.6200256348 0 2283756.6200256348 -25889911.047195435 0 0 0 0 -731314048.09303284 86609807.563264847 0 86609807.563264847 -70697911.001509666 0 0 0 0 -665154762.27742004 25074938.285835266 0 25074938.285835266 54215275.246835589 0 0 0 0 -605130767.43980408 -72080717.507826805 0 -72080717.507826805 60258075.506587982 0 0 0 0 -856272641.41473389 -28293617.697078705 0 -28293617.697078705 168811608.11966133 0 0 0 0 -1043277310.3843803 13481877.412993431 0 13481877.412993431 159531954.51670837 0 0 0 0 -880787482.81826782 -50012224.214403152 0 -50012224.214403152 191590221.04864502 0 0 0 0 -868242224.53403473 -33240321.780359268 0 -33240321.780359268 170425811.6156311 0 0 0 0 -674728646.1776123 -160308658.6472702 0 -160308658.6472702 15595418.511351585 0 0 0 0 -895725862.76475716 -99679601.584913731 0 -99679601.584913731 137020282.12602997 0 0 0 0 -659141931.38076782 -84951284.615285873 0 -84951284.615285873 33054273.264286041 0 0 0 0 -805768649.58952332 -67368807.896535873 0 -67368807.896535873 137248901.12273026 0 0 0 0 -1451901976.1481018 582267370.90469933 0 582267370.90469933 44884517.857336044 0 0 0 0 -982498204.042099 541066157.25473881 0 541066157.25473881 -168435261.29354954 0 0 0 0 -333647662.37854004 157965340.88064957 0 157965340.88064957 64346790.459884644 0 0 0 0 -1091302380.7088318 62478943.811303139 0 62478943.811303139 168844309.22420311 0 0 0 0 -492279346.86671066 -98983887.582134724 0 -98983887.582134724 -33665481.859464645 0 0 0 0 -13466707.109795094 -342891.8514973484 0 -342891.8514973484 3805411.7732739933 0 0 0 0 -436620318.62181568 -147759964.31418335 0 -147759964.31418335 340932733.65561295 0 0 0 0 -1655746378.3475037 1191426331.1597376 0 1191426331.1597376 -511003277.32027054 0 0 0 0 -360611094.75479126 531055925.84481812 0 531055925.84481812 -200710632.93301392 0 0 0 0 -252458321.38327026 -1182465032.9411087 0 -1182465032.9411087 403216526.72111702 0 0 0 0 -5753128.3324154392 185520.08948935708 0 185520.08948935708 1557811.6488972809 0 0 0 0 -537018092.26055908 -444329300.48070717 0 -444329300.48070717 299206221.25998688 0 0 0 0 -1249288956.5926561 -715790545.55697036 0 -715790545.55697036 235849422.47193909 0 0 0 0 -639926807.11937714 -103143720.37188482 0 -103143720.37188482 -160095669.23726654 0 0 0 0 -1061610453.9621124 15257664.480783463 0 15257664.480783463 -149117012.51995087 0 0 0 0 324962586.469944 -126663966.85755062 0 -126663966.85755062 -268983904.84559631 0 0 0 0 -328046694.03556824 611773766.52061462 0 611773766.52061462 320363019.193964 0 0 0 0 -858260342.23478699 -560803957.22952557 0 -560803957.22952557 1379809297.5214653 0 0 0 0 24495.344082847238 1059870.3086967096 0 1059870.3086967096 -2401463.068240013 0 0 0 0 -1119110795.6933441 33719863.428682327 0 33719863.428682327 59066744.85559082 0 0 0 0 227761815.19329834 21054102.691408157 0 21054102.691408157 -29401193.596112251 0 0 0 0 105839026.89844513 -52975060.008537292 0 -52975060.008537292 51061125.819503784 0 0 0 0 286319843.18791962 269648049.90504837 0 269648049.90504837 246994305.08160019 0 0 0 0 180788926.58322144 472733901.09086037 0 472733901.09086037 -110354678.37381363 0 0 0 0 -16227578.529908262 -1370712.464417262 0 -1370712.464417262 5491515.2542713294 0 0 0 0 -15289220.067672729 229513053.44698048 0 229513053.44698048 728922697.85766792 0 0 0 0 126818784.17433167 -195074251.27306747 0 -195074251.27306747 -71078707.620925903 0 0 0 0 -484568109.93591309 -72651773.944971085 0 -72651773.944971085 -12341081.989840508 0 0 0 0 -2550647.3797405325 -6251556.8451099768 0 -6251556.8451099768 2807543.6818895489 0 0 0 0 113723946.37295532 -210716172.96560431 0 -210716172.96560431 138243797.86883354 0 0 0 0 375674261.34231567 -83887499.710096359 0 -83887499.710096359 -54688855.565442562 0 0 0 0 -76348087.935264587 -148076342.73794198 0 -148076342.73794198 -48655656.467472076 0 0 0 0 -9848862.9667715728 -1257541.8492819835 0 -1257541.8492819835 3790891.2966022221 0 0 0 0 -2598289.8362884521 -31093333.123016357 0 -31093333.123016357 -169403431.43452358 0 0 0 0 -179637001.14311218 -402218368.37184381 0 -402218368.37184381 -978061150.24824095 0 0 0 0 -3787960.6419852078 24763.469997292385 0 24763.469997292385 1439664.8522821423 0 0 0 0 -261047238.38557434 175708880.49681461 0 175708880.49681461 -55384608.30137825 0 0 0 0 -228628167.91947937 67030165.666341782 0 67030165.666341782 -17147692.343488693 0 0 0 0 144767298.18170166 283276742.05811882 0 283276742.05811882 246453171.0097084 0 0 0 0 -2098579.5974199474 -4941152.48824168 0 -4941152.48824168 1077378.5501696747 0 0 0 0 -180759364.12466431 47302246.306613922 0 47302246.306613922 -9083664.7946567535 0 0 0 0 626755785.92438507 606116580.08074093 0 606116580.08074093 440528558.06184387 0 0 0 0 121348.64035730809 -2259657.9298928306 0 -2259657.9298928306 -252358.00644924305 0 0 0 0 151241433.12115479 -62561675.137381554 0 -62561675.137381554 687225305.17949677 0 0 0 0 -399433326.84934235 551718498.15716791 0 551718498.15716791 285958992.71738434 0 0 0 0 -488481387.34251404 164712860.97782898 0 164712860.97782898 841671122.69877625 0 0 0 0 -471108984.60610962 -233878561.78732872 0 -233878561.78732872 362414326.90992355 0 0 0 0 -378363333.12740326 -76484626.309743881 0 -76484626.309743881 284929183.39931297 0 0 0 0 -428513102.8110199 31531196.850120544 0 31531196.850120544 77293834.784776688 0 0 0 0 -401626853.77035522 -84736428.181283951 0 -84736428.181283951 292027646.69734979 0 0 0 0 -294468635.52456665 13712719.180488586 0 13712719.180488586 284227384.48278856 0 0 0 0 -472146309.42985535 163222431.68233347 0 163222431.68233347 253280231.4526825 0 0 0 0 -218101157.44975281 20532901.323530197 0 20532901.323530197 82594771.729454041 0 0 0 0 -24080329.447998047 -123164615.17762756 0 -123164615.17762756 102277453.6458931 0 0 0 0 -342391287.52384949 -166264869.5320096 0 -166264869.5320096 98644886.170783997 0 0 0 0 396537847.3993988 -317798028.99697065 0 -317798028.99697065 48614632.100292683 0 0 0 0 -394955962.87355804 -524906919.75765944 0 -524906919.75765944 202381175.86405087 0 0 0 0 -915738244.09094238 190871425.82501602 0 190871425.82501602 169310168.15657997 0 0 0 0 -1257417815.7198019 -423650665.00126594 0 -423650665.00126594 207269916.68536186 0 0 0 0 -1036747498.5885315 631161530.10289764 0 631161530.10289764 -309862985.82852125 0 0 0 0 1105674060.7079163 -135515560.90381575 0 -135515560.90381575 -966309734.52426744 0 0 0 0 -816195172.47357178 486954161.01981074 0 486954161.01981074 138819833.60346508 0 0 0 0 -1329795806.7952118 -648790402.76552176 0 -648790402.76552176 45383940.458465576 0 0 0 0 -559383978.04792786 -189310963.61370659 0 -189310963.61370659 313738858.67775917 0 0 0 0 -306587577.27926254 -150387018.2453202 0 -150387018.2453202 240129355.11526537 0 0 0 0 867803358.66998291 300657477.3957752 0 300657477.3957752 -17347391.843230784 0 0 0 0 476628015.52978516 85287984.349052668 0 85287984.349052668 147552009.72755849 0 0 0 0 -326820840.45773315 -91103187.038335949 0 -91103187.038335949 277845616.08954239 0 0 0 0 444010120.95375061 -404978092.00255853 0 -404978092.00255853 550020.71214693005 0 0 0 0 976163419.55285645 -163338390.24715686 0 -163338390.24715686 -136136234.51219398 0 0 0 0 -343663535.46170807 -517973952.56289893 0 -517973952.56289893 -1042667.6152311137 0 0 0 0 -142877190.65533447 -56856863.505307615 0 -56856863.505307615 254117010.33560193 0 0 0 0 -484796324.70809937 -239771181.66362453 0 -239771181.66362453 302169765.71533662 0 0 0 0 -711713363.70491028 407530308.15874088 0 407530308.15874088 -156091744.15557051 0 0 0 0 -1707436.4146618694 -8545.6358969062567 0 -8545.6358969062567 907481.48912359762 0 0 0 0 -1049000140.4288483 -85237657.230030715 0 -85237657.230030715 336673022.69339633 0 0 0 0 -1422349.5898132324 -697752.31280458684 0 -697752.31280458684 2590.8320568084337 0 0 0 0 -1689888.6821136475 -582423.59026545344 0 -582423.59026545344 614743.88307482773 0 0 0 0 -146529108.46992493 24650501.229472637 0 24650501.229472637 73695809.280465364 0 0 0 0 -334795913.35253906 -4903553.1280043125 0 -4903553.1280043125 70993901.171591878 0 0 0 0 -138641613.33712769 -138935180.93343258 0 -138935180.93343258 -19918398.305735111 0 0 0 0 -508731297.41546631 -204857888.56346416 0 -204857888.56346416 258754038.71332502 0 0 0 0 -600037260.72904968 -352553371.39529324 0 -352553371.39529324 179781884.93912578 0 0 0 0 -62334594.712562561 -61738545.631820083 0 -61738545.631820083 -62872506.816047668 0 0 0 0 -87362827.063308716 -406082448.90612745 0 -406082448.90612745 -246719919.49530983 0 0 0 0 167113805.01306152 -21501909.513765931 0 -21501909.513765931 -27319713.868835926 0 0 0 0 86101.683753147721 -646835.59997054935 0 -646835.59997054935 -246151.44185926626 0 0 0 0 -416833540.12937927 -219157291.05743694 0 -219157291.05743694 6013531.8316662312 0 0 0 0 105359424.87496948 -202985015.13210964 0 -202985015.13210964 110898865.91130829 0 0 0 0 103131025.53990173 -176493493.73666584 0 -176493493.73666584 -186339421.18592072 0 0 0 0 -302236607.16876221 -30532473.752441406 0 -30532473.752441406 4247273.9104471207 0 0 0 0 -574778481.29257202 42044741.047192574 0 42044741.047192574 -262904543.38500786 0 0 0 0 -476163194.21523285 -361297974.80417824 0 -361297974.80417824 -315905106.96095467 0 0 0 0 284485157.80825806 272287085.4379406 0 272287085.4379406 227254045.21000862 0 0 0 0 233767805.84527588 -102382463.28459644 0 -102382463.28459644 -386291280.5527668 0 0 0 0 897789093.40646362 -173274213.79263878 0 -173274213.79263878 -552919313.71818447 0 0 0 0 176842661.46871948 140902683.89814854 0 140902683.89814854 -150308930.34559345 0 0 0 0 -47247089.872848511 -309846371.34905457 0 -309846371.34905457 -436305346.91556931 0 0 0 0 -194564538.1161499 123993186.23430252 0 123993186.23430252 -213134262.1232419 0 0 0 0 211637644.56600952 -481202808.26747823 0 -481202808.26747823 67802868.399451256 0 0 0 0 -293100853.67913818 -93063737.756645441 0 -93063737.756645441 -162636031.26846886 0 0 0 0 1011884724.6425934 394547392.60110426 0 394547392.60110426 -376509386.6836772 0 0 0 0 -238489.9959250167 -1604131.7995514944 0 -1604131.7995514944 -416203.85119392164 0 0 0 0 -136053.37478794903 -2333434.2326430902 0 -2333434.2326430902 311007.13517057477 0 0 0 0 -546401700.68319702 -286881873.12791061 0 -286881873.12791061 153013752.01464176 0 0 0 0 2717161.2049331665 21504439.380796254 0 21504439.380796254 -13813820.151754141 0 0 0 0 -151015617.83488464 6622342.8200992942 0 6622342.8200992942 1260832.5318379402 0 0 0 0 -2721076.8615591973 -1036961.5823152699 0 -1036961.5823152699 471140.69351438887 0 0 0 0 -2470164.9808883667 -1308234.8294447914 0 -1308234.8294447914 426609.40111239563 0 0 0 0 -2319709.0761108398 -1071354.3734667972 0 -1071354.3734667972 705524.81921462237 0 0 0 0 -2085338.3473434448 -1077633.9914815146 0 -1077633.9914815146 -1075.6119946250578 0 0 0 0 -295706696.08420944 684794929.66086221 0 684794929.66086221 -638871756.15422809 0 0 0 0 -1826065.6201393083 -1458559.2972190529 0 -1458559.2972190529 -700757.20275375526 0 0 0 0 -341642462.93003845 375757226.91550481 0 375757226.91550481 -207150377.36237741 0 0 0 0 -8994423.6961669922 -502295276.34820867 0 -502295276.34820867 331362715.05541086 0 0 0 0 -3694620.8514166772 -477013.80817312375 0 -477013.80817312375 1007517.4353023909 0 0 0 0 585102187.32797241 591699832.6473794 0 591699832.6473794 86000571.082884699 0 0 0 0 124499962.91890335 -180089226.17106733 0 -180089226.17106733 -1124461125.0100098 0 0 0 0 -4208184058.3711548 764111191.38425803 0 764111191.38425803 684289434.27483702 0 0 0 0 365308924.55635071 -489682035.25397646 0 -489682035.25397646 20194369.117683977 0 0 0 0 -1795101051.80513 -223277891.03082025 0 -223277891.03082025 145940365.16094857 0 0 0 0 -773907083.73068237 -81745394.208031952 0 -81745394.208031952 1048663.7596251918 0 0 0 0 -674903133.118927 -371766161.19475937 0 -371766161.19475937 -104792497.06546572 0 0 0 0 -6413058.5954284668 -154305419.58374286 0 -154305419.58374286 76365613.919891268 0 0 0 0 -116588369.11602783 -72395810.643159807 0 -72395810.643159807 20451311.801655971 0 0 0 0 -329790739.97219849 -597592650.29686677 0 -597592650.29686677 24445165.317226656 0 0 0 0 125714943.3697052 -40575645.996116787 0 -40575645.996116787 151897501.32554287 0 0 0 0 7456823.8151550293 -117134997.13151583 0 -117134997.13151583 257233198.99248621 0 0 0 0 -4172257482.0290222 1258350024.0312037 0 1258350024.0312037 86783930.266069412 0 0 0 0 -3212938.1057443768 -2476964.1135002598 0 -2476964.1135002598 -828204.20840779773 0 0 0 0 -2299351.3703775629 -85879.812398575246 0 -85879.812398575246 762808.62234689249 0 0 0 0 -455604610.32549286 -275745941.77432513 0 -275745941.77432513 -434046294.22584248 0 0 0 0 -3908930586.6498413 444252349.47918797 0 444252349.47918797 573569338.0186224 0 0 0 0 -1481481464.0519409 -691697708.46985912 0 -691697708.46985912 -308880349.45533323 0 0 0 0 -2966461609.0056763 1019659637.0286217 0 1019659637.0286217 -1195617587.4122963 0 0 0 0 -2159108829.862793 1378190111.0199375 0 1378190111.0199375 -1074553011.0659733 0 0 0 0 -3020836865.2279816 339532362.58748388 0 339532362.58748388 89887757.629964828 0 0 0 0 -1222659566.6801147 92869390.30434227 0 92869390.30434227 3147512.2529768944 0 0 0 0 -1226834722.8547974 83057099.894752502 0 83057099.894752502 -18541648.395206451 0 0 0 0 -1898878592.213623 809678952.00641727 0 809678952.00641727 -52679090.922403336 0 0 0 0 88296918.567276001 -177082325.19320989 0 -177082325.19320989 177963298.65747422 0 0 0 0 -1850675709.589325 789638414.88734341 0 789638414.88734341 -119084552.21644592 0 0 0 0 -7532845.7333225831 -6562408.300534483 0 -6562408.300534483 -3601561.3814063459 0 0 0 0 220377814.72137451 125913134.41174117 0 125913134.41174117 35648065.255090714 0 0 0 0 204783879.77340698 108713851.91332006 0 108713851.91332006 53042405.062814713 0 0 0 0 -1359152.8010660186 1351015.0527236313 0 1351015.0527236313 -1555257.4350657705 0 0 0 0 -586171958.16092443 -385582044.39652425 0 -385582044.39652425 -128069318.09279859 0 0 0 0 -584488654.98788452 -213416575.50007504 0 -213416575.50007504 -87884120.29185009 0 0 0 0 212175449.44903564 94575658.782766342 0 94575658.782766342 77649714.883285522 0 0 0 0 -442986433.11566162 -333695822.28442484 0 -333695822.28442484 -134941363.68707246 0 0 0 0 -410290625.12515259 -305410637.86286998 0 -305410637.86286998 -144405060.22827601 0 0 0 0 -310702808.25854492 -258770899.44097173 0 -258770899.44097173 -154742913.91460538 0 0 0 0 -317623875.45237732 -250914605.65028617 0 -250914605.65028617 -130774758.83764541 0 0 0 0 -199042164.37823486 -232078028.20956227 0 -232078028.20956227 -182039044.93330711 0 0 0 0 -182521897.60181427 -105609075.83039933 0 -105609075.83039933 -87242386.062575817 0 0 0 0 -119946234.26452637 -167436098.31715274 0 -167436098.31715274 -181202375.64353961 0 0 0 0 -340654718.25946045 -166310919.01273921 0 -166310919.01273921 -142174171.50682449 0 0 0 0 -365314836.38659668 -232373136.06383896 0 -232373136.06383896 -128069060.49910924 0 0 0 0 -325110186.00563049 -189538279.8019067 0 -189538279.8019067 -195248520.10734153 0 0 0 0 -277571667.95614624 -236073015.01044625 0 -236073015.01044625 -193954847.56073737 0 0 0 0 -378244689.92486572 -240969605.06882852 0 -240969605.06882852 -117382184.71849841 0 0 0 0 -264715910.37303352 -161100572.03344089 0 -161100572.03344089 -120000637.18291891 0 0 0 0 -217836074.28970337 -187695821.96821398 0 -187695821.96821398 -139578640.36143643 0 0 0 0 85312977.887435913 28403442.129433155 0 28403442.129433155 -50651122.372587204 0 0 0 0 100185328.25318909 16811007.584789276 0 16811007.584789276 -47879193.508439064 0 0 0 0 -1293878.4037567154 1852559.5275843143 0 1852559.5275843143 -4391450.6601738548 0 0 0 0 -425070462.98225403 -149566358.27043349 0 -149566358.27043349 -176410886.59721994 0 0 0 0 225823105.47521973 77730952.433861732 0 77730952.433861732 67370227.214393616 0 0 0 0 156098321.91662598 101133999.01951981 0 101133999.01951981 76990942.193207741 0 0 0 0 -171931.08268396556 -204580.86840096861 0 -204580.86840096861 213776.510945193 0 0 0 0 178321670.68240356 59256286.532593727 0 59256286.532593727 73100516.919364929 0 0 0 0 -69287996.434509277 -79123123.72064209 0 -79123123.72064209 -105041255.42790604 0 0 0 0 36285957.065795898 -46281386.630126953 0 -46281386.630126953 -94849916.095181465 0 0 0 0 133084.55377197266 -5043189.5057659149 0 -5043189.5057659149 -64376857.991687775 0 0 0 0 -416063.48834228516 -39231989.375580788 0 -39231989.375580788 -104833087.01491332 0 0 0 0 -1490437.7614432126 -1770073.1283874065 0 -1770073.1283874065 661726.89210654446 0 0 0 0 -10026686.714660645 -19937742.893915176 0 -19937742.893915176 -44527984.223171234 0 0 0 0 3581083.1450500488 -21253032.295539856 0 -21253032.295539856 -90448925.954896927 0 0 0 0 -6087916.983215332 -21062940.20100832 0 -21062940.20100832 -68797819.095947266 0 0 0 0 -7612942.0661621094 -24116647.679328918 0 -24116647.679328918 -70041701.99702549 0 0 0 0 -5007536.6487426758 -22795675.885246277 0 -22795675.885246277 -70603396.726597786 0 0 0 0 -20368193.032318115 -28353952.554504395 0 -28353952.554504395 -60003611.651288986 0 0 0 0 -20770664.026123047 -27822196.60654068 0 -27822196.60654068 -47125183.506362915 0 0 0 0 -7656096.3384399414 -22244421.464279175 0 -22244421.464279175 -68333395.714995384 0 0 0 0 -17110039.759933472 -45205777.527813911 0 -45205777.527813911 -86944301.320366383 0 0 0 0 2284871.2595367432 -10517105.517910004 0 -10517105.517910004 -94469262.595237732 0 0 0 0 -16328298.398925781 -29590051.088617086 0 -29590051.088617086 -67368644.911417007 0 0 0 0 -19094729.543579102 -36507293.353593826 0 -36507293.353593826 -69375595.605236053 0 0 0 0 -25610164.102478027 -28184200.09419632 0 -28184200.09419632 -47880648.984723091 0 0 0 0 -24727855.004577637 -38166500.206729889 0 -38166500.206729889 -54250461.995949745 0 0 0 0 -31103701.362121582 -41042806.057190895 0 -41042806.057190895 -66677474.471888065 0 0 0 0 -30326232.498717785 -25476409.231760085 0 -25476409.231760085 -68577417.56662941 0 0 0 0 4334267.7150268555 5340512.7519006729 0 5340512.7519006729 -6393100.3534641266 0 0 0 0 -1735425.8971099854 -12625649.048854828 0 -12625649.048854828 46335.171505451202 0 0 0 0 4934034.7174682617 2805820.5077362061 0 2805820.5077362061 -11557793.758566856 0 0 0 0 2174732.003112793 2272059.4151084423 0 2272059.4151084423 -7140459.0541434288 0 0 0 0 -313486.4126021415 1635154.9820067286 0 1635154.9820067286 669393.54756146949 0 0 0 0 170301671.91278076 185276161.52431202 0 185276161.52431202 -18914728.159852982 0 0 0 0 170173230.14242554 6128278.4224328399 0 6128278.4224328399 99399572.987240911 0 0 0 0 -799933.86680717766 629926.96363508701 0 629926.96363508701 -25447.790490932792 0 0 0 0 2289931.4580078125 5130304.6559364796 0 5130304.6559364796 1146263.3447313309 0 0 0 0 21306621.125183105 4232411.1848359108 0 4232411.1848359108 1188421.0136771649 0 0 0 0 13740314.482757568 -8201839.4366307259 0 -8201839.4366307259 1299128.7644052505 0 0 0 0 25222717.245574951 -15619010.386359692 0 -15619010.386359692 5897584.1586818695 0 0 0 0 18996489.299362183 -10428484.280196309 0 -10428484.280196309 8805227.7239251137 0 0 0 0 24956029.751930237 -14270944.698944449 0 -14270944.698944449 7650457.1055622101 0 0 0 0 30906990.30645752 -18087903.701218605 0 -18087903.701218605 9707004.4367096424 0 0 0 0 36933653.748718262 -8618476.2303543054 0 -8618476.2303543054 11371732.691479627 0 0 0 0 33843652.745620728 -6314075.200527966 0 -6314075.200527966 9668153.1810975075 0 0 0 0 40046029.516357422 9818569.1052405015 0 9818569.1052405015 30371385.00599901 0 0 0 0 26199433.789810181 1247747.773224825 0 1247747.773224825 25638708.29939156 0 0 0 0 69389705.559753418 -1030671.0757867843 0 -1030671.0757867843 14477123.58470273 0 0 0 0 36405659.421813965 -8803517.6017470658 0 -8803517.6017470658 13262027.383265316 0 0 0 0 48642482.232849121 -16264738.48734802 0 -16264738.48734802 9827048.6585630178 0 0 0 0 58217286.87461853 -24700565.564927876 0 -24700565.564927876 11952624.914356589 0 0 0 0 35815191.873901367 -23696735.656770915 0 -23696735.656770915 14188216.589235902 0 0 0 0 25452472.67427063 -2318378.1675350666 0 -2318378.1675350666 11008008.001886368 0 0 0 0 -777035145.98628235 -484168230.47246754 0 -484168230.47246754 -103766122.6857996 0 0 0 0 254911297.5692749 -96466538.305523157 0 -96466538.305523157 -356616529.36635017 0 0 0 0 -1090456.0070397444 1995585.932520248 0 1995585.932520248 860654.41420137358 0 0 0 0 -317605735.59954834 188845280.69145393 0 188845280.69145393 132480080.61464059 0 0 0 0 -329047699.35800171 46862744.157139063 0 46862744.157139063 -334142770.70606518 0 0 0 0 -438957085.40991211 -386432313.14636374 0 -386432313.14636374 -474653052.23874569 0 0 0 0 -349562172.76483154 -135976910.77211571 0 -135976910.77211571 -105623185.0600642 0 0 0 0 -283317949.84283447 33124396.924347281 0 33124396.924347281 177288240.08617806 0 0 0 0 -92984494.445129395 39616495.006427526 0 39616495.006427526 32975256.711102366 0 0 0 0 -209159951.03007221 -154109150.71983358 0 -154109150.71983358 -5108187.1682200432 0 0 0 0 -459600826.92611694 -145350332.56210166 0 -145350332.56210166 65936393.461448744 0 0 0 0 -539051444.07461548 -358679920.2000863 0 -358679920.2000863 -143904523.40529785 0 0 0 0 -482627480.958004 -189217925.32740474 0 -189217925.32740474 36172603.51462698 0 0 0 0 -801436183.32502365 -236473920.96110353 0 -236473920.96110353 13493314.841944873 0 0 0 0 -592103605.45654297 -195114460.51476061 0 -195114460.51476061 -103424723.58863199 0 0 0 0 -322526065.51702881 -276967137.9016701 0 -276967137.9016701 -84499497.896303251 0 0 0 0 -270007241.89974976 -226730534.32677567 0 -226730534.32677567 -209991928.40531528 0 0 0 0 -380168979.04269409 -314058475.82097912 0 -314058475.82097912 -186714030.54058123 0 0 0 0 -635953351.42852783 -101525286.19826332 0 -101525286.19826332 -204841290.54410899 0 0 0 0 -423095613.03186035 -351066600.23023742 0 -351066600.23023742 -298706496.77809095 0 0 0 0 -519244235.64477539 -171650981.8944751 0 -171650981.8944751 -327641819.97058946 0 0 0 0 -22779361.294555664 -127523723.4188062 0 -127523723.4188062 -142151012.8603791 0 0 0 0 -93995285.733455658 -91925772.842864335 0 -91925772.842864335 25616211.05619204 0 0 0 0 -67046700.914581299 -166589586.33813983 0 -166589586.33813983 -153131789.06318352 0 0 0 0 -243820891.34762573 -280509127.06129539 0 -280509127.06129539 -99556097.140041649 0 0 0 0 -206592847.14202881 -98754030.920577317 0 -98754030.920577317 1367263.7263197303 0 0 0 0 222114884.20207977 39239628.881451204 0 39239628.881451204 4518903.524256587 0 0 0 0 -26505288.600265503 -25622973.525980741 0 -25622973.525980741 295041596.26292348 0 0 0 0 68865740.841278076 -252583781.05551291 0 -252583781.05551291 80623151.641624808 0 0 0 0 -206154353.65285778 -68614384.867533505 0 -68614384.867533505 417398445.12271357 0 0 0 0 68356863.693161011 251663425.73933458 0 251663425.73933458 267147153.71097422 0 0 0 0 -37413564.340332031 76729756.163816303 0 76729756.163816303 276999340.15703988 0 0 0 0 -55869274.011779785 68751061.588850319 0 68751061.588850319 291433327.92045224 0 0 0 0 -32452540.724121094 126927169.28632519 0 126927169.28632519 357617682.00376666 0 0 0 0 12074085.278762817 -115044259.10435364 0 -115044259.10435364 84050994.839678705 0 0 0 0 -2978455.8378842473 -1098419.2875029296 0 -1098419.2875029296 86039.490497961 0 0 0 0 -55104992.667404175 72690459.081551105 0 72690459.081551105 82837657.225799412 0 0 0 0 97757995.652534485 50807704.457085848 0 50807704.457085848 17059636.290935755 0 0 0 0 15390979.524497986 120109058.34917971 0 120109058.34917971 109416968.89524454 0 0 0 0 10077449.846817017 -76714832.966565624 0 -76714832.966565624 126913539.19551046 0 0 0 0 -16352401.521416664 4797015.355129716 0 4797015.355129716 -32287367.005797982 0 0 0 0 -187833697.37585449 -11658015.704007365 0 -11658015.704007365 65410795.376354381 0 0 0 0 -5285557.2381423004 -5531382.7545618787 0 -5531382.7545618787 18679013.333190959 0 0 0 0 -137584284.46008301 -39243594.328168906 0 -39243594.328168906 50602589.391440704 0 0 0 0 -99492212.93208313 -32605749.453322805 0 -32605749.453322805 245826536.84176821 0 0 0 0 -99857682.056808472 -18276265.111618698 0 -18276265.111618698 41308998.941397496 0 0 0 0 -107698947.55831909 61957846.887217537 0 61957846.887217537 46048798.220129609 0 0 0 0 -96323921.727584839 30602821.328748405 0 30602821.328748405 4599617.4687888324 0 0 0 0 -2191120.172537127 -4922486.44942756 0 -4922486.44942756 11329791.801845027 0 0 0 0 -145774452.43809018 31289400.72099201 0 31289400.72099201 23523610.194927156 0 0 0 0 -68889911.806488037 36956646.877067871 0 36956646.877067871 -4137709.2136156559 0 0 0 0 -97915693.018539429 25548765.458048467 0 25548765.458048467 -6325283.4276226759 0 0 0 0 -65457822.4765625 5284709.0604707301 0 5284709.0604707301 -34348634.545888811 0 0 0 0 -608872.41298169224 -3639869.1558929831 0 -3639869.1558929831 5197249.1226958567 0 0 0 0 -150792098.04214478 -83205175.306369364 0 -83205175.306369364 -98259039.948592246 0 0 0 0 -20562790.556243896 -95787843.896049961 0 -95787843.896049961 -129263006.56510541 0 0 0 0 -53162442.11391449 9907798.4961586297 0 9907798.4961586297 -38939719.410840988 0 0 0 0 7702291.9349212646 -14510129.309502512 0 -14510129.309502512 -29261335.341904223 0 0 0 0 -106182854.38323975 -49234274.924442828 0 -49234274.924442828 -82261600.748434842 0 0 0 0 -55391179.000198364 16533185.46142301 0 16533185.46142301 -61009140.182532847 0 0 0 0 -145207270.74119568 -43873680.099602342 0 -43873680.099602342 -47352003.656609617 0 0 0 0 -185127546.87139893 -111503879.93085212 0 -111503879.93085212 -98919526.253637046 0 0 0 0 -63018013.226135254 -65439349.257035881 0 -65439349.257035881 -118640499.45799786 0 0 0 0 -183960577.24428558 -108560301.20751055 0 -108560301.20751055 -108900591.87412012 0 0 0 0 -234370666.91546631 -155211101.29615116 0 -155211101.29615116 -109873694.59814012 0 0 0 0 -111057353.23954773 -78981919.785744488 0 -78981919.785744488 -110784479.17808706 0 0 0 0 -195938814.37112427 -84449984.223135829 0 -84449984.223135829 -72407654.734365821 0 0 0 0 -227575185.7278595 -121658234.49861223 0 -121658234.49861223 -80216631.912384868 0 0 0 0 -174830360.88445282 -88111789.725122288 0 -88111789.725122288 -104723019.92828131 0 0 0 0 -349424460.50140381 -118704109.28746861 0 -118704109.28746861 -83124920.306891114 0 0 0 0 -277359547.35815811 -166733404.69863167 0 -166733404.69863167 -92750792.938202679 0 0 0 0 -344186015.14219093 -229061745.95822865 0 -229061745.95822865 -155460135.67003417 0 0 0 0 -246836410.1254425 -101704258.46991903 0 -101704258.46991903 -93061272.162470937 0 0 0 0 -121852949.51675415 -9047905.6348887384 0 -9047905.6348887384 18393227.502630919 0 0 0 0 -111429630.64266205 -41721759.921853229 0 -41721759.921853229 -83925850.061564922 0 0 0 0 -184847908.06265259 -74873614.908693939 0 -74873614.908693939 -11754586.093996495 0 0 0 0 80429.518418001448 -2212131.4038918838 0 -2212131.4038918838 1768885.0067817466 0 0 0 0 -89092066.608062744 -38372838.879576445 0 -38372838.879576445 -46999479.522557676 0 0 0 0 -173730027.31491089 -37489831.803115427 0 -37489831.803115427 10189252.829817146 0 0 0 0 -171216259.66283083 -93312681.415115342 0 -93312681.415115342 -66934494.651861191 0 0 0 0 -203442449.5717926 -107854291.88491425 0 -107854291.88491425 -26723054.447178736 0 0 0 0 -229853247.36451721 -121898538.23694806 0 -121898538.23694806 -32351753.353471041 0 0 0 0 -253192034.97018433 -82842629.141475961 0 -82842629.141475961 -15400633.422985086 0 0 0 0 -222324774.12913513 -106217718.69625311 0 -106217718.69625311 -8437.7757214057783 0 0 0 0 326034.86360469356 -1318825.7247468159 0 -1318825.7247468159 383756.45257352485 0 0 0 0 -277499231.40411377 -162830960.67298105 0 -162830960.67298105 -58805683.871596456 0 0 0 0 -253075588.19064331 -137732563.63967603 0 -137732563.63967603 -42582509.216482639 0 0 0 0 -1151816.3179235011 -2587551.4523448497 0 -2587551.4523448497 -1969888.1151128679 0 0 0 0 -9816988.2882995605 -10206605.215680517 0 -10206605.215680517 -3883027.6408563405 0 0 0 0 -262596796.30256844 8543025.9840510599 0 8543025.9840510599 -7847932.7464952469 0 0 0 0 -55012.34824821353 -33997.167737301439 0 -33997.167737301439 -451536.06016770634 0 0 0 0 -237304218.91574097 -107815956.46573821 0 -107815956.46573821 -124964084.04870957 0 0 0 0 -235313296.91549683 -120346351.71064782 0 -120346351.71064782 -46941647.371034145 0 0 0 0 -214825867.99868774 -133521275.00285494 0 -133521275.00285494 -60476268.518920034 0 0 0 0 -239827943.71723938 -126663273.48190683 0 -126663273.48190683 -115456.4153070972 0 0 0 0 -256996108.44580078 -148378534.99568444 0 -148378534.99568444 -22678276.702326186 0 0 0 0 -252976153.68244171 -134917155.3111001 0 -134917155.3111001 -23216653.287898213 0 0 0 0 -1484578.6133581847 -1666247.6610141322 0 -1666247.6610141322 -1172810.8124623769 0 0 0 0 -15126958.195785522 -11118881.864916293 0 -11118881.864916293 -2988.8376529539328 0 0 0 0 -256759566.20209503 -149949870.58880836 0 -149949870.58880836 -34468351.554598272 0 0 0 0 -8323860.3758544922 -9265982.3666398115 0 -9265982.3666398115 -4306439.4411626719 0 0 0 0 -8105203.0144348145 -8353523.6444822848 0 -8353523.6444822848 -3552155.9841708019 0 0 0 0 -2825075.6688995361 -13989322.053716725 0 -13989322.053716725 -7691.8685885177028 0 0 0 0 6524596.9975585938 -7573831.5581526067 0 -7573831.5581526067 -6215646.8932596371 0 0 0 0 -4787758.5664367676 -8943431.9308017828 0 -8943431.9308017828 -6199248.3058113083 0 0 0 0 -3673577.063583374 -10216944.690523054 0 -10216944.690523054 -7586661.54678002 0 0 0 0 -9308168.4739074707 -9376347.2522823624 0 -9376347.2522823624 -3430409.9261669274 0 0 0 0 23034967.43397522 -14996294.526784897 0 -14996294.526784897 -28577687.33243084 0 0 0 0 -999979.04140844941 -4857230.7848104164 0 -4857230.7848104164 2407147.3447483974 0 0 0 0 -268750527.58428955 -165414895.93485853 0 -165414895.93485853 -101805584.02090591 0 0 0 0 -284074.0022616908 1606511.5580723211 0 1606511.5580723211 -8348571.0233444469 0 0 0 0 23114321.700428009 17573956.665248394 0 17573956.665248394 -9282892.9390907288 0 0 0 0 -12105015.566680908 -5735950.3938726187 0 -5735950.3938726187 1239816.3590068817 0 0 0 0 -6450363.658908844 -32364015.891455412 0 -32364015.891455412 -26902413.768039703 0 0 0 0 14093290.715576172 -20640446.936975479 0 -20640446.936975479 -44881445.04872179 0 0 0 0 -252283052.30345154 -146136190.199619 0 -146136190.199619 -101332663.72198427 0 0 0 0 -365416082.04083252 -168850123.2382409 0 -168850123.2382409 -88247088.976045907 0 0 0 0 -6808082.7168121338 -8631431.7453916073 0 -8631431.7453916073 -31557674.123556137 0 0 0 0 -30844391.429100037 -37631635.913909912 0 -37631635.913909912 -40612681.054374695 0 0 0 0 -321953.95893568918 -1099927.4444966763 0 -1099927.4444966763 -390336.17773309164 0 0 0 0 -13273525.670410156 -20721705.9401474 0 -20721705.9401474 -44132534.94493103 0 0 0 0 -17232785.204620361 -25315257.031467438 0 -25315257.031467438 -26513154.73870182 0 0 0 0 -4889664.3342768848 -4219893.2205785159 0 -4219893.2205785159 3727276.1957796831 0 0 0 0 -31329779.40222168 -30979982.735593796 0 -30979982.735593796 -28258079.149936676 0 0 0 0 -13735626.38671875 -19196733.234249115 0 -19196733.234249115 -28069240.359622955 0 0 0 0 -4559720.4821472168 -7087901.218834836 0 -7087901.218834836 -8314605.3130483627 0 0 0 0 -1487390.5893421061 -3600433.6237021759 0 -3600433.6237021759 -3413284.0368987322 0 0 0 0 -4073781.7750396729 -5633646.724018693 0 -5633646.724018693 -2551948.1304483414 0 0 0 0 -5900434.5213012695 -4445883.124409914 0 -4445883.124409914 -3316287.1962664127 0 0 0 0 -6845014.0267944336 -5655790.5709574223 0 -5655790.5709574223 -4405148.7770440578 0 0 0 0 -1880204.3607318886 -3049226.1910202578 0 -3049226.1910202578 -3901682.6737327413 0 0 0 0 -917176.59725952148 -4078571.5980363227 0 -4078571.5980363227 -5185064.6981539074 0 0 0 0 -2151347.4199066162 -3775544.7744421363 0 -3775544.7744421363 -5044275.5776333213 0 0 0 0 2957344.0178756714 -528710.71109954081 0 -528710.71109954081 -2998839.2097837282 0 0 0 0 -6062992.225344507 -4257411.7853724882 0 -4257411.7853724882 -1339616.4024339651 0 0 0 0 -285328.56626924872 -849299.19450290129 0 -849299.19450290129 -1620092.4732970058 0 0 0 0 -1402087.6428222656 -1104571.6599858832 0 -1104571.6599858832 -2192.4830690144936 0 0 0 0 -5712030.7174224854 -5198328.784283638 0 -5198328.784283638 -6578712.2548341751 0 0 0 0 -4683893.7633713335 -3049531.4409428779 0 -3049531.4409428779 -713535.3474986084 0 0 0 0 -1957388.6890029907 -1419522.708980761 0 -1419522.708980761 1297925.5450446391 0 0 0 0 -1947414.7212524414 429935.67619811464 0 429935.67619811464 -17126.528332489677 0 0 0 0 -4954096.7931636572 -2211512.6733706603 0 -2211512.6733706603 -338664.31378986058 0 0 0 0 -11306768.274803162 -7638010.0716483621 0 -7638010.0716483621 -2168535.873287695 0 0 0 0 799358.96786499023 524816.26940690784 0 524816.26940690784 -2969.8578612831202 0 0 0 0 -11513.843876585364 -3880.2556359414011 0 -3880.2556359414011 227.27278051305288 0 0 0 0 -11230273.408996582 -7081604.2803749107 0 -7081604.2803749107 -3059277.2045556293 0 0 0 0 -6300540.4558410645 -7585358.482719183 0 -7585358.482719183 -3728300.8870849609 0 0 0 0 -5478223.3440246582 -6412183.5918312073 0 -6412183.5918312073 -2117387.421957016 0 0 0 0 -6290285.9004669189 -5216532.8154002428 0 -5216532.8154002428 -3877814.1939730644 0 0 0 0 -4752640.9617004395 -6127367.0111641884 0 -6127367.0111641884 -3490966.5300877094 0 0 0 0 -10984675.091812134 -2866464.7919970811 0 -2866464.7919970811 -2184.2554834054672 0 0 0 0 -13640721.656219482 -3851921.1069924887 0 -3851921.1069924887 -364500.70279576752 0 0 0 0 -4395629.9475708008 -625611.00181156211 0 -625611.00181156211 2592574.2044608127 0 0 0 0 5752774.2451782227 2610940.0965065439 0 2610940.0965065439 -4093239.2269425564 0 0 0 0 -8310.5629830062389 179.6606419570744 0 179.6606419570744 -932.05745143267393 0 0 0 0 -8556706.993560791 -5172335.8200913854 0 -5172335.8200913854 -3871834.5591844041 0 0 0 0 -2846583.3246765137 -3714531.0365697658 0 -3714531.0365697658 -3681590.1231171144 0 0 0 0 -5850145.3280029297 -6199555.4959406853 0 -6199555.4959406853 -3707431.2016410828 0 0 0 0 -5631655.454124704 -2328851.7549110986 0 -2328851.7549110986 -265477.45423373941 0 0 0 0 -9647589.9738464355 -1673533.2654576302 0 -1673533.2654576302 4710231.2507213354 0 0 0 0 -1412357.8385696411 -3260886.1960051656 0 -3260886.1960051656 3698944.8902082443 0 0 0 0 -17427674.047012329 -5206749.1474561291 0 -5206749.1474561291 1779281.6289559547 0 0 0 0 -7006708.5775050819 -4036053.7315516304 0 -4036053.7315516304 -209069.79118414019 0 0 0 0 -2028168.9137039185 -1118050.5055727959 0 -1118050.5055727959 -3349036.5867614746 0 0 0 0 -11226768.339950562 -3161246.2503118515 0 -3161246.2503118515 1783155.9197320938 0 0 0 0 -19282021.49559021 -9080938.970852375 0 -9080938.970852375 -31975.076925754547 0 0 0 0 -695988.73842339218 -163921.74757859856 0 -163921.74757859856 -46395.284063314553 0 0 0 0 -5874099.3999938965 -7173466.1423771381 0 -7173466.1423771381 -9586.7328716516495 0 0 0 0 -2065477.5563647337 -854528.8188848272 0 -854528.8188848272 -308293.79119081609 0 0 0 0 -3066288.7240142822 -4291186.0513051748 0 -4291186.0513051748 -2512096.6237821579 0 0 0 0 6799051.1433868408 -4107467.3993139267 0 -4107467.3993139267 -3160078.9925222397 0 0 0 0 -4318857.0792982131 -3945378.9086238034 0 -3945378.9086238034 -4122146.3095955141 0 0 0 0 6503209.4287602901 -21653667.904898539 0 -21653667.904898539 11232817.954267502 0 0 0 0 -4467463.9200744629 -5416390.8936657906 0 -5416390.8936657906 -2237444.2227501869 0 0 0 0 -3689753.9284362793 -6587681.2665758133 0 -6587681.2665758133 -4826636.449662447 0 0 0 0 -685026.5301361084 -3989391.4759941101 0 -3989391.4759941101 -2783956.4536085129 0 0 0 0 -4299024.753112793 -4965414.3305641413 0 -4965414.3305641413 -2194949.2008023262 0 0 0 0 -4295674.5078125 -4963329.3902807236 0 -4963329.3902807236 -2217020.9691193104 0 0 0 0 -4880239.6132659912 -5470046.4401090145 0 -5470046.4401090145 -2176360.8286039829 0 0 0 0 -5100762.4696044922 -5212748.9379827976 0 -5212748.9379827976 -680768.9759054184 0 0 0 0 -4984225.772839427 -4661158.1141028516 0 -4661158.1141028516 1482643.5915422209 0 0 0 0 -28337001.179718018 -35804721.050568581 0 -35804721.050568581 -35882148.634078503 0 0 0 0 -5465552.563041687 -36488859.169472933 0 -36488859.169472933 -70902767.366451263 0 0 0 0 -1697555.4061878622 -2112395.7667518761 0 -2112395.7667518761 1389227.947764484 0 0 0 0 10461864.739746094 -17975157.817663193 0 -17975157.817663193 -10248121.55032444 0 0 0 0 -36917763.933258057 -50565232.880114079 0 -50565232.880114079 -63037667.332517862 0 0 0 0 -12920695.13621521 -49635545.007022858 0 -49635545.007022858 -110284104.70197535 0 0 0 0 -5590308.7793579102 -76390628.493510008 0 -76390628.493510008 -157714945.51997089 0 0 0 0 -45259589.187149048 -84962814.322779179 0 -84962814.322779179 -89047589.86527586 0 0 0 0 -29802796.824859619 -50759298.280322075 0 -50759298.280322075 -44028342.542876244 0 0 0 0 -33690965.453796387 -22042646.723429561 0 -22042646.723429561 -88445180.531700134 0 0 0 0 -6981831.9350280762 -44327551.467096329 0 -44327551.467096329 -93729344.67215538 0 0 0 0 -8679225.6944885254 -24755554.687825203 0 -24755554.687825203 -66249780.75671196 0 0 0 0 -23234091.528533936 -15658352.492825508 0 -15658352.492825508 -18156135.623310089 0 0 0 0 4348000.4959716797 -26967382.852446556 0 -26967382.852446556 -14074626.830698013 0 0 0 0 -4820558.4691772461 -4919365.3379015923 0 -4919365.3379015923 -2109273.1774439812 0 0 0 0 -20610234.451980591 -9319773.5013833046 0 -9319773.5013833046 -31459816.840776443 0 0 0 0 -6157948.0849099606 -3149037.9789735097 0 -3149037.9789735097 1497358.3504666025 0 0 0 0 -21404068.388305664 -18753963.735624313 0 -18753963.735624313 -16986038.896686554 0 0 0 0 -557508.73162487894 -17608.017357457429 0 -17608.017357457429 497466.665276221 0 0 0 0 -5394523.3100891113 -3448926.10273242 0 -3448926.10273242 -2796069.7963857651 0 0 0 0 -1888086.7856445312 -478321.12361240387 0 -478321.12361240387 867746.21364593506 0 0 0 0 -1673439.3509140015 -8953587.133554101 0 -8953587.133554101 1229354.5849161148 0 0 0 0 -1430024.3228847608 -1884596.4572039992 0 -1884596.4572039992 -1838496.9990478898 0 0 0 0 -3125503.6050955355 -1107184.7957362235 0 -1107184.7957362235 -729638.44601587486 0 0 0 0 -25010785.76550293 5004391.2480659485 0 5004391.2480659485 3535778.6142997742 0 0 0 0 -4741234.1423596069 -2426402.9625132997 0 -2426402.9625132997 1763390.8786710501 0 0 0 0 38091092.404983521 -7267719.1412734985 0 -7267719.1412734985 -11363862.599117279 0 0 0 0 33492339.780891418 -40029467.69679141 0 -40029467.69679141 8011323.3893117905 0 0 0 0 34429419.959915161 -25874530.077307224 0 -25874530.077307224 11818686.106733084 0 0 0 0 45775545.028999329 -25580155.125574827 0 -25580155.125574827 7494147.396697998 0 0 0 0 -1168193.6565882862 -1222719.482658362 0 -1222719.482658362 587613.08818852692 0 0 0 0 43718196.965988159 -20757755.32392633 0 -20757755.32392633 -579858.08832836151 0 0 0 0 -2882763.4140556194 597927.10141096264 0 597927.10141096264 924805.34023265215 0 0 0 0 -58603944.206764221 -51785155.883875728 0 -51785155.883875728 -42108277.597360611 0 0 0 0 -40158695.665222168 -20086030.531961441 0 -20086030.531961441 -6568035.7081508636 0 0 0 0 -57585695.088439941 -49288695.651292324 0 -49288695.651292324 -50386049.158414841 0 0 0 0 -34384603.687713623 -47875299.689632416 0 -47875299.689632416 -57402341.760417938 0 0 0 0 -58625252.652099609 -56058972.018848419 0 -56058972.018848419 -40307720.812479973 0 0 0 0 -161485467.81052399 -73084852.491751134 0 -73084852.491751134 55969984.582910061 0 0 0 0 -60256067.623886108 -56933737.518377066 0 -56933737.518377066 -28964887.992497444 0 0 0 0 -88640523.813369751 -276988.73283958435 0 -276988.73283958435 1766352.3773775101 0 0 0 0 -55233090.206085205 -65965975.39514631 0 -65965975.39514631 38487274.061578751 0 0 0 0 -1090829.745834548 665647.11969897896 0 665647.11969897896 551542.94433976733 0 0 0 0 189746900.56111145 -14317762.195884943 0 -14317762.195884943 -25374314.612037867 0 0 0 0 70960365.850068331 -47921273.938584208 0 -47921273.938584208 -1885382.9337053299 0 0 0 0 70737043.917907715 -10082519.116673708 0 -10082519.116673708 3606610.3286926746 0 0 0 0 -43015220.371994019 -32539003.769788265 0 -32539003.769788265 96158993.659466624 0 0 0 0 113238379.49982452 -95868911.716403306 0 -95868911.716403306 10026160.115965128 0 0 0 0 -36082154.272003174 -42267541.273724556 0 -42267541.273724556 29872885.040547848 0 0 0 0 -39762310.591934204 -97268289.817952394 0 -97268289.817952394 49411941.306114435 0 0 0 0 -58117051.948913574 -53059960.946044087 0 -53059960.946044087 29950901.915611386 0 0 0 0 -15791503.21395874 -44354947.012997389 0 -44354947.012997389 21512342.262678027 0 0 0 0 -35329856.705589294 -48956769.399631955 0 -48956769.399631955 32008054.612987995 0 0 0 0 -14097380.159698486 -38129256.590978861 0 -38129256.590978861 36964716.243915081 0 0 0 0 -11674654.281707764 -47479132.396841526 0 -47479132.396841526 29186489.960657597 0 0 0 0 616156.447265625 -43815575.759514093 0 -43815575.759514093 25809246.202399015 0 0 0 0 -16247250.659057617 -49915027.27806437 0 -49915027.27806437 26132344.586400986 0 0 0 0 1382262.0249633789 -47328914.628398895 0 -47328914.628398895 22618850.406656027 0 0 0 0 24129552.800354004 -48923496.904369235 0 -48923496.904369235 19952656.682812214 0 0 0 0 21594959.349578857 -39463121.161172867 0 -39463121.161172867 16000658.423624277 0 0 0 0 40736711.718811035 -35969922.611007228 0 -35969922.611007228 13877242.529602528 0 0 0 0 16360080.346252441 -32241431.30698061 0 -32241431.30698061 14535451.889141083 0 0 0 0 22351658.232658386 -30609963.050427645 0 -30609963.050427645 14832560.629478455 0 0 0 0 193397.94338989258 -37995312.543414116 0 -37995312.543414116 22526782.20347333 0 0 0 0 16048584.615118027 -42066324.708903208 0 -42066324.708903208 23552853.589915752 0 0 0 0 -3464642.8182220459 -38658401.260030508 0 -38658401.260030508 38647592.692675591 0 0 0 0 10865996.804138184 -26041569.257659435 0 -26041569.257659435 14240957.906029701 0 0 0 0 10643341.098579407 -23024539.153899997 0 -23024539.153899997 15473694.377995491 0 0 0 0 2402226.5570373535 -8550771.3527674675 0 -8550771.3527674675 -1306648.5104022026 0 0 0 0 -5421171.4266281128 -16311941.680230498 0 -16311941.680230498 32830680.235498428 0 0 0 0 -27935269.428131104 -14712028.570129633 0 -14712028.570129633 88203010.82405138 0 0 0 0 -931753.34466125071 -1161626.8711221721 0 -1161626.8711221721 863467.69385659974 0 0 0 0 -46730377.939453125 -51330870.369699597 0 -51330870.369699597 63190568.243461132 0 0 0 0 -78754842.75176239 -5369044.3822078705 0 -5369044.3822078705 6269603.9614930153 0 0 0 0 -112975630.18309402 4969440.6595792174 0 4969440.6595792174 11710349.449488401 0 0 0 0 -93104377.671661377 -20053852.776877165 0 -20053852.776877165 7735084.1154695004 0 0 0 0 -128606195.57792664 -39115083.468782902 0 -39115083.468782902 6636057.2576614097 0 0 0 0 -64135136.378423691 -33655550.643545389 0 -33655550.643545389 -73060722.102298975 0 0 0 0 645002.73352574557 1999622.3144782931 0 1999622.3144782931 -626528.48117471766 0 0 0 0 -17764761.828353882 -19828737.754598618 0 -19828737.754598618 -7742502.6782383919 0 0 0 0 -59805940.642868042 -10965459.88944912 0 -10965459.88944912 3002648.0815873146 0 0 0 0 -13919369.541259766 860920.71200501919 0 860920.71200501919 -32585616.168223143 0 0 0 0 -109152366.79858398 -17266075.561677217 0 -17266075.561677217 51082815.756245375 0 0 0 0 -1444475.232322216 -7148770.9348896742 0 -7148770.9348896742 -7131743.409034729 0 0 0 0 -4337612.114944458 -44732117.432425976 0 -44732117.432425976 28892904.856235027 0 0 0 0 634985.28792301379 1945672.9949549325 0 1945672.9949549325 -629290.3029563413 0 0 0 0 -71064254.960428238 -15632051.694981396 0 -15632051.694981396 937200.34787607193 0 0 0 0 20765530.621932983 -39503691.624600887 0 -39503691.624600887 -5175358.8233298957 0 0 0 0 -9682452.3291015625 -30678740.973027468 0 -30678740.973027468 13119817.872221947 0 0 0 0 20778650.10760498 -39027872.063171387 0 -39027872.063171387 6270502.3924813271 0 0 0 0 27353082.108978271 -25657024.086324692 0 -25657024.086324692 11947878.068108082 0 0 0 0 24706910.488845825 -32128384.163590431 0 -32128384.163590431 1881671.8843212128 0 0 0 0 344432.13309638202 1037565.3906013928 0 1037565.3906013928 -351266.38090686221 0 0 0 0 71022792.651237488 -43217951.684749126 0 -43217951.684749126 -13762.69411277771 0 0 0 0 -117316453.80157471 -9602483.178340435 0 -9602483.178340435 4547796.789904356 0 0 0 0 -115872565.84216309 -6467880.2898747921 0 -6467880.2898747921 6038654.7963358164 0 0 0 0 -1061213.0653094426 162140.12193236873 0 162140.12193236873 123230.40840795264 0 0 0 0 -119732770.32644653 1188718.7290967703 0 1188718.7290967703 2150781.199256897 0 0 0 0 -101526468.92530441 2146317.8291159868 0 2146317.8291159868 1917951.0557918549 0 0 0 0 5538689.9132080078 12529296.098962784 0 12529296.098962784 -26645393.771674871 0 0 0 0 252505.55628257245 669018.72347962484 0 669018.72347962484 765508.13467835635 0 0 0 0 -109283313.60443497 -11401754.610366583 0 -11401754.610366583 -627156.72448253632 0 0 0 0 -18477388.223602295 -24309583.068193436 0 -24309583.068193436 -4896775.040091753 0 0 0 0 -19187261.688227668 -3263482.7331500147 0 -3263482.7331500147 2691699.9821235794 0 0 0 0 -84351974.175308228 -4190426.7631778717 0 -4190426.7631778717 86372413.245042801 0 0 0 0 -9625759.9004211426 46330702.427290916 0 46330702.427290916 -4802636.0240116119 0 0 0 0 15380930.871063232 -22095340.945496559 0 -22095340.945496559 -12572.357088088989 0 0 0 0 11895212.384674072 -46828141.144116402 0 -46828141.144116402 12474160.124533653 0 0 0 0 -27533020.146179199 -36375287.352120876 0 -36375287.352120876 13942884.487924576 0 0 0 0 -11637219.955729723 -24216757.250921458 0 -24216757.250921458 23149969.149404526 0 0 0 0 -9207741.7447360978 -5124947.5730955862 0 -5124947.5730955862 -1657159.2772773104 0 0 0 0 -12016004.610534668 -14695122.479354858 0 -14695122.479354858 -1150173.6934974194 0 0 0 0 -11371523.570556641 -3155614.1310632415 0 -3155614.1310632415 -527974.7049267164 0 0 0 0 -26525235.443389893 15024435.597883105 0 15024435.597883105 14608536.199634884 0 0 0 0 -17270712.734747842 -4889496.9701948576 0 -4889496.9701948576 1459670.6492382616 0 0 0 0 -4604259.103242822 253730.82610892132 0 253730.82610892132 3216630.4869805467 0 0 0 0 -33251910.690734863 -6790773.5152109424 0 -6790773.5152109424 2788363.4483952317 0 0 0 0 -36076481.957641602 12856750.046815386 0 12856750.046815386 14243009.756750679 0 0 0 0 -11801978.997955322 -5947602.8725592364 0 -5947602.8725592364 1047043.4373874734 0 0 0 0 -12117079.067352295 -3462777.673056121 0 -3462777.673056121 2865.731018439421 0 0 0 0 -12764508.757614136 -3052270.6064487649 0 -3052270.6064487649 -246862.2773937881 0 0 0 0 -16863620.56111145 -3054174.2453770936 0 -3054174.2453770936 4862574.5810530446 0 0 0 0 -21185470.58215332 -5680589.3286633054 0 -5680589.3286633054 21110806.63575948 0 0 0 0 -11511746.261764526 -1953123.2610309846 0 -1953123.2610309846 7430236.5895813722 0 0 0 0 -41773002.457817078 103833.97022665877 0 103833.97022665877 -5529.4126927922107 0 0 0 0 -18190131.772033691 -8729064.976489557 0 -8729064.976489557 -2344068.1388454507 0 0 0 0 -36295868.476240993 -7085360.5915078213 0 -7085360.5915078213 6416105.8806846924 0 0 0 0 -19130982.148757935 -6202232.4667179491 0 -6202232.4667179491 5491205.2991711143 0 0 0 0 -18457230.937747955 -5816779.141297237 0 -5816779.141297237 -2056.7502436463919 0 0 0 0 -21585849.001098633 -4747769.817798133 0 -4747769.817798133 3468088.5394316036 0 0 0 0 -17749887.379138947 -5567688.0906268926 0 -5567688.0906268926 3629951.2450741753 0 0 0 0 -19837987.647766113 -3913283.5711554606 0 -3913283.5711554606 7560583.2427193532 0 0 0 0 -38679926.606834412 7631413.6690880675 0 7631413.6690880675 6986160.5499950387 0 0 0 0 -5718778.4816428572 -267316.35849881172 0 -267316.35849881172 2487435.3819982004 0 0 0 0 -18057605.938354492 -6672906.6181261651 0 -6672906.6181261651 2637256.9733131314 0 0 0 0 -24594682.04441452 -10482824.071351744 0 -10482824.071351744 1327065.2087067701 0 0 0 0 -27776329.269165039 2455044.1986817671 0 2455044.1986817671 -172749.75379482098 0 0 0 0 -37065727.763153076 -3222047.0506325858 0 -3222047.0506325858 9922.4129987933138 0 0 0 0 -21920336.138244629 -2659158.9423924387 0 -2659158.9423924387 -3027681.4493524404 0 0 0 0 -17610648.672142029 -3352776.2924525109 0 -3352776.2924525109 -2969.9047402820461 0 0 0 0 -21921790.667645752 -3003620.5607204884 0 -3003620.5607204884 2822987.5705363918 0 0 0 0 -480273.98466205597 -553860.67034684122 0 -553860.67034684122 379295.03915267228 0 0 0 0 -8328882.6223602295 -11547786.617704682 0 -11547786.617704682 -5044270.0691279434 0 0 0 0 -21204008.429229736 -477150.07083008625 0 -477150.07083008625 1989311.3422124386 0 0 0 0 -24103277.758392334 -2905161.5860084035 0 -2905161.5860084035 5771707.1418390945 0 0 0 0 -23469153.114013672 -5246957.3296268787 0 -5246957.3296268787 11076539.763031952 0 0 0 0 -20817461.857147217 -3522126.1180042997 0 -3522126.1180042997 -2630056.3960613012 0 0 0 0 -14728264.476819158 1936056.1786272684 0 1936056.1786272684 851407.26438838418 0 0 0 0 -14151190.877670288 8938061.5999566931 0 8938061.5999566931 4516904.8197867274 0 0 0 0 -19225224.140655518 4137581.1571957394 0 4137581.1571957394 14296864.137746338 0 0 0 0 -17800022.042480469 -3609947.1163631901 0 -3609947.1163631901 2467128.9367042882 0 0 0 0 -29259493.575042725 -5475.3277974054217 0 -5475.3277974054217 12586250.808946684 0 0 0 0 -16225176.162231445 -9989932.9190912768 0 -9989932.9190912768 9034600.563202709 0 0 0 0 66902.446488842368 -609915.19711902086 0 -609915.19711902086 -36203.697711246117 0 0 0 0 -21123519.722595215 -6313198.7640478164 0 -6313198.7640478164 8744725.3883104324 0 0 0 0 -12714832.353973389 -7326562.3223423176 0 -7326562.3223423176 7478679.1185578033 0 0 0 0 -11903983.783727437 2754589.9644982144 0 2754589.9644982144 3334293.0984164341 0 0 0 0 -35119291.263290405 2457916.6246622205 0 2457916.6246622205 36238807.663033247 0 0 0 0 -5046466.4076843262 -15784148.934975088 0 -15784148.934975088 18826038.295167208 0 0 0 0 -20609207.146354675 -6394400.655354619 0 -6394400.655354619 8260097.0813817978 0 0 0 0 -30558901.966583252 21084784.450860262 0 21084784.450860262 8400399.8334607482 0 0 0 0 -4077385.9523664117 1094496.9858365394 0 1094496.9858365394 2258310.7388926018 0 0 0 0 -18920688.127227783 -361960.90424072742 0 -361960.90424072742 3682944.0351603031 0 0 0 0 -14838461.065940857 -5033672.5947110653 0 -5033672.5947110653 7175217.8192093372 0 0 0 0 -13228629.992095947 -2168138.084454298 0 -2168138.084454298 6517624.7630136609 0 0 0 0 -6741738.8205566406 -41172.867067337036 0 -41172.867067337036 6329140.2449258119 0 0 0 0 5352734.0469512939 12622872.798737526 0 12622872.798737526 6329357.7829232216 0 0 0 0 -7482126.4237213135 94584.286226391792 0 94584.286226391792 7067925.5313208103 0 0 0 0 -5579320.6684171855 6664905.1612864546 0 6664905.1612864546 4905874.8044702839 0 0 0 0 -5265599.5276184082 9041973.4202308655 0 9041973.4202308655 14405659.643519402 0 0 0 0 -20825080.035422228 -1377665.1646009292 0 -1377665.1646009292 3911874.9428699859 0 0 0 0 -13035785.537567139 43174276.595834017 0 43174276.595834017 44717348.587890625 0 0 0 0 -9777744.4886891469 6359710.0243096724 0 6359710.0243096724 8145165.2322477819 0 0 0 0 -13891744.36245434 2347912.4433919359 0 2347912.4433919359 1028850.8851151729 0 0 0 0 -14931216.682037354 -1411014.8212606907 0 -1411014.8212606907 12060224.576034546 0 0 0 0 -17484.093644440174 109643.44872188894 0 109643.44872188894 -34153.908561011129 0 0 0 0 -20956414.481330872 -11294821.379938621 0 -11294821.379938621 -2020452.9320572503 0 0 0 0 3818013.6351623535 2696995.6698129699 0 2696995.6698129699 -5137938.8469268056 0 0 0 0 -18628269.24333477 -3925881.3009391436 0 -3925881.3009391436 -3479705.5882769246 0 0 0 0 -409220.25630113482 334073.82573476434 0 334073.82573476434 -216755.67223769354 0 0 0 0 -6986612.3666114807 7451588.9657522524 0 7451588.9657522524 -611388.77014304232 0 0 0 0 -1097784.1904449463 -5254806.5755739445 0 -5254806.5755739445 -7003.2609326176998 0 0 0 0 140127.74630737305 4281649.8302636258 0 4281649.8302636258 1915705.4710363708 0 0 0 0 115372.10676574707 4192161.7922335416 0 4192161.7922335416 1333914.8156847805 0 0 0 0 172117.97222900391 4396496.0876784064 0 4396496.0876784064 1865088.4403860383 0 0 0 0 -952783.40641154349 573328.73574679345 0 573328.73574679345 9392.263403245066 0 0 0 0 -3094733.9331512451 2793379.7118069269 0 2793379.7118069269 -200215.52849695459 0 0 0 0 -3391076.0187072754 -545070.22478481196 0 -545070.22478481196 1627107.7846050961 0 0 0 0 934488.4220123291 -2208255.7316143746 0 -2208255.7316143746 1498.1451453387208 0 0 0 0 -871840.93563331664 603592.25360420719 0 603592.25360420719 -313799.15018731944 0 0 0 0 -5211352.433013916 163410.2602939764 0 163410.2602939764 2251347.2814151635 0 0 0 0 -5074209.1945495605 -167496.42308649514 0 -167496.42308649514 -423913.95489501022 0 0 0 0 -2119439.9683532715 -3970757.4220115766 0 -3970757.4220115766 2109757.6454887763 0 0 0 0 -5675172.5190124512 3254695.4617351387 0 3254695.4617351387 4532936.5891261138 0 0 0 0 -1542108.7096468732 821444.92367332056 0 821444.92367332056 -49636.288094258845 0 0 0 0 -946257.41355197132 948333.95453334227 0 948333.95453334227 -272511.34375143889 0 0 0 0 -5285455.3013717905 1662448.535034813 0 1662448.535034813 598400.25405573938 0 0 0 0 -1497245.7918701172 5901568.3278934956 0 5901568.3278934956 3489533.4357941151 0 0 0 0 -7384567.8622360229 8336741.1976911053 0 8336741.1976911053 17336883.230523616 0 0 0 0 -1630440.0861816406 11393952.017853707 0 11393952.017853707 -1087468.5931861401 0 0 0 0 -870899.37594604492 1469908.7884789705 0 1469908.7884789705 1728832.2157672048 0 0 0 0 -1304634.2175274193 2145302.2612035386 0 2145302.2612035386 170403.45808088782 0 0 0 0 -13760487.872708485 -1077676.3424430927 0 -1077676.3424430927 1326113.8334868965 0 0 0 0 -19335339.812850952 29571182.017568722 0 29571182.017568722 60994317.58463072 0 0 0 0 -15201902.248583801 752119.00313968584 0 752119.00313968584 578563.42999568477 0 0 0 0 -15475411.331222534 9993452.5214015841 0 9993452.5214015841 23930155.368216574 0 0 0 0 1318925.1646728516 -5460616.8681405783 0 -5460616.8681405783 -8867372.0449051857 0 0 0 0 -376441.16339111328 6330018.6698429585 0 6330018.6698429585 9958780.848508358 0 0 0 0 -13809219.074035645 14946946.902539253 0 14946946.902539253 -252628.15647292137 0 0 0 0 -1783329.1780874729 -7194912.1318826051 0 -7194912.1318826051 19132530.051086903 0 0 0 0 -17459830.572570801 10006043.841369152 0 10006043.841369152 -1806779.6318110228 0 0 0 0 -335953.65909168869 159670.65861558914 0 159670.65861558914 60249.90371976461 0 0 0 0 -24729427.866088867 23854174.692585945 0 23854174.692585945 -15124841.442264557 0 0 0 0 -2269090.5670916885 1727353.6430585333 0 1727353.6430585333 214503.6604858629 0 0 0 0 -1762833.0756835938 -1738610.6569195986 0 -1738610.6569195986 -2993970.5090937614 0 0 0 0 -24279472.84161377 -4988712.48696661 0 -4988712.48696661 -5928874.1806542873 0 0 0 0 -1180916.9654705375 900824.31707908586 0 900824.31707908586 -236834.02637637046 0 0 0 0 1143990.9324951172 7056625.6204585433 0 7056625.6204585433 590112.86999831349 0 0 0 0 16034285.988418579 -6535527.3969005346 0 -6535527.3969005346 -40371588.981304884 0 0 0 0 28072868.779266357 18080248.015337527 0 18080248.015337527 -45062482.337139845 0 0 0 0 -88173.172492519021 741330.12531444593 0 741330.12531444593 -79871.159794817577 0 0 0 0 17640806.453491211 47258959.341124609 0 47258959.341124609 4986720.6574298125 0 0 0 0 25592112.52130127 38087352.592684239 0 38087352.592684239 -34355131.084502459 0 0 0 0 -17058177.966689922 1286639.2882168517 0 1286639.2882168517 467916.58954110858 0 0 0 0 -49195498.734375 31923367.050542101 0 31923367.050542101 102145066.63400644 0 0 0 0 3225071.9288253784 -575796.84314145311 0 -575796.84314145311 -11879480.079825427 0 0 0 0 -10651748.380466461 1110371.6125514135 0 1110371.6125514135 6574277.0355929732 0 0 0 0 -10211989.116378784 646546.73747101426 0 646546.73747101426 3296681.1630809009 0 0 0 0 -12715638.469230652 1796015.5908487439 0 1796015.5908487439 6366527.5423058867 0 0 0 0 -12481880.391101837 5489441.9083654284 0 5489441.9083654284 14499869.482352018 0 0 0 0 -11518324.061035156 7415814.6902621686 0 7415814.6902621686 1690601.5875554085 0 0 0 0 -9800028.4613342285 1184345.7502629757 0 1184345.7502629757 3995337.6775426865 0 0 0 0 -7160573.3437347412 244111.62602755427 0 244111.62602755427 1985018.0709767938 0 0 0 0 -6624484.5726776123 372741.08511361852 0 372741.08511361852 -9414287.2888792641 0 0 0 0 -18391186.675872803 21212344.38767904 0 21212344.38767904 -4674440.0177710652 0 0 0 0 -42181324.074615479 -12047535.089035034 0 -12047535.089035034 24771137.072722971 0 0 0 0 -1310090.8326499313 -572510.15950285643 0 -572510.15950285643 456725.63376717811 0 0 0 0 -57590758.060447693 -6749424.0326639563 0 -6749424.0326639563 1676870.4036613703 0 0 0 0 -39895978.195568085 -35523760.312908903 0 -35523760.312908903 -24868241.624760777 0 0 0 0 -16401158.140563965 1839168.8592718244 0 1839168.8592718244 537827.92042648792 0 0 0 0 -34795030.622329712 -11800333.24406302 0 -11800333.24406302 14138929.901249886 0 0 0 0 -7189546.8108039126 -1357245.0453439467 0 -1357245.0453439467 533302.28497848916 0 0 0 0 -4980711.4587249756 -3019047.0928428173 0 -3019047.0928428173 4412915.7463771105 0 0 0 0 -4050326.0543365479 -1420154.9610061646 0 -1420154.9610061646 1251170.7978110313 0 0 0 0 -22935248.46005249 -1519843.6212720871 0 -1519843.6212720871 32420232.388628483 0 0 0 0 998616.22076416016 -4462860.8872441649 0 -4462860.8872441649 14940529.145347834 0 0 0 0 -6680143.0742591023 -3403725.0322667994 0 -3403725.0322667994 -105356.03743637493 0 0 0 0 -6998017.2993526459 -1566322.2763161361 0 -1566322.2763161361 2198020.8414053917 0 0 0 0 -21335701.441604614 -19642101.838341951 0 -19642101.838341951 27867681.922783613 0 0 0 0 -6398161.1014099121 -759887.67527580261 0 -759887.67527580261 3280108.9466309547 0 0 0 0 3945253.4639282227 -14835155.93233633 0 -14835155.93233633 17047433.272556067 0 0 0 0 -21404786.588317871 -9723734.5429685116 0 -9723734.5429685116 16017821.479864851 0 0 0 0 -10568395.0597229 -6955797.1972040683 0 -6955797.1972040683 -14508840.682047248 0 0 0 0 -11453530.250778198 -17992.051041450351 0 -17992.051041450351 3844261.6532621086 0 0 0 0 -8038938.0110702515 -21000974.726999938 0 -21000974.726999938 180730.33118224144 0 0 0 0 -10432779.897262573 -1628312.1951847076 0 -1628312.1951847076 1465338.6356742084 0 0 0 0 -5118611.4960804284 -2191475.7599055171 0 -2191475.7599055171 2142855.6625235258 0 0 0 0 -10099976.269992352 579076.63349223416 0 579076.63349223416 89521.940217697585 0 0 0 0 -6459405.3083385807 -15429.35608510673 0 -15429.35608510673 1219507.7569647287 0 0 0 0 -12907682.704710007 -258192.74826256931 0 -258192.74826256931 -3785524.8107130527 0 0 0 0 -159059.29130554199 14164221.60974288 0 14164221.60974288 -70108712.870207787 0 0 0 0 -50187346.225326538 11500193.333318114 0 11500193.333318114 67024202.6396451 0 0 0 0 -484745.49567546137 50024.788937073201 0 50024.788937073201 22946.347116652643 0 0 0 0 -51391.698438994586 328028.66352736438 0 328028.66352736438 59561.988125112082 0 0 0 0 -5861078.0220184326 -6474238.4432399273 0 -6474238.4432399273 5132439.0002651215 0 0 0 0 2772807.267791748 15675296.033247948 0 15675296.033247948 -6169639.5702946186 0 0 0 0 -6681494.0480113551 -1912043.8639528621 0 -1912043.8639528621 1881225.1518492284 0 0 0 0 -9178468.6861572266 -923440.27045285702 0 -923440.27045285702 3639384.9369084239 0 0 0 0 -8099441.4945141971 -487996.15482752491 0 -487996.15482752491 -167423.90248029839 0 0 0 0 -9751670.228515625 603299.63150060177 0 603299.63150060177 1544341.3894040585 0 0 0 0 -8535464.8059387207 -20113420.203057408 0 -20113420.203057408 24960526.171089903 0 0 0 0 -30548566.287994385 12762.342428863049 0 12762.342428863049 12877223.473667622 0 0 0 0 -42953408.522216797 551087.11702185869 0 551087.11702185869 27489037.588750314 0 0 0 0 -6601696.9413452148 -4718200.0493149757 0 -4718200.0493149757 9755937.690207243 0 0 0 0 13298988.202407837 1654238.5375646353 0 1654238.5375646353 5735327.2221081257 0 0 0 0 -6929670.8182067871 1829603.2250221968 0 1829603.2250221968 7920403.2496337891 0 0 0 0 -6986558.1706271172 2065132.0494652055 0 2065132.0494652055 5229096.2848040331 0 0 0 0 -24718777.068481445 -4147893.8143119812 0 -4147893.8143119812 15222921.380585432 0 0 0 0 -1687633.5796279907 -6008007.2454431057 0 -6008007.2454431057 6276062.7377007008 0 0 0 0 -24622991.115356445 816634.48208105564 0 816634.48208105564 3148996.9114052057 0 0 0 0 -27123453.755477905 -9069550.7410987914 0 -9069550.7410987914 5902885.9079276323 0 0 0 0 -24935708.781300545 -917793.42829626799 0 -917793.42829626799 7366747.6754407883 0 0 0 0 -31056269.113983154 -14152518.228850245 0 -14152518.228850245 18724033.120125085 0 0 0 0 -26037105.580078125 -22088151.675259173 0 -22088151.675259173 -11262117.616630554 0 0 0 0 -15962662.797027588 1557678.1011900008 0 1557678.1011900008 -38105883.346456498 0 0 0 0 -34050709.49621582 19824409.510019362 0 19824409.510019362 -15181377.958369464 0 0 0 0 -16032493.326947212 2312901.6148160696 0 2312901.6148160696 -1564728.3605077267 0 0 0 0 -27277011.187286377 4507633.5270550549 0 4507633.5270550549 19015340.049862683 0 0 0 0 -27081138.060058594 7903290.6950468421 0 7903290.6950468421 8092840.9522363283 0 0 0 0 -21532240.198165894 10444155.667291969 0 10444155.667291969 -12574285.002981126 0 0 0 0 -7798094.889251709 20331164.193421364 0 20331164.193421364 -13672689.664403208 0 0 0 0 -24747869.104660034 34269319.638406992 0 34269319.638406992 -10422646.944589972 0 0 0 0 -54188545.601257324 25170206.655408114 0 25170206.655408114 10237990.311224505 0 0 0 0 -1604032.1033989489 -546579.95097935945 0 -546579.95097935945 547986.43450828909 0 0 0 0 7390480.8740577698 5360278.0721103698 0 5360278.0721103698 -1214219.6350214481 0 0 0 0 2290218.3519916534 28881793.182541553 0 28881793.182541553 -10452964.285878301 0 0 0 0 8040139.8815307617 -116400045.00138462 0 -116400045.00138462 56360802.243771493 0 0 0 0 -12539636.705291748 12461637.610899925 0 12461637.610899925 508720.46305119991 0 0 0 0 -12947824.397827148 3624237.8138127923 0 3624237.8138127923 -3622981.4401339293 0 0 0 0 -13687860.902801514 19191327.758994401 0 19191327.758994401 -9612741.9099533558 0 0 0 0 -11118849.276397705 4011303.1990895271 0 4011303.1990895271 24422162.667594433 0 0 0 0 -25700856.418319702 2439362.0072521567 0 2439362.0072521567 18289653.754564047 0 0 0 0 -5562084.6270751953 3734615.6811981201 0 3734615.6811981201 18253119.572888337 0 0 0 0 -5350150.9491038024 -1807588.0024555326 0 -1807588.0024555326 1934656.8382137697 0 0 0 0 -10052900.330795288 16278087.883976936 0 16278087.883976936 25169270.261245415 0 0 0 0 -15321270.626464844 -17768706.848472238 0 -17768706.848472238 232766.09722042084 0 0 0 0 -7791473.615482837 1802530.0688059637 0 1802530.0688059637 1447358.0832528414 0 0 0 0 -2280891.5343933105 3201170.0068497658 0 3201170.0068497658 4709430.5162209272 0 0 0 0 -4662111.5175786838 307735.00415591523 0 307735.00415591523 2122826.77123811 0 0 0 0 -1257495.8091125488 3098909.4509855509 0 3098909.4509855509 7292520.0337344408 0 0 0 0 -6653736.1142956167 -1273547.051680088 0 -1273547.051680088 2737216.8058277788 0 0 0 0 8276816.5034179688 15623174.988404006 0 15623174.988404006 6803867.6794999242 0 0 0 0 2695589.3465576172 4445597.0032806993 0 4445597.0032806993 -11456341.097822547 0 0 0 0 -9654405.9500215501 2567872.2594089769 0 2567872.2594089769 3274385.6644543288 0 0 0 0 -28491006.537353516 8244375.0720922947 0 8244375.0720922947 -31232543.365476608 0 0 0 0 15075420.599189758 7669920.791331619 0 7669920.791331619 -7017763.7347421646 0 0 0 0 4925690.5836791992 5076443.715713799 0 5076443.715713799 12239338.301919907 0 0 0 0 299440.01055141538 237109.91542178206 0 237109.91542178206 -137490.10380304235 0 0 0 0 1132315.2138640359 4851626.2964638257 0 4851626.2964638257 -1163931.6664900093 0 0 0 0 -14652037.105560303 -58607.783414959908 0 -58607.783414959908 1323872.7517018318 0 0 0 0 -3596610.6633911133 9234406.8495929241 0 9234406.8495929241 -6193088.3982362747 0 0 0 0 -525401.94877710193 -605674.6288076425 0 -605674.6288076425 -341373.16749140987 0 0 0 0 -2375515.7896118164 -2039770.8076609373 0 -2039770.8076609373 -782566.92419028282 0 0 0 0 -5618377.6181716919 26234829.276709676 0 26234829.276709676 7310812.4738185406 0 0 0 0 -64618528.53704834 71514468.584631741 0 71514468.584631741 -63606782.264007568 0 0 0 0 -8051367.1856002659 2389502.8865285181 0 2389502.8865285181 3953811.29907281 0 0 0 0 -26847607.188720703 -15136371.995808005 0 -15136371.995808005 6377044.7698349357 0 0 0 0 -119673391.73287964 35217217.517037988 0 35217217.517037988 -12891804.958061099 0 0 0 0 -13410263.706710815 -444291.21461057663 0 -444291.21461057663 -6406050.54328686 0 0 0 0 -25722273.3787117 -46936590.941476464 0 -46936590.941476464 -79990717.636988878 0 0 0 0 105278.11868169904 -1019367.6018933272 0 -1019367.6018933272 -422301.13882931054 0 0 0 0 -45426716.376815796 -33876488.7334342 0 -33876488.7334342 -25164878.915759087 0 0 0 0 -46376060.401964188 -36176406.502141058 0 -36176406.502141058 -23958836.23042202 0 0 0 0 -15081605.84262085 -30142065.314920187 0 -30142065.314920187 -45158473.500807524 0 0 0 0 -29162491.104095459 -25014947.922142982 0 -25014947.922142982 -21537196.790020943 0 0 0 0 -7512475.4624099731 -8352604.3117051125 0 -8352604.3117051125 -17772446.77972126 0 0 0 0 9066634.8500976562 -224852.68518704176 0 -224852.68518704176 -33796536.78972283 0 0 0 0 -13803598.407333374 -1383511.5668694377 0 -1383511.5668694377 4824161.2623653412 0 0 0 0 -4441948.4751739502 -4044490.5676932335 0 -4044490.5676932335 -10693180.033514023 0 0 0 0 -2354234.5628242493 5194905.3941742182 0 5194905.3941742182 638602.94367980957 0 0 0 0 -12741934.707122803 -9727512.2120361328 0 -9727512.2120361328 -11464129.503380418 0 0 0 0 -4613063.8171157837 799445.83572763205 0 799445.83572763205 6505958.5054655075 0 0 0 0 -6603126.5952962488 -839755.10211284831 0 -839755.10211284831 2572264.2976224422 0 0 0 0 -1796487.6404442042 -193116.15573098511 0 -193116.15573098511 1068393.0126665337 0 0 0 0 -5532490.3988037109 5654779.428910017 0 5654779.428910017 9577711.7797551155 0 0 0 0 -4928481.5083312988 -902403.85673284531 0 -902403.85673284531 1453901.6406531334 0 0 0 0 -540641.73455810547 1770307.5851678848 0 1770307.5851678848 -8131545.4610242844 0 0 0 0 -9220507.0325012207 -3420676.1232838631 0 -3420676.1232838631 -9124235.8124482632 0 0 0 0 -6616382.8525238037 2792152.5656070709 0 2792152.5656070709 -7294067.0874843597 0 0 0 0 -16252668.854812622 6714889.0039510727 0 6714889.0039510727 -1554329.4505691528 0 0 0 0 -5301641.3984537125 7788349.0740551502 0 7788349.0740551502 -2206452.5827922821 0 0 0 0 -16940993.14553833 -1355799.7929315567 0 -1355799.7929315567 -8811018.534283638 0 0 0 0 -16479813.63961792 -3328884.1635651588 0 -3328884.1635651588 -396675.83316612244 0 0 0 0 -15205490.454963684 -6869652.2890837193 0 -6869652.2890837193 -12021929.591675758 0 0 0 0 -12176364.936416626 -2584682.2417085171 0 -2584682.2417085171 -9263202.2741355896 0 0 0 0 -13652273.408798218 -6148620.4883141518 0 -6148620.4883141518 -12147021.718488693 0 0 0 0 -15653151.157592773 -7661657.701795578 0 -7661657.701795578 -11323203.241719246 0 0 0 0 -13854628.859466553 -8496638.1048192978 0 -8496638.1048192978 -14536776.572314501 0 0 0 0 -8822679.7890319824 -2412981.9092407227 0 -2412981.9092407227 -10555464.987214088 0 0 0 0 -6997431.2292175293 -8255160.5425009727 0 -8255160.5425009727 -14742283.565662384 0 0 0 0 -17864812.375091553 -13571887.294773102 0 -13571887.294773102 -17735744.364664435 0 0 0 0 -9740942.8236236572 -7351990.0457777977 0 -7351990.0457777977 -16887408.258234024 0 0 0 0 -11216144.319976807 -14608610.746145248 0 -14608610.746145248 -24648171.806925774 0 0 0 0 -22382891.929122925 -12719407.982309341 0 -12719407.982309341 -15293017.821707726 0 0 0 0 -23073091.721534729 -20330469.98538661 0 -20330469.98538661 -17934631.504348755 0 0 0 0 -20002708.442886353 -13989439.29153347 0 -13989439.29153347 -18119850.912388802 0 0 0 0 -16995474.881198883 -7905694.3321630955 0 -7905694.3321630955 -11066857.841197968 0 0 0 0 -14392458.38924408 -7009799.9367134571 0 -7009799.9367134571 -13372361.783374786 0 0 0 0 -15815669.136703491 -10430795.149855614 0 -10430795.149855614 -16086922.494496346 0 0 0 0 -20432127.920227051 -10202650.154178619 0 -10202650.154178619 -15057815.910514832 0 0 0 0 -22109197.638870239 -11268490.184822083 0 -11268490.184822083 -15997258.92992115 0 0 0 0 -17662613.289978027 -12007104.20553112 0 -12007104.20553112 -17374035.217843056 0 0 0 0 -29757346.702068329 -14929331.739724636 0 -14929331.739724636 -13786870.221563339 0 0 0 0 -29523234.896469116 -15391745.600316048 0 -15391745.600316048 -15550113.294131279 0 0 0 0 -38606689.566493988 -14007146.0662328 0 -14007146.0662328 3327270.3464508057 0 0 0 0 -44334424.062408447 -17006948.734567642 0 -17006948.734567642 -11761285.910197735 0 0 0 0 -3589009.190062223 -2014600.2346409597 0 -2014600.2346409597 -713416.73901927192 0 0 0 0 -32605920.68850708 -21635074.058096886 0 -21635074.058096886 -7234466.5587911606 0 0 0 0 -42774138.109420776 -30024715.741073608 0 -30024715.741073608 -6949224.0914077759 0 0 0 0 -50033182.598615646 -25382821.109913588 0 -25382821.109913588 -5282718.0667886734 0 0 0 0 -48274913.544698715 -36354878.082387269 0 -36354878.082387269 -13517429.063275337 0 0 0 0 -43189845.920227051 -29384594.211589813 0 -29384594.211589813 -7558293.0439786911 0 0 0 0 -44243093.807189941 -21053862.975633621 0 -21053862.975633621 -13436328.158783913 0 0 0 0 -31822267.543411255 -32166809.801994324 0 -32166809.801994324 -22870695.932634354 0 0 0 0 -11045806.708694458 -2627098.7720417976 0 -2627098.7720417976 -957491.96126914024 0 0 0 0 -11537134.489248276 -1677110.7777945399 0 -1677110.7777945399 1587639.1510186195 0 0 0 0 -8787520.5609436035 -17455792.201047659 0 -17455792.201047659 -12252770.278637409 0 0 0 0 -5217450.77684021 -4222575.522898674 0 -4222575.522898674 -4644637.788836956 0 0 0 0 -12993543.818181038 -4178923.5384102464 0 -4178923.5384102464 1439261.4352097511 0 0 0 0 -13143463.539615631 -3654874.8824070692 0 -3654874.8824070692 9390177.7710266113 0 0 0 0 -19134834.876586914 -3337212.2276623249 0 -3337212.2276623249 27979955.279349327 0 0 0 0 -15801521.330078125 -7113342.3954429626 0 -7113342.3954429626 4901900.5628252029 0 0 0 0 -17893366.295379639 -25461636.210179329 0 -25461636.210179329 3359123.0480651855 0 0 0 0 -23267993.069290161 -22575733.131018162 0 -22575733.131018162 18555429.528934479 0 0 0 0 -9605119.561378479 -691067.6939740181 0 -691067.6939740181 1998095.435587883 0 0 0 0 -6869742.0372619629 4492233.3736228943 0 4492233.3736228943 10271526.068315983 0 0 0 0 -6244240.9166639 188686.19596085325 0 188686.19596085325 700777.83767297026 0 0 0 0 -9228714.9458312988 -300776.77348852158 0 -300776.77348852158 548465.62559175491 0 0 0 0 -38195942.700805664 -12379704.444284439 0 -12379704.444284439 4807861.2075407505 0 0 0 0 -24732595.2578125 5243523.8555221558 0 5243523.8555221558 -4082281.0744624138 0 0 0 0 -5439218.3418579102 6543539.271504879 0 6543539.271504879 -4347614.9534358978 0 0 0 0 -40028044.14944458 3458196.1941370964 0 3458196.1941370964 7847034.5381448269 0 0 0 0 -12105843.05267334 -3253212.4223177433 0 -3253212.4223177433 2198481.955575943 0 0 0 0 -1621039.7937920839 -426310.25487155281 0 -426310.25487155281 1066289.0319834729 0 0 0 0 -8414761.0467445925 -259077.85522686876 0 -259077.85522686876 1604247.2599858991 0 0 0 0 -7032912.7820739746 351715.80200719833 0 351715.80200719833 422688.61588525772 0 0 0 0 -6630925.3489055634 -1388953.6715458632 0 -1388953.6715458632 1833360.4662599564 0 0 0 0 -5484648.485365577 77865.811536898836 0 77865.811536898836 1869122.863763717 0 0 0 0 -5863888.5193799511 -1435120.9358633198 0 -1435120.9358633198 1937987.5558440292 0 0 0 0 -26565574.271392822 -607197.30619335175 0 -607197.30619335175 4940725.2343883514 0 0 0 0 -1878878.1068725586 3188234.9699778557 0 3188234.9699778557 5019594.6890773773 0 0 0 0 -4718490.6291503906 355840.08228254318 0 355840.08228254318 7645009.189848423 0 0 0 0 -5461760.5402265489 -2049953.7433782443 0 -2049953.7433782443 2391648.4923664611 0 0 0 0 -11245552.773681641 -14941396.642353058 0 -14941396.642353058 -1272625.4225025177 0 0 0 0 -29398729.761657715 -382832.69734096527 0 -382832.69734096527 -1049371.936882019 0 0 0 0 -11980006.792495728 -4526882.399643898 0 -4526882.399643898 -6620946.532866478 0 0 0 0 -8411139.8369140625 5042809.0851602554 0 5042809.0851602554 4134795.5754470825 0 0 0 0 -13601876.306732178 -4506623.2984476089 0 -4506623.2984476089 -2058444.0226697922 0 0 0 0 1288983.4237136841 -1078636.5199513435 0 -1078636.5199513435 -5311671.7499494553 0 0 0 0 -8062451.689453125 -1531705.1035032272 0 -1531705.1035032272 -5890648.2039813995 0 0 0 0 -14280386.824798584 -2518289.9973192215 0 -2518289.9973192215 -5277178.4202899933 0 0 0 0 -15170422.121948242 -5738061.1088781357 0 -5738061.1088781357 -5878806.8075098991 0 0 0 0 -16880449.110443115 -7524791.6535396576 0 -7524791.6535396576 -10143865.030359745 0 0 0 0 -11964895.992889404 -5585799.3353748322 0 -5585799.3353748322 -10418626.993879318 0 0 0 0 -14507722.09690094 -4481702.7929978371 0 -4481702.7929978371 -9744384.805814743 0 0 0 0 -14357437.301513672 -8139117.6157817841 0 -8139117.6157817841 -14765963.861862183 0 0 0 0 -15995500.074043274 -8643581.3791322708 0 -8643581.3791322708 -17133910.421170235 0 0 0 0 -18587513.609392166 -9457946.7774046659 0 -9457946.7774046659 -14504239.937005997 0 0 0 0 -36286077.844772339 -8803937.0805587769 0 -8803937.0805587769 -7409562.5438218117 0 0 0 0 -22057002.812347412 -2207152.0360827446 0 -2207152.0360827446 -5020623.617401123 0 0 0 0 -22736758.681594849 -2997493.1799087524 0 -2997493.1799087524 -5840549.8998279572 0 0 0 0 -20852352.250396729 -2219851.5575046539 0 -2219851.5575046539 -7730253.6796455383 0 0 0 0 -21251248.268478394 -9729308.0307998657 0 -9729308.0307998657 -12271641.378220558 0 0 0 0 -15457808.052337646 -5184162.9943847656 0 -5184162.9943847656 -8533994.0435743332 0 0 0 0 -14822741.631905556 2015834.1830296516 0 2015834.1830296516 -4768914.8323230743 0 0 0 0 -17843846.998634338 -3947666.6791009903 0 -3947666.6791009903 -4378616.5722084045 0 0 0 0 -3698207.6059648944 2304121.0196601227 0 2304121.0196601227 142635.83424222935 0 0 0 0 -8149118.874745369 -2845515.2896124125 0 -2845515.2896124125 367504.79549694061 0 0 0 0 -8562652.1897785068 -1599031.0341744684 0 -1599031.0341744684 428240.99450241635 0 0 0 0 -20641302.40023613 -1260067.7592526674 0 -1260067.7592526674 -6072244.3645935059 0 0 0 0 -1210170.1875508064 1273420.1516569853 0 1273420.1516569853 164253.04808232374 0 0 0 0 -9710065.6833496094 -114713.39887237549 0 -114713.39887237549 1187349.9182428755 0 0 0 0 -9061105.9340744019 -1238329.6537156105 0 -1238329.6537156105 -6261132.5854587555 0 0 0 0 -9231019.8331298828 -2869550.4108295441 0 -2869550.4108295441 1198738.8099066783 0 0 0 0 -9589652.4553146362 -1144711.7059938312 0 -1144711.7059938312 212752.10004615784 0 0 0 0 -2934977.9015731812 -3028413.601066947 0 -3028413.601066947 20070735.323471546 0 0 0 0 -43505424.360172272 57986398.334208608 0 57986398.334208608 -37933267.312404633 0 0 0 0 -15541845.437229127 -4827407.9853182808 0 -4827407.9853182808 276958.47003475158 0 0 0 0 -32618854.626541138 30920049.716205716 0 30920049.716205716 28507184.107546329 0 0 0 0 -9443706.3241235316 4102216.5063780835 0 4102216.5063780835 3351122.2403986556 0 0 0 0 -24025435.978875771 1750045.9874884095 0 1750045.9874884095 10711667.461389489 0 0 0 0 347390.07997143269 -9187356.9847931713 0 -9187356.9847931713 -47729322.171936035 0 0 0 0 375626.86532592773 -12645743.384843826 0 -12645743.384843826 -6955610.9991970062 0 0 0 0 -14822600.703777816 -3286160.5934393294 0 -3286160.5934393294 -1232914.8629846624 0 0 0 0 -10745299.733345032 -2369098.9068319798 0 -2369098.9068319798 6832952.1257901192 0 0 0 0 -48192698.980895996 -23893554.27532053 0 -23893554.27532053 -14391780.427680969 0 0 0 0 -7660494.0903396606 948623.38474655151 0 948623.38474655151 -4846883.8159446716 0 0 0 0 -12211626.930969238 11662938.44090271 0 11662938.44090271 -80621922.912822723 0 0 0 0 -1893989.8327560425 -6285923.1472226381 0 -6285923.1472226381 8918616.6028885841 0 0 0 0 -2015460.5632705688 -7533454.8730692863 0 -7533454.8730692863 884968.67783117294 0 0 0 0 -281120.49613913149 1407263.5745464542 0 1407263.5745464542 1591720.2228569337 0 0 0 0 -18265768.846305776 -4524767.1031603236 0 -4524767.1031603236 4576806.304674685 0 0 0 0 -57511588.280792236 -67253544.670722961 0 -67253544.670722961 79188130.894271851 0 0 0 0 -2006853.4011535645 -3719607.275331974 0 -3719607.275331974 14790882.765221596 0 0 0 0 -12121949.449460067 -6894628.5444395738 0 -6894628.5444395738 2031437.7432003419 0 0 0 0 -2081912.1416709721 -7228630.5573098008 0 -7228630.5573098008 -1440061.1407176089 0 0 0 0 64114496.388900757 20785547.818495989 0 20785547.818495989 16173258.367062807 0 0 0 0 -18777519.304229736 3708526.553047657 0 3708526.553047657 53872647.747884855 0 0 0 0 -15385583.928532228 -8425002.5809651408 0 -8425002.5809651408 434833.52681084536 0 0 0 0 -89025.719735451043 409675.04147583316 0 409675.04147583316 494579.72746052704 0 0 0 0 -15151862.13356781 -19560515.875516295 0 -19560515.875516295 -18687162.152054548 0 0 0 0 -3481433.563079834 -3677103.9446207285 0 -3677103.9446207285 8001136.0371398926 0 0 0 0 -1409238.4597015381 -5633454.0548952818 0 -5633454.0548952818 -5041973.2723650932 0 0 0 0 -19031827.412559509 -14170750.907752514 0 -14170750.907752514 -22369796.977010727 0 0 0 0 -28395050.941146851 -875754.22409677505 0 -875754.22409677505 -5228171.4318714142 0 0 0 0 -78314349.428421021 -12761301.324740887 0 -12761301.324740887 44263427.233042777 0 0 0 0 -18036491.842102051 -8791205.1040534973 0 -8791205.1040534973 -19502226.162715912 0 0 0 0 -16992542.871566772 -10228120.681147575 0 -10228120.681147575 -17643895.256029606 0 0 0 0 -17526621.842346139 -4443306.693789456 0 -4443306.693789456 1899253.170364277 0 0 0 0 -43642856.54283905 -16071148.409339309 0 -16071148.409339309 2394204.2216002941 0 0 0 0 -35600706.709154129 6032452.428294003 0 6032452.428294003 5035920.72382617 0 0 0 0 -20173265.601672173 522287.89839754999 0 522287.89839754999 3071835.0992305279 0 0 0 0 -19830601.179595947 -7639407.3393924236 0 -7639407.3393924236 5377976.6745530367 0 0 0 0 -21638933.010788918 -8729183.129753232 0 -8729183.129753232 7119692.0554888248 0 0 0 0 -8261138.4793682694 -4128023.4839267479 0 -4128023.4839267479 2658221.0300398907 0 0 0 0 -15686072.761421204 -7676940.9961401224 0 -7676940.9961401224 8876306.4262824059 0 0 0 0 -12967257.557289124 -6752678.5106631517 0 -6752678.5106631517 6352235.3470102549 0 0 0 0 -14605882.818286143 -5591054.2545747906 0 -5591054.2545747906 2767391.4989639102 0 0 0 0 139903104.32628632 -77461848.280153513 0 -77461848.280153513 -10413181.334652901 0 0 0 0 21774859.6746521 -3535227.3017258644 0 -3535227.3017258644 123914260.46511221 0 0 0 0 2021100.936126709 -16579521.005719274 0 -16579521.005719274 -23242870.800055087 0 0 0 0 832924.45480185002 -1873750.8462651637 0 -1873750.8462651637 -320142.67209311936 0 0 0 0 -10894411.615341187 -12963249.725777552 0 -12963249.725777552 6231405.2749052048 0 0 0 0 -6238047.3104476929 -6793206.5346121788 0 -6793206.5346121788 5765435.6301481724 0 0 0 0 -16987681.745513916 -16255346.166388512 0 -16255346.166388512 -1976215.478839457 0 0 0 0 -219229455.94080353 -149640131.70455217 0 -149640131.70455217 158211227.17268181 0 0 0 0 -260739968.90294838 -95002844.157837391 0 -95002844.157837391 5636668.0223460197 0 0 0 0 -306327618.82445526 125187505.14867234 0 125187505.14867234 2450659.8525295258 0 0 0 0 195741898.32743073 116687111.07119 0 116687111.07119 -223201397.05887604 0 0 0 0 196226518.96963501 -6485476.7621481419 0 -6485476.7621481419 -143279192.81849957 0 0 0 0 32281925.335845947 334988373.33390951 0 334988373.33390951 -315284153.35766506 0 0 0 0 -72485773.25819397 67482913.890189409 0 67482913.890189409 -16937331.072472572 0 0 0 0 -51601247.864753723 -7659462.3411308527 0 -7659462.3411308527 27011329.567944527 0 0 0 0 3824306.9897918701 18101943.658602238 0 18101943.658602238 -4952650.6732201576 0 0 0 0 2106313.5136871338 -4317480.1981155872 0 -4317480.1981155872 23237525.247417927 0 0 0 0 50259649.127418518 -18626255.157003403 0 -18626255.157003403 18133978.983653069 0 0 0 0 -12871629.456085205 -8853607.14753896 0 -8853607.14753896 21065306.947020292 0 0 0 0 -6555872.9218978882 3650143.8690824509 0 3650143.8690824509 27367500.160387248 0 0 0 0 -63290344.335227966 -29536481.386475682 0 -29536481.386475682 27248606.540099144 0 0 0 0 -40756684.007270813 8268513.7072308064 0 8268513.7072308064 29721155.173885912 0 0 0 0 -98884593.589981079 -48499478.736765891 0 -48499478.736765891 12189359.213805199 0 0 0 0 -112378915.76116943 14141377.997801542 0 14141377.997801542 29570127.023781776 0 0 0 0 -75093981.913033485 29568610.075882778 0 29568610.075882778 20384346.173010826 0 0 0 0 -93168890.382675171 -42648394.644783735 0 -42648394.644783735 5751705.8167116642 0 0 0 0 -99611283.380401611 -74796176.901619673 0 -74796176.901619673 -16782834.796537399 0 0 0 0 -99683385.764167786 -43811191.833485246 0 -43811191.833485246 21937059.761989594 0 0 0 0 -58857228.665779114 -52935689.144166589 0 -52935689.144166589 -5127238.8960282803 0 0 0 0 -68159394.591217041 -37575122.510976553 0 -37575122.510976553 24010613.093054533 0 0 0 0 -56685681.319145203 -31639329.883646131 0 -31639329.883646131 20770265.622802258 0 0 0 0 -67246208.208343506 -35982106.799463689 0 -35982106.799463689 4767743.9334394159 0 0 0 0 -48559620.277427673 -38696898.13614139 0 -38696898.13614139 4789850.6843831539 0 0 0 0 -41359190.548305511 -30131703.319268703 0 -30131703.319268703 -17492814.756754994 0 0 0 0 -7084710.1878414154 1442685.2635864466 0 1442685.2635864466 9607990.8334393501 0 0 0 0 -25922621.527584076 -14495766.947296381 0 -14495766.947296381 46384497.486606359 0 0 0 0 -353554.45185852051 -40053517.058019876 0 -40053517.058019876 -41708622.635879874 0 0 0 0 -59501609.814655304 -93409522.49801743 0 -93409522.49801743 -37973667.181907058 0 0 0 0 -2759167.1896874476 1167378.4135309681 0 1167378.4135309681 813863.26709559327 0 0 0 0 -69945757.494930267 -15689230.737065315 0 -15689230.737065315 18510837.582473278 0 0 0 0 -18737333.838932037 1521847.8068981171 0 1521847.8068981171 2308488.5421257019 0 0 0 0 -33116511.964315291 -7044100.2444187477 0 -7044100.2444187477 5953984.2046079459 0 0 0 0 -61183531.580909729 800908.99816417694 0 800908.99816417694 31384150.184247971 0 0 0 0 -15699924.284585308 -1922462.1376690865 0 -1922462.1376690865 6681548.9853304531 0 0 0 0 -19617479.857899785 -681990.9486401747 0 -681990.9486401747 3363022.3128138282 0 0 0 0 -30077092.069160461 -10180358.600847244 0 -10180358.600847244 -9946142.7084970474 0 0 0 0 -18910835.052650452 -6592570.3704113364 0 -6592570.3704113364 9542949.0549838543 0 0 0 0 -22352675.717803955 -11023558.132973671 0 -11023558.132973671 -16007041.308282852 0 0 0 0 -2732312.0810050964 496174.28514528275 0 496174.28514528275 -2227064.55706954 0 0 0 0 -11704559.268920898 10931860.477255464 0 10931860.477255464 4015841.819685936 0 0 0 0 -15331956.556838989 -465063.04707217216 0 -465063.04707217216 -1644165.0769523382 0 0 0 0 -8308995.9322738647 -7666286.7731832266 0 -7666286.7731832266 1136577.4336442947 0 0 0 0 -23186095.945137024 -7888211.975939393 0 -7888211.975939393 1707911.6687117219 0 0 0 0 -16442536.646518707 -1695491.0536852479 0 -1695491.0536852479 2290897.9092417955 0 0 0 0 -11555102.798790803 1214044.457052093 0 1214044.457052093 7133863.9818523368 0 0 0 0 -16176505.956159592 -840226.79300767183 0 -840226.79300767183 3091450.2946498394 0 0 0 0 -16962827.911499023 -2345319.0184007883 0 -2345319.0184007883 5495897.8419303894 0 0 0 0 -14558297.664123535 1467899.27460742 0 1467899.27460742 2811693.5705926418 0 0 0 0 -12417749.458694458 -2804365.9145615101 0 -2804365.9145615101 4748984.4976774454 0 0 0 0 -17526381.781066895 -1900870.5630528927 0 -1900870.5630528927 8112459.9256761074 0 0 0 0 -10537119.629524607 2056720.7730681039 0 2056720.7730681039 6796995.7339092996 0 0 0 0 -20023557.757972717 4213546.4050707817 0 4213546.4050707817 15442827.548269272 0 0 0 0 -18978181.512275696 -3935156.6730556488 0 -3935156.6730556488 5275613.7391283512 0 0 0 0 -68507939.012145996 -22118945.380811691 0 -22118945.380811691 13448125.252845764 0 0 0 0 -93759208.710395813 10025295.384903431 0 10025295.384903431 48043161.923137665 0 0 0 0 -17774702.437244415 5310260.4039359093 0 5310260.4039359093 -12552934.450077057 0 0 0 0 -53696782.487121582 -22654812.004984379 0 -22654812.004984379 -37053311.438844681 0 0 0 0 -163695557.31115341 -89008888.137453556 0 -89008888.137453556 -6590731.1850795746 0 0 0 0 -2100280.0325682964 -989973.98149260506 0 -989973.98149260506 -121089.8351856852 0 0 0 0 52205236.029708862 194359023.47837257 0 194359023.47837257 133039497.27529144 0 0 0 0 14006534.130313873 11275335.704111099 0 11275335.704111099 32126979.324174881 0 0 0 0 -163971270.92920685 -64467967.408412933 0 -64467967.408412933 49155007.610877991 0 0 0 0 -128309460.16777039 -62589692.339309692 0 -62589692.339309692 49010593.459596634 0 0 0 0 -72746938.022852898 -53716893.809555054 0 -53716893.809555054 9525114.5477409363 0 0 0 0 -98100596.265007019 -37884573.874752045 0 -37884573.874752045 52279935.950823784 0 0 0 0 -24184190.56338501 30087435.638195992 0 30087435.638195992 34056915.559490204 0 0 0 0 -62094224.450183392 7058559.2448782921 0 7058559.2448782921 95960566.804315567 0 0 0 0 -7076380.055346936 -3667163.2274514753 0 -3667163.2274514753 -821538.54217602499 0 0 0 0 -97608760.436986923 -49406518.114274502 0 -49406518.114274502 -10217651.363277435 0 0 0 0 53374278.829265594 106841762.64895344 0 106841762.64895344 86111850.184121132 0 0 0 0 14803816.257516861 7133918.2488708496 0 7133918.2488708496 29050901.269638062 0 0 0 0 -37559177.361618042 19229336.428625107 0 19229336.428625107 65607592.082233429 0 0 0 0 6549698.039352417 55855374.127141953 0 55855374.127141953 54065922.971729279 0 0 0 0 -16256014.470442992 -8132500.8653952312 0 -8132500.8653952312 -1831935.189915251 0 0 0 0 -61977260.624359131 -27214875.970876217 0 -27214875.970876217 8029186.1613836288 0 0 0 0 -23153180.574981689 -16630483.00271225 0 -16630483.00271225 -18742543.529095888 0 0 0 0 -6063341.0606765747 15887566.614810944 0 15887566.614810944 21078039.170408249 0 0 0 0 -93918448.623073578 -48363559.492881298 0 -48363559.492881298 -6538850.4276809692 0 0 0 0 -44680824.830345154 24340483.634843826 0 24340483.634843826 34453310.128099442 0 0 0 0 -27330304.045154572 5082667.0015649796 0 5082667.0015649796 51027214.960870743 0 0 0 0 -83018455.517986298 -29396111.241628647 0 -29396111.241628647 414225.51867294312 0 0 0 0 -31581379.523963928 27068223.263272285 0 27068223.263272285 23922617.812480927 0 0 0 0 -82100771.397613525 -27714422.015947342 0 -27714422.015947342 8179634.0836901665 0 0 0 0 -121831895.17549896 -24560474.204156876 0 -24560474.204156876 9439262.9980258942 0 0 0 0 -111795209.01448822 -36521876.789201736 0 -36521876.789201736 -14102578.066892147 0 0 0 0 -128800110.79458618 -76877582.929819107 0 -76877582.929819107 -27560843.664148331 0 0 0 0 -110601393.51648712 -74722029.407348633 0 -74722029.407348633 -49775700.056045532 0 0 0 0 -167274622.94558716 -83856110.690023422 0 -83856110.690023422 -69107151.672077179 0 0 0 0 3034739.805316925 731085.20911741257 0 731085.20911741257 -19330843.86025238 0 0 0 0 -173548529.71318054 -94355096.947925568 0 -94355096.947925568 -38337866.136100769 0 0 0 0 -145537959.5118103 -87232374.089633942 0 -87232374.089633942 -127807153.68060684 0 0 0 0 -145890728.2631073 -106572147.54149628 0 -106572147.54149628 -85661073.353107452 0 0 0 0 -150394926.85161543 -59745893.576062441 0 -59745893.576062441 -30904621.627113342 0 0 0 0 -185121388.94556427 -191283393.30541706 0 -191283393.30541706 -128181800.66257666 0 0 0 0 -108688118.49655914 -19869153.059452057 0 -19869153.059452057 16893802.639413834 0 0 0 0 -119799317.16228485 -69624287.089952469 0 -69624287.089952469 -38643419.996452332 0 0 0 0 -216445246.56302643 -160166125.89454174 0 -160166125.89454174 -57190533.786246777 0 0 0 0 -96089672.923538208 -75767780.959821701 0 -75767780.959821701 -46415187.881666183 0 0 0 0 -134037151.45426941 -82394384.259386063 0 -82394384.259386063 -10840197.512845993 0 0 0 0 -189800222.17644501 -74385063.891674042 0 -74385063.891674042 17219342.749399185 0 0 0 0 -243374133.26266479 -79447063.408042908 0 -79447063.408042908 294542949.06873703 0 0 0 0 -187127318.54597473 -147463112.60627365 0 -147463112.60627365 36526418.803354263 0 0 0 0 -9098580.1146316528 -40583668.969760895 0 -40583668.969760895 45281754.573486328 0 0 0 0 169172218.99688721 178615709.65556049 0 178615709.65556049 131354178.79453659 0 0 0 0 -791512.79703293927 -222791.17424137145 0 -222791.17424137145 659022.10655410029 0 0 0 0 -971907.80155594647 -93590.16056035459 0 -93590.16056035459 181971.24642816558 0 0 0 0 -18721148.468688965 75410415.921360016 0 75410415.921360016 276419873.0382309 0 0 0 0 -70026354.560766697 -10349449.581706047 0 -10349449.581706047 -39188634.538835526 0 0 0 0 -74277962.647201538 25822618.909973145 0 25822618.909973145 136372815.44666481 0 0 0 0 40238807.771484375 35634122.012130737 0 35634122.012130737 100292105.67187119 0 0 0 0 134841856.36009598 30104493.926629782 0 30104493.926629782 20933533.722446442 0 0 0 0 -178891143.78164673 -76428936.549986839 0 -76428936.549986839 74185257.665657043 0 0 0 0 -127392803.23754883 136537199.74850845 0 136537199.74850845 -25276620.404368162 0 0 0 0 215203.5007918207 766266.70128131844 0 766266.70128131844 -214003.21603744477 0 0 0 0 81678687.069633484 -116365651.5265007 0 -116365651.5265007 75222991.317527771 0 0 0 0 -336596676.89367676 109215833.13545704 0 109215833.13545704 87558090.473283768 0 0 0 0 -32352434.769096375 -9242034.2943558693 0 -9242034.2943558693 8385897.272359848 0 0 0 0 -2036169.2232851088 -1154398.5415762831 0 -1154398.5415762831 1468522.5907626571 0 0 0 0 -22612541.205734253 120648459.62489128 0 120648459.62489128 15929293.905457497 0 0 0 0 -2852410.7454289049 -324481.28932109848 0 -324481.28932109848 323623.07293264102 0 0 0 0 -151254299.35321236 -124741677.25949049 0 -124741677.25949049 -74513808.701602936 0 0 0 0 -59109976.842987061 21891951.90353775 0 21891951.90353775 86991429.543886185 0 0 0 0 -70026362.932762146 12995972.676739693 0 12995972.676739693 47380415.799882889 0 0 0 0 -109760865.26596832 -32166113.81062603 0 -32166113.81062603 80034875.781094551 0 0 0 0 -83810264.262853622 -22652528.688474178 0 -22652528.688474178 82033401.125198364 0 0 0 0 -48276515.652259827 -1906632.9051332474 0 -1906632.9051332474 51137449.786108673 0 0 0 0 -27127305.895629883 -12204119.397708893 0 -12204119.397708893 51311426.749119282 0 0 0 0 44350357.433174133 -50477795.15970993 0 -50477795.15970993 66442481.945808411 0 0 0 0 -71358436.974639893 -41369651.156317711 0 -41369651.156317711 108909412.57714272 0 0 0 0 -63368356.782943726 -49771538.339048386 0 -49771538.339048386 106447369.78354549 0 0 0 0 -48912335.215759277 -46262099.547988892 0 -46262099.547988892 64332943.778430939 0 0 0 0 -56583122.875324249 -36415502.896437168 0 -36415502.896437168 98408827.624881744 0 0 0 0 -54741615.503387451 -38410922.587461472 0 -38410922.587461472 67709791.875335693 0 0 0 0 -24329165.568260193 -31815696.750873566 0 -31815696.750873566 51767048.4974823 0 0 0 0 -49010927.650005341 -39947979.838382959 0 -39947979.838382959 49087614.277885437 0 0 0 0 -77443527.764282227 13572827.127725601 0 13572827.127725601 -16866006.060771942 0 0 0 0 -51431490.179280281 -13280737.424289107 0 -13280737.424289107 12440770.73613739 0 0 0 0 -14515683.263357162 -35575353.467669964 0 -35575353.467669964 -24409342.085765839 0 0 0 0 -30321412.899742126 -37612114.392572403 0 -37612114.392572403 -24709031.044246674 0 0 0 0 -34922933.511367798 -28606748.477981567 0 -28606748.477981567 -3286877.480723381 0 0 0 0 -36254270.024757385 -38320971.87969017 0 -38320971.87969017 420290.45559310913 0 0 0 0 -49822.368509545922 1346898.781646885 0 1346898.781646885 637698.81022283062 0 0 0 0 -99874693.938362122 -63021486.746164322 0 -63021486.746164322 -58861040.132333755 0 0 0 0 -115795001.82005882 -103534233.81262112 0 -103534233.81262112 -94085619.780101776 0 0 0 0 -117336172.38952827 -45753153.72405386 0 -45753153.72405386 20498658.573818207 0 0 0 0 -66286370.80014801 -68057643.813390732 0 -68057643.813390732 45648331.804105759 0 0 0 0 -28451607.164215088 -51530568.453273773 0 -51530568.453273773 20873017.724469662 0 0 0 0 -63934226.715270996 -74447289.241498947 0 -74447289.241498947 143224567.82952881 0 0 0 0 -8266234.4033385515 -5413722.91703468 0 -5413722.91703468 350672.00373011921 0 0 0 0 11939413.869895935 -436435.1694393158 0 -436435.1694393158 9736185.7607421875 0 0 0 0 15283465.029579163 24212291.906162262 0 24212291.906162262 -14133017.906440735 0 0 0 0 -189846444.9655304 -49779296.132575989 0 -49779296.132575989 15979593.924507141 0 0 0 0 -139772389.32136154 -103197767.9611969 0 -103197767.9611969 -44454235.651378632 0 0 0 0 -79850585.633224487 -66563301.118747711 0 -66563301.118747711 43590099.886871338 0 0 0 0 -87764785.549911499 -19551972.05897522 0 -19551972.05897522 -66190583.729741096 0 0 0 0 -110024483.33086777 26213148.763474464 0 26213148.763474464 131588853.24791718 0 0 0 0 -39134225.487349279 -8067347.8417596929 0 -8067347.8417596929 4769320.5390071794 0 0 0 0 4868338.4143218994 16002046.702516556 0 16002046.702516556 -17881200.086288452 0 0 0 0 -174058047.29691696 -184305739.97359908 0 -184305739.97359908 -26150784.654594421 0 0 0 0 -326609.59292877652 573138.86890006438 0 573138.86890006438 499381.14494835027 0 0 0 0 56818642.053665161 -167608374.25182915 0 -167608374.25182915 -148263844.19099426 0 0 0 0 -27568715.124038696 -13654946.574600935 0 -13654946.574600935 -36472218.945133686 0 0 0 0 -51685939.995315552 19347986.268204689 0 19347986.268204689 -5114002.8003072739 0 0 0 0 -24231077.36177063 -5744060.1590819359 0 -5744060.1590819359 -48227131.714187622 0 0 0 0 -43510980.946163177 -15405906.443961143 0 -15405906.443961143 -37628404.064376831 0 0 0 0 -56578181.446006775 -38361737.884538651 0 -38361737.884538651 -18899077.068440437 0 0 0 0 -17997104.969421737 -10196711.874941558 0 -10196711.874941558 -720791.20470844954 0 0 0 0 -43102848.834171295 -57133793.22451973 0 -57133793.22451973 -49473007.252540588 0 0 0 0 -119520679.93145752 -46666482.502054214 0 -46666482.502054214 53452471.476964951 0 0 0 0 15937311.661774158 -20673094.210701957 0 -20673094.210701957 -769668.00820541382 0 0 0 0 -40107402.713847913 -7193369.1498251138 0 -7193369.1498251138 5623919.9615797717 0 0 0 0 -50319004.918411255 -4669770.7814166546 0 -4669770.7814166546 -35689753.410927773 0 0 0 0 -28739840.773361206 -7730591.2818975449 0 -7730591.2818975449 -53335986.822595596 0 0 0 0 -42133460.533273876 -10417398.449596327 0 -10417398.449596327 3702121.0646327725 0 0 0 0 -11405319.886391468 -4940345.7992242686 0 -4940345.7992242686 201224.54007451888 0 0 0 0 105781810.68140411 -121759335.99680471 0 -121759335.99680471 -20339614.900308132 0 0 0 0 -32340983.003967285 -97723540.176554203 0 -97723540.176554203 -16813986.439062119 0 0 0 0 -69836486.709938049 -52487685.859149098 0 -52487685.859149098 4257389.9853420258 0 0 0 0 -7282480.6681976318 -58785751.341754913 0 -58785751.341754913 11251485.861225128 0 0 0 0 42713097.919174194 -103919903.75010443 0 -103919903.75010443 2046861.4352035522 0 0 0 0 81356528.139129639 -104118419.21763134 0 -104118419.21763134 -20096528.652184486 0 0 0 0 904802.58124542236 -46735218.219823599 0 -46735218.219823599 -1807524.299697876 0 0 0 0 -21573835.332092285 -40079706.931817651 0 -40079706.931817651 2335724.4459881783 0 0 0 0 -32109926.766555786 -43773066.962430626 0 -43773066.962430626 26481241.751964092 0 0 0 0 -17204647.960128784 -52994102.664688587 0 -52994102.664688587 17979836.948176384 0 0 0 0 -2200990.8546142578 -44483434.780194521 0 -44483434.780194521 19669618.684355974 0 0 0 0 -22624590.1043396 -36055267.636760354 0 -36055267.636760354 13457764.351311207 0 0 0 0 2977032.3368530273 -45340469.421024799 0 -45340469.421024799 20370772.649268627 0 0 0 0 -11327152.694854736 -58961067.988117456 0 -58961067.988117456 13876789.476715326 0 0 0 0 27375224.686798096 -57506381.205810308 0 -57506381.205810308 16904171.467520237 0 0 0 0 -1829927.9875774384 -49055589.414546438 0 -49055589.414546438 23882450.902996778 0 0 0 0 55420818.013626099 -42259565.285208061 0 -42259565.285208061 13025263.44422698 0 0 0 0 32820809.385772705 -42316747.848371029 0 -42316747.848371029 17555878.059556007 0 0 0 0 73017542.465122223 -53981459.820792109 0 -53981459.820792109 6877424.8622264862 0 0 0 0 65090241.955871582 -45820989.092544317 0 -45820989.092544317 9867676.3329200745 0 0 0 0 39645177.806610107 -74032943.021568775 0 -74032943.021568775 13530143.44330579 0 0 0 0 -28488201.326339722 -40836387.671578884 0 -40836387.671578884 -63299667.656339645 0 0 0 0 -40683676.066757202 5927952.98067379 0 5927952.98067379 -55711883.56797123 0 0 0 0 -26503768.096260071 -18252792.880935907 0 -18252792.880935907 -41491672.748965263 0 0 0 0 -12900698.726638794 -53097350.035289109 0 -53097350.035289109 4360102.1778206825 0 0 0 0 -32982202.952861786 -47046971.919630945 0 -47046971.919630945 14744012.921786547 0 0 0 0 -20813521.410917282 -23503910.570382237 0 -23503910.570382237 -31995253.116017103 0 0 0 0 57204727.3568573 -66832760.721105695 0 -66832760.721105695 -16790695.039572954 0 0 0 0 359243.87451840006 1110168.0925232172 0 1110168.0925232172 -354896.41903476557 0 0 0 0 -152061641.737854 -1850561.9238741398 0 -1850561.9238741398 12647832.28382349 0 0 0 0 -40120407.84078598 -10024809.357269943 0 -10024809.357269943 -57656952.852936745 0 0 0 0 -120458398.48608398 -54817041.032378197 0 -54817041.032378197 -79682525.324351311 0 0 0 0 -135741407.51489067 51220094.747744679 0 51220094.747744679 -35797651.128599167 0 0 0 0 -39530638.479595184 3430749.3979787827 0 3430749.3979787827 -128130377.73312187 0 0 0 0 -22149560.899536133 12803156.784709454 0 12803156.784709454 -87268718.521607876 0 0 0 0 -28138456.140258789 85045.469435214996 0 85045.469435214996 -16615352.806864023 0 0 0 0 -28670072.809878111 28822125.033490323 0 28822125.033490323 -54008851.333126068 0 0 0 0 24635609.988208771 -3339667.3470651507 0 -3339667.3470651507 -41773643.944378853 0 0 0 0 -8327095.1310195923 24995291.996358156 0 24995291.996358156 -34227715.709877253 0 0 0 0 -51115079.179656982 20944881.344892979 0 20944881.344892979 -83721475.417969167 0 0 0 0 -51079346.091278076 18259572.773378849 0 18259572.773378849 -29938871.140515804 0 0 0 0 -128060090.14830017 -56881486.505125046 0 -56881486.505125046 -31069082.854162693 0 0 0 0 -121026594.93149853 29316850.379645646 0 29316850.379645646 -38830508.970935345 0 0 0 0 -43189692.211151123 -1661188.2482032776 0 -1661188.2482032776 -28754916.51711297 0 0 0 0 -45490724.711196899 20830462.399736881 0 20830462.399736881 -56031028.836601734 0 0 0 0 -41221233.053382874 -9536238.62231493 0 -9536238.62231493 2101141.7381849289 0 0 0 0 -73296722.981369019 -40178808.094965935 0 -40178808.094965935 -14267399.211192131 0 0 0 0 -73927165.025314331 6795754.7905192375 0 6795754.7905192375 -6000352.5442938805 0 0 0 0 -35506825.527649038 -6560672.2327539278 0 -6560672.2327539278 5511605.915238942 0 0 0 0 -51709307.5587883 1371791.2909958363 0 1371791.2909958363 23851671.680043221 0 0 0 0 -53672713.388542175 35623872.87052536 0 35623872.87052536 93946968.304236412 0 0 0 0 -56619392.281539917 -27854061.616205215 0 -27854061.616205215 8277017.290140152 0 0 0 0 -37430006.781328149 -8569301.913869895 0 -8569301.913869895 4319602.1257564994 0 0 0 0 -15716622.16494406 -5902154.3703714386 0 -5902154.3703714386 -1609237.2225513849 0 0 0 0 -32203914.802536011 9789524.435734272 0 9789524.435734272 -47445268.216615677 0 0 0 0 -66832782.039398193 -54433328.33241272 0 -54433328.33241272 -23940823.503339767 0 0 0 0 -137209718.59650421 -44111914.702515483 0 -44111914.702515483 -25102985.016103745 0 0 0 0 -117710305.06439209 22777040.644178391 0 22777040.644178391 -49125216.431559563 0 0 0 0 -23175583.604248047 -7514439.4556102753 0 -7514439.4556102753 -21830604.824108124 0 0 0 0 -5048043.1483701095 -1647731.3369605765 0 -1647731.3369605765 -210024.38754906505 0 0 0 0 -34432490.309295654 15663167.60826838 0 15663167.60826838 5979649.9298763275 0 0 0 0 -2470229404.4077911 -654862706.25179851 0 -654862706.25179851 -982489935.09888184 0 0 0 0 -7420802204.9273682 -364739291.34108424 0 -364739291.34108424 -1835590405.0694728 0 0 0 0 -2820992.0776525475 484467.5642683804 0 484467.5642683804 -490115.12221600313 0 0 0 0 -6811459997.8017883 -1789947599.1335585 0 -1789947599.1335585 543703892.74521041 0 0 0 0 -2971138005.9777985 -1385378032.6150355 0 -1385378032.6150355 -280223221.01965821 0 0 0 0 -4093996584.1291351 -1126190804.0083492 0 -1126190804.0083492 -42257765.210405603 0 0 0 0 -3436062019.408371 -896545717.61503077 0 -896545717.61503077 -350800817.97464746 0 0 0 0 -3696051077.1571045 -1205931056.6650839 0 -1205931056.6650839 -213418842.12185583 0 0 0 0 -5489649.3940754533 435096.96837155893 0 435096.96837155893 -351440.2500128313 0 0 0 0 -3731976729.7252884 -1419842139.1331961 0 -1419842139.1331961 -329633130.13459831 0 0 0 0 -3454281362.555069 -1201760345.3583446 0 -1201760345.3583446 -388607304.72953367 0 0 0 0 -3466989802.6134186 -1411884675.9115038 0 -1411884675.9115038 -493984837.88504374 0 0 0 0 -2506686361.1615753 -903584216.22423804 0 -903584216.22423804 381711430.8592633 0 0 0 0 -2539450254.1205635 -1181680768.7034557 0 -1181680768.7034557 18509010.180716038 0 0 0 0 -2397595304.8863983 -725583557.70526457 0 -725583557.70526457 301280464.26035607 0 0 0 0 -2564201388.2722015 -883322300.12418365 0 -883322300.12418365 631114565.9997654 0 0 0 0 -2369284472.4275208 -841554336.32334244 0 -841554336.32334244 -49287740.304908991 0 0 0 0 -1328946841.0875854 -127039337.52302122 0 -127039337.52302122 -47281789.514180928 0 0 0 0 -2609373621.1488037 347986443.20293802 0 347986443.20293802 65743314.483336329 0 0 0 0 -381093815.89633942 -97068192.198734269 0 -97068192.198734269 -185972915.75732288 0 0 0 0 -980826153.26634216 291891854.00795382 0 291891854.00795382 -238811042.6866017 0 0 0 0 -478771939.83824158 -45728571.43397975 0 -45728571.43397975 -348614080.44373459 0 0 0 0 111241992.27484131 -213738697.61810565 0 -213738697.61810565 -252956428.07022929 0 0 0 0 -359629270.22042847 76451572.068613768 0 76451572.068613768 -257551316.01664948 0 0 0 0 235096485.77890015 275837222.3315196 0 275837222.3315196 -329930171.36801308 0 0 0 0 -739181966.05453491 1461387485.0425115 0 1461387485.0425115 57510171.544742227 0 0 0 0 -1591055550.0210571 171196159.83027864 0 171196159.83027864 -81872628.829147577 0 0 0 0 -3585774249.2478485 1574030482.3331325 0 1574030482.3331325 264198926.66624546 0 0 0 0 -1153772369.0552826 714050564.74468589 0 714050564.74468589 -332148787.73318863 0 0 0 0 -6331589227.1698608 -2720655028.8149462 0 -2720655028.8149462 -1826420890.5824354 0 0 0 0 -5186075.1848495826 1668850.1395528764 0 1668850.1395528764 -524013.98235039273 0 0 0 0 -2701554443.1506805 -2382546616.0372448 0 -2382546616.0372448 -1937301151.9297931 0 0 0 0 4893999.9987335205 171729236.16819739 0 171729236.16819739 558899849.66267633 0 0 0 0 78105478.515960693 -347521585.82222879 0 -347521585.82222879 119267707.50741959 0 0 0 0 -71795814.487167358 -119819593.83243895 0 -119819593.83243895 131267165.72963023 0 0 0 0 -109607799.45870972 -278218485.93069696 0 -278218485.93069696 458417484.5864315 0 0 0 0 -1336645699.8850594 -1039951336.9895729 0 -1039951336.9895729 -1011885993.9113233 0 0 0 0 -12458373.18117895 4440624.9319677763 0 4440624.9319677763 -974669.27939815447 0 0 0 0 -1238418267.2977905 -1165726403.3586497 0 -1165726403.3586497 -1003022296.4948769 0 0 0 0 -2472721756.2501526 -1591690139.3858938 0 -1591690139.3858938 -781446070.2601018 0 0 0 0 -2692823955.8410034 -644065724.97584665 0 -644065724.97584665 -332414567.98597872 0 0 0 0 -1234853455.8832779 -1304343964.9023287 0 -1304343964.9023287 -1353549703.2649863 0 0 0 0 -4855228852.0093536 -966533370.5403353 0 -966533370.5403353 -373489169.42255908 0 0 0 0 -3390887458.7368927 -65330573.65826498 0 -65330573.65826498 -1322737905.6108475 0 0 0 0 -4096202508.9228287 -675466973.39974737 0 -675466973.39974737 -420159592.34590816 0 0 0 0 -3410584748.1005478 -149322474.02458686 0 -149322474.02458686 -404566354.41280234 0 0 0 0 -2830593033.9485626 294226467.82453883 0 294226467.82453883 -311013203.77155805 0 0 0 0 -4085184441.69944 430440585.9502722 0 430440585.9502722 420938027.40147966 0 0 0 0 -2958033970.0048571 -646593658.69623506 0 -646593658.69623506 -191882254.35772493 0 0 0 0 -505611000.42785645 -760532141.24493349 0 -760532141.24493349 -299239363.99943423 0 0 0 0 -4368339.8788860887 -600576.38748973608 0 -600576.38748973608 1162709.8735479836 0 0 0 0 -1731202398.3524017 1333774716.2939942 0 1333774716.2939942 730540026.67014706 0 0 0 0 -1212091474.8150024 -169589194.16923821 0 -169589194.16923821 -369750.67410865135 0 0 0 0 -4085812038.1319695 -1479768209.2194471 0 -1479768209.2194471 354657630.37092012 0 0 0 0 -3321248910.6799603 -437693881.46187854 0 -437693881.46187854 -71211136.098232269 0 0 0 0 -2378966.8937652782 -911637.96412820369 0 -911637.96412820369 132987.54810032685 0 0 0 0 -3426542620.8853455 47706114.969324559 0 47706114.969324559 1716157043.699379 0 0 0 0 -3524287.3783324212 43640.947612516582 0 43640.947612516582 479747.45123756927 0 0 0 0 -3097062914.7959747 -2079464138.6690874 0 -2079464138.6690874 -68714204.093021393 0 0 0 0 -428092007.21827698 27214575.624726057 0 27214575.624726057 225632613.75226581 0 0 0 0 -3746183299.0531616 382394119.82544982 0 382394119.82544982 906094284.54917049 0 0 0 0 -2050394287.7460556 -395162606.36794055 0 -395162606.36794055 173189864.69522285 0 0 0 0 -2537762068.8447418 -1100783634.3321722 0 -1100783634.3321722 233881090.39739501 0 0 0 0 -674111324.70974731 -579639797.44343793 0 -579639797.44343793 -147475111.14208961 0 0 0 0 -1640875004.2661743 -1405859536.5799608 0 -1405859536.5799608 109129385.99773292 0 0 0 0 -2056666172.5700836 -1199849400.4687459 0 -1199849400.4687459 210488348.28619242 0 0 0 0 -1903670244.8158417 -490557405.77931654 0 -490557405.77931654 -228249509.57566568 0 0 0 0 -1788880717.7739563 -1039843002.9002295 0 -1039843002.9002295 -372981935.51598436 0 0 0 0 -1634056877.5911713 -1051666600.3278012 0 -1051666600.3278012 -372707405.44593465 0 0 0 0 -716865943.35235596 -706207464.2993598 0 -706207464.2993598 -644189945.66078401 0 0 0 0 -1583130871.8353767 -828876531.83611214 0 -828876531.83611214 -166391024.19339588 0 0 0 0 -16759884.411345765 6152812.5936228223 0 6152812.5936228223 -1110208.2204488688 0 0 0 0 -752134801.28973389 -652425096.8634187 0 -652425096.8634187 -222220879.553812 0 0 0 0 -693930793.17562866 -850159820.07352722 0 -850159820.07352722 -242457756.1516808 0 0 0 0 3360665.7094688416 76225418.409186721 0 76225418.409186721 84524731.272479534 0 0 0 0 -75277670.252792358 -19018988.60052681 0 -19018988.60052681 46612608.473439261 0 0 0 0 -521121385.69055176 146036228.32724941 0 146036228.32724941 -197968421.09323275 0 0 0 0 -21700546.390973181 6792602.1207251512 0 6792602.1207251512 433599.94650496449 0 0 0 0 -57632624.012985229 19572688.49052 0 19572688.49052 45542996.323977768 0 0 0 0 -195406508.1494751 -398735844.2024734 0 -398735844.2024734 -1308163663.2240164 0 0 0 0 -1701133678.7798767 -530404286.37681466 0 -530404286.37681466 -82025315.325708151 0 0 0 0 -807135359.98640347 -445878483.45466882 0 -445878483.45466882 -40987485.723046184 0 0 0 0 -1718239295.8331299 56335264.812117875 0 56335264.812117875 176461776.51068807 0 0 0 0 -134221127.06721497 -978236083.03421021 0 -978236083.03421021 -201506431.2099396 0 0 0 0 -1048326.3560886607 -676908.98003047332 0 -676908.98003047332 -669946.80924878956 0 0 0 0 -843190720.82051086 -926854215.63193715 0 -926854215.63193715 -85961988.172199368 0 0 0 0 -638724179.96505737 35286302.960660428 0 35286302.960660428 52127407.594374381 0 0 0 0 -1416069141.2619629 102625966.10067683 0 102625966.10067683 80053700.616843939 0 0 0 0 -833384655.81060791 -130312201.7818808 0 -130312201.7818808 -72161930.977806091 0 0 0 0 -837987364.44908142 -268339146.56080031 0 -268339146.56080031 26208669.569499731 0 0 0 0 -924863592.26446533 -93295198.253169656 0 -93295198.253169656 93553109.698423356 0 0 0 0 -736122551.27352905 -172940651.36056694 0 -172940651.36056694 61515.051215529034 0 0 0 0 -528480183.85057068 -36021207.835663944 0 -36021207.835663944 69829857.72512725 0 0 0 0 -183025343.13053894 -91802581.330024272 0 -91802581.330024272 -52853213.800408155 0 0 0 0 -495415120.55645752 -130945920.33258802 0 -130945920.33258802 160058.29324339316 0 0 0 0 -104574864.26338196 13131794.967141522 0 13131794.967141522 199561.78087165268 0 0 0 0 -42802367.548927307 47102747.503873214 0 47102747.503873214 -67241789.287971169 0 0 0 0 -9360679.9282195829 -757639.71570573002 0 -757639.71570573002 -173444.46196376724 0 0 0 0 -691564949.12898254 -216632086.30927676 0 -216632086.30927676 41236561.100765467 0 0 0 0 -25646824.86907959 15508348.366022484 0 15508348.366022484 -32381879.698359791 0 0 0 0 -11610040.307020959 -739925.52415706962 0 -739925.52415706962 -313512.53863616777 0 0 0 0 -232049128.10656738 -252031987.32533357 0 -252031987.32533357 -78175342.3280662 0 0 0 0 -23691053.733932495 -4966668.977518253 0 -4966668.977518253 5863357.2801357582 0 0 0 0 -6572882.894569993 -2063056.3895774372 0 -2063056.3895774372 1841630.1394801792 0 0 0 0 -13218683.129089355 -14034993.756122202 0 -14034993.756122202 -7025864.3216450177 0 0 0 0 -183313330.94113159 -167109377.39389181 0 -167109377.39389181 -73317054.529698536 0 0 0 0 -1842939.9305401966 -596672.20496809855 0 -596672.20496809855 344553.20455711219 0 0 0 0 -127933940.64816284 -27087528.501523256 0 -27087528.501523256 13750864.5219661 0 0 0 0 -89075615.746032715 -37025113.371437013 0 -37025113.371437013 -23816173.70986867 0 0 0 0 -104338211.43640137 -9234164.9526528716 0 -9234164.9526528716 27259346.520172596 0 0 0 0 -74049423.095977783 -22505685.550774574 0 -22505685.550774574 -10458111.174436092 0 0 0 0 -76999015.196399689 -35634226.203141741 0 -35634226.203141741 -10026484.702513933 0 0 0 0 -69005854.963439941 -16568211.317408323 0 -16568211.317408323 9709921.8974819183 0 0 0 0 -70314503.784625053 2030352.5948389471 0 2030352.5948389471 18651204.159983635 0 0 0 0 -67384241.809997559 4350245.4460616708 0 4350245.4460616708 19767623.039376259 0 0 0 0 -43837150.702941895 10794796.366568565 0 10794796.366568565 28166160.936775208 0 0 0 0 -47227196.216049194 -15491173.206757545 0 -15491173.206757545 3921346.3833322525 0 0 0 0 -8612959.4992663078 -8324377.848540891 0 -8324377.848540891 2949294.315986542 0 0 0 0 -49448970.757965088 -19600088.08136034 0 -19600088.08136034 -3417884.2715724707 0 0 0 0 -47256741.533996582 -16908696.146868944 0 -16908696.146868944 6504667.088452816 0 0 0 0 -43438133.198028564 968957.78532075882 0 968957.78532075882 10207256.046457112 0 0 0 0 -62420596.238632202 -27510960.840110302 0 -27510960.840110302 -21976.5090072155 0 0 0 0 -68302156.022613525 -9265691.5739809275 0 -9265691.5739809275 12076492.147021294 0 0 0 0 -38974897.127288818 -1045402.4832143784 0 -1045402.4832143784 17447021.860831499 0 0 0 0 -64906447.996368408 2993313.3292071819 0 2993313.3292071819 54654111.212749481 0 0 0 0 -24258507.240600586 -25622398.083851099 0 -25622398.083851099 -57612546.099642754 0 0 0 0 -3372761.8122692872 -142300.01267810911 0 -142300.01267810911 152525.77348691178 0 0 0 0 -81483517.233917236 -43572812.470397234 0 -43572812.470397234 49348272.231679916 0 0 0 0 -49952747.819824219 -18388194.348694801 0 -18388194.348694801 16438264.860400677 0 0 0 0 -63627989.277130127 -41866646.604191065 0 -41866646.604191065 -21352630.826301575 0 0 0 0 -3407243.1992663741 919606.82765334472 0 919606.82765334472 2078523.9120473792 0 0 0 0 -46447906.880706787 29660497.265984774 0 29660497.265984774 18639794.597612858 0 0 0 0 -31792257.498504639 -21347438.154859543 0 -21347438.154859543 -22645369.50675264 0 0 0 0 -22922273.041694641 12873353.738899946 0 12873353.738899946 4340407.9935741425 0 0 0 0 -14801956.593123928 -4322162.7794380877 0 -4322162.7794380877 2702654.4310308713 0 0 0 0 -41674803.404800415 1471069.7264186144 0 1471069.7264186144 4855489.1100931168 0 0 0 0 -28309551.999828339 -11280865.825288773 0 -11280865.825288773 23481866.934828758 0 0 0 0 -9505184.6424737051 -4994602.6996425502 0 -4994602.6996425502 714114.09878004761 0 0 0 0 -10016754.397949219 -1743819.6404514313 0 -1743819.6404514313 2696741.7898850441 0 0 0 0 -9262784.0901794434 -1493118.9002943039 0 -1493118.9002943039 2362781.1553729773 0 0 0 0 -7401940.1733856201 -3791783.7693283558 0 -3791783.7693283558 2992790.1692028046 0 0 0 0 -7609039.1583760343 -1863621.9494724013 0 -1863621.9494724013 1068613.399406194 0 0 0 0 -9847957.913980484 -2001097.3927807808 0 -2001097.3927807808 1953565.043340683 0 0 0 0 -9712103.6253509521 -1131369.4638011456 0 -1131369.4638011456 -897728.99205207825 0 0 0 0 -20856967.406997681 -21494322.448850155 0 -21494322.448850155 2138597.2127094269 0 0 0 0 -14322425.394439697 -403716.97531867027 0 -403716.97531867027 -456793.58747005463 0 0 0 0 6232342.6153411865 -25551774.431079745 0 -25551774.431079745 -7669612.8934276104 0 0 0 0 -6767766.5946234092 -4923207.9743777998 0 -4923207.9743777998 106509.83598922216 0 0 0 0 -11715660.472084045 -1693194.995456934 0 -1693194.995456934 -218908.35378932953 0 0 0 0 32302.007432416081 72409.59007623978 0 72409.59007623978 -24517.896769264131 0 0 0 0 -18099547.108032227 -3838706.3672499657 0 -3838706.3672499657 3330390.853515625 0 0 0 0 10616879.526947021 -69826896.778200626 0 -69826896.778200626 -23988431.586737394 0 0 0 0 -36659321.925857544 1837378.9806318283 0 1837378.9806318283 17957644.861806393 0 0 0 0 -15531360.612174988 -47095351.476637185 0 -47095351.476637185 70481504.496377945 0 0 0 0 -2066941.8309667339 -540569.11568281054 0 -540569.11568281054 14543.085801824927 0 0 0 0 -7628501.4801887525 -8889237.034191139 0 -8889237.034191139 1653780.9865395497 0 0 0 0 -43091711.026573181 -245775.07776737213 0 -245775.07776737213 5487228.8527240753 0 0 0 0 -49017730.625880241 -34338257.358654976 0 -34338257.358654976 2038130.8460016251 0 0 0 0 -20842821.489135742 -6666541.4625666142 0 -6666541.4625666142 -5845280.8270559311 0 0 0 0 -23907694.363081694 -857710.51665488444 0 -857710.51665488444 6928675.9377376651 0 0 0 0 -41197454.721008301 -87040.982322692871 0 -87040.982322692871 1245451.2947819233 0 0 0 0 -156940076.44467926 -11846307.174681187 0 -11846307.174681187 111440291.36844921 0 0 0 0 -24645434.732940674 -67879306.96502471 0 -67879306.96502471 -69618293.983530998 0 0 0 0 -5859223.9684848785 -34697403.450462192 0 -34697403.450462192 56678592.195647717 0 0 0 0 -1711796.9341185391 -4290491.4273889307 0 -4290491.4273889307 630772.99420618673 0 0 0 0 24561066.71736145 -30382808.914428234 0 -30382808.914428234 48581022.334303856 0 0 0 0 -126825693.42616272 -128964860.00737762 0 -128964860.00737762 191593401.25986767 0 0 0 0 -74442146.904037476 -256960526.0768646 0 -256960526.0768646 42040919.992649794 0 0 0 0 -143785703.34877014 -76653250.55282104 0 -76653250.55282104 64535256.648311615 0 0 0 0 -113308683.37930298 -44106119.35127449 0 -44106119.35127449 74880581.809949398 0 0 0 0 -45434250.845809937 -16089902.569995403 0 -16089902.569995403 50655572.499874353 0 0 0 0 -79301294.854064941 -56224974.182890415 0 -56224974.182890415 29348564.280849218 0 0 0 0 13523929.957214355 -112717196.66490614 0 -112717196.66490614 -28456941.724178672 0 0 0 0 6116969.5728273392 -167211219.54514155 0 -167211219.54514155 -101612776.42124295 0 0 0 0 -51013896.618377686 -134960519.63949722 0 -134960519.63949722 -70456719.597052097 0 0 0 0 -82624110.307266235 -6641790.9598705769 0 -6641790.9598705769 14871221.967092499 0 0 0 0 -100132747.22076416 89339707.799647361 0 89339707.799647361 -253366754.46076718 0 0 0 0 -66495462.237075806 -200221494.1477527 0 -200221494.1477527 -297573933.47005737 0 0 0 0 178536165.14241791 -85656031.796297908 0 -85656031.796297908 -122139070.74000499 0 0 0 0 87351209.149505615 -171144776.1435703 0 -171144776.1435703 -136584561.10150689 0 0 0 0 347255.45208262466 -189731.34678823128 0 -189731.34678823128 -239164.02741084213 0 0 0 0 952690.43087768555 -4223626.4276877642 0 -4223626.4276877642 5436222.4667328894 0 0 0 0 -11304752.378147125 8959305.0492434204 0 8959305.0492434204 -8622652.9336788654 0 0 0 0 -7249423.5747570293 -470663.28505900875 0 -470663.28505900875 1222955.8493308646 0 0 0 0 -4788360.7688264921 -3134950.771726273 0 -3134950.771726273 -545896.69994678837 0 0 0 0 -12881265.561676025 -1134552.1061666012 0 -1134552.1061666012 772335.36201810837 0 0 0 0 25421386.597076416 7263579.0040723681 0 7263579.0040723681 -25609408.600631475 0 0 0 0 -17803922.148075104 -2602777.6207369864 0 -2602777.6207369864 885257.03102040291 0 0 0 0 -15023301.871887207 2830873.8253848553 0 2830873.8253848553 396487.63541591167 0 0 0 0 -10998414.119160458 453226.28986644745 0 453226.28986644745 506668.74799066084 0 0 0 0 17657693.395462036 -6210597.6877555847 0 -6210597.6877555847 -81856045.82727766 0 0 0 0 17533506.537826538 -14471598.034741879 0 -14471598.034741879 2114115.2725052834 0 0 0 0 -25121466.602813721 18938405.91142413 0 18938405.91142413 25511111.668197989 0 0 0 0 -20561492.65838623 18859198.785094619 0 18859198.785094619 20180763.567940235 0 0 0 0 -24122746.471206665 4804704.2311959267 0 4804704.2311959267 21121854.19239305 0 0 0 0 -21565962.767349243 395627.32697725296 0 395627.32697725296 5601706.2372121811 0 0 0 0 -4399118.7388931513 -708615.00613075495 0 -708615.00613075495 421898.53219007223 0 0 0 0 -16352981.88734436 3993086.3925459385 0 3993086.3925459385 5029568.714225769 0 0 0 0 -14596352.563308716 -1329735.6340966225 0 -1329735.6340966225 1336129.3532443047 0 0 0 0 -24349310.598388672 11534175.566598505 0 11534175.566598505 7155021.8082575798 0 0 0 0 -19202571.181228638 6452573.5203927755 0 6452573.5203927755 11884481.728743434 0 0 0 0 1573449.7384643555 12315486.015865743 0 12315486.015865743 6833118.472273469 0 0 0 0 25524381.706558228 22812967.265681982 0 22812967.265681982 -10063782.316939354 0 0 0 0 -1366774.9407207407 -416584.33630267903 0 -416584.33630267903 179419.99640216734 0 0 0 0 -14766546.875106812 -4842218.978974402 0 -4842218.978974402 2536042.5079194307 0 0 0 0 -19094329.886535645 14062896.050510645 0 14062896.050510645 816638.73897993565 0 0 0 0 -11916093.704147339 24953897.839570522 0 24953897.839570522 -57807395.116324663 0 0 0 0 -13132824.282241821 34043186.448111847 0 34043186.448111847 -7092934.0098899603 0 0 0 0 -33603277.838531494 32926090.015014142 0 32926090.015014142 15829851.343851835 0 0 0 0 -30965534.521064758 19742426.981382798 0 19742426.981382798 39173741.585700572 0 0 0 0 -54377887.249694824 65007615.919181302 0 65007615.919181302 -5777763.571573168 0 0 0 0 -102316265.98429871 11246487.613505056 0 11246487.613505056 93469515.86432074 0 0 0 0 -1274775.0648181811 252613.09263477102 0 252613.09263477102 210804.75761802273 0 0 0 0 -460212093.89645386 334745838.49978769 0 334745838.49978769 -100763427.72919011 0 0 0 0 245441277.4703064 -30903979.251251131 0 -30903979.251251131 -275513894.90861535 0 0 0 0 -584584238.03422356 -539885401.24381423 0 -539885401.24381423 307264455.19689715 0 0 0 0 -544093883.34992981 252225483.74055266 0 252225483.74055266 151765364.16780734 0 0 0 0 58990793.63470459 107883098.32225077 0 107883098.32225077 110724222.11880693 0 0 0 0 -141127392.2192688 -19690087.340913713 0 -19690087.340913713 34163733.114142135 0 0 0 0 46751139.201568604 -29884660.744836688 0 -29884660.744836688 -97045890.538626105 0 0 0 0 -20474524.462539673 -53439022.038140297 0 -53439022.038140297 85361792.709729686 0 0 0 0 -9230006.7464141846 11514919.401689053 0 11514919.401689053 22385208.725241065 0 0 0 0 35969245.444503784 -32604079.343653336 0 -32604079.343653336 -14261559.302192479 0 0 0 0 -1529384.7989935502 1063049.4565939009 0 1063049.4565939009 879464.10114868032 0 0 0 0 42218366.992218018 3805814.1218052506 0 3805814.1218052506 -7788829.5276390463 0 0 0 0 22683372.839233398 57081161.760652311 0 57081161.760652311 35574715.147180378 0 0 0 0 -18114230.595105007 587631.37346405722 0 587631.37346405722 1045663.3167031526 0 0 0 0 39237408.596466064 57100929.9873088 0 57100929.9873088 -72172329.226329014 0 0 0 0 -139468489.56846619 17270590.592802107 0 17270590.592802107 123395139.07201606 0 0 0 0 -19154267.31463661 806276.50039302465 0 806276.50039302465 908196.84275768977 0 0 0 0 6285929.9886703491 -50781289.926825225 0 -50781289.926825225 102389186.98723173 0 0 0 0 -31455292.819381714 -25140921.370995931 0 -25140921.370995931 19730659.71315936 0 0 0 0 -8069675.1168441772 -666090.9304090701 0 -666090.9304090701 -10399841.835498154 0 0 0 0 -9795888.3542785645 -24318673.675863672 0 -24318673.675863672 -21138214.962142639 0 0 0 0 -5180722.5473175049 -8547339.3944568783 0 -8547339.3944568783 3471688.8981773257 0 0 0 0 -11247389.336916849 -2043902.7541920319 0 -2043902.7541920319 164937.64131791447 0 0 0 0 -1083676.8304131478 -2836055.8512145132 0 -2836055.8512145132 787174.01183215063 0 0 0 0 5958710.9287414551 15299260.101132259 0 15299260.101132259 14719626.006477892 0 0 0 0 -25553836.135131836 -5473713.8001704216 0 -5473713.8001704216 29554109.786608219 0 0 0 0 -1877057.3020645455 -16302.813331305981 0 -16302.813331305981 6266.8218210632913 0 0 0 0 -6337346.2066449672 3590679.5813335255 0 3590679.5813335255 3957394.1518084616 0 0 0 0 -3051900.254776001 -554026.11895525455 0 -554026.11895525455 1340831.4506545067 0 0 0 0 -8066922.5808255821 497346.98047740757 0 497346.98047740757 758386.98021225492 0 0 0 0 -6433643.0492248535 -709825.79805552959 0 -709825.79805552959 1122462.9899234176 0 0 0 0 -6967099.2927550301 -1268170.0021738186 0 -1268170.0021738186 2157558.4621508941 0 0 0 0 -17344313.690475464 -581154.90892672539 0 -581154.90892672539 -3125011.2311844826 0 0 0 0 -7705320.1063389182 -778145.06434294488 0 -778145.06434294488 792783.94184345705 0 0 0 0 -3613274.6052720398 426328.27122629434 0 426328.27122629434 -81429.17865465756 0 0 0 0 -5489681.4274597168 -100879.3782787323 0 -100879.3782787323 831372.92721176147 0 0 0 0 -3030519.8580322266 -307636.07149982452 0 -307636.07149982452 332605.91631984711 0 0 0 0 -6801208.5693734884 505760.71456992254 0 505760.71456992254 1280310.2793162717 0 0 0 0 -2857443.7237548828 -1091328.0129127502 0 -1091328.0129127502 2790503.072265625 0 0 0 0 -14297489.888115078 603142.44538678974 0 603142.44538678974 693023.30575361918 0 0 0 0 -4984394.7182006836 196220.04468584061 0 196220.04468584061 217461.91647911072 0 0 0 0 -3795561.008291021 -1577204.9263776904 0 -1577204.9263776904 1768894.6525133557 0 0 0 0 -4795788.7113952637 -671401.61320352554 0 -671401.61320352554 1224355.3294091225 0 0 0 0 -11154965.729543149 -1827679.9533237815 0 -1827679.9533237815 3736139.8720497214 0 0 0 0 -3250734.3294677734 -1101104.6203117371 0 -1101104.6203117371 2839973.5215978622 0 0 0 0 -14294674.173577588 832492.53800301254 0 832492.53800301254 899565.90413022414 0 0 0 0 -2605147.9926757812 -1210075.5404348373 0 -1210075.5404348373 128449.67392921448 0 0 0 0 -54356557.810272217 -8951839.3554902077 0 -8951839.3554902077 -3781522.7452192307 0 0 0 0 -2752811.777958177 -472028.57788857073 0 -472028.57788857073 127225.55668047909 0 0 0 0 -39185261.194839478 -2291256.2305915505 0 -2291256.2305915505 1715045.6843948364 0 0 0 0 -5133063.5030905567 -606838.71439278126 0 -606838.71439278126 261318.51168758346 0 0 0 0 -5125818.8397369385 -194684.08804044127 0 -194684.08804044127 1121823.6139752269 0 0 0 0 -9075173.741531767 2947472.4071905166 0 2947472.4071905166 2170640.4519008151 0 0 0 0 -6692791.9280090332 -2719878.7131361365 0 -2719878.7131361365 -1765211.1868708134 0 0 0 0 -16342992.751152039 1469725.5516892895 0 1469725.5516892895 472806.03017662466 0 0 0 0 -10689437.626434326 367322.87031131983 0 367322.87031131983 -1785085.3234175444 0 0 0 0 -12007840.616500854 -3036940.4636120796 0 -3036940.4636120796 1898046.7662894726 0 0 0 0 -10343364.669799805 -2047781.9706865549 0 -2047781.9706865549 1650713.0131309032 0 0 0 0 -12658304.919937134 -1735387.9696917534 0 -1735387.9696917534 4947601.4936270714 0 0 0 0 -6687416.9173783995 2602248.7809290811 0 2602248.7809290811 1955993.1801470993 0 0 0 0 -13191505.033554077 1672143.3848062754 0 1672143.3848062754 4746277.7810230255 0 0 0 0 -22381804.827896118 20238989.115066499 0 20238989.115066499 6862267.730071485 0 0 0 0 -66489123.704742432 -829444.17783153057 0 -829444.17783153057 8096193.5247118473 0 0 0 0 -989375.26752038673 412198.40853977948 0 412198.40853977948 438333.63526130375 0 0 0 0 -90881907.491363525 52907801.874858603 0 52907801.874858603 66686815.369144797 0 0 0 0 -9066832.9160766602 -1030956.3465740681 0 -1030956.3465740681 4448202.535390377 0 0 0 0 -225692709.08258057 -70861961.341492802 0 -70861961.341492802 78102976.78311336 0 0 0 0 -10916081.310119629 1716356.2763726711 0 1716356.2763726711 2329118.5663990974 0 0 0 0 -7752864.6746826172 -2390003.0657858849 0 -2390003.0657858849 5005509.8361560106 0 0 0 0 -7820183.9513549805 -2952703.0610554218 0 -2952703.0610554218 3139968.2845125198 0 0 0 0 -4289983.0523796082 -3512367.7581992745 0 -3512367.7581992745 3181144.4318418503 0 0 0 0 -18946959.831207275 -32101003.079634715 0 -32101003.079634715 17528580.010804154 0 0 0 0 -6457552.9379653931 588836.02124923468 0 588836.02124923468 5282945.9823217392 0 0 0 0 -3304611.1487255096 -537619.14617849886 0 -537619.14617849886 2459878.1734609632 0 0 0 0 2978084.2490844727 -1853310.5029072734 0 -1853310.5029072734 -3959.7160318181504 0 0 0 0 -9184494.7164001465 20759832.802104048 0 20759832.802104048 -277562132.64780325 0 0 0 0 -5624566.1654697899 2327810.3063131869 0 2327810.3063131869 2530333.5658074371 0 0 0 0 -173879156.22528076 -52222241.619634718 0 -52222241.619634718 142046250.53492442 0 0 0 0 -6154867.0751211271 -1301738.6978752166 0 -1301738.6978752166 419801.93232634297 0 0 0 0 -257882881.66333008 142047921.73489261 0 142047921.73489261 17440719.220023073 0 0 0 0 33603.661534391344 -717287.77904497087 0 -717287.77904497087 -3198141.2130952929 0 0 0 0 1541143.381942749 -5908770.4702736139 0 -5908770.4702736139 1149022.916498661 0 0 0 0 -32166170.72076416 4156064.0799844721 0 4156064.0799844721 -6542145.4695736058 0 0 0 0 -31696428.193145752 5413353.0578090409 0 5413353.0578090409 -4931956.8855597368 0 0 0 0 80397953.606523544 -9906990.9139963277 0 -9906990.9139963277 -15821690.020003766 0 0 0 0 -2364159.5754772574 -1277807.7817515889 0 -1277807.7817515889 2345793.771063468 0 0 0 0 -2933949.9378051758 -2358891.5305159092 0 -2358891.5305159092 3617852.5534616113 0 0 0 0 4965851.9970054626 33134738.508189086 0 33134738.508189086 -2508476.0593534396 0 0 0 0 -3502379.4370880127 -5851240.5746923685 0 -5851240.5746923685 3023550.6511077881 0 0 0 0 -3691689.1177520752 -6626515.5696927309 0 -6626515.5696927309 1053929.3902188838 0 0 0 0 9389153.5475006104 -2192194.1983694732 0 -2192194.1983694732 -17955113.275129795 0 0 0 0 12543852.006668091 -12635884.278164655 0 -12635884.278164655 -1858893.0441815853 0 0 0 0 -10982639.254623413 -7426353.8735783994 0 -7426353.8735783994 3835926.4738540649 0 0 0 0 -25104271.467147827 -5061149.1256010421 0 -5061149.1256010421 4902628.386715658 0 0 0 0 -19903730.393310547 -20915586.991712265 0 -20915586.991712265 -2913894.8807411417 0 0 0 0 16646851.708938599 -38532792.7270955 0 -38532792.7270955 -5022104.5019026697 0 0 0 0 33736026.964530945 -7099295.6764996946 0 -7099295.6764996946 -17043249.236326694 0 0 0 0 64279.158740974963 -94724.450336873531 0 -94724.450336873531 -730826.80036940461 0 0 0 0 -550677.45674133301 35916289.188826799 0 35916289.188826799 -63025526.634282067 0 0 0 0 175050669.5619812 -140106404.79763031 0 -140106404.79763031 -54632675.893643394 0 0 0 0 -71112522.627029419 -108297455.31589288 0 -108297455.31589288 -42203507.679992095 0 0 0 0 -208809668.06136322 285150.04193848884 0 285150.04193848884 -8146671.7102855155 0 0 0 0 -63454046.184814453 -1045842.5763518901 0 -1045842.5763518901 -8789039.4512012284 0 0 0 0 13216.842576302588 -431119.60672283918 0 -431119.60672283918 -1951510.9644835445 0 0 0 0 -45406379.785369873 11712955.165882049 0 11712955.165882049 -5428725.0595997469 0 0 0 0 -76555616.086776733 15703958.592192715 0 15703958.592192715 -4888384.0554051325 0 0 0 0 -58801765.47869873 3798547.5772279222 0 3798547.5772279222 -4326965.6315687038 0 0 0 0 -55491279.820220947 2703266.814170273 0 2703266.814170273 959.35299796358527 0 0 0 0 -57789304.668746948 31354.160511970025 0 31354.160511970025 -3103996.4289038223 0 0 0 0 -59180673.186817169 6948397.4489952335 0 6948397.4489952335 2135533.5485567036 0 0 0 0 -46329651.060302734 2268942.5593289612 0 2268942.5593289612 2104.921038015184 0 0 0 0 -18615972.41580379 -5682684.6579800127 0 -5682684.6579800127 -3276135.337167372 0 0 0 0 -40198828.203109741 2488217.5560238478 0 2488217.5560238478 11370.161602344409 0 0 0 0 -49978546.664932251 -3732817.3010583557 0 -3732817.3010583557 364735.98089068336 0 0 0 0 -46362563.515045166 4413432.2722391374 0 4413432.2722391374 -4797706.322893491 0 0 0 0 -55888166.178596497 -4125556.6796146017 0 -4125556.6796146017 -11633371.957689926 0 0 0 0 -46193638.959259033 -3208098.6782579161 0 -3208098.6782579161 1324111.9558828501 0 0 0 0 -47795124.331802368 2014694.4650517032 0 2014694.4650517032 5403133.5998760462 0 0 0 0 -53074304.41758728 26594011.684538607 0 26594011.684538607 -47251665.690664522 0 0 0 0 71687640.674484253 32983866.23620319 0 32983866.23620319 -74183483.918857783 0 0 0 0 140277250.16390991 52143572.320007674 0 52143572.320007674 -82584911.766268387 0 0 0 0 -292223.6035310179 357464.54120368138 0 357464.54120368138 -165780.49393534841 0 0 0 0 -209175236.60113525 73724822.625465155 0 73724822.625465155 277794062.58199358 0 0 0 0 128983513.01263428 9355627.2484286577 0 9355627.2484286577 -136066269.17870787 0 0 0 0 -12342711.317638397 -321005.92277709022 0 -321005.92277709022 8340452.3230342865 0 0 0 0 -6534210.516494751 -1780331.8189635575 0 -1780331.8189635575 5225862.234182477 0 0 0 0 -7385152.3804473877 1430593.6124663353 0 1430593.6124663353 -6887662.4922007769 0 0 0 0 -14467964.01763916 -20224536.842298388 0 -20224536.842298388 -1215906.0948188305 0 0 0 0 -18680272.856531225 1350260.337839284 0 1350260.337839284 583165.00999427354 0 0 0 0 -16490893.140380859 -8032014.439840138 0 -8032014.439840138 31015020.921301007 0 0 0 0 -358689137.09313965 119955011.099213 0 119955011.099213 288534685.69173145 0 0 0 0 -40220808.467208862 23765654.905737102 0 23765654.905737102 57667684.207941711 0 0 0 0 -19468007.820834801 1104860.7009406378 0 1104860.7009406378 772241.29747890332 0 0 0 0 126797237.86468506 -43278604.101172388 0 -43278604.101172388 -77684503.089570627 0 0 0 0 14988533.690223694 -9317228.9404611699 0 -9317228.9404611699 -48403358.213138379 0 0 0 0 -2113213.3763954714 -35987.806327950209 0 -35987.806327950209 1248588.857947991 0 0 0 0 -16305719.570556641 -35964473.865068555 0 -35964473.865068555 11108825.528690379 0 0 0 0 -14534000.550216675 -4895062.0913015753 0 -4895062.0913015753 5370369.9989238381 0 0 0 0 -19568540.101579666 -5212487.6080784649 0 -5212487.6080784649 22509872.87193656 0 0 0 0 -9205788.3036053553 -516917.2074302854 0 -516917.2074302854 189588.98125849836 0 0 0 0 -103485512.42029572 30076444.420415852 0 30076444.420415852 -5206687.0176254511 0 0 0 0 -8408948.3156934045 3372101.5821516216 0 3372101.5821516216 186752.02087708388 0 0 0 0 -918854.93812797219 1456848.5022704122 0 1456848.5022704122 14237.105318240359 0 0 0 0 123853935.88597107 -47092407.776010953 0 -47092407.776010953 20660851.2347904 0 0 0 0 -52070173.823104858 -56460263.718082428 0 -56460263.718082428 44150381.340999871 0 0 0 0 -9952905.8676223755 24500926.68949461 0 24500926.68949461 39300877.51733017 0 0 0 0 -10449971.213394165 -2002978.4956457615 0 -2002978.4956457615 12089941.043303929 0 0 0 0 -16903101.668655396 -9092416.3984320164 0 -9092416.3984320164 12117933.811588813 0 0 0 0 -15192516.028884888 -15353197.250027657 0 -15353197.250027657 4222258.5810085908 0 0 0 0 -3114088.2798233032 -13471290.042819977 0 -13471290.042819977 -14571251.394587517 0 0 0 0 -6051036.6702575684 -7438563.5763260722 0 -7438563.5763260722 4426338.465073768 0 0 0 0 -5574846.4471130371 -776892.27188563347 0 -776892.27188563347 1282769.1133842468 0 0 0 0 -8432913.7144306228 -1123381.1922037806 0 -1123381.1922037806 -204559.75178466772 0 0 0 0 -9105600.6101388931 -440078.82823474333 0 -440078.82823474333 4642656.0046935678 0 0 0 0 -10895235.343673706 -10394336.325492144 0 -10394336.325492144 16835437.565905988 0 0 0 0 -9332437.74243927 18800057.504886627 0 18800057.504886627 -11136015.434577942 0 0 0 0 -2393809.6940841675 6622606.1409904957 0 6622606.1409904957 -2813469.2824411392 0 0 0 0 -12763112.604598999 1986126.6484742165 0 1986126.6484742165 888371.72813129425 0 0 0 0 -10532688.127410889 -2224556.8714284897 0 -2224556.8714284897 -1392918.0475206375 0 0 0 0 -14293095.984832764 1128946.7221319675 0 1128946.7221319675 2662429.7219963074 0 0 0 0 -931952.09603738785 -421364.01399152167 0 -421364.01399152167 571149.8449680109 0 0 0 0 -7078051.3844604492 5152410.50162673 0 5152410.50162673 3910477.3071067333 0 0 0 0 -1667763.9444471523 -994743.42930803774 0 -994743.42930803774 69479.234181009582 0 0 0 0 -5023158.4201507568 -5471831.6821553707 0 -5471831.6821553707 2305293.3338904381 0 0 0 0 -613961.36814282835 -505745.09607952181 0 -505745.09607952181 87188.092019559932 0 0 0 0 -5946684.8308868408 -34852456.236385942 0 -34852456.236385942 -63285123.727897406 0 0 0 0 4508671.8416442871 -211041.03762626648 0 -211041.03762626648 -18615700.635277748 0 0 0 0 -19371981.71446228 28163785.077672482 0 28163785.077672482 -51995667.096351027 0 0 0 0 -67796855.578453064 51244562.59672761 0 51244562.59672761 -26287897.377482414 0 0 0 0 -158468016.29299927 -3227478.5799553394 0 -3227478.5799553394 15022224.414790154 0 0 0 0 -38442111.231735229 -10022282.174795151 0 -10022282.174795151 12285741.034543991 0 0 0 0 -71451852.056522369 35208176.176845431 0 35208176.176845431 1280529.5802593231 0 0 0 0 -34487335.500732422 13415709.442892075 0 13415709.442892075 11324664.798576832 0 0 0 0 -40717622.995269775 16551224.44717598 0 16551224.44717598 12605900.820744514 0 0 0 0 -36050476.246734619 -7701938.9194316864 0 -7701938.9194316864 19903988.463294029 0 0 0 0 -59224667.956279755 -5440903.5167837143 0 -5440903.5167837143 16030662.923386574 0 0 0 0 -31796391.749206543 -4000630.9439401627 0 -4000630.9439401627 14377820.934293747 0 0 0 0 -31408949.335296631 -2111579.5303273201 0 -2111579.5303273201 19597957.835674286 0 0 0 0 -19213775.9715271 25465183.246078014 0 25465183.246078014 -15629263.056687236 0 0 0 0 -31019433.920776367 28029088.505271912 0 28029088.505271912 -16671255.431168556 0 0 0 0 -24905629.639907837 20678513.699168205 0 20678513.699168205 -9540625.9976511002 0 0 0 0 -38173211.834770203 27997585.586569369 0 27997585.586569369 -3708580.3304347992 0 0 0 0 -25981034.453125 17506287.653085709 0 17506287.653085709 4483619.597987175 0 0 0 0 -26563512.144195557 20205953.743668079 0 20205953.743668079 -119454.67277050018 0 0 0 0 -16732559.329360962 13010396.755067825 0 13010396.755067825 4390808.7524018288 0 0 0 0 -24555537.288497925 8298894.5352697372 0 8298894.5352697372 13895786.954801559 0 0 0 0 -37430225.33001709 16269961.912462711 0 16269961.912462711 11602229.667525291 0 0 0 0 -19745815.690261841 3592168.0562286377 0 3592168.0562286377 9818221.4937734604 0 0 0 0 -26841441.614242554 11615632.6921103 0 11615632.6921103 9425577.5300512314 0 0 0 0 -14413543.978469849 -993745.72777271271 0 -993745.72777271271 31217656.990156174 0 0 0 0 -17621748.018310547 -6313623.3234906197 0 -6313623.3234906197 22396384.792860031 0 0 0 0 -35730107.737915039 -5992770.9887828827 0 -5992770.9887828827 25052077.957762718 0 0 0 0 -25787572.28012085 -10553904.774281502 0 -10553904.774281502 31984114.108016968 0 0 0 0 -29044063.048034668 2226791.7705917358 0 2226791.7705917358 21741089.595981836 0 0 0 0 -44474537.639961243 9722504.4565198421 0 9722504.4565198421 23156954.838422775 0 0 0 0 -12335429.474182129 -6745293.3638315201 0 -6745293.3638315201 18700786.272592664 0 0 0 0 -34057578.113220215 3796253.9554038048 0 3796253.9554038048 21823116.7101717 0 0 0 0 -22848874.476501465 -6710444.1733255386 0 -6710444.1733255386 36702282.943754196 0 0 0 0 -16845108.306686401 -16445944.027603388 0 -16445944.027603388 28686304.355397224 0 0 0 0 -20037266.356506348 701873.64912748337 0 701873.64912748337 8070632.4210529327 0 0 0 0 -25883437.989532471 -22525766.368585825 0 -22525766.368585825 -1760031.9681177139 0 0 0 0 -32476248.975196838 8324321.7722017169 0 8324321.7722017169 3401461.0396699905 0 0 0 0 -15538189.496978059 -1348263.6918003485 0 -1348263.6918003485 205148.10357325478 0 0 0 0 -23935586.874450684 2224014.8712515831 0 2224014.8712515831 12041318.681310654 0 0 0 0 -18943726.08442688 -1919653.9419212341 0 -1919653.9419212341 12690345.814813137 0 0 0 0 -15690338.43053586 -2118401.0071190633 0 -2118401.0071190633 -807483.35296881944 0 0 0 0 -12568974.901205771 -565840.27587493602 0 -565840.27587493602 69477.431513478281 0 0 0 0 -20057265.221290588 850008.6841173172 0 850008.6841173172 6076400.7213068008 0 0 0 0 -10112011.74937439 -1578460.9717116356 0 -1578460.9717116356 1424208.9346795082 0 0 0 0 -14998836.367385864 8887502.8753862381 0 8887502.8753862381 1908691.9282627106 0 0 0 0 -8052391.3833847046 -534466.63531112671 0 -534466.63531112671 6591933.6778149605 0 0 0 0 -11337339.295223534 1672165.6560146511 0 1672165.6560146511 -1877058.7985289562 0 0 0 0 -18653322.851257324 3740733.612821579 0 3740733.612821579 7759197.5789961815 0 0 0 0 -18800290.716323853 8845632.1297688484 0 8845632.1297688484 2093224.4948091507 0 0 0 0 -19522756.517608643 10986722.267402649 0 10986722.267402649 -3840526.1798615456 0 0 0 0 -16742515.97225666 12699383.517197013 0 12699383.517197013 -2806789.7500762939 0 0 0 0 -14782266.419448853 -2031765.9385018349 0 -2031765.9385018349 -1166372.5502781868 0 0 0 0 -11007550.764209196 -1417986.1178405732 0 -1417986.1178405732 721662.39816766698 0 0 0 0 -16495921.070457458 -300258.49853241444 0 -300258.49853241444 -467181.79294300079 0 0 0 0 -15939577.546920776 1469037.9883575439 0 1469037.9883575439 -1606057.3111951351 0 0 0 0 -2261990.6331502795 239510.23216208071 0 239510.23216208071 725707.00201724423 0 0 0 0 -10388949.130126942 -395707.37694956362 0 -395707.37694956362 -1845854.4587428453 0 0 0 0 -11488138.213569641 834800.79525661469 0 834800.79525661469 3218619.6098222733 0 0 0 0 -9839682.8137893677 -1534663.0395021439 0 -1534663.0395021439 44109.896595954895 0 0 0 0 -9814028.4650268555 -1245003.1676552296 0 -1245003.1676552296 3107648.8678330481 0 0 0 0 -965059.58213806152 -7074740.5438497066 0 -7074740.5438497066 -4049907.3740081787 0 0 0 0 -10014042.820167542 -2253771.6649911404 0 -2253771.6649911404 8072661.9335203171 0 0 0 0 -8197894.4366989136 434603.21722102165 0 434603.21722102165 3473073.9220914841 0 0 0 0 -11352828.66099659 2608181.853756221 0 2608181.853756221 1440135.0023636725 0 0 0 0 -33785532.957382202 5901052.6594297886 0 5901052.6594297886 32790927.923568249 0 0 0 0 -107227.72053796053 548341.31485651236 0 548341.31485651236 -79967.515430896456 0 0 0 0 3575194.9377441406 29231276.922753572 0 29231276.922753572 -6503973.3508704156 0 0 0 0 -11902949.56678772 5191390.5718148947 0 5191390.5718148947 23235870.710406065 0 0 0 0 -15329793.570472911 -230019.78472769214 0 -230019.78472769214 727931.83844824205 0 0 0 0 -6141077.4618022516 -2252236.8826588364 0 -2252236.8826588364 945728.73504781991 0 0 0 0 -5816402.9025115967 -3481929.0583629608 0 -3481929.0583629608 20515615.914568663 0 0 0 0 -11246363.145118896 9079533.5877864305 0 9079533.5877864305 4598250.2391881421 0 0 0 0 -19476523.122302055 -83305.332293748856 0 -83305.332293748856 12256104.367859364 0 0 0 0 -44516920.150150299 8971516.4259089231 0 8971516.4259089231 9348114.5441155732 0 0 0 0 -10686108.256793976 5643225.6644248962 0 5643225.6644248962 -611940.62760454416 0 0 0 0 -2889673.2971686237 963643.54666241817 0 963643.54666241817 394485.7188983871 0 0 0 0 -43238943.074420929 24619052.956170648 0 24619052.956170648 -8334788.7001531422 0 0 0 0 -35449862.013565063 1021692.2719027698 0 1021692.2719027698 -8313541.4592583776 0 0 0 0 -24089986.594287872 10784763.596329287 0 10784763.596329287 13874547.3926512 0 0 0 0 -20193375.649908066 16253717.045142174 0 16253717.045142174 12347275.008593798 0 0 0 0 -8136206.5441285744 2391453.5782550899 0 2391453.5782550899 2692453.8531723367 0 0 0 0 -17366966.034582138 -8598779.351775825 0 -8598779.351775825 20937836.977147222 0 0 0 0 -24636590.896575928 15487575.28826952 0 15487575.28826952 -26884.349237680435 0 0 0 0 -41658579.093360901 -9337410.9043698311 0 -9337410.9043698311 41757920.241300344 0 0 0 0 -15210385.722383779 1369037.1522419844 0 1369037.1522419844 388746.15466016345 0 0 0 0 -17816737.21434021 14246338.455692708 0 14246338.455692708 -2529108.9939060211 0 0 0 0 -24734017.342552185 -10602906.444063425 0 -10602906.444063425 16016915.730028629 0 0 0 0 -11797209.941320021 2573936.281676203 0 2573936.281676203 1728707.0362330589 0 0 0 0 -2404859.1842696667 -1852072.9173308732 0 -1852072.9173308732 1042126.9091005723 0 0 0 0 -18635308.023452759 8640809.5330395699 0 8640809.5330395699 -8120114.4948585033 0 0 0 0 -14358218.163326263 2608466.3003245592 0 2608466.3003245592 385277.10130405426 0 0 0 0 -37452635.881641388 3177378.5833390653 0 3177378.5833390653 16383540.387290001 0 0 0 0 -14689083.975355946 5844170.0663021971 0 5844170.0663021971 1817199.5267123538 0 0 0 0 -10923618.762443542 8128787.4290528297 0 8128787.4290528297 -775382.28784060478 0 0 0 0 -12592122.193294525 1052996.219150424 0 1052996.219150424 1901625.3296833038 0 0 0 0 -12022359.579460144 4798973.5668475628 0 4798973.5668475628 11459340.162903309 0 0 0 0 -12150122.355218887 -26703066.897192121 0 -26703066.897192121 6500853.3646521568 0 0 0 0 -5123753.1919635683 1391808.8756472114 0 1391808.8756472114 2454111.6558522335 0 0 0 0 -22046569.925857544 19743525.730024338 0 19743525.730024338 6473096.9998817444 0 0 0 0 -28558801.950000763 5895940.5591698885 0 5895940.5591698885 18502753.057562381 0 0 0 0 -15360928.565729093 3774905.5898336759 0 3774905.5898336759 59989.027500349213 0 0 0 0 -19301434.062437057 6482262.8231005669 0 6482262.8231005669 5032453.8909181356 0 0 0 0 -51902611.751777649 21918231.259144783 0 21918231.259144783 -1689174.5318279266 0 0 0 0 -41377654.990180969 13472563.004580975 0 13472563.004580975 4326398.1584172249 0 0 0 0 -15086611.418899298 5448030.5490042642 0 5448030.5490042642 4960902.6480001919 0 0 0 0 -42003009.953117371 24280600.632122993 0 24280600.632122993 5218117.0727887154 0 0 0 0 -44316418.177223206 17190029.788969994 0 17190029.788969994 -543057.38083124161 0 0 0 0 -14211605.899136335 8104617.3007405465 0 8104617.3007405465 -539079.64521666174 0 0 0 0 -10699438.989440918 7283244.83943367 0 7283244.83943367 12948179.029992819 0 0 0 0 -36102863.182149887 21965474.792400002 0 21965474.792400002 11761305.056814671 0 0 0 0 -1216367.6091766357 6511275.5973092318 0 6511275.5973092318 3618535.9666342735 0 0 0 0 -25077856.653120335 8742470.8925166596 0 8742470.8925166596 5613575.4580185357 0 0 0 0 -10617067.571922302 -1456763.5617394447 0 -1456763.5617394447 2021618.6939873695 0 0 0 0 -10540996.408522861 4336672.290641956 0 4336672.290641956 -562712.47848530533 0 0 0 0 -6713704.2257080078 8536651.1635615826 0 8536651.1635615826 -9645798.5195498466 0 0 0 0 -2910220.5405731201 4921167.714630127 0 4921167.714630127 3777673.1318302155 0 0 0 0 -4254633.4742677137 -2129942.9363912549 0 -2129942.9363912549 -2971732.6061060494 0 0 0 0 -37474264.233921051 10786516.875522137 0 10786516.875522137 -10631322.539299011 0 0 0 0 -29691495.047828674 17991326.174188614 0 17991326.174188614 -19382969.336677551 0 0 0 0 -14800939.156553552 12082553.2599751 0 12082553.2599751 1453415.4043934315 0 0 0 0 -3343260.3085501157 -18664.33203513734 0 -18664.33203513734 2081814.6525902264 0 0 0 0 -30714219.420501709 3277428.3098814487 0 3277428.3098814487 4885774.0479650497 0 0 0 0 -34393891.395751953 26615667.889280319 0 26615667.889280319 -9424452.5196919441 0 0 0 0 -19275522.253965721 -4333261.5801119693 0 -4333261.5801119693 -361387.4188152086 0 0 0 0 -17935877.204238892 3997618.6705925465 0 3997618.6705925465 4486008.5798683167 0 0 0 0 -2108479.3263260312 311655.89824823663 0 311655.89824823663 589717.33738350635 0 0 0 0 -17102607.399045993 3635343.0663991459 0 3635343.0663991459 3754714.68001353 0 0 0 0 -10942157.28465271 1896641.7656743526 0 1896641.7656743526 8013529.2534370422 0 0 0 0 -29740310.425354004 -8433683.2665328979 0 -8433683.2665328979 -2782147.8070993423 0 0 0 0 -36929332.213493347 -7358663.7896692753 0 -7358663.7896692753 -2815741.7067756653 0 0 0 0 -38348123.184570312 -3836144.1163630486 0 -3836144.1163630486 4034249.9504942894 0 0 0 0 -12189213.524242355 1385501.143363554 0 1385501.143363554 -3657511.8343636254 0 0 0 0 -27129908.585929871 -11896605.521363258 0 -11896605.521363258 1589242.9605932236 0 0 0 0 -33159340.11100769 14578382.296291351 0 14578382.296291351 -3766489.9643859863 0 0 0 0 -37389087.664253235 -13139555.840920687 0 -13139555.840920687 8776078.3127775192 0 0 0 0 11991915.956504822 -21229837.451712132 0 -21229837.451712132 -7103856.1450181007 0 0 0 0 -7474869.9811267015 1850438.2627123818 0 1850438.2627123818 -1205360.4999887953 0 0 0 0 -30140254.302875519 -32809282.554721832 0 -32809282.554721832 2009600.6936426163 0 0 0 0 13080721.367126465 20028639.066997528 0 20028639.066997528 -3195222.9674186707 0 0 0 0 -78804518.144432068 -4677497.9132750034 0 -4677497.9132750034 13375491.426823616 0 0 0 0 -96846172.777160645 -28441003.860148907 0 -28441003.860148907 -13116276.998166084 0 0 0 0 -80806435.806381226 -53324444.596633911 0 -53324444.596633911 -76736835.315540314 0 0 0 0 -126590972.04248047 13136674.171832085 0 13136674.171832085 -50755671.984982491 0 0 0 0 -56787358.37902832 -15681822.763332367 0 -15681822.763332367 -20082404.255355835 0 0 0 0 -31731409.597640991 -39603667.971469879 0 -39603667.971469879 -26526926.789548516 0 0 0 0 -46913883.862869263 -11373580.654423714 0 -11373580.654423714 14383879.863741875 0 0 0 0 -38608346.253250122 -8290637.8034005165 0 -8290637.8034005165 11409886.667090416 0 0 0 0 -13759815.194656372 30360256.590838671 0 30360256.590838671 -5266789.6732563972 0 0 0 0 -55750412.548553467 -590574.13018941879 0 -590574.13018941879 16620435.051834762 0 0 0 0 -13507016.991488501 7571565.961246863 0 7571565.961246863 -59306.491214046255 0 0 0 0 -19258636.275741577 7823505.4434366226 0 7823505.4434366226 16681.220671117306 0 0 0 0 291160.47649383545 -19995009.844669819 0 -19995009.844669819 39808755.163182259 0 0 0 0 4678028.4308319092 -14316310.337744713 0 -14316310.337744713 6619716.4826698303 0 0 0 0 6216675.5324707031 -30800403.327810287 0 -30800403.327810287 32488194.057777405 0 0 0 0 -502845.54570201784 -12514.825805440545 0 -12514.825805440545 307861.4896205361 0 0 0 0 4004310.3471755981 -21214673.13375783 0 -21214673.13375783 14237757.222594261 0 0 0 0 -1383472.4655786082 8548088.6692898832 0 8548088.6692898832 -127132.95816988335 0 0 0 0 -34554243.01953125 18683062.317312241 0 18683062.317312241 -3124820.4027125239 0 0 0 0 -49004463.393348694 97946236.248710871 0 97946236.248710871 -40048874.180187225 0 0 0 0 57646291.446151733 9560389.4493589401 0 9560389.4493589401 4728654.3406332135 0 0 0 0 -305264234.50102615 14811336.409864306 0 14811336.409864306 -2783402.8721752167 0 0 0 0 -84205386.683309555 -55840812.967638381 0 -55840812.967638381 -13284611.915640831 0 0 0 0 -7422664.1989224255 3983984.3980078809 0 3983984.3980078809 1423427.2289177105 0 0 0 0 815300.04949845374 20895.586267139763 0 20895.586267139763 -572255.45625115046 0 0 0 0 -579848.70908042043 268417.68896888569 0 268417.68896888569 211207.21864421666 0 0 0 0 -217484803.75852966 -25021516.674730301 0 -25021516.674730301 8149077.3890457153 0 0 0 0 -80716595.115203857 -116234570.38004231 0 -116234570.38004231 -151149786.02981901 0 0 0 0 31279981.154846191 -57391904.608785629 0 -57391904.608785629 -28335875.752140999 0 0 0 0 -21301405.161670685 -25916310.703212738 0 -25916310.703212738 17698991.616322517 0 0 0 0 -46810735.899871826 -18811378.222356319 0 -18811378.222356319 15836130.310231924 0 0 0 0 -6484767.0552387238 150346563.78804335 0 150346563.78804335 -34482744.117365837 0 0 0 0 -37602148.498519897 -73760006.444525242 0 -73760006.444525242 -16760656.997929573 0 0 0 0 17346400.737197876 -111711324.2208612 0 -111711324.2208612 -107725398.62997288 0 0 0 0 -7884962.6805781797 4052677.7366581485 0 4052677.7366581485 272380.47573405225 0 0 0 0 -124230436.97798157 -41311528.348986387 0 -41311528.348986387 37703147.384516716 0 0 0 0 -102353330.77168274 -40273407.475358963 0 -40273407.475358963 10061260.867253304 0 0 0 0 -71110739.880462646 -85438367.095790386 0 -85438367.095790386 11704945.209188461 0 0 0 0 -52216017.140838623 -73177420.012140751 0 -73177420.012140751 13853733.989928246 0 0 0 0 -38121816.377002716 -27899838.461985648 0 -27899838.461985648 32052667.585061073 0 0 0 0 -90270906.103637695 -8705855.3120163679 0 -8705855.3120163679 75954811.597335815 0 0 0 0 -3819326.7249243632 1102063.4602691159 0 1102063.4602691159 615462.9037347436 0 0 0 0 -134595302.21994019 -2666717.847635746 0 -2666717.847635746 41129338.782706261 0 0 0 0 -35254007.146636963 -33399989.639575481 0 -33399989.639575481 50533516.097637415 0 0 0 0 -34580494.366638184 3176155.7287273407 0 3176155.7287273407 3320466.8843706846 0 0 0 0 42511175.722015381 20482783.14167738 0 20482783.14167738 4874880.4654973745 0 0 0 0 -6382229.9506019279 2135702.183865143 0 2135702.183865143 1307912.8978459386 0 0 0 0 30302524.730255127 -1632908.8717660904 0 -1632908.8717660904 -2910619.5959997177 0 0 0 0 5770161.1934814453 54628268.456264496 0 54628268.456264496 48809015.253065109 0 0 0 0 -28219492.32244873 1422152.677336812 0 1422152.677336812 16008690.475294352 0 0 0 0 -8678853.4474105835 41895169.125930369 0 41895169.125930369 22152246.989174843 0 0 0 0 -4916023.1952819824 49817462.662549496 0 49817462.662549496 14505406.579810619 0 0 0 0 31341165.430168152 59836754.290275574 0 59836754.290275574 9972008.2061948776 0 0 0 0 14571437.215758324 13020388.294049855 0 13020388.294049855 -33943982.424034119 0 0 0 0 48962866.35798645 9035208.2562184334 0 9035208.2562184334 -24371995.97884655 0 0 0 0 14678805.31037426 18840353.214158051 0 18840353.214158051 35486458.991576195 0 0 0 0 -12459459.01902771 -22520793.667619467 0 -22520793.667619467 -62714513.909457207 0 0 0 0 -23145541.144500732 21991638.611131668 0 21991638.611131668 -29468006.382789135 0 0 0 0 -29607548.653442383 -11031543.446896076 0 -11031543.446896076 -93719731.771681786 0 0 0 0 -100841324.60043335 8190096.9767150879 0 8190096.9767150879 -66908656.673267126 0 0 0 0 -307603584.04881191 -35815145.707352042 0 -35815145.707352042 -46854588.191911697 0 0 0 0 -129836442.00967407 -59652622.210691452 0 -59652622.210691452 -141277495.95821571 0 0 0 0 -109279397.99664307 7873327.9452388287 0 7873327.9452388287 -20759545.188264847 0 0 0 0 -114009100.54171753 32242675.805269241 0 32242675.805269241 -112855158.51269674 0 0 0 0 -31979369.972015381 7319566.6637067795 0 7319566.6637067795 -22406783.607243538 0 0 0 0 -1324556.3775040582 1062165.7365097255 0 1062165.7365097255 -2083316.5212709543 0 0 0 0 -8312438.969871521 4787892.1835610867 0 4787892.1835610867 2076953.7329264879 0 0 0 0 -6958598.5175555181 2641697.9659906588 0 2641697.9659906588 1309355.2312217145 0 0 0 0 -6964310.209777832 -393610.12580227852 0 -393610.12580227852 -194436.10532176495 0 0 0 0 -6623313.9001312256 6677.7924896478653 0 6677.7924896478653 274279.1749663353 0 0 0 0 -3800285.1468424127 1703467.1330057485 0 1703467.1330057485 -490069.74517661217 0 0 0 0 -7363683.556455113 714430.91310675442 0 714430.91310675442 2518042.1196679771 0 0 0 0 6918633.7564544678 6584927.5481314063 0 6584927.5481314063 3644642.0384193212 0 0 0 0 -2703604.9883861318 -2203538.8925579637 0 -2203538.8925579637 -1940925.3519366281 0 0 0 0 243106655.08413696 121089141.5599128 0 121089141.5599128 -162384726.20720652 0 0 0 0 903143.56694030762 2034930.6787807643 0 2034930.6787807643 2484186.2897480726 0 0 0 0 669697.02964002267 475301.10202630982 0 475301.10202630982 111694.33079917193 0 0 0 0 -170974060.87678528 67877503.620185137 0 67877503.620185137 191789834.3274163 0 0 0 0 662733.58672504127 -108235.60323530436 0 -108235.60323530436 -567961.51756736764 0 0 0 0 949284.47355651855 -707649.95867908001 0 -707649.95867908001 -2142346.4463796616 0 0 0 0 844869.78640443087 -576709.71264811791 0 -576709.71264811791 -3162720.4901651475 0 0 0 0 -2056876.5954437256 -2112165.2081199288 0 -2112165.2081199288 -800062.44318962097 0 0 0 0 251080.5388299264 455772.85982923955 0 455772.85982923955 -1316574.7099958912 0 0 0 0 5345204.2242965698 1981969.1385318637 0 1981969.1385318637 -5075236.4292178154 0 0 0 0 -31141711.823736191 62574971.402077094 0 62574971.402077094 -122391721.37329185 0 0 0 0 -136843407.50252533 129121280.60050979 0 129121280.60050979 -19776730.618022412 0 0 0 0 -435763342.49985123 180862785.38200295 0 180862785.38200295 -1738275.2761876583 0 0 0 0 -20019.871071312577 315720.56467721984 0 315720.56467721984 -401991.29355922597 0 0 0 0 4114647.6656646729 378463581.91747689 0 378463581.91747689 -69050272.734969735 0 0 0 0 11967254.335083008 11864638.876467228 0 11864638.876467228 -4010467.7918069363 0 0 0 0 -8623157.9393234253 -7942478.3135697842 0 -7942478.3135697842 2852584.7488794327 0 0 0 0 -474761.43081591278 388452.13132048026 0 388452.13132048026 -1618874.1874035764 0 0 0 0 -778197.65397644043 -93543.107210159302 0 -93543.107210159302 8070634.8511264324 0 0 0 0 442045.48887634277 -4893451.1072187424 0 -4893451.1072187424 -17826711.003300667 0 0 0 0 -4756040.2743377686 6212702.7745194435 0 6212702.7745194435 -1951154.8253102303 0 0 0 0 -1309008.7921943665 7710774.0344130993 0 7710774.0344130993 2104389.7248096466 0 0 0 0 5240864.1736297607 1999906.7594397068 0 1999906.7594397068 -3306915.0430011749 0 0 0 0 -2594843.3113861084 4893617.2842669487 0 4893617.2842669487 -1539254.2009620667 0 0 0 0 -17461570.381729126 6505724.7044098377 0 6505724.7044098377 287222.09819602966 0 0 0 0 -4779674.5622406006 7112068.2056112289 0 7112068.2056112289 -9209798.3524253964 0 0 0 0 -33310359.2643013 15815832.540264368 0 15815832.540264368 -3069759.0594654083 0 0 0 0 -11388836.08190918 9435513.8760972023 0 9435513.8760972023 -8709574.6583254337 0 0 0 0 7135630.1137695312 15841790.958669186 0 15841790.958669186 -16629727.177973747 0 0 0 0 -2567840.9906463623 16804099.786184072 0 16804099.786184072 -16552077.377292633 0 0 0 0 -14856525.051895142 25003583.45072484 0 25003583.45072484 -7547201.2231764793 0 0 0 0 9500738.2438659668 4588568.152941227 0 4588568.152941227 -35873806.621817589 0 0 0 0 45140925.604202271 19079215.910358667 0 19079215.910358667 -31219731.904909968 0 0 0 0 12932590.992111206 30560121.594861984 0 30560121.594861984 -10525888.917606354 0 0 0 0 37571010.394412994 -13951786.535279095 0 -13951786.535279095 -126576998.65532112 0 0 0 0 17221081.398529053 72560120.860821724 0 72560120.860821724 -40850980.833007812 0 0 0 0 -13343014.19090271 98273522.985617399 0 98273522.985617399 -57333503.777760506 0 0 0 0 17959429.197952271 80342056.494316339 0 80342056.494316339 41067283.080969334 0 0 0 0 138018517.9258728 109261397.56849098 0 109261397.56849098 -27713339.612440825 0 0 0 0 127142937.28384399 2285820.8477765322 0 2285820.8477765322 71920253.939200401 0 0 0 0 -25422613.948928833 122919298.43112135 0 122919298.43112135 61066380.250235796 0 0 0 0 203718427.52397156 76889691.481975079 0 76889691.481975079 -27946863.813263416 0 0 0 0 -158104450.09570312 -14339395.322293758 0 -14339395.322293758 22507527.614556313 0 0 0 0 -3733746.8345254064 -96099.257671311498 0 -96099.257671311498 249521.33796794806 0 0 0 0 -102586266.82907104 45087864.604842663 0 45087864.604842663 190565.42571973801 0 0 0 0 -28737687.593811035 21374156.377682686 0 21374156.377682686 -8853287.2651166916 0 0 0 0 -85643603.119812012 -22587518.041259766 0 -22587518.041259766 -6349467.6982981563 0 0 0 0 -94117209.899559021 32186010.057623208 0 32186010.057623208 -877694.0410823822 0 0 0 0 -38868272.390411377 9905536.67709589 0 9905536.67709589 -621392.44234228134 0 0 0 0 -31682646.061266169 5051599.2928496972 0 5051599.2928496972 -510336.68323655357 0 0 0 0 -48737497.232055664 6284689.8929867744 0 6284689.8929867744 10411739.040623665 0 0 0 0 -49436502.140960693 7326397.6710326672 0 7326397.6710326672 10549313.374147356 0 0 0 0 -42758210.602352142 9565835.0445024967 0 9565835.0445024967 -5226790.3070683479 0 0 0 0 -54068035.670959473 17522824.700105667 0 17522824.700105667 1059835.484305203 0 0 0 0 -49406283.630561829 7922956.5722130537 0 7922956.5722130537 9863961.1712430716 0 0 0 0 -48855868.333984375 -5662603.9987516403 0 -5662603.9987516403 -5497889.9857784212 0 0 0 0 -49136180.150909424 7633331.6095876694 0 7633331.6095876694 8370161.6243577003 0 0 0 0 -75528956.794174194 4500112.8286454678 0 4500112.8286454678 8572808.0284562111 0 0 0 0 -37796156.964279175 4419342.120315671 0 4419342.120315671 262016.01925396919 0 0 0 0 -51960407.546203613 164606797.70705318 0 164606797.70705318 -96407894.287678719 0 0 0 0 -96828482.533294678 103477829.00875235 0 103477829.00875235 140292581.10557771 0 0 0 0 -12679387.973864747 706416.76318373531 0 706416.76318373531 1610939.2186740949 0 0 0 0 -7534963.2100524902 151824330.50879228 0 151824330.50879228 38148644.788743496 0 0 0 0 2126242.1770172119 141743032.57336128 0 141743032.57336128 21979002.954666138 0 0 0 0 17400407.66192627 153207149.72812319 0 153207149.72812319 29324760.256252289 0 0 0 0 10145093.150131226 160254180.31472898 0 160254180.31472898 35797479.918291301 0 0 0 0 -29633834.777571678 -59484059.78221751 0 -59484059.78221751 22403609.920038462 0 0 0 0 -7077521.9736805558 -1384360.5885795392 0 -1384360.5885795392 3783442.6622538846 0 0 0 0 -36644141.690639496 2718425.9294365644 0 2718425.9294365644 2011389.62068367 0 0 0 0 -64090899.046020508 5177271.4141201973 0 5177271.4141201973 7059263.0617465973 0 0 0 0 -13689711.435340054 255389.47160536796 0 255389.47160536796 482682.54180716164 0 0 0 0 -29551713.421140164 8066704.6343230763 0 8066704.6343230763 -1745674.0979781288 0 0 0 0 -21002496.731147766 -18290856.104092598 0 -18290856.104092598 8204086.628947258 0 0 0 0 -29153262.211196899 9365443.7508678436 0 9365443.7508678436 -1202301.3464980125 0 0 0 0 -36034577.251964569 4128386.1200915575 0 4128386.1200915575 -4916862.0095877647 0 0 0 0 -17100885.23252368 -936679.2918981323 0 -936679.2918981323 1056707.5113560534 0 0 0 0 -68503123.523368835 -25336116.619763613 0 -25336116.619763613 127478526.74860477 0 0 0 0 -7585713.9427642822 2546097.5280556679 0 2546097.5280556679 7656606.3831495047 0 0 0 0 -12246942.101397812 2167152.6174415518 0 2167152.6174415518 -384825.19472816063 0 0 0 0 -13982189.263928868 5402966.7338502659 0 5402966.7338502659 -835848.51585013722 0 0 0 0 -6993523.0519866943 785158.10641026497 0 785158.10641026497 6170626.44317168 0 0 0 0 -16764466.749563031 2992886.7815237548 0 2992886.7815237548 -1724108.8672628282 0 0 0 0 -39866481.455815315 40837471.116053402 0 40837471.116053402 5760362.5809502602 0 0 0 0 -88457332.268356323 55772521.703923941 0 55772521.703923941 178461779.98833537 0 0 0 0 12145518.948325157 43229155.59192279 0 43229155.59192279 96337569.234609604 0 0 0 0 -172765833.79681396 113995623.43947983 0 113995623.43947983 69257360.1755023 0 0 0 0 -154167116.17530823 -17947949.174420595 0 -17947949.174420595 98165700.221350431 0 0 0 0 -7686103.9270858765 -7242770.1760365963 0 -7242770.1760365963 91518212.388341427 0 0 0 0 -37039716.794769287 -74744745.557998896 0 -74744745.557998896 -8426255.1209769249 0 0 0 0 -72051058.033309937 -63591519.307389498 0 -63591519.307389498 -7168853.6581659317 0 0 0 0 -182153704.0032196 -180479692.68792939 0 -180479692.68792939 -81168398.146428108 0 0 0 0 -24968733.311740875 131075732.11603367 0 131075732.11603367 -67667232.0176754 0 0 0 0 -100335374.69502258 3831926.0932215452 0 3831926.0932215452 60597438.591352463 0 0 0 0 -430786803.74717712 51632769.100487709 0 51632769.100487709 57307993.640962839 0 0 0 0 -131714517.86655426 217045760.86796284 0 217045760.86796284 -241918654.16219187 0 0 0 0 -40038063.450164795 68340411.375649214 0 68340411.375649214 -31666636.24936986 0 0 0 0 -2008139.5484390259 -22340271.279930234 0 -22340271.279930234 -136899860.54698896 0 0 0 0 -416248236.29689026 161744503.05920672 0 161744503.05920672 -63155055.038819313 0 0 0 0 -107799.2066841349 74620.111972440034 0 74620.111972440034 -642526.8446409551 0 0 0 0 -8230255.9621276855 -25476674.091288328 0 -25476674.091288328 -25433416.033451557 0 0 0 0 -200769605.08621216 -155493190.67650545 0 -155493190.67650545 200767504.6796937 0 0 0 0 -431147361.17956543 134525805.60894108 0 134525805.60894108 -97898716.109226987 0 0 0 0 136048344.11364746 -12833268.784135461 0 -12833268.784135461 -89475639.549062729 0 0 0 0 703913.39679251611 -1451506.5996964476 0 -1451506.5996964476 -277256.68048338254 0 0 0 0 43271458.844329834 6336127.9783172607 0 6336127.9783172607 -29501885.172431946 0 0 0 0 -194682874.17271423 109525083.07394391 0 109525083.07394391 507243644.28827399 0 0 0 0 -3368831.0119018555 -1762607.3470201492 0 -1762607.3470201492 -9986979.6458616257 0 0 0 0 35383017.271266937 -43663781.396749765 0 -43663781.396749765 10065251.972364902 0 0 0 0 33293071.834350586 -36253351.016964078 0 -36253351.016964078 -16152599.607289553 0 0 0 0 -20786469.222442627 -96386087.688422918 0 -96386087.688422918 -77310772.151660949 0 0 0 0 -43486400.288711548 -71856381.573519289 0 -71856381.573519289 49385122.155061007 0 0 0 0 1946448.1479949951 -52335574.306570292 0 -52335574.306570292 52171854.412297845 0 0 0 0 -18551494.623959169 -4698424.3584530633 0 -4698424.3584530633 -1529543.3626451655 0 0 0 0 -15822880.548380539 -4952150.3191263787 0 -4952150.3191263787 -1495025.484930421 0 0 0 0 -549365145.05080032 -200419202.72419029 0 -200419202.72419029 -68424298.746041894 0 0 0 0 -1130815073.9592705 724049252.0203073 0 724049252.0203073 -208826160.97520351 0 0 0 0 -1312415.5131757259 -2922656.896091525 0 -2922656.896091525 -254469.22998009901 0 0 0 0 -268308005.74610901 293155774.14800763 0 293155774.14800763 -114387018.26493102 0 0 0 0 -2598572542.3918762 295400368.78657347 0 295400368.78657347 806521863.5109365 0 0 0 0 -4094844625.9747696 1092599735.8836362 0 1092599735.8836362 635119826.51983464 0 0 0 0 -2600296593.9155807 358903591.31849247 0 358903591.31849247 251120323.10146546 0 0 0 0 -1309762955.8838882 456430539.04369497 0 456430539.04369497 -89910469.049890339 0 0 0 0 -2577009335.4453583 1095863437.7086596 0 1095863437.7086596 331731755.68353039 0 0 0 0 -4089639419.1201096 2198079144.4707332 0 2198079144.4707332 -346367098.15064436 0 0 0 0 -2051133946.1886978 1565752611.4526336 0 1565752611.4526336 -663906111.41758752 0 0 0 0 -1627836182.4765778 1054970888.3935716 0 1054970888.3935716 -644975315.19317746 0 0 0 0 -12888197.870508268 -4034369.8267575465 0 -4034369.8267575465 -1427254.1092232293 0 0 0 0 2916225.6579156667 -6168512.1470368505 0 -6168512.1470368505 -1029339.9146883689 0 0 0 0 -387552658.44683838 233239437.02948105 0 233239437.02948105 520153186.59408951 0 0 0 0 21903779.912067413 -24425431.38033092 0 -24425431.38033092 -13353614.803833723 0 0 0 0 -2215396.2417782322 -4161879.3609846449 0 -4161879.3609846449 -1090557.6465500041 0 0 0 0 -1614595242.3077545 2835486800.2916622 0 2835486800.2916622 -3172745500.6445489 0 0 0 0 274717339.07086182 -1021899332.1075592 0 -1021899332.1075592 -1824021060.6656964 0 0 0 0 -4071858768.1659088 -4479931.9184624199 0 -4479931.9184624199 2654025.960305403 0 0 0 0 -1477203.6994055286 -1217757.0584537312 0 -1217757.0584537312 -1536532.2720728961 0 0 0 0 -1513221660.1541138 -987511195.93034136 0 -987511195.93034136 18152333.735831916 0 0 0 0 -4085671413.931427 -3057180413.2107372 0 -3057180413.2107372 -1291356389.0478699 0 0 0 0 -1870509453.206604 -1165909565.89501 0 -1165909565.89501 -56034220.06161347 0 0 0 0 -4091331375.3696594 -988813077.68876016 0 -988813077.68876016 429236825.44904339 0 0 0 0 -1374092195.2226639 -520809817.2312156 0 -520809817.2312156 -70934658.950670198 0 0 0 0 -1102842463.919281 -655031051.09758437 0 -655031051.09758437 -213981874.22454599 0 0 0 0 -811745536.4659729 -1015830911.7014366 0 -1015830911.7014366 -697043953.91162276 0 0 0 0 138998034.78512573 -81867298.853234231 0 -81867298.853234231 -270213096.54994154 0 0 0 0 129389348.57752991 17541551.591135383 0 17541551.591135383 -103900159.50430942 0 0 0 0 -182979218.69506836 45848881.237825692 0 45848881.237825692 -100980774.53779957 0 0 0 0 -54755652.16734314 -28480483.069193199 0 -28480483.069193199 -215110503.24826366 0 0 0 0 -956050830.85212708 -590085939.43197954 0 -590085939.43197954 -366017858.41520971 0 0 0 0 -1397672040.241272 -232846452.11720967 0 -232846452.11720967 -3790752.3648161888 0 0 0 0 -519217578.45048523 -337425967.65295857 0 -337425967.65295857 -89162869.923394233 0 0 0 0 -1095419079.0278168 -252740579.90742099 0 -252740579.90742099 51666522.963341117 0 0 0 0 -205353231.79588318 206103438.41830692 0 206103438.41830692 -213268518.68826991 0 0 0 0 -637328622.50598145 105949090.93479383 0 105949090.93479383 -44553363.226393744 0 0 0 0 -1458053493.5099487 -27699961.121439934 0 -27699961.121439934 -3096058.2195683122 0 0 0 0 -789891028.50975037 -232825741.75946257 0 -232825741.75946257 -105158756.54486978 0 0 0 0 -1858764246.6144104 -438384559.81930995 0 -438384559.81930995 -77773791.151701599 0 0 0 0 -1940606912.0974121 -444764912.44161046 0 -444764912.44161046 27045656.738164306 0 0 0 0 -1887929746.7584076 -480739637.61605281 0 -480739637.61605281 20367820.878313065 0 0 0 0 -1371052062.8557434 -273662738.60246265 0 -273662738.60246265 23604280.037422717 0 0 0 0 -2002922928.3139038 -862895597.76668096 0 -862895597.76668096 -474011651.69544345 0 0 0 0 -1806288696.1563034 -307398264.78133726 0 -307398264.78133726 231907572.93592972 0 0 0 0 -4094591897.2860718 -1769472310.0382376 0 -1769472310.0382376 -697725972.37066782 0 0 0 0 -5978069.8153618127 -266549.30438904092 0 -266549.30438904092 644557.72142923798 0 0 0 0 -2014545139.9127197 -494140872.87437463 0 -494140872.87437463 389261022.49311119 0 0 0 0 -2043997786.1828613 -652771434.92650533 0 -652771434.92650533 168308805.71439821 0 0 0 0 -1846437709.0275574 -559461573.43031693 0 -559461573.43031693 200882676.93225944 0 0 0 0 -1217844946.3800354 1126626134.957412 0 1126626134.957412 -487383116.80109167 0 0 0 0 -2122217009.4211655 1662506467.340745 0 1662506467.340745 -773774362.92459559 0 0 0 0 -1352588179.018959 892463294.75644469 0 892463294.75644469 -520716757.29374552 0 0 0 0 -447593779.20275116 450539797.19889092 0 450539797.19889092 -808084969.76388001 0 0 0 0 -757071558.80124664 1328847649.3971405 0 1328847649.3971405 -1475658512.3235264 0 0 0 0 -2473545660.7800922 1299233606.7986035 0 1299233606.7986035 -252658848.86962226 0 0 0 0 -4089215075.5386925 2467398273.6359649 0 2467398273.6359649 -862079657.47771442 0 0 0 0 -2207172792.8526497 1242850665.411252 0 1242850665.411252 -240780279.97578993 0 0 0 0 -3216716565.1628342 1341971902.0650473 0 1341971902.0650473 -1001949.1210709112 0 0 0 0 -2259702238.1239395 1161055221.3644133 0 1161055221.3644133 -280982450.15602219 0 0 0 0 -1554965924.5058327 548847684.5253998 0 548847684.5253998 -329008036.13350165 0 0 0 0 -1458164591.5902939 739524977.61554897 0 739524977.61554897 -386779794.63123548 0 0 0 0 -370997231.08469009 503245527.47273356 0 503245527.47273356 -600034027.73831189 0 0 0 0 -748882356.395504 351102569.97300625 0 351102569.97300625 -438966089.49517483 0 0 0 0 -751800171.60795593 727214037.48216665 0 727214037.48216665 -660708525.36141324 0 0 0 0 -256217777.41588974 435935408.43752825 0 435935408.43752825 -370009684.41184258 0 0 0 0 -340292393.07818985 376935124.86974418 0 376935124.86974418 -410116067.47268438 0 0 0 0 -8526100.5786645431 636017.86902397685 0 636017.86902397685 3257022.2601483869 0 0 0 0 -272887953.91369152 85652192.775157362 0 85652192.775157362 -217051930.76869464 0 0 0 0 -2982954.9905929565 -1284489.6773984432 0 -1284489.6773984432 2006229.1942121983 0 0 0 0 -3823962.1471328735 -1474320.8357617855 0 -1474320.8357617855 5114294.7053215504 0 0 0 0 -6382511.0573794246 -781860.31516640633 0 -781860.31516640633 1802233.4187178798 0 0 0 0 -1945606.0248604268 -568519.35310624912 0 -568519.35310624912 1503761.7027421375 0 0 0 0 20273076.910133362 459440309.6930263 0 459440309.6930263 -785222360.00944376 0 0 0 0 -697922837.05925369 428947355.48261762 0 428947355.48261762 -269702830.70097136 0 0 0 0 -31482253.098251343 -27450917.572146475 0 -27450917.572146475 28529499.185103238 0 0 0 0 -10592091.724762872 -585415.02305916511 0 -585415.02305916511 1485466.2550877458 0 0 0 0 14088275.438201904 -15750667.562053688 0 -15750667.562053688 -43041710.080232121 0 0 0 0 29665908.766391754 120542538.54863124 0 120542538.54863124 88125168.937813476 0 0 0 0 -220113.68649395555 -467083.50687011355 0 -467083.50687011355 -38436.566547755305 0 0 0 0 -15580653.377182007 -137331.17034306377 0 -137331.17034306377 -15762296.254104473 0 0 0 0 -27420007.51776123 -32794880.43124634 0 -32794880.43124634 11278957.245028496 0 0 0 0 161143.46503639221 23842090.086718999 0 23842090.086718999 38593162.728068382 0 0 0 0 85355155.475708008 50751863.920582123 0 50751863.920582123 -34031914.495770067 0 0 0 0 -151944745.55021667 -44168994.217981398 0 -44168994.217981398 33258409.016414888 0 0 0 0 -5180603.4517503902 3943.5609882641584 0 3943.5609882641584 993222.14015492634 0 0 0 0 77686047.321388185 -22206009.396525793 0 -22206009.396525793 1455968.346821472 0 0 0 0 -1540763.2181806974 345702.31634462625 0 345702.31634462625 1659166.0013862972 0 0 0 0 6299176.5918579102 -42630603.959039688 0 -42630603.959039688 140672422.65325809 0 0 0 0 80311096.814285278 149987466.90625879 0 149987466.90625879 79754550.547768533 0 0 0 0 18478204.515014648 122626562.47830397 0 122626562.47830397 106483526.68556385 0 0 0 0 4270708.8743019104 185797349.57186756 0 185797349.57186756 129266935.59739745 0 0 0 0 -43651769.497032166 104116034.69766819 0 104116034.69766819 106129249.33017989 0 0 0 0 -34757401.224880219 134484000.4330827 0 134484000.4330827 -29655183.834330916 0 0 0 0 -124650630.82772827 103533258.40843305 0 103533258.40843305 129962732.67964011 0 0 0 0 181998.89384460449 21161009.384708077 0 21161009.384708077 168027295.39958757 0 0 0 0 -596770.3234522976 -1960396.81920696 0 -1960396.81920696 -170715.21106261836 0 0 0 0 10765130.686286926 -13948208.028834011 0 -13948208.028834011 172000.64313206822 0 0 0 0 -19168996.287612915 202404673.83408815 0 202404673.83408815 509032927.52636737 0 0 0 0 -1286850224.5287476 1081524905.7424946 0 1081524905.7424946 -1209203314.6023986 0 0 0 0 -8861623.8050139137 1148328.7315151962 0 1148328.7315151962 1484076.1516914982 0 0 0 0 -16225972.848838806 11562235.747766197 0 11562235.747766197 23229284.372886539 0 0 0 0 -723627795.81891441 2430777595.5990844 0 2430777595.5990844 -4057040431.2467136 0 0 0 0 -2731658.1971794888 1054190.913697415 0 1054190.913697415 118482.9295580898 0 0 0 0 -4046669651.3035583 -1983137.0581132101 0 -1983137.0581132101 3554906.2915384239 0 0 0 0 -1861715.4919966124 328200.31798654521 0 328200.31798654521 313778.93888093397 0 0 0 0 -2961727971.6182098 -2391711491.7382269 0 -2391711491.7382269 -983713133.47517681 0 0 0 0 -4089059997.9049263 -2275505031.9896579 0 -2275505031.9896579 -855647708.78882635 0 0 0 0 -8204311.2409286499 -221755822.29037112 0 -221755822.29037112 -131036571.42126758 0 0 0 0 -2792291.9983779788 338193.91339926608 0 338193.91339926608 226143.8842541459 0 0 0 0 539342246.29217529 143136900.85204846 0 143136900.85204846 -214522256.65515816 0 0 0 0 -3999749025.1712322 -2062933673.607744 0 -2062933673.607744 -877670295.47709835 0 0 0 0 -2186364567.7924957 -1152502078.3150148 0 -1152502078.3150148 -482201750.32559729 0 0 0 0 -6452274.2995323017 1447258.813652657 0 1447258.813652657 -378191.08324339177 0 0 0 0 -2111305295.5343628 -759057213.38483071 0 -759057213.38483071 -288170949.36819965 0 0 0 0 -4095559458.804142 -1101062257.4572785 0 -1101062257.4572785 394753563.75205404 0 0 0 0 -2737395458.5311127 -478890877.08965045 0 -478890877.08965045 578125435.30869365 0 0 0 0 -2529813997.3861771 -471510752.97004265 0 -471510752.97004265 568091969.59930062 0 0 0 0 -2467146447.1216812 -577891942.98392212 0 -577891942.98392212 182630792.42025411 0 0 0 0 -1329578706.0705185 85325748.299752235 0 85325748.299752235 238113390.71910214 0 0 0 0 -2477366145.187746 -13987968.49962604 0 -13987968.49962604 378440886.79683602 0 0 0 0 -4093468570.9272842 222333891.13985199 0 222333891.13985199 845911995.44383693 0 0 0 0 -11534130.414262772 155386347.76300371 0 155386347.76300371 -30744812.635522366 0 0 0 0 -86546381.448852539 -48304348.510028303 0 -48304348.510028303 -102661090.46769124 0 0 0 0 46802585.558336258 -180711315.58099729 0 -180711315.58099729 -62143486.224280715 0 0 0 0 -1313707643.202179 96166206.792099476 0 96166206.792099476 79137204.832183838 0 0 0 0 -1000054493.3142242 -240576468.58332682 0 -240576468.58332682 225466953.01190555 0 0 0 0 -999821015.59471226 -235985294.98626029 0 -235985294.98626029 136883611.88772714 0 0 0 0 -750741223.09752655 96209638.511330605 0 96209638.511330605 44017024.087189145 0 0 0 0 4642008.8328225613 40856850.867621824 0 40856850.867621824 -12210268.763409138 0 0 0 0 11391102.568330646 -104542883.48399861 0 -104542883.48399861 -135215205.56140637 0 0 0 0 -8871455.3497660421 2451121.0788582824 0 2451121.0788582824 -1718466.1619982184 0 0 0 0 -803864390.99862671 -677984218.68466938 0 -677984218.68466938 -307220173.44072157 0 0 0 0 -94651019.145622253 -166244149.20800796 0 -166244149.20800796 -90476104.094866484 0 0 0 0 -128865972.93298721 -91980449.691442564 0 -91980449.691442564 244770819.33272654 0 0 0 0 32260933.794725418 118327909.73054048 0 118327909.73054048 250409881.21856469 0 0 0 0 171443168.23036957 16771927.975055143 0 16771927.975055143 -126377815.73491648 0 0 0 0 -15940547.456256866 56430353.433490112 0 56430353.433490112 119430762.46573985 0 0 0 0 7424095.3349761963 40039117.988422453 0 40039117.988422453 34573548.957867697 0 0 0 0 -10114839.192863464 63090191.710998774 0 63090191.710998774 97232121.840385914 0 0 0 0 -11104765.690345764 105936302.39535964 0 105936302.39535964 146714636.20928982 0 0 0 0 172845.46073579416 -97971.052021203563 0 -97971.052021203563 -312556.92476352846 0 0 0 0 -3315408.9256591797 47121498.597070873 0 47121498.597070873 115233590.47334397 0 0 0 0 -38931422.320242882 8825821.1086340919 0 8825821.1086340919 36601643.166593075 0 0 0 0 -50934051.299144745 68740748.98722817 0 68740748.98722817 136819327.65124667 0 0 0 0 -22984396.223548889 -4674363.6022964716 0 -4674363.6022964716 -57905756.490816832 0 0 0 0 -88816864.157440186 14321300.718845319 0 14321300.718845319 67414433.503527224 0 0 0 0 -9848565.3684082031 18552024.844239712 0 18552024.844239712 26176021.392401099 0 0 0 0 -14278893.338569641 30059035.14153266 0 30059035.14153266 24175981.532117248 0 0 0 0 -2485236.0651359558 8857603.225438714 0 8857603.225438714 -14472196.728704929 0 0 0 0 -12978611.887168091 2421184.4504441004 0 2421184.4504441004 -1495570.7828230956 0 0 0 0 -8159317.4496383667 11374189.075675964 0 11374189.075675964 -34895999.570851803 0 0 0 0 14184963.203857422 34207422.484171748 0 34207422.484171748 -43924237.766875744 0 0 0 0 10228944.879150391 26841228.87441349 0 26841228.87441349 -47862129.315429688 0 0 0 0 5686621.285861969 17528295.182534695 0 17528295.182534695 -51196288.354829788 0 0 0 0 29038778.65687561 28036244.698346138 0 28036244.698346138 -49006114.747817039 0 0 0 0 -42169673.22277832 58562771.553289413 0 58562771.553289413 -71166894.406668782 0 0 0 0 -141684770.45608521 57525791.447259903 0 57525791.447259903 4229786.6292519569 0 0 0 0 -63737807.616888046 31531103.792454243 0 31531103.792454243 19710773.018408775 0 0 0 0 41820290.648468018 27281531.155083656 0 27281531.155083656 17648601.102965832 0 0 0 0 -188226641.48239517 -33845152.908253312 0 -33845152.908253312 18104309.549617767 0 0 0 0 -84604311.293354034 -14204447.478633881 0 -14204447.478633881 38613473.907143593 0 0 0 0 -41577462.433895111 7761371.5728020668 0 7761371.5728020668 -12412379.544679642 0 0 0 0 -7770194.4269909859 37877721.551332504 0 37877721.551332504 59014372.007865906 0 0 0 0 -1989231.73069828 500178.92088017426 0 500178.92088017426 1035275.938150791 0 0 0 0 -32110276.892494202 4873618.1603186131 0 4873618.1603186131 5104763.7932441235 0 0 0 0 -29096337.370517731 13519028.769095182 0 13519028.769095182 17422079.230435371 0 0 0 0 -24581320.385780334 4134072.0252333879 0 4134072.0252333879 527987.62951374054 0 0 0 0 -3558613.2554949448 -585038.64958637021 0 -585038.64958637021 -284748.4708795175 0 0 0 0 -26498031.654167175 11339996.008156538 0 11339996.008156538 21492948.70647645 0 0 0 0 -26584424.976448059 16079673.083774567 0 16079673.083774567 14361270.395110607 0 0 0 0 -14006720.899154663 21224901.817787647 0 21224901.817787647 16509903.069740295 0 0 0 0 -49800407.332284927 78928481.383487791 0 78928481.383487791 -289402.97948852181 0 0 0 0 -55204948.102432251 81621145.19468087 0 81621145.19468087 16731365.991022028 0 0 0 0 -62333205.10370636 81168582.093437284 0 81168582.093437284 20605174.10750144 0 0 0 0 -61764100.182003021 51031278.870559394 0 51031278.870559394 63671144.606740654 0 0 0 0 -64264484.856941223 35419934.371941641 0 35419934.371941641 -23926102.127018243 0 0 0 0 -58745555.643035889 5403501.7969961464 0 5403501.7969961464 12425942.099841595 0 0 0 0 -59663977.925358295 12560445.064736053 0 12560445.064736053 250593.09530258179 0 0 0 0 -52511363.445495605 1907050.6289656162 0 1907050.6289656162 11442854.167199671 0 0 0 0 -56672400.700683594 6318381.0772521496 0 6318381.0772521496 11842081.525169522 0 0 0 0 -76530535.889484406 -14171019.914874315 0 -14171019.914874315 8321643.2700376511 0 0 0 0 -69610976.008422852 362773.07421350479 0 362773.07421350479 26833916.377093792 0 0 0 0 -50052017.770191193 -660223.89461135864 0 -660223.89461135864 11312635.973372936 0 0 0 0 -59842508.702674866 -35673899.04072094 0 -35673899.04072094 -26090562.89127636 0 0 0 0 -11273126.393365383 234316.74467277434 0 234316.74467277434 -4084791.6051445007 0 0 0 0 -14333515.45489502 44321141.124107659 0 44321141.124107659 130717232.54896575 0 0 0 0 8332381.6308059692 -30550843.903886676 0 -30550843.903886676 85730432.734540403 0 0 0 0 -560801.99550704658 -548895.16847843118 0 -548895.16847843118 36130.854307655711 0 0 0 0 -11434912.353186727 -17334975.994242448 0 -17334975.994242448 6117279.627392292 0 0 0 0 -4606633.5916595459 -1416229.5374560356 0 -1416229.5374560356 2252787.5345220566 0 0 0 0 -4470338.7898712158 -132329.43700575829 0 -132329.43700575829 2250341.582493782 0 0 0 0 -3592179.2910660282 -1433047.9096340351 0 -1433047.9096340351 2094911.2409352537 0 0 0 0 -8962655.4244995117 1599980.5089225769 0 1599980.5089225769 -490567.41464996338 0 0 0 0 -943403.93009561114 -302573.20788958296 0 -302573.20788958296 112631.81503764912 0 0 0 0 -24166777.88747406 -5942117.8127515316 0 -5942117.8127515316 4526610.42572999 0 0 0 0 -54031492.476837158 -6549407.482052803 0 -6549407.482052803 15495291.288631916 0 0 0 0 -3455686.9098205566 -173816.98736143112 0 -173816.98736143112 2027394.7660953999 0 0 0 0 -6429912.2447932065 -1890990.2396220099 0 -1890990.2396220099 2808920.2114303894 0 0 0 0 -3697627.0658912659 -2030189.661498785 0 -2030189.661498785 3470260.7528870106 0 0 0 0 -67968751.378528595 37533187.840281487 0 37533187.840281487 -71689723.024403453 0 0 0 0 7344030.6648702621 -2316657.7232574821 0 -2316657.7232574821 -10555876.445166588 0 0 0 0 288301.75221130252 -445587.00410962664 0 -445587.00410962664 533996.78884836379 0 0 0 0 -5980996.0763310473 -1506213.6785235535 0 -1506213.6785235535 1871960.3143830907 0 0 0 0 -51660156.200782776 12806276.214433193 0 12806276.214433193 2328417.6252803802 0 0 0 0 -53200003.378242493 14858690.590413094 0 14858690.590413094 4523352.0383853912 0 0 0 0 -45714958.414039612 1650213.4036750793 0 1650213.4036750793 -2273427.0455675125 0 0 0 0 -63502021.259746552 6712171.6834242344 0 6712171.6834242344 10941641.134637356 0 0 0 0 -52984599.107717514 8458783.1528697014 0 8458783.1528697014 14260111.458138466 0 0 0 0 -55069409.016410828 4848783.9796450138 0 4848783.9796450138 9524906.1615562439 0 0 0 0 -43759429.309501648 8763330.2898240089 0 8763330.2898240089 1435592.5828356743 0 0 0 0 18200681.90845871 25519491.146984339 0 25519491.146984339 -8778469.8638885021 0 0 0 0 -32242844.364139557 29600558.566734314 0 29600558.566734314 22539298.936191797 0 0 0 0 -44001391.891025543 5647620.4545912743 0 5647620.4545912743 4971336.3046478033 0 0 0 0 -40752743.900215149 11427477.583622932 0 11427477.583622932 6890279.2311924696 0 0 0 0 -13106915.485054016 15372613.030249119 0 15372613.030249119 -11235715.345073819 0 0 0 0 -3077174.9145050049 -332985.23135662079 0 -332985.23135662079 -8380451.4316921234 0 0 0 0 -17263843.973697662 -10204220.31239748 0 -10204220.31239748 -14086700.917216063 0 0 0 0 -22690624.813757896 399074.31221520901 0 399074.31221520901 -3372241.6997747421 0 0 0 0 17391021.245521545 -7472293.5236308575 0 -7472293.5236308575 -34358955.877278805 0 0 0 0 16010911.265300751 73079400.808229089 0 73079400.808229089 -57656754.326720953 0 0 0 0 22221753.261131287 -2701642.4093301892 0 -2701642.4093301892 -165061289.40230894 0 0 0 0 36203896.538887024 45198331.604462266 0 45198331.604462266 -19854610.406138659 0 0 0 0 -12605121.340093613 128102990.98011048 0 128102990.98011048 149493935.51304621 0 0 0 0 -15765990.867511749 92419774.598151267 0 92419774.598151267 -48753067.861135975 0 0 0 0 -47928756.331331253 9981217.3063184023 0 9981217.3063184023 16755093.765934944 0 0 0 0 -656606.96254177205 -291645.54752826132 0 -291645.54752826132 746344.34573071427 0 0 0 0 -46306188.256999969 14212437.456064224 0 14212437.456064224 -3345489.6845152378 0 0 0 0 -57472773.261520386 4275205.1933054924 0 4275205.1933054924 12449121.217846751 0 0 0 0 -68652187.393848419 12857848.218963757 0 12857848.218963757 11058750.421758264 0 0 0 0 -75099915.572948456 33390027.214364141 0 33390027.214364141 -7687158.2730925456 0 0 0 0 -1125401.3309810646 -476534.25475442782 0 -476534.25475442782 1312138.7456824821 0 0 0 0 -83079740.386222839 34471414.913071327 0 34471414.913071327 75857091.44805789 0 0 0 0 -94866826.180374146 73710619.726176083 0 73710619.726176083 5299055.8298017234 0 0 0 0 -59967643.034805298 -4330134.4868066311 0 -4330134.4868066311 20405510.815649778 0 0 0 0 -62092880.757463455 -2836642.5340940058 0 -2836642.5340940058 60823040.170133114 0 0 0 0 -683184.01195815392 -301263.67794061825 0 -301263.67794061825 779034.91906148766 0 0 0 0 -72147424.171194077 -3089813.116866827 0 -3089813.116866827 71215754.172597885 0 0 0 0 -38602400.004730225 35437465.848037958 0 35437465.848037958 64165523.594240963 0 0 0 0 -46293496.599634171 10523393.079616308 0 10523393.079616308 13966840.341678619 0 0 0 0 -46670071.086816788 13508324.858361363 0 13508324.858361363 37960452.139809132 0 0 0 0 -30049398.510925293 20733769.384496689 0 20733769.384496689 8776316.4327688217 0 0 0 0 -27995466.399951935 4383978.8692034706 0 4383978.8692034706 4213309.9441554546 0 0 0 0 -45965228.77551651 7137529.7301828265 0 7137529.7301828265 29582214.359951496 0 0 0 0 -6391802.1878439784 3503403.9012996666 0 3503403.9012996666 2167932.0302483938 0 0 0 0 -56325492.755260468 30250789.896571934 0 30250789.896571934 -1180853.0238368176 0 0 0 0 -18615220.042377472 -36767692.093916953 0 -36767692.093916953 73258377.460296154 0 0 0 0 -31317937.461494446 -8800535.7713040709 0 -8800535.7713040709 40318491.852625012 0 0 0 0 -65541763.097864151 47913237.865582161 0 47913237.865582161 -895292.63692378998 0 0 0 0 -2968833.1413433254 1780381.3941936474 0 1780381.3941936474 1484575.1688030213 0 0 0 0 -32089941.250663757 5671492.530539155 0 5671492.530539155 61082518.341558039 0 0 0 0 -33110079.302158356 -692484.56383046508 0 -692484.56383046508 27251807.194989622 0 0 0 0 10528489.775060654 -76235686.238236815 0 -76235686.238236815 216765650.07990333 0 0 0 0 -203192380.73298645 -19762869.509639502 0 -19762869.509639502 228643238.41334015 0 0 0 0 -41321455.305675507 134216373.0427471 0 134216373.0427471 143237607.31057745 0 0 0 0 30766613.103153229 110630472.90214059 0 110630472.90214059 -12562730.179597616 0 0 0 0 -997672.79007968679 498546.57250638492 0 498546.57250638492 679928.10624005971 0 0 0 0 -22673838.117321014 26735252.675154269 0 26735252.675154269 -9131847.1847822964 0 0 0 0 -17109654.870671272 46905186.831914477 0 46905186.831914477 63980177.731022358 0 0 0 0 -9672816.2565383911 -16990343.149124175 0 -16990343.149124175 59941409.703128159 0 0 0 0 -22439794.929019928 21050402.533254541 0 21050402.533254541 39230988.860544004 0 0 0 0 -79573794.285570383 25386178.724279124 0 25386178.724279124 -21432365.928077519 0 0 0 0 -167114390.14412689 72390061.332036793 0 72390061.332036793 -4903485.6520482004 0 0 0 0 -881302.00689321011 247936.61081871577 0 247936.61081871577 141637.76721009286 0 0 0 0 6204026.1622571945 -121502576.80620925 0 -121502576.80620925 81721180.809336677 0 0 0 0 -66690921.565685272 -53914150.588086188 0 -53914150.588086188 62585822.185884073 0 0 0 0 -106464249.33639908 78404358.860974669 0 78404358.860974669 253716938.10999084 0 0 0 0 -73116.374041058123 185113.20224204892 0 185113.20224204892 -66848.543060932716 0 0 0 0 -135125237.09889126 -124955637.92227729 0 -124955637.92227729 11586226.373618305 0 0 0 0 -148566794.43107986 48618285.581136048 0 48618285.581136048 78837939.417032808 0 0 0 0 -170155120.37279129 -31414542.857996345 0 -31414542.857996345 135026295.1416918 0 0 0 0 -116609447.84486771 -62899974.514360875 0 -62899974.514360875 76229197.139008284 0 0 0 0 -173082625.29012966 43634915.829491824 0 43634915.829491824 92424636.494374394 0 0 0 0 -207530031.70174789 167795841.56036317 0 167795841.56036317 -133343811.01701881 0 0 0 0 -81341118.103715897 -29153141.242208719 0 -29153141.242208719 -148976587.03640652 0 0 0 0 -105015662.4190979 -114485141.08172548 0 -114485141.08172548 94395442.790452003 0 0 0 0 31761201.921125412 197235644.99803591 0 197235644.99803591 -109483007.19385433 0 0 0 0 -1214382.8347911891 -379287.47449286748 0 -379287.47449286748 -49024.148490735795 0 0 0 0 -54205754.411136627 -31790327.71655488 0 -31790327.71655488 -25460210.179688454 0 0 0 0 -15635904.798381805 5424083.2325263023 0 5424083.2325263023 -7631730.1866607666 0 0 0 0 -13783028.632240295 598422.68601608276 0 598422.68601608276 -4580837.6880064011 0 0 0 0 -10619293.804271698 2992767.2474532127 0 2992767.2474532127 -6453819.4081916809 0 0 0 0 -10236309.084305286 1315301.716768384 0 1315301.716768384 -890008.62683486938 0 0 0 0 -9988203.3780479431 2833334.0617852211 0 2833334.0617852211 -560633.09927368164 0 0 0 0 -4165277.5750120226 -1151992.915682802 0 -1151992.915682802 122570.54351381725 0 0 0 0 -145769536.53503418 221119725.55462599 0 221119725.55462599 -256516142.95480776 0 0 0 0 -111824759.0815773 83545229.457207203 0 83545229.457207203 -96293153.410114706 0 0 0 0 -387384900.14492416 94110523.566851377 0 94110523.566851377 -21393739.414993763 0 0 0 0 -233316785.90028954 5043858.0669560432 0 5043858.0669560432 -250566571.16927147 0 0 0 0 -167787472.47234535 41519535.635439157 0 41519535.635439157 -8846460.5529770851 0 0 0 0 -192753681.414608 144283861.22795677 0 144283861.22795677 -98223440.51122427 0 0 0 0 -3724631.5856132507 -1978605.2033176422 0 -1978605.2033176422 421394.03158855438 0 0 0 0 372442.35785961151 -6165712.5806207657 0 -6165712.5806207657 3529951.0212745667 0 0 0 0 5006811.8878335953 -5512022.9458341599 0 -5512022.9458341599 -2124002.2926740646 0 0 0 0 -2287467.1525154114 -4703546.3782010078 0 -4703546.3782010078 6370242.2476081848 0 0 0 0 1730384.8175582886 -3705360.3677330017 0 -3705360.3677330017 -5234569.9015960693 0 0 0 0 -29558.890722323209 -43866.976871170104 0 -43866.976871170104 20871.15586568974 0 0 0 0 1652138.334236145 -3286844.417432785 0 -3286844.417432785 -7458096.2828788757 0 0 0 0 -2968633.7739181519 -4065738.43638134 0 -4065738.43638134 5801902.8072605133 0 0 0 0 -45643.915995066985 -1451200.7832923476 0 -1451200.7832923476 -4133041.044322656 0 0 0 0 -260001010.52495193 43821119.482267618 0 43821119.482267618 -14955548.36991775 0 0 0 0 -448361833.64640427 47875966.307801247 0 47875966.307801247 -728251.05188035965 0 0 0 0 -446101251.03060341 217410493.54740632 0 217410493.54740632 -113232677.48696375 0 0 0 0 -288166585.12155914 170001192.07044446 0 170001192.07044446 -100912620.34585285 0 0 0 0 -544460298.29744911 67283112.73069495 0 67283112.73069495 -3443792.9967594147 0 0 0 0 -1045709.9364270121 -383661.62255519722 0 -383661.62255519722 -631413.90224415949 0 0 0 0 -6291352.9918899536 4592686.6209664345 0 4592686.6209664345 209549.75533103943 0 0 0 0 1388286.421081543 1114464.038444519 0 1114464.038444519 1732928.0657119751 0 0 0 0 -8823107.9721780457 -3213454.1834194241 0 -3213454.1834194241 -3042278.3120682202 0 0 0 0 -12963669.350566864 4350072.7969341278 0 4350072.7969341278 4319926.5334892273 0 0 0 0 -8447157.1570549011 2246595.5219087601 0 2246595.5219087601 -794578.55538749695 0 0 0 0 -11856557.201984406 4042850.817668438 0 4042850.817668438 594207.83232617378 0 0 0 0 -15799030.619743347 3732383.5698485374 0 3732383.5698485374 877743.3575258255 0 0 0 0 -13820055.228765488 1407380.4626059532 0 1407380.4626059532 4161870.8462524414 0 0 0 0 -3733943.8762588501 -3297680.4272360802 0 -3297680.4272360802 3839069.4015951157 0 0 0 0 -36940565.176719666 -15737089.838589668 0 -15737089.838589668 13229608.776880741 0 0 0 0 -13379505.027722407 99584.856014967896 0 99584.856014967896 -45800.200728274416 0 0 0 0 -789437.17953996174 -3793934.397510903 0 -3793934.397510903 -1121592.1886039842 0 0 0 0 -3016527.1236610413 -1491138.889901638 0 -1491138.889901638 3029788.0624265671 0 0 0 0 1409297.8596382141 1365260.951936245 0 1365260.951936245 660442.62883758545 0 0 0 0 1122984.0737876892 -20581.635361671448 0 -20581.635361671448 2166468.0790338516 0 0 0 0 -34274785.8934021 -49092974.760080338 0 -49092974.760080338 -13684122.85830164 0 0 0 0 273521.85719741974 -3244730.6717510829 0 -3244730.6717510829 -1141068.3066335898 0 0 0 0 8662403.4067163467 1832952.6828317642 0 1832952.6828317642 -18501527.950073242 0 0 0 0 -46105534.008831024 -55218631.001874924 0 -55218631.001874924 -5486780.9044036865 0 0 0 0 -41669856.337493896 -42027960.476165771 0 -42027960.476165771 -38627503.214401245 0 0 0 0 1497818.1261568069 1274204.2886146307 0 1274204.2886146307 229114.1229801178 0 0 0 0 2061800.5432300568 406916.63560938835 0 406916.63560938835 -2794007.9003009796 0 0 0 0 3077857.3492794037 -1847478.1904833317 0 -1847478.1904833317 2100373.6610956192 0 0 0 0 84229.077443692368 89673.261535851751 0 89673.261535851751 -16480.499711172655 0 0 0 0 -3076416.1286468506 5330126.2948420048 0 5330126.2948420048 -3183433.1400995255 0 0 0 0 -97660.034378051758 1562277.9148960114 0 1562277.9148960114 1579358.6798698902 0 0 0 0 585902.94742584229 2961558.1594495773 0 2961558.1594495773 -1570262.5286073685 0 0 0 0 1898810.6582374573 602327.4467716217 0 602327.4467716217 -3314915.6134738922 0 0 0 0 2075541.5421772003 406638.21499419212 0 406638.21499419212 -3099642.6991386414 0 0 0 0 2045462.2181663513 912387.63374090195 0 912387.63374090195 -5946607.3412053585 0 0 0 0 -5336495.2366065979 3996618.1342921257 0 3996618.1342921257 8640884.8008080721 0 0 0 0 -12324771.910980225 15742872.53739953 0 15742872.53739953 -5975967.056789875 0 0 0 0 -3816348.3153915405 -1997874.5520558357 0 -1997874.5520558357 6905415.793571949 0 0 0 0 -4823798.3758716583 -3095697.0510840416 0 -3095697.0510840416 6314549.4228658676 0 0 0 0 -245412.31588159874 -869177.15793547872 0 -869177.15793547872 -2512491.5857364051 0 0 0 0 14258957.177890778 -19857351.72490859 0 -19857351.72490859 14814001.231086254 0 0 0 0 -18765547.343949795 -5056010.0712022483 0 -5056010.0712022483 28891106.606650829 0 0 0 0 -43158851.828323364 29227683.226777792 0 29227683.226777792 3787809.6468529701 0 0 0 0 8806120.0538024902 11158786.243054509 0 11158786.243054509 -81774991.939018726 0 0 0 0 11231293.042797089 -1840157.2106928825 0 -1840157.2106928825 -17995782.45541501 0 0 0 0 6439676.6401405334 -5333227.0750077963 0 -5333227.0750077963 -15904319.813773632 0 0 0 0 4352235.2551631927 4532999.01327914 0 4532999.01327914 -21871861.703203201 0 0 0 0 -10732466.973323822 -26463096.876384035 0 -26463096.876384035 39527549.665122896 0 0 0 0 -10716662.823747993 -24290169.63234004 0 -24290169.63234004 587742.28940224648 0 0 0 0 3810973.5088996887 -54712919.145462275 0 -54712919.145462275 -32714036.495168984 0 0 0 0 -33375135.991540909 43914050.950834602 0 43914050.950834602 -15752941.597276688 0 0 0 0 -22368659.942405701 21893043.866800666 0 21893043.866800666 -39419185.148055442 0 0 0 0 -1629117.9431225229 -1278786.9442307004 0 -1278786.9442307004 -115225.57482752184 0 0 0 0 -7460908.9703865051 5467506.9372682571 0 5467506.9372682571 27326916.655041367 0 0 0 0 -702679.48114010785 -210781.23559232429 0 -210781.23559232429 212194.1775960922 0 0 0 0 -9510424.6223220825 -8759767.7878739238 0 -8759767.7878739238 16182793.554608703 0 0 0 0 -5748525.7517280579 -3549672.1579316258 0 -3549672.1579316258 2662030.6906949282 0 0 0 0 20652587.223234177 -4389013.2493891716 0 -4389013.2493891716 -9654835.9378089905 0 0 0 0 -3843142.0442675781 -3587348.0026172264 0 -3587348.0026172264 32753.402920673427 0 0 0 0 12272317.201839685 231265144.00148654 0 231265144.00148654 -719344090.61702824 0 0 0 0 54304516.666042328 -27834399.656996965 0 -27834399.656996965 4246850.1485686302 0 0 0 0 -1495043.8030744959 1429606.3041601935 0 1429606.3041601935 -2479558.0587969385 0 0 0 0 -588878428.57514572 -557434666.60188305 0 -557434666.60188305 51633302.302939087 0 0 0 0 -1051907863.5189514 114038082.84207201 0 114038082.84207201 -526766615.63364029 0 0 0 0 -117514665.1921463 -541421649.52403545 0 -541421649.52403545 -71401634.959474802 0 0 0 0 -11644299.56231308 -5190421.945422411 0 -5190421.945422411 5214604.5952539444 0 0 0 0 -4978469.8420012929 -5068913.0227742586 0 -5068913.0227742586 658343.37881306664 0 0 0 0 -16180149.386961758 -4857604.2266737297 0 -4857604.2266737297 13536431.069296837 0 0 0 0 -15827866.240083694 -14847826.877680302 0 -14847826.877680302 27620962.840782166 0 0 0 0 -4142494.8292236328 -6209731.1541479826 0 -6209731.1541479826 -1686633.8049367145 0 0 0 0 -8774628.2400579453 -9628783.2433447242 0 -9628783.2433447242 -1148694.3501697779 0 0 0 0 -2220644.2622489929 -7263491.0756880641 0 -7263491.0756880641 -2506902.8535871506 0 0 0 0 -194770.06713731424 -2229860.3271099646 0 -2229860.3271099646 -3204918.0937385764 0 0 0 0 -1365983.6340389252 -7604114.7035099268 0 -7604114.7035099268 -3589074.3095309734 0 0 0 0 6192300.0714912415 -3065327.8780376911 0 -3065327.8780376911 -6762848.3812298775 0 0 0 0 1039959.428237915 -12153366.04984355 0 -12153366.04984355 -525105.87029933929 0 0 0 0 -708008.18446350098 -19163395.519872665 0 -19163395.519872665 -19649728.928695917 0 0 0 0 3364613.0954589844 -5039224.0857098103 0 -5039224.0857098103 -13115469.696938992 0 0 0 0 3422489.5394309759 -3716764.8509248272 0 -3716764.8509248272 -5823314.04022789 0 0 0 0 4427882.2657394409 -2076681.9617767334 0 -2076681.9617767334 -7771876.313700676 0 0 0 0 3607115.5944948196 1474710.5078999996 0 1474710.5078999996 -7841613.5909023285 0 0 0 0 704171.60872825875 -2110108.15786746 0 -2110108.15786746 -3285052.0708298753 0 0 0 0 7483669.0920944214 -4478450.7236840725 0 -4478450.7236840725 -5919808.0431118011 0 0 0 0 5253077.8928489685 -4168199.7400135994 0 -4168199.7400135994 -2480272.9169273674 0 0 0 0 5092527.561378479 -4397871.2553505898 0 -4397871.2553505898 -1189036.4826946259 0 0 0 0 697271.27899926901 -6865422.6123220325 0 -6865422.6123220325 -3409944.7033653259 0 0 0 0 -2618270.6860005367 -1054186.2925061928 0 -1054186.2925061928 668033.25017185789 0 0 0 0 -108608903.12039185 -26274862.105596542 0 -26274862.105596542 -10785489.772866964 0 0 0 0 -26763630.928364754 -30142752.14667511 0 -30142752.14667511 -34021060.89611578 0 0 0 0 -87238863.568323135 -32698883.546901703 0 -32698883.546901703 -27870679.443545341 0 0 0 0 -59361726.046175003 -16098265.164890289 0 -16098265.164890289 -38927350.944660664 0 0 0 0 -86746262.978623033 -35027649.768672585 0 -35027649.768672585 -22474385.18482399 0 0 0 0 -77242321.069755077 -50891088.163667202 0 -50891088.163667202 -60483436.935209274 0 0 0 0 -11342112.014458656 -2747921.0207247734 0 -2747921.0207247734 12708529.783987999 0 0 0 0 -1012424.167199593 -290951.94668402476 0 -290951.94668402476 423072.65489897784 0 0 0 0 -58945759.070926666 -18438585.046846867 0 -18438585.046846867 12520305.25159657 0 0 0 0 -61712644.652451217 7279485.5385251641 0 7279485.5385251641 -8592156.0709247589 0 0 0 0 -11560890.7888937 -9611092.0598378181 0 -9611092.0598378181 4346775.2873592377 0 0 0 0 -5021978.9650182724 -1745376.1183495522 0 -1745376.1183495522 4974010.4988504648 0 0 0 0 17402494.883674026 -3543818.9533990324 0 -3543818.9533990324 -21122841.549713135 0 0 0 0 -18083613.135710716 18203399.293763638 0 18203399.293763638 -25236959.814078748 0 0 0 0 -8796944.6198258996 -23178234.211396962 0 -23178234.211396962 -32199635.714362144 0 0 0 0 -97475451.568492889 38275208.665374875 0 38275208.665374875 30376200.352170348 0 0 0 0 -48954105.544926286 -100671130.50992256 0 -100671130.50992256 -16430371.167581081 0 0 0 0 4631222.0008392334 -11964597.150507212 0 -11964597.150507212 8362964.4962333739 0 0 0 0 -387820.09886470344 -2361818.1656001033 0 -2361818.1656001033 -57136.058008035645 0 0 0 0 -9240178.8225955963 -870880.87389457226 0 -870880.87389457226 11807473.227273464 0 0 0 0 -81205099.613040686 21353243.694098949 0 21353243.694098949 4282853.4929497242 0 0 0 0 -16988767.651134789 17281689.180496693 0 17281689.180496693 -6535360.4542179108 0 0 0 0 259216.03672240351 420599.93457787961 0 420599.93457787961 -352874.92295795004 0 0 0 0 -343570419.79464984 -65529004.92667532 0 -65529004.92667532 82157406.415194511 0 0 0 0 -148892.19673763594 813985.98113135761 0 813985.98113135761 -190824.474418703 0 0 0 0 54542685.641033411 -28700857.578755975 0 -28700857.578755975 -31885478.821552992 0 0 0 0 -178100521.71958351 -52726515.716097355 0 -52726515.716097355 -5642764.3679089546 0 0 0 0 -164533639.2900002 16232013.932232618 0 16232013.932232618 -51218949.870436668 0 0 0 0 -8439298.3940544128 -2061122.5451481342 0 -2061122.5451481342 10756634.877456903 0 0 0 0 2612703.927788496 -3691049.6077246666 0 -3691049.6077246666 540731.69042110443 0 0 0 0 -8109692.3715867996 12855236.570640802 0 12855236.570640802 -1575362.3074235916 0 0 0 0 -1959625.9897603975 758680.7308843229 0 758680.7308843229 685666.32944480004 0 0 0 0 21926136.075260162 -14267173.096830368 0 -14267173.096830368 -70569593.813597679 0 0 0 0 -341363.33079601201 1216622.5915867707 0 1216622.5915867707 -733736.18901760597 0 0 0 0 -217284561.07316494 -28901087.690783024 0 -28901087.690783024 29184855.859607697 0 0 0 0 -105294.04029373871 -34639.455215374008 0 -34639.455215374008 25259.592631373322 0 0 0 0 -200644499.97676849 3276559.6330718994 0 3276559.6330718994 26589356.328859329 0 0 0 0 -234016593.07085133 -74577875.168794632 0 -74577875.168794632 -46411856.410581589 0 0 0 0 -135059158.14905596 9379766.7555074692 0 9379766.7555074692 -10025825.344844818 0 0 0 0 -169612819.70111656 -80101514.966412961 0 -80101514.966412961 87050165.678035736 0 0 0 0 -317005.00328959106 1002063.2481114725 0 1002063.2481114725 -980199.25463083945 0 0 0 0 -228501052.47801208 63658158.685699463 0 63658158.685699463 16048798.363737106 0 0 0 0 -162737577.37286186 -64774942.409921646 0 -64774942.409921646 -34079990.528588295 0 0 0 0 141082437.87428665 -296155701.26420975 0 -296155701.26420975 114090039.15990067 0 0 0 0 -138000873.71902275 -26288285.95552063 0 -26288285.95552063 -10367180.143482208 0 0 0 0 -147953460.24733543 4246245.3716087341 0 4246245.3716087341 -6970033.2331562042 0 0 0 0 6380587.8876943588 40616719.05299902 0 40616719.05299902 47481768.516025543 0 0 0 0 7488517.871556282 37494784.716439486 0 37494784.716439486 20004329.310371399 0 0 0 0 19523279.154155731 25023297.523273468 0 25023297.523273468 -46282928.613038063 0 0 0 0 44387021.074602127 4870217.8946228027 0 4870217.8946228027 -30942615.251132965 0 0 0 0 31993888.955158234 71651841.589280128 0 71651841.589280128 76357445.744525909 0 0 0 0 125150608.22504807 69263481.528985977 0 69263481.528985977 10755794.346832275 0 0 0 0 -12883788.113443851 7250803.6542797089 0 7250803.6542797089 81726633.190982103 0 0 0 0 86588126.09360224 -12887337.154325485 0 -12887337.154325485 2815764.6915721893 0 0 0 0 50983648.320285201 82704971.498583794 0 82704971.498583794 50115243.15297699 0 0 0 0 -4909501.9380635908 2587465.8118779697 0 2587465.8118779697 3685266.4388148342 0 0 0 0 -35750174.618652344 10002091.810164452 0 10002091.810164452 26173886.105596542 0 0 0 0 -22279159.144382503 2510857.2431417517 0 2510857.2431417517 2326937.2209946653 0 0 0 0 -30090567.836730957 5910997.3000793457 0 5910997.3000793457 23782428.94798851 0 0 0 0 -124903479.0028584 -115527975.95612645 0 -115527975.95612645 99250793.604347229 0 0 0 0 -17385650.072868347 15866000.124781609 0 15866000.124781609 14998438.407933235 0 0 0 0 -9633976.734752655 10350359.123034477 0 10350359.123034477 8940716.3512573242 0 0 0 0 -106846165.47793055 42410670.909050941 0 42410670.909050941 6735213.966884613 0 0 0 0 -98363729.556977272 52069541.221292496 0 52069541.221292496 -382544.14589118958 0 0 0 0 -181507072.3500154 18429183.721168995 0 18429183.721168995 14996079.494024277 0 0 0 0 -116860.68934462495 394725.5363310359 0 394725.5363310359 -205900.5463234568 0 0 0 0 74400461.065324306 87506296.563000679 0 87506296.563000679 -147036335.08411789 0 0 0 0 136806931.56242275 195101800.09421158 0 195101800.09421158 -93581644.086261272 0 0 0 0 -117645357.59392738 2289308.6885528564 0 2289308.6885528564 -6927224.9506459534 0 0 0 0 -38022381.717347145 -10669143.47379446 0 -10669143.47379446 12916711.269767761 0 0 0 0 -29891742.628941536 -26348292.014442444 0 -26348292.014442444 -23377690.059803888 0 0 0 0 -85902414.331715584 -15189104.928197384 0 -15189104.928197384 -23504195.470864296 0 0 0 0 -51889073.447597921 -54459949.315511286 0 -54459949.315511286 -43284133.392162323 0 0 0 0 -30294521.016844749 -43665948.061031818 0 -43665948.061031818 -43539266.701025009 0 0 0 0 -56545106.271822453 -25900871.598557472 0 -25900871.598557472 7314527.5799007416 0 0 0 0 -7446159.882484436 -29790674.854939461 0 -29790674.854939461 -49765154.828740835 0 0 0 0 -29692799.611763 -33609800.468548298 0 -33609800.468548298 47302836.12460804 0 0 0 0 -39204138.665186405 8916243.0308637619 0 8916243.0308637619 70593089.797642708 0 0 0 0 -13674171.412743568 -17017160.411249638 0 -17017160.411249638 2590605.3948669434 0 0 0 0 -19023089.149662688 2806754.284940864 0 2806754.284940864 691737.99658375373 0 0 0 0 50253732.515715599 14215211.736196518 0 14215211.736196518 16558072.231338501 0 0 0 0 -97629070.02256012 43175402.006658554 0 43175402.006658554 164485403.83153629 0 0 0 0 -15553914.317817688 8221870.4402885437 0 8221870.4402885437 12870757.327664375 0 0 0 0 -11731764.140171051 5398019.6324353218 0 5398019.6324353218 2074601.0861558914 0 0 0 0 -16130784.923746586 1748174.9005363369 0 1748174.9005363369 233019.08336691419 0 0 0 0 -14415913.235916138 5713604.5819091797 0 5713604.5819091797 8302195.9461398125 0 0 0 0 -13452654.163574219 3853268.2920384407 0 3853268.2920384407 58237.475391387939 0 0 0 0 -13650101.813157558 -388529.71822880208 0 -388529.71822880208 -4158804.4526376724 0 0 0 0 236502.08117485046 5596283.0104722977 0 5596283.0104722977 -9935029.9638757706 0 0 0 0 -8446517.9784164429 5862894.0709705353 0 5862894.0709705353 1831669.4589030743 0 0 0 0 -9691442.2946014404 10165758.284758091 0 10165758.284758091 -10091939.486872673 0 0 0 0 -20100091.009971619 16350588.521303177 0 16350588.521303177 -9548194.295917511 0 0 0 0 -21100005.916883469 4714759.1359272003 0 4714759.1359272003 -12510230.686038971 0 0 0 0 -32528220.185871124 10596224.010299683 0 10596224.010299683 2143288.7616977692 0 0 0 0 -42606554.61190033 16489942.844900131 0 16489942.844900131 18136908.576656342 0 0 0 0 -21202328.450336456 12317653.945046902 0 12317653.945046902 1097625.9204540253 0 0 0 0 -12677972.743942261 12794999.495153427 0 12794999.495153427 366563.48191142082 0 0 0 0 -23777309.637081146 12429203.311299324 0 12429203.311299324 8649166.1053619385 0 0 0 0 -16154021.998588562 9921625.14605093 0 9921625.14605093 925911.22230911255 0 0 0 0 -23023688.386207581 -28048629.016861916 0 -28048629.016861916 -8600867.8035593033 0 0 0 0 -65704786.751983643 -14714079.384456635 0 -14714079.384456635 23090199.016602039 0 0 0 0 -2643609.8140869141 -3128716.7979345322 0 -3128716.7979345322 14807763.054710388 0 0 0 0 -15938524.545066833 -25527846.382071495 0 -25527846.382071495 26448265.447646141 0 0 0 0 -14832738.159286499 -5187070.9260053635 0 -5187070.9260053635 17721933.091691971 0 0 0 0 -65086583.227752686 19217753.196276665 0 19217753.196276665 13588194.191430092 0 0 0 0 -35441335.424842834 2042433.9632530212 0 2042433.9632530212 22554132.084276199 0 0 0 0 -32675560.722616196 14475207.670032859 0 14475207.670032859 -32535275.276733398 0 0 0 0 -72506164.517555237 -11501433.564888 0 -11501433.564888 -8669338.4945688248 0 0 0 0 -76840095.912406921 17175900.791805267 0 17175900.791805267 4317967.680254221 0 0 0 0 933042.65648315847 -1207151.2758917143 0 -1207151.2758917143 435676.45007527433 0 0 0 0 -46177776.36290741 27091139.951097488 0 27091139.951097488 -5127331.0363273621 0 0 0 0 1877185.604888916 -16618490.630764961 0 -16618490.630764961 -10375365.967894554 0 0 0 0 10364035.729236603 -10066682.219695568 0 -10066682.219695568 -9666920.0504970551 0 0 0 0 3048253.5495624542 -4637162.5579661429 0 -4637162.5579661429 6993468.4471715689 0 0 0 0 -10329087.821009124 -3618261.3024316821 0 -3618261.3024316821 5487966.5086272517 0 0 0 0 -562392210.14814377 331681365.88185614 0 331681365.88185614 -140102935.83652472 0 0 0 0 -999400768.26723099 680513773.87078762 0 680513773.87078762 -107377545.83961344 0 0 0 0 -691961555.37891006 172010637.85027796 0 172010637.85027796 34990242.299807012 0 0 0 0 -221812.41832788847 -1188487.7207809677 0 -1188487.7207809677 107662.96477464653 0 0 0 0 -653191642.5662365 918588268.18407428 0 918588268.18407428 -612311441.85692585 0 0 0 0 -1026944093.2291489 473640086.30135024 0 473640086.30135024 -516472316.78112769 0 0 0 0 -666573.22703806544 215828.84833538812 0 215828.84833538812 -67185.568544290261 0 0 0 0 -452529316.06806183 567554401.29612422 0 567554401.29612422 -560757725.67912257 0 0 0 0 -597402966.6556406 863742669.74795544 0 863742669.74795544 -757388349.60635233 0 0 0 0 -4628888.4544388074 -1124166.7318994119 0 -1124166.7318994119 80855.695858217194 0 0 0 0 -723269610.15499878 1234147049.2363038 0 1234147049.2363038 -737971032.58206713 0 0 0 0 4168887.2364604473 -69246991.03802456 0 -69246991.03802456 275267206.22667694 0 0 0 0 -142713230.10741425 7644420.613049984 0 7644420.613049984 -169434045.50032651 0 0 0 0 -168400809.02256966 1193117682.3642411 0 1193117682.3642411 864302336.01908362 0 0 0 0 -1211315324.3493557 704655239.10483241 0 704655239.10483241 1993394312.9583764 0 0 0 0 -1252467816.6801586 340608463.11634433 0 340608463.11634433 254984233.24097434 0 0 0 0 1040422014.0798426 -681046763.47344756 0 -681046763.47344756 180894063.49208641 0 0 0 0 282972501.49655056 -1827716348.8586617 0 -1827716348.8586617 657575961.34405446 0 0 0 0 -2543684337.9228706 -568665096.60455799 0 -568665096.60455799 45680253.590755224 0 0 0 0 -1236362697.8631668 -211705337.92916936 0 -211705337.92916936 84719202.678856194 0 0 0 0 -104891971.19987488 -1481828212.2004137 0 -1481828212.2004137 -396384995.52864027 0 0 0 0 162813186.69036961 241699468.44090748 0 241699468.44090748 -1646885198.1079483 0 0 0 0 -1273555954.2250137 -1793658726.0122867 0 -1793658726.0122867 -1926858594.7571025 0 0 0 0 -1007498903.4144707 -1078761226.0095174 0 -1078761226.0095174 -77400281.649257421 0 0 0 0 173459237.42985916 -157229868.84226486 0 -157229868.84226486 -3346318510.7280583 0 0 0 0 -624791.61992968619 -571259.920583901 0 -571259.920583901 17322.845189329004 0 0 0 0 -3535205583.2906952 -903175810.16572857 0 -903175810.16572857 -1218851476.7623744 0 0 0 0 -3064118901.9083691 -1504007888.9832551 0 -1504007888.9832551 -728001631.17652953 0 0 0 0 -866090.34353919933 -87410.070774120861 0 -87410.070774120861 439046.29103358707 0 0 0 0 -1371742263.1487675 295086614.00999188 0 295086614.00999188 -1443363422.9646316 0 0 0 0 -1725701244.1175747 860809103.19722641 0 860809103.19722641 -225524903.90915984 0 0 0 0 -2084576615.815836 357020057.16461664 0 357020057.16461664 -799613340.89702296 0 0 0 0 -1342969929.0922184 144566082.34692377 0 144566082.34692377 -1180267389.9139755 0 0 0 0 -56832856.216173172 -422429313.75729918 0 -422429313.75729918 948153654.78802729 0 0 0 0 104259457.61969757 -1433493741.0136518 0 -1433493741.0136518 968482949.70752764 0 0 0 0 -9894630.7552642822 1292395.150182724 0 1292395.150182724 8586253.3001642227 0 0 0 0 -5840553.5145453867 -4756107.3325808682 0 -4756107.3325808682 2487995.387661797 0 0 0 0 49421356.808551788 -1694958080.5470417 0 -1694958080.5470417 1133001373.7708702 0 0 0 0 444982982.10840607 -1214168996.5303912 0 -1214168996.5303912 1078894434.8672986 0 0 0 0 -227692399.45953369 -1179838656.4881425 0 -1179838656.4881425 786275496.2171905 0 0 0 0 -13346107.979693413 -5190555.2055077553 0 -5190555.2055077553 10735783.136433601 0 0 0 0 -693838422.72502041 1738733944.187573 0 1738733944.187573 -366241518.5927248 0 0 0 0 -10415929.550052557 -4843860.5472530909 0 -4843860.5472530909 3268722.0985559481 0 0 0 0 -12862443.015895844 -2171355.511346817 0 -2171355.511346817 13365415.522081375 0 0 0 0 -455427.00435066223 -753058404.13904667 0 -753058404.13904667 -24059346.853528261 0 0 0 0 -1598874970.997263 971453359.28745329 0 971453359.28745329 275934439.23421788 0 0 0 0 -14992521.561244234 -609507.52559914719 0 -609507.52559914719 5886364.4776578899 0 0 0 0 -901333886.38195896 304460130.56435561 0 304460130.56435561 539257278.7442596 0 0 0 0 -22774627.962501526 -4608999.1760120392 0 -4608999.1760120392 26266164.738428116 0 0 0 0 -43145200.604690552 1849152.4534797668 0 1849152.4534797668 25008325.153654099 0 0 0 0 -18635542.593310013 1380088.4000509968 0 1380088.4000509968 7457251.350338921 0 0 0 0 -16773052.169133663 -4692097.5570926666 0 -4692097.5570926666 16438435.017717361 0 0 0 0 -16909476.042477608 -5297077.2571730614 0 -5297077.2571730614 52064443.295799255 0 0 0 0 -16359983.900777817 -2245708.9710760117 0 -2245708.9710760117 21242086.158315659 0 0 0 0 -11181016.448486328 12967891.634543419 0 12967891.634543419 26426648.696864128 0 0 0 0 -11225681.440960407 8171244.2607767582 0 8171244.2607767582 1159871.1551151276 0 0 0 0 -9549519.5058164597 270863.61556434631 0 270863.61556434631 11569789.193580627 0 0 0 0 -10965796.431367874 2991604.4386463165 0 2991604.4386463165 12448139.300931931 0 0 0 0 -3679695.9863400226 2386031.0053624902 0 2386031.0053624902 3587757.50439825 0 0 0 0 -5844984.5497768223 11715545.067769133 0 11715545.067769133 1969353.7629776001 0 0 0 0 -3544452.9745125771 17751626.772813797 0 17751626.772813797 -2107699.6915569305 0 0 0 0 -5711457.0712919235 5649734.5878553391 0 5649734.5878553391 -12793745.470364571 0 0 0 0 -4088186.2707195589 1842213.6864608084 0 1842213.6864608084 1691200.428664942 0 0 0 0 -10660635.650651872 5316452.9287161827 0 5316452.9287161827 3618884.7413990498 0 0 0 0 -629396.35466134618 1400444.6728024827 0 1400444.6728024827 472999.15532470914 0 0 0 0 -3298868.3256633468 125740.69118940219 0 125740.69118940219 1864320.4540778096 0 0 0 0 -69096947.634742737 -9289245.1133759618 0 -9289245.1133759618 3826635.2003600001 0 0 0 0 -152198853.49593592 -202223017.83584571 0 -202223017.83584571 198223898.4240526 0 0 0 0 -112968974.74165043 118921929.7305492 0 118921929.7305492 469400162.25741124 0 0 0 0 21852093.897759631 -325301018.71192104 0 -325301018.71192104 231997439.38220954 0 0 0 0 243730129.67901736 -12180612.766414285 0 -12180612.766414285 159979616.49209866 0 0 0 0 -1452648.0888142423 279970.99641918286 0 279970.99641918286 411207.99373682245 0 0 0 0 -1461893598.1836684 -598035722.61036873 0 -598035722.61036873 -59604540.972178221 0 0 0 0 -135398240.10908961 610418663.94302976 0 610418663.94302976 145364256.23621595 0 0 0 0 -42388401.763474226 -77391674.066181362 0 -77391674.066181362 -277259243.55471992 0 0 0 0 -2033366903.3109062 82725015.56696862 0 82725015.56696862 189540075.82518458 0 0 0 0 -1321187687.1108184 -165957648.16149494 0 -165957648.16149494 186081200.65502572 0 0 0 0 -1717559196.3914566 894999.40646207333 0 894999.40646207333 220308577.62154984 0 0 0 0 -1041880953.9688987 276259023.43362057 0 276259023.43362057 130454315.81791234 0 0 0 0 -1103107011.1876059 9305073.8189673424 0 9305073.8189673424 230770991.80291983 0 0 0 0 -10946325.358922958 3361236.591917038 0 3361236.591917038 9959061.7371406555 0 0 0 0 -602605148.32072353 -209022205.64076298 0 -209022205.64076298 -82284667.539112449 0 0 0 0 -4187086.187745837 2434681.7908596508 0 2434681.7908596508 4417826.1488173166 0 0 0 0 -1611458532.1766453 44803331.227551699 0 44803331.227551699 -136156069.52173048 0 0 0 0 -1560391039.1198413 -66219752.711828172 0 -66219752.711828172 8395753.8834242821 0 0 0 0 -1412685914.9814336 345702310.62804615 0 345702310.62804615 130254340.80584264 0 0 0 0 -1902448701.9766178 -3357351.5234086514 0 -3357351.5234086514 -15104481.21588546 0 0 0 0 -419068646.44857693 1277938912.6551476 0 1277938912.6551476 -309068455.05723739 0 0 0 0 -1701703197.4565907 -234924410.88811815 0 -234924410.88811815 -874486269.40703785 0 0 0 0 -1682972953.7455988 -66069655.925471902 0 -66069655.925471902 -213348601.6963768 0 0 0 0 -1421970475.1630058 95897167.217501342 0 95897167.217501342 -764296076.60007429 0 0 0 0 -1375320298.4056664 305696292.00725585 0 305696292.00725585 -94150498.786140025 0 0 0 0 -1562470109.8391342 133658692.24539834 0 133658692.24539834 -222941898.23676705 0 0 0 0 -1612427670.9357071 56530633.766709208 0 56530633.766709208 -18438459.441571236 0 0 0 0 -1626308543.6685066 439608171.76391542 0 439608171.76391542 -25970244.292085439 0 0 0 0 -1505630736.4991016 354549027.99111778 0 354549027.99111778 25947750.500647306 0 0 0 0 -1828179551.2379875 697306767.74073827 0 697306767.74073827 -4760524.867847085 0 0 0 0 -2021501779.53971 352932029.06488848 0 352932029.06488848 25949516.113745637 0 0 0 0 -1812870524.9672952 211231980.30633652 0 211231980.30633652 63754216.078303397 0 0 0 0 -1785413938.0874262 119570093.07831287 0 119570093.07831287 14264098.847305715 0 0 0 0 -1769209191.9571548 154084469.03041279 0 154084469.03041279 86968310.268780231 0 0 0 0 -1842650276.8513246 141048373.63265312 0 141048373.63265312 192985761.08998817 0 0 0 0 -2323590126.2794847 210019972.64150512 0 210019972.64150512 215359785.89621878 0 0 0 0 -1934535513.8067398 196240189.43128443 0 196240189.43128443 81769211.759936094 0 0 0 0 -2260868791.36479 414776090.56247395 0 414776090.56247395 374568844.23641539 0 0 0 0 -2149618044.7961807 17680456.387377858 0 17680456.387377858 157940832.45524728 0 0 0 0 -2735938286.457757 274571041.04436147 0 274571041.04436147 334161598.45856476 0 0 0 0 -2141803140.4289069 20230347.206647873 0 20230347.206647873 -51656714.992856741 0 0 0 0 -3146340658.7532043 62891868.721164286 0 62891868.721164286 508954809.13461208 0 0 0 0 -3160449091.175415 494519254.18952918 0 494519254.18952918 631159781.09046972 0 0 0 0 -4093917959.6513062 -70327663.678072721 0 -70327663.678072721 901190473.54256237 0 0 0 0 -2862780305.0058174 586152686.80081904 0 586152686.80081904 618981811.59247053 0 0 0 0 -4095495916.7072115 1284367753.0362709 0 1284367753.0362709 629276467.92050683 0 0 0 0 -2854509487.5888891 694719615.24999964 0 694719615.24999964 268975447.29304314 0 0 0 0 -2297893948.0383143 1290915522.1224079 0 1290915522.1224079 -170690808.08174253 0 0 0 0 -1526858899.3081141 690705965.74036598 0 690705965.74036598 -22415009.647489548 0 0 0 0 -2280953100.1845045 1409033711.322134 0 1409033711.322134 577494852.89063537 0 0 0 0 -4087518664.6868863 2379222077.7310395 0 2379222077.7310395 386683147.8862046 0 0 0 0 -1038554101.6276741 2564051827.0575309 0 2564051827.0575309 -1239017498.5038195 0 0 0 0 -2993750430.1406097 -1613888330.1069548 0 -1613888330.1069548 1717818117.2450113 0 0 0 0 -3745836.6717192773 3266919.2541043661 0 3266919.2541043661 -485182.67914131645 0 0 0 0 504747546.64210415 90998528.34726356 0 90998528.34726356 69511649.675133586 0 0 0 0 -568057495.32020187 829319864.83225 0 829319864.83225 -419005306.09000564 0 0 0 0 -1445236983.5213757 284958338.70619458 0 284958338.70619458 218156210.86683929 0 0 0 0 -1394658855.6981354 510727899.37527984 0 510727899.37527984 -10913604.391036563 0 0 0 0 -1665292409.4079199 577047403.62455213 0 577047403.62455213 871068112.06884885 0 0 0 0 -1316748960.7880802 -494383.8820463866 0 -494383.8820463866 817533203.36206341 0 0 0 0 -1765115861.5782166 386631135.20797759 0 386631135.20797759 835849695.9793433 0 0 0 0 -1341806077.3086109 485002082.8902266 0 485002082.8902266 -226429624.63167527 0 0 0 0 -1215269190.3617592 560105141.99913025 0 560105141.99913025 -407615795.85654062 0 0 0 0 -1296275052.0888596 529188824.26841927 0 529188824.26841927 -279827891.14844668 0 0 0 0 -1454510645.4339113 538206115.28126645 0 538206115.28126645 444372781.04105043 0 0 0 0 -1698209657.9829578 710740226.32065225 0 710740226.32065225 356827976.22769648 0 0 0 0 -1562578868.830471 938752685.63368273 0 938752685.63368273 738543632.67642128 0 0 0 0 -1155588003.0671268 1037842701.6102432 0 1037842701.6102432 223558953.7521261 0 0 0 0 -1421908826.8567467 665170398.66637123 0 665170398.66637123 764850676.54615819 0 0 0 0 -516768175.04272842 -1086145.5014134943 0 -1086145.5014134943 523182285.27433473 0 0 0 0 -10552490.164566867 -1333493.510134167 0 -1333493.510134167 1035296.9319598333 0 0 0 0 -1014083457.9464245 -607602873.30889618 0 -607602873.30889618 1842024189.7745898 0 0 0 0 -1230914682.4089565 847634419.8476665 0 847634419.8476665 647465641.76145661 0 0 0 0 -1033762160.8416328 573194876.14106214 0 573194876.14106214 682229178.07173157 0 0 0 0 -1147435098.9304008 615562074.89769745 0 615562074.89769745 854024235.12887216 0 0 0 0 -1515928125.2775173 1720631624.9884281 0 1720631624.9884281 -505856119.64625192 0 0 0 0 457238534.49160004 -1159596291.8494916 0 -1159596291.8494916 -507269247.72638178 0 0 0 0 -1792640648.6541061 2331268244.1210122 0 2331268244.1210122 -1246112234.6446714 0 0 0 0 1490753374.3628006 -242658289.06299925 0 -242658289.06299925 -4134504668.2878447 0 0 0 0 -995028969.617939 -413353158.81153262 0 -413353158.81153262 1608225861.8796983 0 0 0 0 -3994940.3121018261 2587194.5962932687 0 2587194.5962932687 -436845.89768037945 0 0 0 0 -1985753814.5924225 3249019473.9766369 0 3249019473.9766369 -335552389.50046253 0 0 0 0 -2036255430.6403122 496413060.60258788 0 496413060.60258788 2018298411.7375121 0 0 0 0 -2307014831.8998652 816618671.97465301 0 816618671.97465301 1158692101.7539515 0 0 0 0 -1752064980.5664101 452357961.07801008 0 452357961.07801008 1075235859.0321774 0 0 0 0 -1734343133.0785141 1523166940.1080165 0 1523166940.1080165 -1507172039.7609715 0 0 0 0 -2975126636.1174088 1656349359.8636787 0 1656349359.8636787 587905449.98229682 0 0 0 0 -1439689698.0099792 3346857216.1498413 0 3346857216.1498413 -1700353452.9263406 0 0 0 0 -6060015.185038209 -32409.303593716118 0 -32409.303593716118 899944.22505566629 0 0 0 0 -632552293.11403465 -627963013.98866439 0 -627963013.98866439 1037792218.304408 0 0 0 0 -257788093.56227112 188889237.3280654 0 188889237.3280654 -354184741.33360392 0 0 0 0 -303851492.88804626 530568473.09633094 0 530568473.09633094 341125280.64654279 0 0 0 0 476834743.87978745 15780595.684863612 0 15780595.684863612 -105282277.74373841 0 0 0 0 169799820.93964767 547552891.74182713 0 547552891.74182713 -65169405.218060911 0 0 0 0 -105256248.01449203 489938480.2935636 0 489938480.2935636 -496630224.43924344 0 0 0 0 -71286642.803050995 444326623.90293711 0 444326623.90293711 -461554930.49526334 0 0 0 0 -1957865639.4988213 128973825.13287753 0 128973825.13287753 729769629.85371137 0 0 0 0 -383804593.18278122 245051702.97616908 0 245051702.97616908 -322088642.47776204 0 0 0 0 -450569114.48977661 314834912.42552948 0 314834912.42552948 -119881993.34180728 0 0 0 0 -1146079409.5125656 218862697.91154796 0 218862697.91154796 -280092373.00591326 0 0 0 0 -2134555117.072834 419496253.78590536 0 419496253.78590536 -79014110.890148535 0 0 0 0 -2767339559.2921982 1228085672.2084498 0 1228085672.2084498 -230638942.34082472 0 0 0 0 -4096199199.1763968 701678929.35515714 0 701678929.35515714 16366043.335507203 0 0 0 0 -2314775587.5937958 135979032.29181492 0 135979032.29181492 177615845.08754289 0 0 0 0 -4086661909.7848029 -406583028.29051375 0 -406583028.29051375 495558193.21544003 0 0 0 0 -1691427725.0020905 3589237111.2719202 0 3589237111.2719202 -917669277.71387494 0 0 0 0 -668590902.32686996 -1184275022.5948467 0 -1184275022.5948467 -897359966.38400733 0 0 0 0 -2404332213.9634171 607819679.59751832 0 607819679.59751832 -2072400000.0327222 0 0 0 0 -173585681.88199711 -59783667.346125245 0 -59783667.346125245 -34815887.253441811 0 0 0 0 -143779317.43261719 -45768023.822603226 0 -45768023.822603226 47103390.84137249 0 0 0 0 -1182154.2416631989 979362.24932395481 0 979362.24932395481 828857.46985895373 0 0 0 0 -179671154.01010513 -86442306.208067417 0 -86442306.208067417 -135410588.16646385 0 0 0 0 -248424137.62610626 -52412047.280622482 0 -52412047.280622482 17097515.196020842 0 0 0 0 -248522370.60196686 -60640758.334038019 0 -60640758.334038019 4486743.4626502991 0 0 0 0 -248694246.15184021 -60168641.97213006 0 -60168641.97213006 4475141.1597614288 0 0 0 0 -299958564.70914459 -72914422.788555145 0 -72914422.788555145 13890070.127231598 0 0 0 0 -207629324.86372375 -72547913.317890167 0 -72547913.317890167 5622447.2137033939 0 0 0 0 -129921249.46064758 -72840832.71750021 0 -72840832.71750021 34250073.22618103 0 0 0 0 -119209236.23745728 -116826595.75567245 0 -116826595.75567245 123026746.41718674 0 0 0 0 -8929414.7700386047 -99793641.520483971 0 -99793641.520483971 39170846.973376274 0 0 0 0 -66586085.604206085 4419981.5703210831 0 4419981.5703210831 10089819.335076332 0 0 0 0 -4129110.2620796561 19363421.541332759 0 19363421.541332759 13054362.081473351 0 0 0 0 -129991347.97370148 -718371.49524021149 0 -718371.49524021149 -14542535.382698059 0 0 0 0 -52250860.860710144 15368706.217009544 0 15368706.217009544 -11816031.302900314 0 0 0 0 -90472028.615501404 -63207890.2622962 0 -63207890.2622962 36178692.032991886 0 0 0 0 -135264452.32665253 -23644105.087770939 0 -23644105.087770939 1239149.7616519928 0 0 0 0 -161102567.06969929 -67806898.853103042 0 -67806898.853103042 -29973797.090578079 0 0 0 0 -140166735.33552551 1550475.8984633684 0 1550475.8984633684 -12853632.407433271 0 0 0 0 -1167932.8945292328 917967.47840689681 0 917967.47840689681 931600.55012710858 0 0 0 0 -121558478.03049946 38716299.430122122 0 38716299.430122122 -30640535.442308426 0 0 0 0 -125337379.04847717 5969794.5301905721 0 5969794.5301905721 -23475299.64300108 0 0 0 0 -209748516.71697903 94905449.511781573 0 94905449.511781573 19264582.525320053 0 0 0 0 -235311230.70949793 -49339164.813583434 0 -49339164.813583434 -49279951.168530464 0 0 0 0 -149587643.56128693 -64972822.956696033 0 -64972822.956696033 -27154510.713717937 0 0 0 0 -149413896.97513962 -61452043.128321409 0 -61452043.128321409 -49132803.295032501 0 0 0 0 -170447077.83538437 -75842240.909364939 0 -75842240.909364939 -28454480.275605202 0 0 0 0 -166273703.11120605 -69416635.008965969 0 -69416635.008965969 -19925553.51876688 0 0 0 0 -188113002.08482742 -52430864.412755728 0 -52430864.412755728 4468054.7654762268 0 0 0 0 -145602612.20513153 -18028850.33632803 0 -18028850.33632803 -6017097.2989120483 0 0 0 0 -158873539.20320892 -18460297.21157074 0 -18460297.21157074 23324302.095841765 0 0 0 0 -132222761.46057129 -45956305.59408474 0 -45956305.59408474 -25072611.521762371 0 0 0 0 -117428972.11264992 -6499311.2830451727 0 -6499311.2830451727 -5159067.0868692398 0 0 0 0 -141101427.24704742 -46677129.291594982 0 -46677129.291594982 -24608932.192261696 0 0 0 0 -82133621.501579285 -64991939.016850233 0 -64991939.016850233 -91311127.629282475 0 0 0 0 -44725512.60956955 -1360114.321716547 0 -1360114.321716547 -44301589.539944649 0 0 0 0 -25698885.20593071 14537953.221937217 0 14537953.221937217 -45760637.883825302 0 0 0 0 -25108837.164665222 -1342543.4482614994 0 -1342543.4482614994 -60118544.270849705 0 0 0 0 -63844930.827766418 -13573344.618470669 0 -13573344.618470669 -50641572.787861109 0 0 0 0 -13195119.480865479 18562632.445236206 0 18562632.445236206 -58473271.542760789 0 0 0 0 -11076259.030227661 16635519.809010983 0 16635519.809010983 -58770286.149243295 0 0 0 0 -18103744.282184601 38959777.603873372 0 38959777.603873372 -73894275.083261251 0 0 0 0 93196.674499511719 10570815.341166019 0 10570815.341166019 -102032254.95088458 0 0 0 0 -1939605.6844844818 9848351.1133817434 0 9848351.1133817434 -54119734.619399071 0 0 0 0 -16177392.483207703 19980941.633139372 0 19980941.633139372 -27040989.281833649 0 0 0 0 -10426551.030216217 -21210854.440147161 0 -21210854.440147161 47061935.129458427 0 0 0 0 21140445.115783691 -4650071.6235451698 0 -4650071.6235451698 -33862451.153795838 0 0 0 0 -69917294.3796978 55852291.848459005 0 55852291.848459005 9749478.4082632065 0 0 0 0 12511979.524562836 29397033.198130131 0 29397033.198130131 -36605510.674462557 0 0 0 0 -52501456.805858612 28556348.331145942 0 28556348.331145942 -31086209.919576645 0 0 0 0 17087507.715667725 -29545692.192690372 0 -29545692.192690372 -152738988.12333679 0 0 0 0 7695651.9803466797 -2812990.2832536697 0 -2812990.2832536697 -130664470.62805271 0 0 0 0 -11437768.235290527 -24664473.866502285 0 -24664473.866502285 -71855340.836707115 0 0 0 0 -18890122.962527752 -2916167.4088957161 0 -2916167.4088957161 -97678776.740670204 0 0 0 0 20511988.828918457 -32164811.966467381 0 -32164811.966467381 -119118307.61416245 0 0 0 0 -58730586.001480103 2737132.983754158 0 2737132.983754158 -38232893.079708576 0 0 0 0 -11109411.388427734 -17706364.565288544 0 -17706364.565288544 -56905957.777395368 0 0 0 0 -29739151.685760498 -48980928.808135033 0 -48980928.808135033 -106414148.0364089 0 0 0 0 -230694.97119903564 19004063.339914322 0 19004063.339914322 -34025980.495427847 0 0 0 0 21157759.375915527 12931097.991411209 0 12931097.991411209 25346410.111051321 0 0 0 0 20651374.994750977 -42738776.919944763 0 -42738776.919944763 119500446.37012482 0 0 0 0 48969299.035797119 5630560.577665329 0 5630560.577665329 26423151.540880919 0 0 0 0 49879361.365844727 -41273798.926298141 0 -41273798.926298141 46087575.895709991 0 0 0 0 17745412.894241333 -5068708.1775608063 0 -5068708.1775608063 -54922046.860273361 0 0 0 0 -9986534.0808258057 -16705981.539678216 0 -16705981.539678216 1469074.5227298737 0 0 0 0 -7924407.6517105103 17791804.313142538 0 17791804.313142538 21967013.400977135 0 0 0 0 -327835.06490753964 -1212156.6312792161 0 -1212156.6312792161 -546340.82267971232 0 0 0 0 -14999785.030609131 -35158285.67586422 0 -35158285.67586422 80035767.457956791 0 0 0 0 -29530143.294616699 -18220003.332414627 0 -18220003.332414627 76197925.349276304 0 0 0 0 -10178361.984031677 -19809531.555482864 0 -19809531.555482864 4469.3379325866699 0 0 0 0 8481591.856552124 -20728253.286128998 0 -20728253.286128998 -186845.97094535828 0 0 0 0 1514825.6033363342 -33804086.441366434 0 -33804086.441366434 35644332.939861298 0 0 0 0 33770806.028869629 -13964817.8478508 0 -13964817.8478508 70870406.868099213 0 0 0 0 49008505.76373291 -36045240.257703781 0 -36045240.257703781 35596107.005992889 0 0 0 0 17001935.896209717 -13127120.060015678 0 -13127120.060015678 -70765560.277549982 0 0 0 0 143709445.01503372 85823099.147024155 0 85823099.147024155 -192319799.18138313 0 0 0 0 -164748885.69561768 30223860.834296227 0 30223860.834296227 161128303.73419857 0 0 0 0 20256259.002479553 10422216.998112679 0 10422216.998112679 7561949.7608146667 0 0 0 0 2248246.3087272644 9899961.0972390175 0 9899961.0972390175 25416778.484315872 0 0 0 0 -19315459.562835693 -867076.28087162971 0 -867076.28087162971 75633342.207791328 0 0 0 0 -234038.12709174398 624106.16479967907 0 624106.16479967907 -221017.99736840464 0 0 0 0 15462654.606811523 17100741.508644104 0 17100741.508644104 225688021.98574829 0 0 0 0 -11481.321935145184 15587.993607509881 0 15587.993607509881 3247.0062465895899 0 0 0 0 -152438104.81136322 -46552970.693585396 0 -46552970.693585396 98763456.779335022 0 0 0 0 12645154.481269836 22185875.701610565 0 22185875.701610565 -10332650.755325317 0 0 0 0 -225001574.99264526 -145883024.77934456 0 -145883024.77934456 12884565.307756424 0 0 0 0 -237488898.77001953 -149918431.5729332 0 -149918431.5729332 16956144.029136658 0 0 0 0 209054489.81800079 167342981.44087791 0 167342981.44087791 32847722.629004478 0 0 0 0 -687147.06337186508 500691.03521026298 0 500691.03521026298 847473.02100736275 0 0 0 0 -127410853.73451614 64848406.743201971 0 64848406.743201971 -30767447.523051262 0 0 0 0 -298477461.6656189 -59976787.174109459 0 -59976787.174109459 102724772.99010086 0 0 0 0 -205512221.7580719 9809801.2110710144 0 9809801.2110710144 151127361.10749435 0 0 0 0 -107236920.2569809 -90677311.70430851 0 -90677311.70430851 -37674341.948536873 0 0 0 0 -156728143.43051529 31513426.394173384 0 31513426.394173384 34692413.748232841 0 0 0 0 38254.485643699765 -795234.25856674358 0 -795234.25856674358 -217255.07804418495 0 0 0 0 53643.539875674993 -1546630.9836896772 0 -1546630.9836896772 -262805.4548809696 0 0 0 0 -6477333.2940673828 18655588.969873428 0 18655588.969873428 18966954.020567894 0 0 0 0 -54597411.235427856 -50562859.003966331 0 -50562859.003966331 -40622431.77608344 0 0 0 0 14153277.574354172 5620365.7189950943 0 5620365.7189950943 -39742370.818078041 0 0 0 0 -5186326.6888656616 -13341321.497628212 0 -13341321.497628212 2691623.0629591942 0 0 0 0 -127599088.18772697 -10992452.11533165 0 -10992452.11533165 -67586658.20605278 0 0 0 0 -131164007.73681259 -63558912.891463041 0 -63558912.891463041 -34215214.202777863 0 0 0 0 -99664985.938301086 -63995487.940759659 0 -63995487.940759659 -38116609.619997263 0 0 0 0 -114545620.13812256 -16744079.719269276 0 -16744079.719269276 -30138506.13139534 0 0 0 0 -5222652.2569274902 -9112625.3716945648 0 -9112625.3716945648 -38331484.932630539 0 0 0 0 -52844388.06174469 -47579052.650941849 0 -47579052.650941849 -34758659.615380526 0 0 0 0 -72695506.086395264 -30055306.95608902 0 -30055306.95608902 11164598.945837498 0 0 0 0 -5911278.8698425293 1215386.5029821396 0 1215386.5029821396 -9075876.5132923126 0 0 0 0 -84871853.099403381 -65085631.045321465 0 -65085631.045321465 -22854601.518532753 0 0 0 0 -80066515.197488785 -20916275.321880579 0 -20916275.321880579 -10326715.74928093 0 0 0 0 -68747299.844543457 -32490082.465198994 0 -32490082.465198994 -12532541.609096527 0 0 0 0 -94231848.597770691 -26562612.638278008 0 -26562612.638278008 16100083.994304657 0 0 0 0 -187864072.24518728 -105177514.52685159 0 -105177514.52685159 -43429308.480787277 0 0 0 0 -828246.63419950008 -215911.8596565593 0 -215911.8596565593 590963.74838451436 0 0 0 0 36319.928993483074 720056.43478489667 0 720056.43478489667 -798924.26385331899 0 0 0 0 -226314223.31587219 164465684.23299026 0 164465684.23299026 -74268843.792019844 0 0 0 0 -40951135.541877747 -36614487.2229743 0 -36614487.2229743 -12731903.579399109 0 0 0 0 24687935.685852051 -20714282.534951687 0 -20714282.534951687 -35935521.66932106 0 0 0 0 -158577740.16989136 -22616876.166501045 0 -22616876.166501045 64432272.942502975 0 0 0 0 -160217577.77268982 -10977234.113838196 0 -10977234.113838196 17208231.385461807 0 0 0 0 -147216580.68919373 57197945.66949749 0 57197945.66949749 -15505522.019281387 0 0 0 0 -80473.757566478103 -653121.95576420613 0 -653121.95576420613 -18461.361000744626 0 0 0 0 -172199929.46216583 -2089821.0035858154 0 -2089821.0035858154 53263198.182338715 0 0 0 0 179687.34279509634 882206.23401836865 0 882206.23401836865 -805100.89425338432 0 0 0 0 28418546.709789276 -75748762.383901596 0 -75748762.383901596 -92270232.730849266 0 0 0 0 -66119005.315196991 85484489.35474205 0 85484489.35474205 -9213288.3950653076 0 0 0 0 67667672.47681427 9158251.6416501999 0 9158251.6416501999 -9039610.0584716797 0 0 0 0 -193240050.88775635 -21476687.314023495 0 -21476687.314023495 39732137.903156281 0 0 0 0 -90094458.456619263 -95603969.669257164 0 -95603969.669257164 -89669723.357594013 0 0 0 0 -100835158.2521286 -68625928.654440403 0 -68625928.654440403 3052835.8049373627 0 0 0 0 -101142776.44828033 -55280869.37962532 0 -55280869.37962532 13566557.417226791 0 0 0 0 -98850880.892749786 -50576869.777736664 0 -50576869.777736664 4189224.7352676392 0 0 0 0 -108512321.05650711 -45462768.248709679 0 -45462768.248709679 6286736.2953710556 0 0 0 0 280072.89158805367 1112035.8568064105 0 1112035.8568064105 -511708.73176922835 0 0 0 0 -275675676.98251534 25047443.539232731 0 25047443.539232731 48231998.817064285 0 0 0 0 -83775638.128845215 -982551.91019535065 0 -982551.91019535065 39355086.15379715 0 0 0 0 -59324216.429359436 -84616511.351293564 0 -84616511.351293564 26815223.134988785 0 0 0 0 -51959461.589881897 -63100630.494277954 0 -63100630.494277954 158095402.30739212 0 0 0 0 -40304837.01770401 -9447656.3056066036 0 -9447656.3056066036 34963359.560874939 0 0 0 0 54669833.321269989 -5066123.3562393188 0 -5066123.3562393188 30774973.30282402 0 0 0 0 33571731.356710434 133483285.84375238 0 133483285.84375238 166330425.47979736 0 0 0 0 86911573.672203064 -91167362.97193718 0 -91167362.97193718 175564948.44997787 0 0 0 0 -75420983.165924072 42768089.557095528 0 42768089.557095528 48281890.243110657 0 0 0 0 -165128437.35593987 -64271737.958351851 0 -64271737.958351851 143198525.30049896 0 0 0 0 -74926297.133224487 791253.44217300415 0 791253.44217300415 22412699.442452431 0 0 0 0 -63074019.423408508 -38434467.04454422 0 -38434467.04454422 5730659.8488311768 0 0 0 0 -35097477.113250732 55045304.256148338 0 55045304.256148338 -28692801.505465508 0 0 0 0 -162536785.66703033 -50497886.607474327 0 -50497886.607474327 -18702905.691029549 0 0 0 0 -149288667.50209808 51191272.086197853 0 51191272.086197853 15612916.873446465 0 0 0 0 -114397261.46253204 47256243.225330353 0 47256243.225330353 -4000503.3291320801 0 0 0 0 -118636025.4922936 95107912.313295484 0 95107912.313295484 -8855141.8662071228 0 0 0 0 -187773025.00342751 49210630.770505667 0 49210630.770505667 17838352.363834381 0 0 0 0 -169632399.2926836 85642784.371786237 0 85642784.371786237 28273422.271460533 0 0 0 0 -623700.9169896543 536983.99357355945 0 536983.99357355945 409218.61606063414 0 0 0 0 -83962940.18356514 30951808.833305717 0 30951808.833305717 -199258970.08825302 0 0 0 0 -294980340.01860809 -34681245.610097885 0 -34681245.610097885 20424029.999949455 0 0 0 0 -216168975.45298767 15281530.006400108 0 15281530.006400108 -34278149.349885941 0 0 0 0 -5874768.8691558838 -81224780.672130823 0 -81224780.672130823 73041021.740633011 0 0 0 0 -39595521.182186127 3578049.742462635 0 3578049.742462635 69024429.886542559 0 0 0 0 342934.89302074909 -507054.48183998838 0 -507054.48183998838 -659025.68286945578 0 0 0 0 -138572572.58205414 103544134.66381073 0 103544134.66381073 15596922.586438179 0 0 0 0 502483.04506668448 -902283.72042451473 0 -902283.72042451473 -1115284.7929547923 0 0 0 0 -22940238.853786469 -31808573.404171944 0 -31808573.404171944 76109665.468055844 0 0 0 0 -238675834.49914742 -2440915.5434248447 0 -2440915.5434248447 64830281.723465919 0 0 0 0 -84545957.317523956 -973593.40547132492 0 -973593.40547132492 -134223263.17068291 0 0 0 0 -81406737.829471588 127214261.7218771 0 127214261.7218771 -69357813.331675529 0 0 0 0 -182194779.06227112 -94018106.125613689 0 -94018106.125613689 8214412.2418632507 0 0 0 0 -231624131.65564919 34787682.053200722 0 34787682.053200722 49872500.828630447 0 0 0 0 -40588597.798061371 93578253.912084579 0 93578253.912084579 -144091591.82594109 0 0 0 0 -551353.85975721478 -357878.20094942232 0 -357878.20094942232 387260.00184657937 0 0 0 0 -13816933.813262939 -21781550.271564484 0 -21781550.271564484 5103673.7181563377 0 0 0 0 61569838.5727005 2928848.3703355789 0 2928848.3703355789 -103427584.81822658 0 0 0 0 29449787.009117126 -89343347.78578949 0 -89343347.78578949 30723969.093807697 0 0 0 0 411324.60475533456 -540912.73905431293 0 -540912.73905431293 -715538.11216427153 0 0 0 0 -20392737.197650909 37930517.373887062 0 37930517.373887062 -27516813.028858185 0 0 0 0 -50271042.726104736 -51780033.255957603 0 -51780033.255957603 13272553.076431274 0 0 0 0 -2112117.819984436 78544013.820126534 0 78544013.820126534 43700808.669678152 0 0 0 0 -3024934.4449547157 1473532.9513184843 0 1473532.9513184843 2839662.7757455567 0 0 0 0 -7328826.8215179443 34516.076399803162 0 34516.076399803162 5252430.8161816597 0 0 0 0 -6947497.796585083 -2684344.4764432907 0 -2684344.4764432907 8460740.3732516766 0 0 0 0 -10351398.887268275 -904285.70771949063 0 -904285.70771949063 4807427.7996612275 0 0 0 0 -5974866.4896755219 -1077679.8878202438 0 -1077679.8878202438 1640645.8926134109 0 0 0 0 53697934.036619186 58023742.112595558 0 58023742.112595558 -93378158.074798584 0 0 0 0 -128606515.79954529 -44552341.002573967 0 -44552341.002573967 59023335.898423195 0 0 0 0 -6720914.1406783266 743171.83017629758 0 743171.83017629758 4786782.0284072943 0 0 0 0 -16242296.900047302 -9774818.1785669327 0 -9774818.1785669327 15140326.172794342 0 0 0 0 -61728962.906913757 12636831.72734046 0 12636831.72734046 4669197.1288688183 0 0 0 0 -5548365.2465042062 2047768.219370123 0 2047768.219370123 3134095.65922808 0 0 0 0 -8674853.5956840515 873171.30910587311 0 873171.30910587311 881612.40015387535 0 0 0 0 -5380106.4203215521 -2686355.0028616274 0 -2686355.0028616274 4223899.5771885328 0 0 0 0 15780506.526748657 4922063.6797674298 0 4922063.6797674298 10285373.390969038 0 0 0 0 -4206984.6797011513 -1727087.8907920662 0 -1727087.8907920662 3789044.9128592466 0 0 0 0 3176313.863861084 -3903247.4414008856 0 -3903247.4414008856 5174364.0196020603 0 0 0 0 19823076.710105896 -9808987.3417614698 0 -9808987.3417614698 5728632.7707337141 0 0 0 0 -149823.0089267008 428943.60475496948 0 428943.60475496948 1169621.5745671233 0 0 0 0 -62493374.249599457 20266612.23478508 0 20266612.23478508 26471323.892660618 0 0 0 0 -45640691.784473419 34055911.255151749 0 34055911.255151749 27859008.630439639 0 0 0 0 -5163536.5176544189 -11260828.596893311 0 -11260828.596893311 37014160.294985056 0 0 0 0 -97924716.283874512 44816528.042194366 0 44816528.042194366 9297940.1723651886 0 0 0 0 -31969214.188236237 26931183.554044962 0 26931183.554044962 13738855.13292408 0 0 0 0 -51495245.11684227 7283333.6531108916 0 7283333.6531108916 105192276.22679353 0 0 0 0 -26065732.803646088 10162763.324307978 0 10162763.324307978 -2203521.1485185325 0 0 0 0 -145461420.46391773 -26734761.515036259 0 -26734761.515036259 50433135.567831188 0 0 0 0 -54908528.264625549 -30255184.951208413 0 -30255184.951208413 4401405.8409539461 0 0 0 0 -87201700.134509563 -36525077.493270181 0 -36525077.493270181 21322567.541716099 0 0 0 0 -50289278.385726929 -33939341.050974011 0 -33939341.050974011 15360714.99070847 0 0 0 0 -47601957.616104126 -11827077.655124679 0 -11827077.655124679 28982886.05440557 0 0 0 0 -47437388.278778076 -15848012.664307579 0 -15848012.664307579 45001688.941565931 0 0 0 0 -21468780.962844849 -24362559.489672154 0 -24362559.489672154 29334786.964021623 0 0 0 0 -45307556.893451691 -14756727.068224967 0 -14756727.068224967 32089100.652976513 0 0 0 0 -6054088.4468078613 1909959.663261652 0 1909959.663261652 23376721.343015656 0 0 0 0 -4965508.3383827209 -778322.63522695005 0 -778322.63522695005 29989409.666187286 0 0 0 0 19812841.717337728 43304154.755795158 0 43304154.755795158 79671212.946218178 0 0 0 0 18305189.46723175 -8272212.2829212546 0 -8272212.2829212546 23011532.290997475 0 0 0 0 4824355.436870575 -111257188.37463933 0 -111257188.37463933 -91326978.210871994 0 0 0 0 -23378637.10634613 38306878.937725723 0 38306878.937725723 154505983.43490243 0 0 0 0 15290.025798276067 194004.79769693548 0 194004.79769693548 -97460.100079290569 0 0 0 0 -18082435.807609558 -25258924.652619362 0 -25258924.652619362 106558164.87085652 0 0 0 0 -9762094.0380640645 -1505416.9931396767 0 -1505416.9931396767 4172488.3428983288 0 0 0 0 4806907.5774459839 -2710263.3536023498 0 -2710263.3536023498 30276959.319921315 0 0 0 0 -14177873.83972168 9017755.0928482786 0 9017755.0928482786 39664965.409833804 0 0 0 0 6119949.2804908752 -2990027.5061426759 0 -2990027.5061426759 21676908.016404748 0 0 0 0 8129831.4247131348 10281025.402224995 0 10281025.402224995 36637039.518132627 0 0 0 0 -2027736.9122505188 23959015.568423726 0 23959015.568423726 86044174.983486563 0 0 0 0 -5640827.6277084351 -2121861.9455318451 0 -2121861.9455318451 8694729.3856270313 0 0 0 0 -4098227.5980758667 -678167.54124808311 0 -678167.54124808311 3084777.481385231 0 0 0 0 -6869552.1228789911 -2041830.3991892822 0 -2041830.3991892822 3769187.8253242592 0 0 0 0 -291310.12209320068 -50445992.22889179 0 -50445992.22889179 -39444930.760372281 0 0 0 0 -7458505.8027095795 794358.78898990154 0 794358.78898990154 3513521.0974502563 0 0 0 0 -5664624.0139160156 -35272464.183632612 0 -35272464.183632612 68494445.021504492 0 0 0 0 -42260995.473983765 -8630860.7708280087 0 -8630860.7708280087 25122725.77467227 0 0 0 0 -61713840.65353775 -45883712.598475188 0 -45883712.598475188 18055065.801328182 0 0 0 0 17261734.383781433 4883814.8823982477 0 4883814.8823982477 3200529.2100754976 0 0 0 0 -7526406.6362304688 -36436511.949134618 0 -36436511.949134618 -10239055.535444021 0 0 0 0 55383400.074668884 -5128867.7897330523 0 -5128867.7897330523 4100077.6385276318 0 0 0 0 24142912.44025898 -31536998.624834508 0 -31536998.624834508 57994413.008378506 0 0 0 0 103666178.72702408 13809730.99480319 0 13809730.99480319 73288202.409404278 0 0 0 0 17396431.258529663 -99155133.20774591 0 -99155133.20774591 61356024.597134121 0 0 0 0 160388578.18465424 -133155407.12223554 0 -133155407.12223554 61578165.505495802 0 0 0 0 -46187526.484530449 -139940546.4957259 0 -139940546.4957259 221161929.60426044 0 0 0 0 -9974170.0806970596 -44847079.762191206 0 -44847079.762191206 -18871124.138295889 0 0 0 0 -36102300.78454113 -75546431.009645164 0 -75546431.009645164 110733042.48052549 0 0 0 0 -51473427.951789856 -94669986.856334925 0 -94669986.856334925 94332518.390443563 0 0 0 0 -84283573.995597839 -91586467.427384853 0 -91586467.427384853 105443414.35673153 0 0 0 0 -79567740.143264771 -14878279.611158252 0 -14878279.611158252 100446146.89797199 0 0 0 0 16729313.644802094 -35839049.904491246 0 -35839049.904491246 99158780.821848989 0 0 0 0 -111652.41106158122 299409.54739023233 0 299409.54739023233 -112744.41176773241 0 0 0 0 -64308876.761899948 -54137127.695768178 0 -54137127.695768178 109422731.00770509 0 0 0 0 -151744410.49955559 -3307257.9231929779 0 -3307257.9231929779 10100022.517472029 0 0 0 0 -219823358.63801384 9754047.2651005983 0 9754047.2651005983 15940433.358035803 0 0 0 0 -76531.202241938328 -200818.9440177381 0 -200818.9440177381 -2823.6111717331223 0 0 0 0 -48403665.32257843 -65429242.54656744 0 -65429242.54656744 109399213.33637524 0 0 0 0 -48206261.237522125 -8162242.5693359375 0 -8162242.5693359375 -4911583.4462083578 0 0 0 0 -44770915.527950287 -38336683.996462226 0 -38336683.996462226 15509427.953013897 0 0 0 0 -50323060.619976044 -31533775.891798735 0 -31533775.891798735 19501329.952815294 0 0 0 0 -72041378.462774277 -15181532.478426933 0 -15181532.478426933 48052499.007081032 0 0 0 0 -66482823.398633957 -50537992.356850088 0 -50537992.356850088 171853055.0081358 0 0 0 0 74583934.435066223 -253481873.65625334 0 -253481873.65625334 181101126.8411603 0 0 0 0 118709611.83604813 -215860319.81565857 0 -215860319.81565857 212176373.53347576 0 0 0 0 125247692.12484956 -105745387.36819181 0 -105745387.36819181 85847267.214466095 0 0 0 0 348218928.81915283 -142130365.41306281 0 -142130365.41306281 89890653.132818222 0 0 0 0 -71201.574839252047 -134074.39206488431 0 -134074.39206488431 612863.40136771603 0 0 0 0 142856198.15656471 -378354772.60013986 0 -378354772.60013986 170109289.47478008 0 0 0 0 368871656.57119751 -427943250.13348937 0 -427943250.13348937 62110863.782279968 0 0 0 0 -32185554.33859539 235461198.24989152 0 235461198.24989152 155854189.16391563 0 0 0 0 59443694.746229172 -54550420.849899828 0 -54550420.849899828 -13087669.499031544 0 0 0 0 43099.044985070825 77361.244390945882 0 77361.244390945882 742189.23167569982 0 0 0 0 -64555243.481075287 -65421097.360574245 0 -65421097.360574245 46163163.048501253 0 0 0 0 -128782413.41093826 -19963915.714973211 0 -19963915.714973211 27636287.047643661 0 0 0 0 -129571.26328663691 -267368.41756695136 0 -267368.41756695136 -80959.77726672194 0 0 0 0 -72926090.679561615 4075480.2314727306 0 4075480.2314727306 -20200931.685193062 0 0 0 0 -243611282.54285431 24853536.696578026 0 24853536.696578026 36085474.377544165 0 0 0 0 -76683762.088357925 -14395942.431457877 0 -14395942.431457877 -46272969.543732405 0 0 0 0 3270807.0445599556 -16810238.562982053 0 -16810238.562982053 -385735.12335681915 0 0 0 0 -61734365.097324371 49911050.213929176 0 49911050.213929176 -13138912.623798817 0 0 0 0 917768.3159577921 640454.97793225572 0 640454.97793225572 -330822.86376886489 0 0 0 0 -50570427.764198303 38546201.707075834 0 38546201.707075834 -30694074.852258205 0 0 0 0 -44814073.897649765 33507891.176545858 0 33507891.176545858 -26627603.09688282 0 0 0 0 -38497002.73167038 26156505.060694933 0 26156505.060694933 -11184132.013995171 0 0 0 0 -4263434.8427658081 -3921296.1992824078 0 -3921296.1992824078 4877493.3936524391 0 0 0 0 719523.04385217652 -502428.37238283735 0 -502428.37238283735 17417.415780426934 0 0 0 0 634424902.17324066 -242193507.86379671 0 -242193507.86379671 -13595932.352330208 0 0 0 0 -686987.33428477868 -137428.87111291476 0 -137428.87111291476 801717.49758487102 0 0 0 0 -4576266.0441665649 -3917056.8639070988 0 -3917056.8639070988 200190383.84016037 0 0 0 0 -2700047.3785476685 5737112.1788132191 0 5737112.1788132191 2621737.6913696527 0 0 0 0 -1667728.5206910148 -1536152.4435772896 0 -1536152.4435772896 498121.34866969287 0 0 0 0 78434160.636291504 -155586886.04286003 0 -155586886.04286003 166452363.66154528 0 0 0 0 68459607.473098755 -162035575.61240578 0 -162035575.61240578 198424214.17398965 0 0 0 0 175252729.9077816 -145417159.92445517 0 -145417159.92445517 75875689.880427837 0 0 0 0 107720479.84099579 -23837899.335129261 0 -23837899.335129261 -56042749.817656994 0 0 0 0 64096587.615825653 -91317837.127975702 0 -91317837.127975702 206891106.73309851 0 0 0 0 55667692.487222672 -43018151.505405307 0 -43018151.505405307 101432247.55151081 0 0 0 0 10503883.809516907 -67204189.8130126 0 -67204189.8130126 316946291.40981245 0 0 0 0 -1363073.5368008949 -1584579.2316061053 0 -1584579.2316061053 -564491.40459508589 0 0 0 0 7190361.7139778137 19000512.240577221 0 19000512.240577221 8296313.4232416153 0 0 0 0 67088642.994822502 -207875513.88823301 0 -207875513.88823301 309131812.50032854 0 0 0 0 604402.9827957321 328361.23765243962 0 328361.23765243962 -429471.31418191502 0 0 0 0 -72015521.179634094 46620654.607330322 0 46620654.607330322 -36959263.239722729 0 0 0 0 -873238.70189313963 -1583417.916628655 0 -1583417.916628655 -1400464.8922623023 0 0 0 0 -9026760.8951950073 22534898.87856555 0 22534898.87856555 28392338.112013102 0 0 0 0 6920235.7773361206 -26100821.535661697 0 -26100821.535661697 -17906387.047221184 0 0 0 0 154415143.63480759 -381048782.65780675 0 -381048782.65780675 244260189.53370094 0 0 0 0 35075471.289813995 -454250333.99552941 0 -454250333.99552941 576993541.8040123 0 0 0 0 69573278.664076805 39707540.379896402 0 39707540.379896402 133874857.54211521 0 0 0 0 -42074007.631721497 -401153139.50206333 0 -401153139.50206333 -215329671.50664806 0 0 0 0 290101744.089077 -251428651.25909594 0 -251428651.25909594 -1017324724.9594822 0 0 0 0 -390576637.18093491 -394033672.2174983 0 -394033672.2174983 -251560924.5678333 0 0 0 0 9066339.5936217308 34673957.666158646 0 34673957.666158646 -553288138.69851446 0 0 0 0 -342965215.6999855 164424456.42992091 0 164424456.42992091 -52817522.738205552 0 0 0 0 81135650.771449566 -11245659.803170562 0 -11245659.803170562 144763245.60085678 0 0 0 0 15582236.273750305 -79671758.37502265 0 -79671758.37502265 73567852.88420558 0 0 0 0 68789928.755907059 91873679.422745228 0 91873679.422745228 -72304364.124340057 0 0 0 0 -56788035.27312851 39979556.354545355 0 39979556.354545355 112818113.83452031 0 0 0 0 84835936.516735077 65720795.16744864 0 65720795.16744864 -29747249.69618696 0 0 0 0 1176008.4579772949 19165808.834434748 0 19165808.834434748 -17965132.663411498 0 0 0 0 6473023.19556427 -139510001.83907187 0 -139510001.83907187 -153364663.70731044 0 0 0 0 87572989.946651459 -171189762.75360024 0 -171189762.75360024 -187700886.97544158 0 0 0 0 135014.87624510564 134001.51800672151 0 134001.51800672151 -256428.73745208513 0 0 0 0 999105.61787414551 -96525970.51366055 0 -96525970.51366055 -171568386.69285101 0 0 0 0 -45787985.363037109 -53290796.357910514 0 -53290796.357910514 11367894.625536442 0 0 0 0 -64008589.700172424 -94303224.115045786 0 -94303224.115045786 -52171544.324072361 0 0 0 0 -210185820.8057251 -183331529.56073785 0 -183331529.56073785 -51162731.070677713 0 0 0 0 -44133532.702224731 -84630412.658886433 0 -84630412.658886433 -8295647.7359740734 0 0 0 0 -112407245.21068382 -48868544.623631835 0 -48868544.623631835 90410080.995608807 0 0 0 0 -57888287.799331665 13127404.401720285 0 13127404.401720285 80560840.335888028 0 0 0 0 -3879292.7446155697 -1625348.8719948959 0 -1625348.8719948959 -501621.55676785577 0 0 0 0 -183258300.69498825 -65816961.2688694 0 -65816961.2688694 13058927.602258205 0 0 0 0 13656672.551181793 -60990234.841457844 0 -60990234.841457844 -88789399.769012928 0 0 0 0 -1162770.033454895 19392268.614779234 0 19392268.614779234 -16011484.793338656 0 0 0 0 57330122.504258156 176265355.71034732 0 176265355.71034732 -56663630.885239363 0 0 0 0 -1619201.7066288814 264338.39321543486 0 264338.39321543486 351002.41927683918 0 0 0 0 -300648642.91052246 154550373.07763672 0 154550373.07763672 87035124.607888818 0 0 0 0 -152114108.48180389 -356057062.48302221 0 -356057062.48302221 -389896531.25765717 0 0 0 0 -12688043.915943146 -186770049.59001637 0 -186770049.59001637 -244177851.5220294 0 0 0 0 -107819928.16065216 -48290429.649363518 0 -48290429.649363518 -17411623.791267872 0 0 0 0 -473500888.30724907 -223892750.68426901 0 -223892750.68426901 -57656553.506994247 0 0 0 0 -292435107.90682983 108263236.84650874 0 108263236.84650874 -41580716.880230695 0 0 0 0 -302095706.58498096 106714512.76193881 0 106714512.76193881 -32147937.212243557 0 0 0 0 -113210636.55359077 100942560.21112251 0 100942560.21112251 -138865734.6558156 0 0 0 0 -232622050.03955078 98176469.38161093 0 98176469.38161093 -42925258.260093212 0 0 0 0 -70475.339516188484 -94098.271949304268 0 -94098.271949304268 -73784.166032954818 0 0 0 0 -193611444.41097641 -7674602.2600195557 0 -7674602.2600195557 19301051.573154926 0 0 0 0 -245235020.29756546 40303863.520622253 0 40303863.520622253 -25896182.614016891 0 0 0 0 -74578716.818489075 -21568879.506029367 0 -21568879.506029367 -83488303.901053786 0 0 0 0 -55675586.467632294 26843852.112489343 0 26843852.112489343 14082679.636358738 0 0 0 0 196001.94570962526 222058.25658110529 0 222058.25658110529 -66099.989154173527 0 0 0 0 119950951.55023861 -84457697.758702785 0 -84457697.758702785 -29131806.458842278 0 0 0 0 116778089.23876762 16241846.630376697 0 16241846.630376697 -177703129.92844701 0 0 0 0 -2035869.4067687988 -41521476.524993539 0 -41521476.524993539 -199094931.58583581 0 0 0 0 -132520074.75509644 6879035.9799311161 0 6879035.9799311161 6375668.3454799354 0 0 0 0 -145676771.63193798 -130199124.85497454 0 -130199124.85497454 -206863499.55017471 0 0 0 0 -138239952.15504408 68429491.466623858 0 68429491.466623858 -72363477.099531412 0 0 0 0 -305273116.58962631 22692138.62249279 0 22692138.62249279 -74503359.643679738 0 0 0 0 -277527764.26419067 68536917.478747249 0 68536917.478747249 -99267832.764500618 0 0 0 0 -426211288.12382507 135977733.17814767 0 135977733.17814767 -29253819.294487715 0 0 0 0 -583751838.72238159 -251831043.40090609 0 -251831043.40090609 105645430.82967722 0 0 0 0 -421226058.80935097 -263740404.7759223 0 -263740404.7759223 -146942058.89813948 0 0 0 0 41530133.722839355 -57110173.320029557 0 -57110173.320029557 -110074201.42237616 0 0 0 0 587.73870373703539 -185825.97972443048 0 -185825.97972443048 -1004114.0153011861 0 0 0 0 -844833272.39188957 -40891441.866554558 0 -40891441.866554558 -83393932.557413101 0 0 0 0 -410209208.64522934 72917606.41402486 0 72917606.41402486 -71918132.939325541 0 0 0 0 -135549345.90393829 -88799105.310444236 0 -88799105.310444236 -286629238.3886044 0 0 0 0 -116246776.24693775 -5692614.8528544456 0 -5692614.8528544456 -118750867.80060649 0 0 0 0 15083227.519989014 -37492553.104268074 0 -37492553.104268074 -125131034.12094784 0 0 0 0 19692704.008499146 -14379096.733506799 0 -14379096.733506799 -214277858.93582922 0 0 0 0 4245887.4978790283 -41996646.782608628 0 -41996646.782608628 -108948693.99043465 0 0 0 0 30295834.912956238 9578722.7539063692 0 9578722.7539063692 92047223.792574883 0 0 0 0 77547933.301216125 84566389.710473776 0 84566389.710473776 -45400727.466517866 0 0 0 0 -5693848.7699299008 4977984.2796662729 0 4977984.2796662729 3477494.7123321751 0 0 0 0 6634671.898897171 177098823.33788726 0 177098823.33788726 209596358.17874467 0 0 0 0 305117362.9498558 -181307282.79254651 0 -181307282.79254651 211985759.51396036 0 0 0 0 446638480.51751614 -50386167.9631809 0 -50386167.9631809 153905258.40174913 0 0 0 0 625810000.91339874 -511648355.22755432 0 -511648355.22755432 251918541.68292236 0 0 0 0 -851420870.43993759 -596815641.062778 0 -596815641.062778 686169020.32970619 0 0 0 0 -144324704.15494919 -223527354.90650797 0 -223527354.90650797 213352993.77387714 0 0 0 0 -404860389.73574448 450254316.185395 0 450254316.185395 376726017.15977859 0 0 0 0 15185866.199882507 94858905.942956924 0 94858905.942956924 419484480.74190331 0 0 0 0 -1220320333.6421242 545490536.38615704 0 545490536.38615704 294591452.05751085 0 0 0 0 -49523537.944758415 -110614820.62880768 0 -110614820.62880768 -4605988.3063671589 0 0 0 0 132820456.6848259 140744460.74463966 0 140744460.74463966 -33257676.628689218 0 0 0 0 -95579624.810668945 239766693.55232811 0 239766693.55232811 297525174.2993989 0 0 0 0 -5658060.1264835745 2631156.2600504155 0 2631156.2600504155 1771027.8752764377 0 0 0 0 -56465252.151367188 108777876.94559622 0 108777876.94559622 271508980.37723386 0 0 0 0 560706576.76029968 -94184529.416498184 0 -94184529.416498184 233477276.17738438 0 0 0 0 -2573335.6346626636 769392.87567283073 0 769392.87567283073 628904.92112267949 0 0 0 0 -852119317.86605835 -466641514.82396829 0 -466641514.82396829 115060958.41177392 0 0 0 0 -645900293.17351532 -426154201.67153502 0 -426154201.67153502 120550714.05472714 0 0 0 0 115662285.75121784 -170717941.40453306 0 -170717941.40453306 -513908318.867468 0 0 0 0 -677339155.98041534 -47729743.515219256 0 -47729743.515219256 133908942.87715161 0 0 0 0 -734791899.08080292 -358131663.8269617 0 -358131663.8269617 36288200.486658931 0 0 0 0 -29845771.640980124 -47150826.802821457 0 -47150826.802821457 -54906865.606842041 0 0 0 0 -29512504.567087412 -56191229.66747129 0 -56191229.66747129 -60565832.332092285 0 0 0 0 -107268382.00688934 -30129787.23210144 0 -30129787.23210144 -59251812.897750854 0 0 0 0 -15258298.589285642 -10559774.501410484 0 -10559774.501410484 -4564300.5136568546 0 0 0 0 -12725171.273604546 -9052637.4801166039 0 -9052637.4801166039 -6581241.1808573306 0 0 0 0 -23274682.629433725 -8411557.2277133744 0 -8411557.2277133744 -15131854.59187514 0 0 0 0 -24911738.024849698 3580439.9755750708 0 3580439.9755750708 18139631.715519208 0 0 0 0 16283363.521697998 34032048.578963876 0 34032048.578963876 20520562.416032314 0 0 0 0 -123130809.4631958 -48252157.147125244 0 -48252157.147125244 1840732.2369995117 0 0 0 0 -88561961.707756042 -62810179.951862335 0 -62810179.951862335 -140361144.01052856 0 0 0 0 1557509.1965417098 2115169.4018538371 0 2115169.4018538371 540754.45940123126 0 0 0 0 -15070786.382820964 -9930979.3574376106 0 -9930979.3574376106 -10567081.689696789 0 0 0 0 -19173274.184226036 -10191856.18380928 0 -10191856.18380928 -12964297.661018372 0 0 0 0 -22213300.896730542 -8418253.7475965023 0 -8418253.7475965023 -9824531.1400241852 0 0 0 0 -20424390.459099531 -2672612.0190019608 0 -2672612.0190019608 -2878741.2977638245 0 0 0 0 -19352353.464654684 -4882844.0172643661 0 -4882844.0172643661 180825.38713359833 0 0 0 0 -110672580.92020416 -25818094.435705066 0 -25818094.435705066 16764391.098989964 0 0 0 0 -22321254.29069617 -757252.98053023964 0 -757252.98053023964 455780.80960912164 0 0 0 0 -17488554.842233896 1765721.9768848419 0 1765721.9768848419 -2717349.2212719917 0 0 0 0 -15343725.142104626 -1715552.4212238789 0 -1715552.4212238789 -9095724.9079551697 0 0 0 0 -31382624.629325867 21098264.436236858 0 21098264.436236858 47589393.142728329 0 0 0 0 -14696079.589924149 -5276428.278878523 0 -5276428.278878523 -1082793.2296810553 0 0 0 0 -6244981.7021047967 -2361805.7359669115 0 -2361805.7359669115 3288877.4758262434 0 0 0 0 13154094.5389328 28904002.918015003 0 28904002.918015003 18161278.683280945 0 0 0 0 -27101913.170394897 -40656375.033331692 0 -40656375.033331692 -11793054.251085758 0 0 0 0 7829860.8524856567 -15705096.277080059 0 -15705096.277080059 -61086639.597552776 0 0 0 0 -1443591.0980300903 32515939.387383461 0 32515939.387383461 30710305.41042304 0 0 0 0 -17948492.562072754 12478850.612753749 0 12478850.612753749 22535889.378252029 0 0 0 0 19035823.320819855 -68184469.943309307 0 -68184469.943309307 -167953392.87503767 0 0 0 0 21159974.934597015 -19381782.980146289 0 -19381782.980146289 -60658541.252165675 0 0 0 0 48193095.503572464 36123644.792752683 0 36123644.792752683 -82027740.80185008 0 0 0 0 14833373.499523163 17310942.15761745 0 17310942.15761745 -10338470.134567976 0 0 0 0 37721702.282157898 51409174.831415951 0 51409174.831415951 -9627536.8153128624 0 0 0 0 82142661.370223999 53821029.309831023 0 53821029.309831023 -8177068.9045078754 0 0 0 0 15455101.414146423 83339606.318298578 0 83339606.318298578 74958516.339380473 0 0 0 0 -1312768.1216209494 11825170.757165845 0 11825170.757165845 4919938.1006837832 0 0 0 0 -14082604.79933548 26892659.979682326 0 26892659.979682326 54139050.503329277 0 0 0 0 14143943.265983582 21639266.57486856 0 21639266.57486856 18801876.789162278 0 0 0 0 -74280452.765617371 -42997870.925548553 0 -42997870.925548553 -118928142.61995125 0 0 0 0 -5616497.7286723685 -1333071.7924934523 0 -1333071.7924934523 -297526.40855535492 0 0 0 0 -34484877.046027444 -2274294.322928797 0 -2274294.322928797 17950523.63134174 0 0 0 0 -108530782.75988007 -111527798.83982468 0 -111527798.83982468 -56510149.334434509 0 0 0 0 -89064419.896148682 81264647.571340084 0 81264647.571340084 122409450.48983908 0 0 0 0 -4545369.2468757629 97909317.966234446 0 97909317.966234446 12208139.197156906 0 0 0 0 -111655890.63475418 -72082916.771454811 0 -72082916.771454811 -140497751.63482571 0 0 0 0 -98592885.403793335 -180178135.30721855 0 -180178135.30721855 -149192206.61847687 0 0 0 0 -38368632.514947176 5175262.7115706 0 5175262.7115706 15136506.157934718 0 0 0 0 -164086894.22921753 -135321355.46067667 0 -135321355.46067667 -6300348.872428894 0 0 0 0 8286963.260269165 73863796.760092735 0 73863796.760092735 -15687367.002349257 0 0 0 0 -23007795.408626556 -19420861.628818035 0 -19420861.628818035 1650279.5141592026 0 0 0 0 81490430.459850311 8263906.4663925171 0 8263906.4663925171 -215684906.75226116 0 0 0 0 -21081685.553688947 -1492951.3451881912 0 -1492951.3451881912 1917225.8950907476 0 0 0 0 -72161967.25312233 -27516082.935645103 0 -27516082.935645103 -12248417.949920654 0 0 0 0 -177218664.83704758 -153959317.04777527 0 -153959317.04777527 -79455297.95267868 0 0 0 0 -65288174.911472797 -52788279.62353611 0 -52788279.62353611 21960235.843185425 0 0 0 0 55618192.826248169 -50375011.223274231 0 -50375011.223274231 -9582605.4811706543 0 0 0 0 4574613.2570530549 -59229.174610817805 0 -59229.174610817805 -5950572.6954365056 0 0 0 0 -29988880.444988251 -88941427.38842988 0 -88941427.38842988 9448075.6112976074 0 0 0 0 -36047366.225506783 -54103079.356956482 0 -54103079.356956482 -61227251.590011597 0 0 0 0 -22383571.615162849 -10679179.037441254 0 -10679179.037441254 -12268465.342346191 0 0 0 0 -17430400.535872817 -6983821.0858333111 0 -6983821.0858333111 -11108542.149879456 0 0 0 0 -244384.57789611816 -28702.078125 0 -28702.078125 -1223112.9187011719 0 0 0 0 -8997787.1354585662 2311633.3751980457 0 2311633.3751980457 -10407274.141552914 0 0 0 0 -7453230.8817476518 -3208229.6589096463 0 -3208229.6589096463 -9318691.9388530795 0 0 0 0 -13147587.598652299 -8650089.8487937376 0 -8650089.8487937376 -6442125.9303528564 0 0 0 0 -23949222.748372316 -11519173.353930473 0 -11519173.353930473 -138240.25018692017 0 0 0 0 5299477.1221847534 -287546.6882982254 0 -287546.6882982254 -7243022.260556221 0 0 0 0 4047330.4196395874 -680425.79860591888 0 -680425.79860591888 -7223807.3520812988 0 0 0 0 -1934051.6738854097 -1052530.7169056793 0 -1052530.7169056793 -14072762.747336324 0 0 0 0 -4454805.3152038576 -3301116.7794616781 0 -3301116.7794616781 -8148838.6208846103 0 0 0 0 89929664.292133331 18273028.047428131 0 18273028.047428131 -7078901.6710981131 0 0 0 0 -17461692.230012894 -15646838.173335075 0 -15646838.173335075 -14827281.304335594 0 0 0 0 -142575420.20428085 4179056.9866418839 0 4179056.9866418839 27823206.867815971 0 0 0 0 -42378765.101894379 -99682100.391670227 0 -99682100.391670227 -26257272.398567915 0 0 0 0 62288239.784394264 -77966691.989954472 0 -77966691.989954472 -168002999.8692646 0 0 0 0 -89127447.676377296 -69284948.429350615 0 -69284948.429350615 18045249.185396194 0 0 0 0 -16243244.082143545 -5804567.7669100761 0 -5804567.7669100761 -12036427.334377289 0 0 0 0 -28187528.05198431 -20569190.360645294 0 -20569190.360645294 -13262033.391916037 0 0 0 0 -39651563.10752821 -4542727.2473106384 0 -4542727.2473106384 305288.84737205505 0 0 0 0 -9249997.4018713646 -4264736.137688186 0 -4264736.137688186 -9931105.1233045012 0 0 0 0 -4311112.1924604019 -2385991.5215506684 0 -2385991.5215506684 299119.86621812312 0 0 0 0 -130480668.12123108 -88073937.302312851 0 -88073937.302312851 79580535.532795906 0 0 0 0 21270488.062538147 -63327998.308431625 0 -63327998.308431625 60873516.769639015 0 0 0 0 -15997345.463853836 -15180407.643336296 0 -15180407.643336296 33432850.136650562 0 0 0 0 -3175500.2103597466 182498.72897881456 0 182498.72897881456 1205188.9763729116 0 0 0 0 -1833609.6448346642 -408535.20054282155 0 -408535.20054282155 239138.56998928823 0 0 0 0 -37863926.810297012 -168514728.76292992 0 -168514728.76292992 -32469570.341769218 0 0 0 0 -52353190.953180313 -187551208.17329955 0 -187551208.17329955 -57319141.844202042 0 0 0 0 -150584209.53507376 114324436.85450065 0 114324436.85450065 -105339458.34847164 0 0 0 0 -264430886.24761438 -155074287.28769422 0 -155074287.28769422 -42316481.600152969 0 0 0 0 -16639567.349287033 -28860971.948822975 0 -28860971.948822975 -11787124.782835484 0 0 0 0 3546302.4117660522 -68940252.982538223 0 -68940252.982538223 -421513900.96236897 0 0 0 0 -488011438.01800394 140952590.83643955 0 140952590.83643955 -77739738.939831734 0 0 0 0 -424389946.52089071 -107269096.62985992 0 -107269096.62985992 -33911283.69952774 0 0 0 0 119901010.18395042 -52485848.840596199 0 -52485848.840596199 -158240325.57196641 0 0 0 0 1899.6105780005455 -11390493.729844198 0 -11390493.729844198 66459626.087954521 0 0 0 0 156224911.95436478 189807254.67706823 0 189807254.67706823 -95446457.533094049 0 0 0 0 -287143605.0862236 171102237.82709074 0 171102237.82709074 13228498.756923914 0 0 0 0 -46065426.130038977 -20442971.871696949 0 -20442971.871696949 -9384068.8193378448 0 0 0 0 -31072712.825037956 -5917146.7623291016 0 -5917146.7623291016 -7512205.1728076935 0 0 0 0 -24946981.866197586 -5436176.8749551773 0 -5436176.8749551773 -15006732.923057556 0 0 0 0 -34253207.21754837 -359957.6140422821 0 -359957.6140422821 -10979453.226456642 0 0 0 0 170378477.88804626 108834440.71426773 0 108834440.71426773 13125583.243579425 0 0 0 0 -5087063.6698448472 -2284537.9848765517 0 -2284537.9848765517 -8743057.9437017068 0 0 0 0 -35434258.146578789 -20020147.95838213 0 -20020147.95838213 -23191617.636826038 0 0 0 0 -4126323.3008093964 -1886780.3374400069 0 -1886780.3374400069 -7713640.4527173955 0 0 0 0 -44650444.434699535 -16305891.848980904 0 -16305891.848980904 -6365462.4847955704 0 0 0 0 -29780981.042912245 -12307854.286804199 0 -12307854.286804199 -3783225.7407554835 0 0 0 0 -28732405.505924225 -10183899.285646439 0 -10183899.285646439 -12903691.669618607 0 0 0 0 -24778436.235321999 -900302.29066181183 0 -900302.29066181183 -3903185.7231673449 0 0 0 0 -17935002.702344604 -11963.922836867161 0 -11963.922836867161 1000820.7736301618 0 0 0 0 -65093790.375106812 45120111.227419853 0 45120111.227419853 16910431.578963757 0 0 0 0 -150624850.0938282 41535824.869403183 0 41535824.869403183 28490050.972854614 0 0 0 0 -7738369.8831787109 -24478822.880050182 0 -24478822.880050182 -11677440.508380175 0 0 0 0 -91999508.204147339 -10443239.817730188 0 -10443239.817730188 38049923.634837627 0 0 0 0 -35788055.989089966 44555808.14384973 0 44555808.14384973 -33480356.608588219 0 0 0 0 -28508534.421777248 -3933698.2657670975 0 -3933698.2657670975 -5212027.4333877563 0 0 0 0 18663752.972743988 10514185.893023551 0 10514185.893023551 6865892.3150830269 0 0 0 0 -17690668.745007303 -1421501.5192369577 0 -1421501.5192369577 1992040.8431465616 0 0 0 0 -26261278.98519057 -15547747.20315966 0 -15547747.20315966 -11801145.327646255 0 0 0 0 -2866399.4774475098 36220592.122450233 0 36220592.122450233 76096347.201132298 0 0 0 0 -82388237.855621338 44931634.429333925 0 44931634.429333925 97609242.85999763 0 0 0 0 -145096294.46097279 -86259424.085105866 0 -86259424.085105866 101090177.44654226 0 0 0 0 -21014863.82869339 -1559634.9505480528 0 -1559634.9505480528 20798028.538733959 0 0 0 0 14082173.943437576 46199033.484768033 0 46199033.484768033 83615207.452829361 0 0 0 0 -30764763.202044487 -11658779.524286509 0 -11658779.524286509 -6243091.0522899628 0 0 0 0 -5646302.6457024068 -2976962.8361154622 0 -2976962.8361154622 -7015554.2708886992 0 0 0 0 -5347572.4953613281 -1723826.843837738 0 -1723826.843837738 9599370.219660759 0 0 0 0 -2440474.4190711975 3712807.4749507904 0 3712807.4749507904 631303.04001694918 0 0 0 0 -11399317.413375326 2395965.4745255392 0 2395965.4745255392 129092.61497385993 0 0 0 0 122256669.20225525 50127748.737110734 0 50127748.737110734 -68411092.890200138 0 0 0 0 -11789995.959719537 1406563.0224401234 0 1406563.0224401234 83793.738382086274 0 0 0 0 -4403223.358844053 -7010763.2487070281 0 -7010763.2487070281 -6702845.2409548657 0 0 0 0 -2031226.9740943909 -5205138.412668705 0 -5205138.412668705 -4910531.1946878582 0 0 0 0 -9777822.759979248 -13756403.303885698 0 -13756403.303885698 -3776764.8612065315 0 0 0 0 -6636652.7870559692 -500065.65043020248 0 -500065.65043020248 9780998.9553580284 0 0 0 0 -6972619.8210539296 -3258680.7748662792 0 -3258680.7748662792 -2602376.2885676678 0 0 0 0 -840245.34256541543 -97468.710882072337 0 -97468.710882072337 81612.423927814933 0 0 0 0 9048585.9125366211 -8890872.9022407532 0 -8890872.9022407532 1661166.6860322952 0 0 0 0 -19664092.883666992 -12289390.631020546 0 -12289390.631020546 1276293.1328127384 0 0 0 0 -28190526.542633057 -7179655.4406905174 0 -7179655.4406905174 14225859.730444908 0 0 0 0 -943836.7273479104 -277317.81756058335 0 -277317.81756058335 559831.8090559009 0 0 0 0 -2959412.900752753 -359281.93842119351 0 -359281.93842119351 755698.61983310455 0 0 0 0 -71802201.152469635 -112382567.3420434 0 -112382567.3420434 -38690413.265951157 0 0 0 0 -33214250.446853638 4659481.5003972054 0 4659481.5003972054 -5903391.1937923431 0 0 0 0 -10309141.544143677 -2604106.4849562645 0 -2604106.4849562645 -71588313.965581894 0 0 0 0 -31983153.537513733 15554587.804201365 0 15554587.804201365 -5280411.8215904236 0 0 0 0 -176096235.83823395 -69846669.797441721 0 -69846669.797441721 -24144355.851002455 0 0 0 0 -129570602.70381165 -106846692.02911139 0 -106846692.02911139 -16883892.106502175 0 0 0 0 -164850522.12292099 -93080076.527521253 0 -93080076.527521253 -12859919.846804619 0 0 0 0 -118682417.32310486 -78446884.670354366 0 -78446884.670354366 -49123114.062057242 0 0 0 0 -505515941.53497314 -49003100.269586325 0 -49003100.269586325 24772462.932003736 0 0 0 0 -169883552.5630722 -56144883.289448142 0 -56144883.289448142 2911931.5043077469 0 0 0 0 -621813.11969346553 477818.95115017146 0 477818.95115017146 515947.99262991734 0 0 0 0 -721863323.48022461 -108342710.00316906 0 -108342710.00316906 3640680.1737229936 0 0 0 0 -320517416.98863983 192480899.65020752 0 192480899.65020752 -157913571.4442687 0 0 0 0 -25457047.661201477 -22056036.353984356 0 -22056036.353984356 -64744939.394537926 0 0 0 0 444794792.01578522 109162369.71972275 0 109162369.71972275 311820666.41989267 0 0 0 0 103339046.81615448 -445253089.40502679 0 -445253089.40502679 92871936.907799244 0 0 0 0 -609857203.04575348 246581089.76810515 0 246581089.76810515 -46148408.355063796 0 0 0 0 362970537.35868073 -590294580.36318994 0 -590294580.36318994 -78794843.573571444 0 0 0 0 -18328.193010635674 -743520.18942672201 0 -743520.18942672201 -1138037.9246349433 0 0 0 0 561530111.07498169 -396564538.1498946 0 -396564538.1498946 -320308239.55747604 0 0 0 0 291799298.64465332 81089720.230999261 0 81089720.230999261 -488905015.84840947 0 0 0 0 14284911.572891235 -220234135.70408911 0 -220234135.70408911 -124648587.71153343 0 0 0 0 168524431.43862724 -185089024.30782926 0 -185089024.30782926 -332901528.06619406 0 0 0 0 -5178485.9867568426 4060006.0542801432 0 4060006.0542801432 1371467.241674548 0 0 0 0 -772861835.24157715 -225941437.09157228 0 -225941437.09157228 38972775.788998842 0 0 0 0 -592647773.02218628 -900571278.84557819 0 -900571278.84557819 -483489929.74414229 0 0 0 0 -992285320.78334045 -66171763.915038586 0 -66171763.915038586 156185350.77311516 0 0 0 0 538364575.69763565 341091990.24222898 0 341091990.24222898 -53447704.725385666 0 0 0 0 339155621.6772728 472205382.07073689 0 472205382.07073689 269603114.00763893 0 0 0 0 -16196089.477493286 26393497.863015652 0 26393497.863015652 12403802.829538092 0 0 0 0 -14041682.631620416 2885895.5964180827 0 2885895.5964180827 -192941.60077665024 0 0 0 0 200644499.77520752 120433123.30298901 0 120433123.30298901 198433823.02587414 0 0 0 0 393917084.9981842 -2918656.2146396637 0 -2918656.2146396637 -404842446.47900486 0 0 0 0 -764749403.48317337 -466669741.04086637 0 -466669741.04086637 -79871469.344372272 0 0 0 0 409209370.63545609 -248248301.75747299 0 -248248301.75747299 -967697465.58996499 0 0 0 0 -216221.84123078734 1285737.9570139577 0 1285737.9570139577 -216834.21706591806 0 0 0 0 9442927.2176055908 16994111.30724597 0 16994111.30724597 -12562605.121026993 0 0 0 0 -14431490.624947384 1293646.8432017108 0 1293646.8432017108 1576343.6890877236 0 0 0 0 -611818800.60588789 799885735.08074856 0 799885735.08074856 732016947.26668358 0 0 0 0 -76693759.570915222 -19556935.520818114 0 -19556935.520818114 7234948.2026329041 0 0 0 0 -8276132.7478179932 -29810451.844600916 0 -29810451.844600916 -81611139.19041729 0 0 0 0 -11469812.295059204 3756928.5733904839 0 3756928.5733904839 -57504253.703661919 0 0 0 0 -15002456.731826782 -12971323.198688984 0 -12971323.198688984 -29321783.386290789 0 0 0 0 -18366411.421974182 -11352122.300038815 0 -11352122.300038815 -28990654.78746891 0 0 0 0 -26139768.795333862 22649630.416223645 0 22649630.416223645 -26791642.607890129 0 0 0 0 -14018972.239112854 1057282.6785898209 0 1057282.6785898209 -33228305.815547466 0 0 0 0 -20934392.470306396 -10181345.598172188 0 -10181345.598172188 -16644315.828244209 0 0 0 0 -20178190.366500854 4648675.7138938904 0 4648675.7138938904 -28378453.826102257 0 0 0 0 -27424024.738731384 -955602.02717280388 0 -955602.02717280388 -8731624.2326040268 0 0 0 0 -13787841.495300293 -10080380.301880836 0 -10080380.301880836 -10332228.862117708 0 0 0 0 -24519139.832004547 926682.28931725025 0 926682.28931725025 -18519127.760268211 0 0 0 0 -23601747.460899353 -7044569.7774952948 0 -7044569.7774952948 9769714.5585336685 0 0 0 0 -13188430.917104624 -3400637.1144526112 0 -3400637.1144526112 -1566712.7199567067 0 0 0 0 -25364022.06199646 -9277696.0531990528 0 -9277696.0531990528 -1885280.9915082455 0 0 0 0 -14165034.557043076 -4683741.0625446737 0 -4683741.0625446737 -162043.50564146042 0 0 0 0 -29060097.759788513 -17440855.498184979 0 -17440855.498184979 2171300.2487924099 0 0 0 0 -18933597.116416931 -9455669.4406809211 0 -9455669.4406809211 -1337432.4983151406 0 0 0 0 -23037516.414093018 -7180837.3933090568 0 -7180837.3933090568 -1855771.9903030396 0 0 0 0 132485027.52056885 146407607.20162153 0 146407607.20162153 110047973.62243557 0 0 0 0 -20040289.844973087 6739683.8206958212 0 6739683.8206958212 29019761.241514921 0 0 0 0 -14080300.179573998 2979262.4924461031 0 2979262.4924461031 -723930.14970184921 0 0 0 0 217504062.03577423 33157610.132573605 0 33157610.132573605 -86593129.437056541 0 0 0 0 46939384.526088715 -36603568.247318029 0 -36603568.247318029 -44479446.803013802 0 0 0 0 38409647.426509857 36371780.627019882 0 36371780.627019882 -5362730.3999042511 0 0 0 0 80185831.932929993 70571535.446218967 0 70571535.446218967 89122.768538475037 0 0 0 0 -2204700.2218130268 -897590.66232635966 0 -897590.66232635966 1948951.7942477891 0 0 0 0 100639331.52020264 6430999.8690524101 0 6430999.8690524101 -38400221.66024971 0 0 0 0 14698758.591022491 4750079.7899460793 0 4750079.7899460793 -3002033.3093328476 0 0 0 0 -22087014.305000305 1337829.7448511124 0 1337829.7448511124 730350.60694096982 0 0 0 0 -2818743.9563721726 681656.02551054582 0 681656.02551054582 -5223789.7562547568 0 0 0 0 27156393.535396576 -67586587.854420602 0 -67586587.854420602 87158353.813831806 0 0 0 0 11346323.177614212 13847191.614094734 0 13847191.614094734 -9864260.4408807755 0 0 0 0 32942500.527839661 1611449.7814092636 0 1611449.7814092636 -3577023.3703899384 0 0 0 0 -4151590.2167358398 -36179350.167274952 0 -36179350.167274952 -28220665.439014435 0 0 0 0 25304652.163101196 -13299543.670692444 0 -13299543.670692444 -32267233.030656576 0 0 0 0 47035729.316591263 -41608466.348194599 0 -41608466.348194599 -58442353.679227829 0 0 0 0 -126987594.80541611 -128526865.84688997 0 -128526865.84688997 -22011488.675823212 0 0 0 0 -79859463.589176178 -67512364.729059219 0 -67512364.729059219 -23589880.243686199 0 0 0 0 -21870283.628896713 -114821286.74045968 0 -114821286.74045968 -74038754.377437592 0 0 0 0 93748967.536882401 -71479567.796113491 0 -71479567.796113491 -58496314.307044029 0 0 0 0 -113319429.64876175 -251102760.83602381 0 -251102760.83602381 -157465513.46675181 0 0 0 0 -120432887.80399323 -188082178.58129978 0 -188082178.58129978 -20025864.807159424 0 0 0 0 -136358798.10214615 -112938373.86375952 0 -112938373.86375952 -11846803.78190279 0 0 0 0 -277989691.64083481 -151135197.17341566 0 -151135197.17341566 7717129.8406777382 0 0 0 0 -130198325.46057343 -102745143.19044268 0 -102745143.19044268 -23636719.15909481 0 0 0 0 -215411475.02070236 -54349522.379504919 0 -54349522.379504919 22699308.855920792 0 0 0 0 -94032856.274477005 -134323309.26497412 0 -134323309.26497412 -105904211.35148048 0 0 0 0 -208816634.92265701 -214427754.46956348 0 -214427754.46956348 -161541526.24741364 0 0 0 0 -78725833.540271759 -92008216.659334183 0 -92008216.659334183 -25441526.699820042 0 0 0 0 -64256403.023594856 -78262975.775987387 0 -78262975.775987387 -54916703.090547562 0 0 0 0 216727112.87092781 -133154740.47875285 0 -133154740.47875285 -29953834.004621506 0 0 0 0 -201162484.14824796 -286156202.26669395 0 -286156202.26669395 -68373354.796498299 0 0 0 0 -561588.18202116899 679360.26099369861 0 679360.26099369861 -4113301.7289738911 0 0 0 0 -12646089.93567276 -30676868.38606739 0 -30676868.38606739 -3854675.4954957962 0 0 0 0 203587.21911658812 480467.54356119689 0 480467.54356119689 -1826914.9562897272 0 0 0 0 -305457343.20468903 -115546774.22951698 0 -115546774.22951698 -17520824.698987007 0 0 0 0 202444462.8860321 74844436.512822866 0 74844436.512822866 -97083962.306060791 0 0 0 0 524803.88955615833 -346466.0956587689 0 -346466.0956587689 -1577532.0452697044 0 0 0 0 226393405.19909096 65594330.94789505 0 65594330.94789505 -172669711.85103154 0 0 0 0 -151408924.29494095 125090229.49600983 0 125090229.49600983 18218527.771903992 0 0 0 0 -154560186.98716736 35448023.962081909 0 35448023.962081909 7676682.8242740631 0 0 0 0 353557.00175829418 -1252806.8785396926 0 -1252806.8785396926 -3163407.2782556545 0 0 0 0 -172725443.90357399 205545694.97710729 0 205545694.97710729 -18892054.297590256 0 0 0 0 226184221.41415024 -475722079.7994442 0 -475722079.7994442 -181175788.561095 0 0 0 0 -175033.37128378823 -1838927.8864895981 0 -1838927.8864895981 -3423597.035903601 0 0 0 0 -71664181.342622757 107447772.06829071 0 107447772.06829071 -5971128.8142700195 0 0 0 0 -87777385.792568207 105026692.80403328 0 105026692.80403328 19612802.317251205 0 0 0 0 -67234707.203080177 72914038.681267977 0 72914038.681267977 20216750.110855103 0 0 0 0 -92650715.128330231 93298473.437604904 0 93298473.437604904 4319146.6804008484 0 0 0 0 -104362046.92243576 53691115.118551254 0 53691115.118551254 74125311.032060623 0 0 0 0 -31650031.036914825 28986785.872655869 0 28986785.872655869 -4457640.92517519 0 0 0 0 32423105.437232971 -26033958.062877655 0 -26033958.062877655 -308794547.54614735 0 0 0 0 -52257307.946754456 -15488605.181492329 0 -15488605.181492329 -79499936.342346191 0 0 0 0 -104813453.44909668 -32305004.239658356 0 -32305004.239658356 259034104.7379818 0 0 0 0 -110886303.89628983 107048285.81689072 0 107048285.81689072 35451855.710832596 0 0 0 0 33204460.062934875 -160890841.8715601 0 -160890841.8715601 214573398.81190634 0 0 0 0 -52122262.33190918 54835082.416496277 0 54835082.416496277 68594166.095197678 0 0 0 0 4717445.8027763367 30060667.041256905 0 30060667.041256905 72200615.645706177 0 0 0 0 -55663777.246376038 3885547.9061613083 0 3885547.9061613083 144739132.66918564 0 0 0 0 -4272652.6842422485 -3477599.281542778 0 -3477599.281542778 60518859.660517693 0 0 0 0 -4246807.5267299563 180473.01515682787 0 180473.01515682787 50575337.012626648 0 0 0 0 7827389.061088562 -24325260.935065269 0 -24325260.935065269 76950440.852062225 0 0 0 0 30462018.348264694 84096079.948890209 0 84096079.948890209 -2169607.7381744385 0 0 0 0 7865705.6619720459 16890169.961118698 0 16890169.961118698 -3918275.8534579277 0 0 0 0 56082165.753326416 -12043452.327108622 0 -12043452.327108622 -7699489.3461074829 0 0 0 0 -275946.09501277097 -1935945.8151155561 0 -1935945.8151155561 -3050865.972177837 0 0 0 0 -3051253.2200903744 -412314.04218020383 0 -412314.04218020383 1707896.7751484234 0 0 0 0 -2757247.9437193628 -2616313.0871091718 0 -2616313.0871091718 293006.36875388352 0 0 0 0 12094791.504830837 -35308407.819130421 0 -35308407.819130421 27063099.133306503 0 0 0 0 -31023633.27573204 23068408.429777622 0 23068408.429777622 -51720824.51889801 0 0 0 0 -128480397.00100327 -95929209.686849594 0 -95929209.686849594 -57932954.398849487 0 0 0 0 -165552901.51187134 -178558042.2402401 0 -178558042.2402401 -78757271.396858215 0 0 0 0 -72632625.530132294 100551735.77082729 0 100551735.77082729 -18127409.22070694 0 0 0 0 -248832780.82163095 -57809426.930037737 0 -57809426.930037737 40776443.385978699 0 0 0 0 -200822127.60735703 125207495.72844887 0 125207495.72844887 73087764.550316811 0 0 0 0 -124547249.47517014 15907716.75545311 0 15907716.75545311 25085165.85172081 0 0 0 0 -81840312.267959595 26922088.382911682 0 26922088.382911682 22587934.000021458 0 0 0 0 -111259417.94001198 -224624.53562355042 0 -224624.53562355042 33215806.201808929 0 0 0 0 -149464416.67755508 -39654956.19865036 0 -39654956.19865036 1861460.1343765259 0 0 0 0 -21109187.445861816 -35860875.483795166 0 -35860875.483795166 -44870580.753591061 0 0 0 0 13755135.780639648 -24345346.258011818 0 -24345346.258011818 -56026262.561737061 0 0 0 0 -4644390.5410870323 -1830735.7128999238 0 -1830735.7128999238 -3297753.3478986248 0 0 0 0 -55429861.256824493 17086308.335985184 0 17086308.335985184 2800613.0981063843 0 0 0 0 -99892684.681861877 -11307383.838876724 0 -11307383.838876724 13768701.198407173 0 0 0 0 -116465166.193367 14966055.531677246 0 14966055.531677246 3948206.4712481499 0 0 0 0 -6504865.5686915591 1187072.1502579402 0 1187072.1502579402 3558980.7162267081 0 0 0 0 2204045.7504783869 -2662606.4122955799 0 -2662606.4122955799 -1585843.2344112396 0 0 0 0 -21093101.693598032 -45000870.589970112 0 -45000870.589970112 19520380.183859825 0 0 0 0 -1320324.5417198588 -6392728.6889441432 0 -6392728.6889441432 -10386574.435514972 0 0 0 0 -61722540.513572693 613564.62637710571 0 613564.62637710571 -56112061.070016861 0 0 0 0 -120685418.69377899 -13386654.499666214 0 -13386654.499666214 8811913.0326366425 0 0 0 0 -104460690.51261139 -7550589.9808139801 0 -7550589.9808139801 10715318.367609024 0 0 0 0 -98540363.445630074 -190755765.0088892 0 -190755765.0088892 -84778558.791427612 0 0 0 0 863294.74676328991 -3380930.2314340603 0 -3380930.2314340603 -8252833.8083003815 0 0 0 0 -249586613.81709671 197525802.80073738 0 197525802.80073738 49273456.44461441 0 0 0 0 -5743361.0307914019 10322985.218438148 0 10322985.218438148 28729852.89796257 0 0 0 0 -979740.86562381091 4867803.1527951993 0 4867803.1527951993 -2761393.7453965498 0 0 0 0 4293751.144705154 -684542.09020619839 0 -684542.09020619839 -4932767.2320917156 0 0 0 0 59487226.323258266 59542214.689605713 0 59542214.689605713 5402345.9671258926 0 0 0 0 92962373.803903103 -80535167.871650815 0 -80535167.871650815 94306495.346492767 0 0 0 0 -139820333.56347275 -265820861.30163383 0 -265820861.30163383 -190078665.9157114 0 0 0 0 -391726345.35434723 -568628045.55166054 0 -568628045.55166054 -403444253.63222122 0 0 0 0 -68246.523489858955 -546014.16536462493 0 -546014.16536462493 -965547.91598462686 0 0 0 0 -16159587.283007383 -74466946.060391426 0 -74466946.060391426 -450502276.94712067 0 0 0 0 -4524053.9907221794 59027082.690758646 0 59027082.690758646 -49436599.677398682 0 0 0 0 -2137254.49070636 -660252.29923184868 0 -660252.29923184868 1936827.1846846705 0 0 0 0 -22728441.85868454 -12943773.153502464 0 -12943773.153502464 2727780.2344741821 0 0 0 0 -1009635.505371213 -117235.0655373456 0 -117235.0655373456 914747.18828416802 0 0 0 0 -49883662.626331329 27276886.3562603 0 27276886.3562603 3396111.9103894234 0 0 0 0 -72559170.881484032 -53809614.070875168 0 -53809614.070875168 81843025.207115173 0 0 0 0 -176949101.91000366 -16778674.625078201 0 -16778674.625078201 -86991007.129909515 0 0 0 0 -304191383.26177597 -260052936.10335159 0 -260052936.10335159 -8086473.0139923096 0 0 0 0 -429642730.65313339 -165505194.40258598 0 -165505194.40258598 67603107.457188129 0 0 0 0 203636133.0486989 -89000001.891441822 0 -89000001.891441822 -21711232.90215683 0 0 0 0 -342297600.17010498 -350438341.71512032 0 -350438341.71512032 23425851.553153992 0 0 0 0 -140073123.56884766 -340627867.11446571 0 -340627867.11446571 6997943.1524238586 0 0 0 0 -496895365.51652908 -171630242.10011959 0 -171630242.10011959 154793795.96447372 0 0 0 0 -140484364.18735504 -359283143.32615852 0 -359283143.32615852 -229579121.63833237 0 0 0 0 -933319950.37120628 -762039538.15975952 0 -762039538.15975952 556985528.13674927 0 0 0 0 100219096.58199692 -543488789.75089931 0 -543488789.75089931 -117189243.69735718 0 0 0 0 -7586171.7245755084 -918909.01084835129 0 -918909.01084835129 5704380.0310289916 0 0 0 0 -145046426.0484848 -51281303.134407043 0 -51281303.134407043 12197902.084487915 0 0 0 0 89959689.702201843 902787886.87247849 0 902787886.87247849 -865899396.8068943 0 0 0 0 -198773490.52727699 -580945064.95262337 0 -580945064.95262337 -224757126.25233841 0 0 0 0 11968252.055973053 -240367451.42319107 0 -240367451.42319107 -896586583.32289124 0 0 0 0 40425230.813512802 -355846662.14502525 0 -355846662.14502525 -439711334.83494568 0 0 0 0 -162028207.73071289 -148935282.95716476 0 -148935282.95716476 -695433856.82467651 0 0 0 0 -1253239094.9651566 7855222.9273910522 0 7855222.9273910522 258545960.19406509 0 0 0 0 1147386.0663394704 -908518.14320000447 0 -908518.14320000447 -3750021.5563936494 0 0 0 0 -980010952.70296478 488946704.13714218 0 488946704.13714218 -259552344.63795471 0 0 0 0 3159904.4936793046 -457154.82271894906 0 -457154.82271894906 -3356726.5470412793 0 0 0 0 -33902777.195199966 -100971883.37652016 0 -100971883.37652016 -437998143.8511734 0 0 0 0 62781673.222961426 272745835.70130157 0 272745835.70130157 80910543.699523926 0 0 0 0 11259533.603826672 66119513.743726254 0 66119513.743726254 -64185338.055847168 0 0 0 0 -420833917.65513873 -366567769.34988022 0 -366567769.34988022 -240399614.74193954 0 0 0 0 309547.16747705138 3472993.905780612 0 3472993.905780612 -1647818.9499022067 0 0 0 0 538728631.83200645 -318886068.21337914 0 -318886068.21337914 -622363716.60479736 0 0 0 0 -160597441.35748863 -198300572.87555313 0 -198300572.87555313 -187420359.35424232 0 0 0 0 -110678553.32561493 -345203130.47029877 0 -345203130.47029877 -384054565.37883759 0 0 0 0 -14810679.778335571 -329991927.01626587 0 -329991927.01626587 -449869296.20450091 0 0 0 0 -56184562.534194946 -384518435.87594986 0 -384518435.87594986 -369967010.97602761 0 0 0 0 -51045646.777931213 -376835294.21532822 0 -376835294.21532822 -369764264.93686676 0 0 0 0 -62290945.07434845 -97275807.717422485 0 -97275807.717422485 -117041116.63510609 0 0 0 0 -80282638.434942245 -299762746.6242218 0 -299762746.6242218 -101777723.65100861 0 0 0 0 -52003593.729630053 -368627296.1377573 0 -368627296.1377573 -490020018.93717957 0 0 0 0 -48081168.900486946 4975626.0000953674 0 4975626.0000953674 -343064431.78340149 0 0 0 0 -56622603.055824757 -14503870.875492096 0 -14503870.875492096 95979310.054534912 0 0 0 0 -111613780.89912224 -132340725.83792496 0 -132340725.83792496 22145694.14566803 0 0 0 0 -204174029.40922928 -121597614.44384003 0 -121597614.44384003 183238081.6995697 0 0 0 0 -95950994.20157814 30592007.622716904 0 30592007.622716904 234045234.87952423 0 0 0 0 289639730.27376413 -81865100.961158752 0 -81865100.961158752 -322140310.58227539 0 0 0 0 216410320.22621727 -172202272.17842674 0 -172202272.17842674 -432455911.83352661 0 0 0 0 -188843335.02253771 -224818633.04204559 0 -224818633.04204559 -91618001.877471924 0 0 0 0 -247512068.82610559 -35112154.721607208 0 -35112154.721607208 21576483.201324463 0 0 0 0 -97213551.916206121 -133069873.56184387 0 -133069873.56184387 32276621.35585022 0 0 0 0 -128580309.78807306 -171566994.87553024 0 -171566994.87553024 275191103.68182373 0 0 0 0 -194402796.33409357 -82441783.51700592 0 -82441783.51700592 380157929.2315979 0 0 0 0 -77313467.657576799 -70005932.172958374 0 -70005932.172958374 45226551.654548645 0 0 0 0 10409413.023508549 122347778.77635956 0 122347778.77635956 218257647.06007385 0 0 0 0 -7539383.2669859454 -1969790.9016975234 0 -1969790.9016975234 -1471302.1764268279 0 0 0 0 -83918159.892674446 -170917127.22497559 0 -170917127.22497559 172646896.98940802 0 0 0 0 -222992476.67610931 74770357.418307304 0 74770357.418307304 17668329.301925659 0 0 0 0 -18545309.501619935 22876578.575321198 0 22876578.575321198 10284516.66034317 0 0 0 0 -3681157.7532892013 1628818.7736383006 0 1628818.7736383006 3172958.9406524934 0 0 0 0 -104596939.70585251 -255266830.25004578 0 -255266830.25004578 398140862.16828823 0 0 0 0 -21676872.440522335 633427.35312302969 0 633427.35312302969 10355522.918223478 0 0 0 0 -29050249.71521759 -22393711.957120895 0 -22393711.957120895 1531536.2579879761 0 0 0 0 -6627444.7768821716 2832574.1255531311 0 2832574.1255531311 94294482.466796875 0 0 0 0 8960223.8711700439 36640749.830265045 0 36640749.830265045 161111082.71301651 0 0 0 0 -13750652.050466323 -20028422.708076939 0 -20028422.708076939 -841514.15491037816 0 0 0 0 38199564.950454712 -113643529.79172516 0 -113643529.79172516 161838284.02668762 0 0 0 0 -45740676.284385681 -255591757.66751099 0 -255591757.66751099 208493896.18075562 0 0 0 0 -125635754.67490101 -19232394.853275299 0 -19232394.853275299 246271481.18289185 0 0 0 0 44155600.969444275 -174476154.98880005 0 -174476154.98880005 263572963.33594513 0 0 0 0 85495266.164878845 15518462.323173523 0 15518462.323173523 474814840.9654541 0 0 0 0 -707274.5674425161 -194415.5008609686 0 -194415.5008609686 89844.373730696738 0 0 0 0 -24811258.676485062 -14664539.424901009 0 -14664539.424901009 4763486.8776245117 0 0 0 0 -77418738.952675819 -2407624.762922287 0 -2407624.762922287 19865906.946920395 0 0 0 0 -15380432.534680333 -5320534.0026681833 0 -5320534.0026681833 11409163.468214666 0 0 0 0 20833690.275537491 129886685.39481354 0 129886685.39481354 254090597.02954865 0 0 0 0 -101596512.79859161 -28640494.991775513 0 -28640494.991775513 5161892.908744812 0 0 0 0 -221619306.31833649 -373421066.59318733 0 -373421066.59318733 288520858.4107666 0 0 0 0 -140136540.93181992 17937135.959674835 0 17937135.959674835 421126327.3173542 0 0 0 0 -25111854.97631073 -98697790.780406952 0 -98697790.780406952 -34796128.91583252 0 0 0 0 50041818.269821167 86811153.081607819 0 86811153.081607819 67932075.196399689 0 0 0 0 147080470.31126785 -85049705.032487869 0 -85049705.032487869 -221011209.10726929 0 0 0 0 121677156.27842712 32653353.072267532 0 32653353.072267532 104836866.61762238 0 0 0 0 -2502341.4206041275 2389850.9296925627 0 2389850.9296925627 2221820.4414548986 0 0 0 0 -58996266.942396164 -145312796.4232502 0 -145312796.4232502 -98843790.896595001 0 0 0 0 -106085087.69706535 -195021865.78988838 0 -195021865.78988838 -17368072.967163086 0 0 0 0 -40366487.237438202 -107615107.8243866 0 -107615107.8243866 -68081968.556900024 0 0 0 0 -202336967.0365963 70909534.604284286 0 70909534.604284286 75936375.180397034 0 0 0 0 -196107291.10525131 41333810.470746994 0 41333810.470746994 -29266357.688781738 0 0 0 0 -750635.36839675298 890217.84001672734 0 890217.84001672734 -2249233.8378711231 0 0 0 0 -68260047.830055237 -151016852.74168015 0 -151016852.74168015 -292258935.96555519 0 0 0 0 -760414747.93682861 -6430723.1254577637 0 -6430723.1254577637 -35694959.888710022 0 0 0 0 -355914520.42385864 104889576.01071167 0 104889576.01071167 -53943304.115684509 0 0 0 0 -414118639.31715655 -224071897.93718243 0 -224071897.93718243 -99864712.540542603 0 0 0 0 -17203786.113417387 -134923071.41671801 0 -134923071.41671801 -167117221.77400208 0 0 0 0 -67721753.907897949 -126535323.86882401 0 -126535323.86882401 -115307911.47686768 0 0 0 0 102638736.89498138 -55307285.245612144 0 -55307285.245612144 -276422194.47902298 0 0 0 0 -8795869.2115125656 227773197.35068274 0 227773197.35068274 67744595.233880997 0 0 0 0 98534315.743391037 167778400.38052177 0 167778400.38052177 -517308896.6036855 0 0 0 0 -485670822.95973206 -457386984.50867653 0 -457386984.50867653 -483261642.95977783 0 0 0 0 -329779496.41109371 -101376766.17334938 0 -101376766.17334938 277719902.65432358 0 0 0 0 -67558791.404218674 -63771381.307150841 0 -63771381.307150841 279298239.06328183 0 0 0 0 -34601064.733222961 16861446.252105713 0 16861446.252105713 235423489.52484369 0 0 0 0 -137414701.03406334 -88221324.594358921 0 -88221324.594358921 29403239.086999893 0 0 0 0 -4586393.0050512534 4361801.6093212133 0 4361801.6093212133 4076124.8718349384 0 0 0 0 -61397147.839290619 -116287287.84238815 0 -116287287.84238815 -48051895.809993744 0 0 0 0 15144857.381296158 -65248011.112363815 0 -65248011.112363815 -52263499.305994987 0 0 0 0 -51675970.563709259 -164575664.14824772 0 -164575664.14824772 -160302195.0763607 0 0 0 0 118292342.749403 58900887.925660133 0 58900887.925660133 -66715634.424465179 0 0 0 0 -4633615.6261584181 4469861.1229166053 0 4469861.1229166053 4005065.836935252 0 0 0 0 157597883.28353882 53802464.391736984 0 53802464.391736984 -149819683.38692951 0 0 0 0 60936996.924518585 -22746673.625761032 0 -22746673.625761032 -70087892.372648239 0 0 0 0 112454924.24498558 -53539448.744672775 0 -53539448.744672775 -333138401.58315277 0 0 0 0 -206623988.94454575 -334055881.25396538 0 -334055881.25396538 -225148413.84911728 0 0 0 0 -35953669.887649536 -145587462.19529819 0 -145587462.19529819 -18759831.854858398 0 0 0 0 -36380090.851745605 -131980330.96500206 0 -131980330.96500206 -52236885.140960693 0 0 0 0 -13223177.48828125 -93772521.433199883 0 -93772521.433199883 -156240938.47781181 0 0 0 0 -56911986.050201416 -136825217.87955475 0 -136825217.87955475 -53243187.138456345 0 0 0 0 -12983488.217720032 -89109815.696796417 0 -89109815.696796417 -67460224.468981743 0 0 0 0 88406137.147537231 51154618.003093719 0 51154618.003093719 6578111.589217186 0 0 0 0 -44136539.674102783 9701313.6821870804 0 9701313.6821870804 44254697.59046793 0 0 0 0 74519093.166801453 37951478.55293411 0 37951478.55293411 79135619.228221893 0 0 0 0 -2708896.4025091287 -2428551.4968085513 0 -2428551.4968085513 2079795.2428927324 0 0 0 0 12589147.017623901 75400253.569652557 0 75400253.569652557 1994234.2731323242 0 0 0 0 -99191273.485233307 -303387177.0460124 0 -303387177.0460124 -223428483.78259504 0 0 0 0 -731566.41850280762 -131283001.47580624 0 -131283001.47580624 -229354230.26277161 0 0 0 0 -235307455.22106934 57114186.473232269 0 57114186.473232269 57717401.263313293 0 0 0 0 -3000866.7706913538 -2019915.5071598869 0 -2019915.5071598869 2742430.6705318461 0 0 0 0 -321003338.54462051 -283068042.70966625 0 -283068042.70966625 23326603.636554554 0 0 0 0 68880684.333843231 125961505.62872738 0 125961505.62872738 35576822.356228828 0 0 0 0 28484336.951316833 15534088.59403038 0 15534088.59403038 67996952.509559393 0 0 0 0 -224992578.24790955 153218052.0852375 0 153218052.0852375 4370449.2128446102 0 0 0 0 -337723388.2901535 -33660806.52146244 0 -33660806.52146244 134407141.96701241 0 0 0 0 -501552229.71396613 -155640318.00673538 0 -155640318.00673538 34616715.829870224 0 0 0 0 -494774420.47583508 63992719.829401463 0 63992719.829401463 60241970.272445679 0 0 0 0 -106387694.32885742 147813412.96305561 0 147813412.96305561 -18981431.072529316 0 0 0 0 -155711060.16929626 10911814.594604015 0 10911814.594604015 60668267.494579315 0 0 0 0 -145346611.12714386 41238298.139743924 0 41238298.139743924 141558411.93409577 0 0 0 0 -178075264.80973053 -4265766.9904552698 0 -4265766.9904552698 242019116.16508201 0 0 0 0 49648544.792949677 116840958.66015267 0 116840958.66015267 117828477.30538511 0 0 0 0 -46022474.853973389 -30088994.559911251 0 -30088994.559911251 -22229184.558827162 0 0 0 0 -6364403.1102066003 -5761080.0365986209 0 -5761080.0365986209 1238535.594062706 0 0 0 0 51852412.311462402 52289566.761351109 0 52289566.761351109 72073926.633552313 0 0 0 0 -142823230.83615589 30810735.090945005 0 30810735.090945005 161100515.65820122 0 0 0 0 -1445620.2812379014 2387415.852691818 0 2387415.852691818 315856.03125437815 0 0 0 0 31681161.265445709 5776747.2424793243 0 5776747.2424793243 -27134402.33875227 0 0 0 0 -124474954.74939251 -33975668.182896376 0 -33975668.182896376 -306230248.52190089 0 0 0 0 146657928.12528992 -122798246.34051406 0 -122798246.34051406 142274227.00423098 0 0 0 0 -2379719.9078497179 2220607.9223164767 0 2220607.9223164767 2224684.909332898 0 0 0 0 354332615.08501959 -10218212.841744184 0 -10218212.841744184 -136984291.55942726 0 0 0 0 189273109.83319092 -70931525.98465991 0 -70931525.98465991 -272537859.71927071 0 0 0 0 -130628551.89433002 -195426628.41615385 0 -195426628.41615385 -47437163.987835884 0 0 0 0 -167933389.270401 -183732567.22791249 0 -183732567.22791249 -50378472.471693039 0 0 0 0 -140638783.86641693 -189075215.62411118 0 -189075215.62411118 -221181015.02775288 0 0 0 0 -134994022.22607422 -51984383.448916435 0 -51984383.448916435 37913172.278159291 0 0 0 0 -200735974.35499382 -74552038.539478675 0 -74552038.539478675 110926030.50531113 0 0 0 0 11642918.327156067 33790818.938022614 0 33790818.938022614 141604297.09162235 0 0 0 0 74006954.797424316 -108610225.25956154 0 -108610225.25956154 -79531165.942548752 0 0 0 0 156765366.72626877 30739577.220394135 0 30739577.220394135 43487286.662654638 0 0 0 0 23024827.885986328 -46415739.215250969 0 -46415739.215250969 249239565.02367783 0 0 0 0 1244323.8651385307 -3874827.8234615326 0 -3874827.8234615326 -2905617.1096897125 0 0 0 0 -28021649.890882492 -33416788.632667542 0 -33416788.632667542 -15542461.88712585 0 0 0 0 -5901997.8688177094 1497469.3011017814 0 1497469.3011017814 1858340.1515046076 0 0 0 0 -1962621.944395727 -5575316.7684494145 0 -5575316.7684494145 -6714043.5419838764 0 0 0 0 -414305.59633231163 -802900.30374407768 0 -802900.30374407768 -687162.36253738403 0 0 0 0 -8817727.6564078704 -5188982.2018415304 0 -5188982.2018415304 -2019105.2588499011 0 0 0 0 -465434.26951036532 -745239.31042760145 0 -745239.31042760145 -2405999.5241597872 0 0 0 0 -353793.61569213867 -4869987.3525304794 0 -4869987.3525304794 -2677337.0689620972 0 0 0 0 -1814412.2808628082 -5898279.0529594421 0 -5898279.0529594421 -2068356.129983902 0 0 0 0 -296941.11312842369 -4495995.048176527 0 -4495995.048176527 -928091.96669769287 0 0 0 0 -5433009.1475769086 -9335405.0717935059 0 -9335405.0717935059 -7015841.1454361603 0 0 0 0 -12971473.168341219 -10624314.095533885 0 -10624314.095533885 -12521376.894228749 0 0 0 0 -17053826.066516876 1371693.0819320679 0 1371693.0819320679 -2930798.5369920731 0 0 0 0 -14707894.194942772 -9755573.4238529447 0 -9755573.4238529447 -5221204.0006816722 0 0 0 0 -1110409.5124693513 -3997242.257717967 0 -3997242.257717967 663577.33823394775 0 0 0 0 -10542191.551957376 -3197662.0113265016 0 -3197662.0113265016 -822844.97747569811 0 0 0 0 61967257.792831421 -101379230.37217045 0 -101379230.37217045 266708715.64063907 0 0 0 0 -5628757.6905698869 -6437912.7771425145 0 -6437912.7771425145 -4720687.3136278605 0 0 0 0 54917648.625938416 -30857735.082798958 0 -30857735.082798958 195313007.58287716 0 0 0 0 -19893267.140351653 -28717664.179587424 0 -28717664.179587424 13835936.852779388 0 0 0 0 -34092029.731526375 -22207468.989468098 0 -22207468.989468098 18445644.391345978 0 0 0 0 -10991697.307892373 172621.39339121105 0 172621.39339121105 3976796.0503442977 0 0 0 0 -49693112.544046402 -9433636.9802138805 0 -9433636.9802138805 18396626.771629333 0 0 0 0 -1792228.2032602208 -1015670.1843394162 0 -1015670.1843394162 409916.06245954335 0 0 0 0 -30434364.899588585 2063433.8555107117 0 2063433.8555107117 17452706.085166931 0 0 0 0 -4185448.7775731087 -5382169.8562965393 0 -5382169.8562965393 1816906.2875022888 0 0 0 0 -24582968.627372742 -4607825.6345043182 0 -4607825.6345043182 22987721.174694061 0 0 0 0 -11950016.901874542 -14176287.128332138 0 -14176287.128332138 17088047.952762604 0 0 0 0 -5859613.7447683476 -5828275.3222500607 0 -5828275.3222500607 -172342.10652345326 0 0 0 0 -13888296.220916748 -2611248.5760593414 0 -2611248.5760593414 -3305072.988409996 0 0 0 0 -66621716.219192505 217179.75132513046 0 217179.75132513046 -25670038.505420446 0 0 0 0 -75790672.294251442 -45803582.413800091 0 -45803582.413800091 -11820792.56925869 0 0 0 0 -17309909.372838974 -24288823.589125156 0 -24288823.589125156 -21729611.157014847 0 0 0 0 -118523949.53175735 68601361.857650757 0 68601361.857650757 261557127.29385853 0 0 0 0 9752642.9662513733 -23361032.753826141 0 -23361032.753826141 -12138147.196883678 0 0 0 0 -10363948.472688068 -9951809.0333515033 0 -9951809.0333515033 192939.61782172695 0 0 0 0 2779576.5893478394 -9492522.6526193619 0 -9492522.6526193619 -7189910.0405683517 0 0 0 0 -1767234.124917984 -987557.65159320831 0 -987557.65159320831 -23097964.484792709 0 0 0 0 10703839.376209259 -19543630.772762299 0 -19543630.772762299 -29417912.887445927 0 0 0 0 3792444.1728630066 3629941.7996416092 0 3629941.7996416092 7057251.6165237427 0 0 0 0 -22238739.182987213 -12958153.174304962 0 -12958153.174304962 353731.68017578125 0 0 0 0 -14238606.820592821 -13583172.58292849 0 -13583172.58292849 -15644282.447552128 0 0 0 0 -31886605.620010376 -37384596.79288578 0 -37384596.79288578 2314557.1580467224 0 0 0 0 -38474916.790214539 -41410571.749792099 0 -41410571.749792099 -45152249.711824417 0 0 0 0 -2478363.3646481754 -465697.70490169339 0 -465697.70490169339 832956.07617829926 0 0 0 0 -98633733.728572845 -16696480.582069397 0 -16696480.582069397 1731626.6396636963 0 0 0 0 -17017022.578716278 -7304515.924343586 0 -7304515.924343586 2545795.0873222351 0 0 0 0 -16341747.784581482 -2709635.2729126289 0 -2709635.2729126289 338428.22176113725 0 0 0 0 -24451848.615409851 -15672430.554650784 0 -15672430.554650784 -3630459.5389251709 0 0 0 0 -64788788.593664169 -35579325.660046339 0 -35579325.660046339 -37169428.283687115 0 0 0 0 -5786614.4490466323 885725.5496820081 0 885725.5496820081 1975470.5685774703 0 0 0 0 12277811.856304169 -16239414.414657593 0 -16239414.414657593 -5181184.1061248779 0 0 0 0 -97987546.472000122 -28974813.32435137 0 -28974813.32435137 12204372.715129636 0 0 0 0 -20027839.347518921 -44877300.802513123 0 -44877300.802513123 9602288.6543420553 0 0 0 0 -54205532.701076508 -23214102.612397671 0 -23214102.612397671 11506365.112457275 0 0 0 0 -36429173.322280884 52730883.671065807 0 52730883.671065807 13522430.078768194 0 0 0 0 -16747021.892945334 -640371.33963762131 0 -640371.33963762131 5674153.8025619928 0 0 0 0 -57917089.962813854 -129150520.22012597 0 -129150520.22012597 -41803741.113242149 0 0 0 0 -13748616.475573197 -1557246.1612227429 0 -1557246.1612227429 8497956.7923957575 0 0 0 0 -46356777.602374077 8453946.4711573124 0 8453946.4711573124 7565702.9984378815 0 0 0 0 -20227880.774085999 -12413112.92407155 0 -12413112.92407155 -7908746.7776218057 0 0 0 0 -99042045.160488129 30727426.763236523 0 30727426.763236523 -31163615.167160511 0 0 0 0 -13666515.939491272 -20701.814516477287 0 -20701.814516477287 -9168868.5954261422 0 0 0 0 -8668092.207775116 -29288124.059484303 0 -29288124.059484303 -12518004.341175616 0 0 0 0 -1891053.0982894897 -21668609.147074699 0 -21668609.147074699 17972584.260852575 0 0 0 0 -10294988.315219879 -36664464.526998997 0 -36664464.526998997 13654513.183403969 0 0 0 0 12047602.399719238 -19000579.531467199 0 -19000579.531467199 -98847524.060857773 0 0 0 0 -43687698.942733765 196194035.49005222 0 196194035.49005222 95998145.738904953 0 0 0 0 -56400318.35735321 -137829071.22689247 0 -137829071.22689247 26677935.76996994 0 0 0 0 -2033771.4577941895 131797705.36212444 0 131797705.36212444 9216327.2746372223 0 0 0 0 73227412.129898071 -21505573.505931854 0 -21505573.505931854 -10951014.609859467 0 0 0 0 -65403515.001739502 148795575.71870995 0 148795575.71870995 202367384.77083707 0 0 0 0 -5350093.0349350646 -4140458.4253573585 0 -4140458.4253573585 3682752.0253285537 0 0 0 0 66134711.359751701 1732215.1576017141 0 1732215.1576017141 112365160.64128876 0 0 0 0 -3863895.6701660156 17800922.731604576 0 17800922.731604576 180808228.91747332 0 0 0 0 -2694108.3839089274 -2543234.6605947139 0 -2543234.6605947139 1153964.099995055 0 0 0 0 -56173214.731948853 -91287280.802822053 0 -91287280.802822053 -116005439.02294758 0 0 0 0 25750134.707244873 7143016.793202877 0 7143016.793202877 -9330167.1077376604 0 0 0 0 7853197.7706680298 28420569.899821281 0 28420569.899821281 101956286.19540453 0 0 0 0 -18798360.657600403 -54519589.219609261 0 -54519589.219609261 -11061857.268432349 0 0 0 0 10887318.059062958 -36667768.876639843 0 -36667768.876639843 -86753012.644998372 0 0 0 0 -130101061.27137184 -66511472.983302616 0 -66511472.983302616 -26466052.745879292 0 0 0 0 174041686.52768373 -455919402.43355131 0 -455919402.43355131 56839975.876041412 0 0 0 0 -148664117.2706604 36798114.186449289 0 36798114.186449289 70810331.42647928 0 0 0 0 26824269.567546844 92338117.354763389 0 92338117.354763389 21082847.439662218 0 0 0 0 -9143043.8187367581 2731778.8735735361 0 2731778.8735735361 -1797088.1006873325 0 0 0 0 12565253.401185989 -8365686.7570661306 0 -8365686.7570661306 59746681.710139513 0 0 0 0 -78872221.828710556 68475223.600800395 0 68475223.600800395 12487239.531208515 0 0 0 0 -209342681.99088335 84415366.734323084 0 84415366.734323084 25128107.916736603 0 0 0 0 83547274.312839508 195835839.4201591 0 195835839.4201591 57271990.478407383 0 0 0 0 59512653.790592194 -4977347.1921112537 0 -4977347.1921112537 -62888077.880888104 0 0 0 0 49308849.837186813 61613827.426872969 0 61613827.426872969 -381531149.21932364 0 0 0 0 145182588.72838116 68197391.236916065 0 68197391.236916065 -126540245.41040516 0 0 0 0 -172841291.36372089 -186677589.71327662 0 -186677589.71327662 -129004054.15274763 0 0 0 0 -587427084.73438644 531687099.28192043 0 531687099.28192043 -447961806.91483736 0 0 0 0 -48656914.098492771 14765471.353669293 0 14765471.353669293 11351975.847234271 0 0 0 0 -60141836.076224327 -137675264.24981162 0 -137675264.24981162 -50326713.312247753 0 0 0 0 -182453630.95592499 -46538225.626000166 0 -46538225.626000166 -115680670.18305337 0 0 0 0 -2925526.5556951566 783014.73378045065 0 783014.73378045065 -412542.183963469 0 0 0 0 -376410848.89789772 601478411.93675661 0 601478411.93675661 -381102510.8452239 0 0 0 0 -43886440.400162742 10747275.072118018 0 10747275.072118018 12997274.730606651 0 0 0 0 -1468399751.6290207 951831844.89419746 0 951831844.89419746 -689264195.60825157 0 0 0 0 665326799.4465332 -845394575.31179285 0 -845394575.31179285 221062392.7658143 0 0 0 0 -146534283.05630493 -214708170.87055016 0 -214708170.87055016 -140840901.12112617 0 0 0 0 -155737853.23687744 -41296995.988728046 0 -41296995.988728046 -120683013.06261444 0 0 0 0 -75836205.87285614 45650870.790328979 0 45650870.790328979 -15354043.458122134 0 0 0 0 -26565864.052436829 -26765402.813973427 0 -26765402.813973427 14275299.261955261 0 0 0 0 -27383544.186302185 -16210016.902778625 0 -16210016.902778625 43734302.297127724 0 0 0 0 -11117811.885946527 -3418657.6507794932 0 -3418657.6507794932 10599351.538261222 0 0 0 0 -129797923.97142029 -2771554.6164779663 0 -2771554.6164779663 -27551836.680243492 0 0 0 0 -113426173.49677181 -79466946.168922275 0 -79466946.168922275 -115019619.81604576 0 0 0 0 -194621980.65520477 -97149968.159519196 0 -97149968.159519196 -40316802.900563657 0 0 0 0 -222980719.63009644 -184951462.18915939 0 -184951462.18915939 -34780999.396568298 0 0 0 0 -181114262.78244019 -129099891.06258297 0 -129099891.06258297 -39230335.934146881 0 0 0 0 -71152640.850601196 -81520434.78490448 0 -81520434.78490448 -23413779.842066765 0 0 0 0 -173926765.2744329 227873748.59088135 0 227873748.59088135 -132486122.43556452 0 0 0 0 -52257895.214634806 17942210.587953717 0 17942210.587953717 9562788.5640580729 0 0 0 0 39790845.182064056 133214319.47920942 0 133214319.47920942 -27043001.987897873 0 0 0 0 -5812282.9009763002 -9178601.601684548 0 -9178601.601684548 11718252.331752546 0 0 0 0 -220477767.56344223 -147911195.82423544 0 -147911195.82423544 148715818.33098221 0 0 0 0 122486575.39390564 -315075771.9020195 0 -315075771.9020195 -268554027.77831268 0 0 0 0 -8477634.2538940012 -5950306.6429778114 0 -5950306.6429778114 11874104.455105945 0 0 0 0 -49685744.277778625 64782171.761652946 0 64782171.761652946 129573325.54283333 0 0 0 0 -157265107.28995514 -73593027.976499557 0 -73593027.976499557 64926300.328925133 0 0 0 0 -17307009.944831848 61173708.303679466 0 61173708.303679466 -43770465.89232254 0 0 0 0 -2587049.9643286467 -2436559.9110451974 0 -2436559.9110451974 2011574.0843031909 0 0 0 0 -50160084.801246643 -126901259.17749405 0 -126901259.17749405 -102709742.9543848 0 0 0 0 -36370103.32976532 -15245283.042175293 0 -15245283.042175293 -9597862.7886886597 0 0 0 0 -27881089.771800041 -42502275.161926329 0 -42502275.161926329 21860056.448406219 0 0 0 0 -27413969.782544136 -40826423.130864501 0 -40826423.130864501 21734989.698234558 0 0 0 0 -5148292.9579548091 -4219529.6163657792 0 -4219529.6163657792 3633468.4701321917 0 0 0 0 -2188567.4035491943 -61195372.953912735 0 -61195372.953912735 -67181288.428710938 0 0 0 0 44195410.777053833 -23556033.892831802 0 -23556033.892831802 -72494528.522720337 0 0 0 0 -34764645.026428223 -30631980.012777328 0 -30631980.012777328 -71201472.440292358 0 0 0 0 -32249301.268241882 -37480290.417855263 0 -37480290.417855263 -58040091.032073975 0 0 0 0 -34711796.603797913 -42484407.42129612 0 -42484407.42129612 -52182417.018196106 0 0 0 0 -4512343.651080817 237482.21494103223 0 237482.21494103223 1567559.7405073829 0 0 0 0 40752808.077232361 -18947730.239757538 0 -18947730.239757538 -17734485.647445679 0 0 0 0 -88455141.534332275 -40545573.943264008 0 -40545573.943264008 -30135335.798311234 0 0 0 0 -119956731.03055573 -50347353.743730545 0 -50347353.743730545 -32689424.1353302 0 0 0 0 -46310770.575897217 -43418115.127536774 0 -43418115.127536774 -60208945.675071716 0 0 0 0 -67631661.575271606 -13243379.850317001 0 -13243379.850317001 -39117584.725563049 0 0 0 0 -59077953.252105713 -8907833.6232757568 0 -8907833.6232757568 -37037548.766857147 0 0 0 0 -61532794.300674438 207531.80372619629 0 207531.80372619629 -2440290.0391464233 0 0 0 0 -48672619.998775482 25599760.115208626 0 25599760.115208626 -12990614.690536499 0 0 0 0 37444305.104681015 31324299.986299515 0 31324299.986299515 -58899666.431213379 0 0 0 0 -13264667.296508789 -5845326.5474433899 0 -5845326.5474433899 -52638943.094245911 0 0 0 0 -42832296.568519592 23930823.889123917 0 23930823.889123917 -59499414.665054321 0 0 0 0 -106558877.1268158 56974369.02696991 0 56974369.02696991 -24100315.088487625 0 0 0 0 -53479946.181930542 5035166.814956665 0 5035166.814956665 -19602253.825624466 0 0 0 0 -73429252.876186371 -41699000.590063095 0 -41699000.590063095 35955544.511810303 0 0 0 0 92771590.213920593 -66527743.066335678 0 -66527743.066335678 -83477737.768680573 0 0 0 0 -120808204.96364117 -13622879.011857986 0 -13622879.011857986 27374644.364192963 0 0 0 0 -24155288.542537689 186251267.19736004 0 186251267.19736004 79160910.870159149 0 0 0 0 -10612872.544746399 -84472616.093111038 0 -84472616.093111038 -48760729.752307892 0 0 0 0 -159122382.86766815 -257560827.30567169 0 -257560827.30567169 -291085617.0606308 0 0 0 0 147324204.93140411 87488906.108734131 0 87488906.108734131 -375930950.85903406 0 0 0 0 -243277519.82016754 7224051.6185922623 0 7224051.6185922623 205620366.97208214 0 0 0 0 -5581086.0388268009 -3419893.9530881569 0 -3419893.9530881569 4831215.4422676973 0 0 0 0 -89642286.635391235 13680578.205767632 0 13680578.205767632 57368839.411216736 0 0 0 0 -457903205.03821182 -154917129.71998405 0 -154917129.71998405 183854832.09402657 0 0 0 0 -5282248.3285096586 -3141859.5930451937 0 -3141859.5930451937 4498301.0845256671 0 0 0 0 91315154.144378662 -55530568.791345596 0 -55530568.791345596 -44726549.046519279 0 0 0 0 -55149520.006362915 -9952951.0144023895 0 -9952951.0144023895 168892907.90010452 0 0 0 0 -97055033.638580322 31134244.941461563 0 31134244.941461563 82194490.42527771 0 0 0 0 -5902513.7862782553 -4382293.7086914815 0 -4382293.7086914815 3910894.3635297511 0 0 0 0 -10883453.450889587 -37101111.106228828 0 -37101111.106228828 20854973.77388382 0 0 0 0 64755466.720817566 -93751539.20554018 0 -93751539.20554018 -65525773.199813843 0 0 0 0 -90040140.196403503 72350661.212820053 0 72350661.212820053 72267380.413597107 0 0 0 0 23158663.438179016 29166871.112754822 0 29166871.112754822 -73177116.768127441 0 0 0 0 -2647658.7267136313 -1699016.6608986594 0 -1699016.6608986594 2363929.9080921244 0 0 0 0 70133082.719898224 -24715118.356471062 0 -24715118.356471062 -126975454.81402969 0 0 0 0 -34548826.246040344 -59718866.348091125 0 -59718866.348091125 -103839849.41853714 0 0 0 0 -67824911.103866577 -41617253.417448044 0 -41617253.417448044 -48775277.822875977 0 0 0 0 -44253327.319839478 4073872.5921821594 0 4073872.5921821594 -80424915.475479126 0 0 0 0 -11664505.679626465 -17307606.782211304 0 -17307606.782211304 -70630526.112098694 0 0 0 0 -3563688.7692565918 -53364123.937522888 0 -53364123.937522888 -44160790.409009457 0 0 0 0 -25318546.677062988 -51336760.863975525 0 -51336760.863975525 -44066648.04057312 0 0 0 0 -35452944.667354584 -27236166.527503014 0 -27236166.527503014 -41350936.745452881 0 0 0 0 -7963672.6211242676 -27337643.860862732 0 -27337643.860862732 -41941378.569965363 0 0 0 0 -13336952.951566696 -38950868.499958992 0 -38950868.499958992 -23305597.788398743 0 0 0 0 4208902.5041503906 -44705685.497203827 0 -44705685.497203827 -30188325.160228729 0 0 0 0 -1046009.0225982666 -51565616.514484406 0 -51565616.514484406 -9126063.9409570694 0 0 0 0 -7001128.7909088135 -25658056.498121262 0 -25658056.498121262 -55681350.336051941 0 0 0 0 -15019222.951278687 -47191422.85490799 0 -47191422.85490799 -95871522.358352661 0 0 0 0 -55267320.465087891 -42943352.859645844 0 -42943352.859645844 -42411963.21232605 0 0 0 0 -10793801.455137253 -30839159.667560577 0 -30839159.667560577 -58954289.567169189 0 0 0 0 -31675766.32144165 -55857787.249912262 0 -55857787.249912262 -30202634.567100525 0 0 0 0 -34417151.692611694 -46698292.855880737 0 -46698292.855880737 -46841501.337976456 0 0 0 0 -146873905.2789917 -54399475.266628265 0 -54399475.266628265 -27461846.518048286 0 0 0 0 -65306696.985469818 -73949153.538866043 0 -73949153.538866043 -90415589.632675171 0 0 0 0 -40113105.873420715 -55828992.462482452 0 -55828992.462482452 -86698822.36534214 0 0 0 0 -128072908.51662445 -151546765.49467754 0 -151546765.49467754 -143057989.78697968 0 0 0 0 -35322531.687339783 -34561870.369214058 0 -34561870.369214058 -143910804.4087677 0 0 0 0 -1899579.4887399946 3062732.9451229312 0 3062732.9451229312 -1806860.4119170737 0 0 0 0 110938179.80187988 47282115.976634979 0 47282115.976634979 -93729953.073390961 0 0 0 0 -519746564.36460495 -155601136.84291935 0 -155601136.84291935 -34814588.644351959 0 0 0 0 -238633075.93246651 -22665414.744484901 0 -22665414.744484901 -42404742.345428467 0 0 0 0 -136342959.24573326 -31346272.625395298 0 -31346272.625395298 -43693329.106163025 0 0 0 0 -143766879.16820526 -43392625.623561859 0 -43392625.623561859 -22130908.316932678 0 0 0 0 -186325757.22422791 -3493186.6638450623 0 -3493186.6638450623 5986673.815864563 0 0 0 0 -8064477.641391214 3769319.5848909765 0 3769319.5848909765 -4367495.6120157242 0 0 0 0 -106226372.64713478 8847172.2235221863 0 8847172.2235221863 450219.15763092041 0 0 0 0 -79438174.268119812 -18551554.235908508 0 -18551554.235908508 22100502.293008804 0 0 0 0 -40779179.466903687 -48190060.155223846 0 -48190060.155223846 15195855.545700073 0 0 0 0 -68792587.219230652 -32447236.385570526 0 -32447236.385570526 12358162.765642166 0 0 0 0 -127312327.43204498 -24414803.518796921 0 -24414803.518796921 -5486569.3823165894 0 0 0 0 -81766101.61807251 -45245320.157719612 0 -45245320.157719612 -88124.682716369629 0 0 0 0 -72746925.582969666 -49444997.135505676 0 -49444997.135505676 -28454232.025085449 0 0 0 0 -75008282.688546181 -59368241.624924183 0 -59368241.624924183 -10946314.651512146 0 0 0 0 -38204856.099983215 -44748940.147949219 0 -44748940.147949219 -6764171.4905738831 0 0 0 0 -23986351.452915192 -73799646.756625175 0 -73799646.756625175 9410011.6708068848 0 0 0 0 -31353689.758804321 -45037669.648506165 0 -45037669.648506165 14456252.822013855 0 0 0 0 -17727394.589859009 -35026156.740917206 0 -35026156.740917206 -7365949.9748764038 0 0 0 0 44596780.616195679 -53115005.402126312 0 -53115005.402126312 -4194158.2118225098 0 0 0 0 -4265688.2450981457 -1309386.4760578722 0 -1309386.4760578722 -288441.49557397515 0 0 0 0 -3173378.1454467773 -6871826.4661769867 0 -6871826.4661769867 1308017.5640029907 0 0 0 0 -19207918.91329547 -14893097.245891389 0 -14893097.245891389 -7044991.0077369101 0 0 0 0 -20581822.094520569 -55164882.325061798 0 -55164882.325061798 -2746962.5666208267 0 0 0 0 1911657.0334396362 1320488.6023855209 0 1320488.6023855209 -584581.01078033447 0 0 0 0 -18089538.366779186 -8063315.5919678621 0 -8063315.5919678621 -84455.284128434956 0 0 0 0 -21632039.123016357 -47758016.529415131 0 -47758016.529415131 12958042.490367889 0 0 0 0 -55497866.688783646 -65469123.430785179 0 -65469123.430785179 4580539.9270172119 0 0 0 0 -54234252.833351135 -51891085.331417084 0 -51891085.331417084 33232790.088123322 0 0 0 0 -87979535.524810791 9939225.7207632065 0 9939225.7207632065 48794186.44103241 0 0 0 0 -41618626.040920585 -21202969.217706788 0 -21202969.217706788 -6604773.6764272405 0 0 0 0 -17815747.013182342 -3153845.3184310012 0 -3153845.3184310012 6972312.5051614847 0 0 0 0 -33620799.061752319 -10298774.921110153 0 -10298774.921110153 5581254.0325350761 0 0 0 0 -11060905.90342164 -7480719.5712746978 0 -7480719.5712746978 -738815.34862672351 0 0 0 0 -43004827.700286865 -19820739.598904133 0 -19820739.598904133 643232.06077575684 0 0 0 0 -13862314.96343606 -9528066.7614556588 0 -9528066.7614556588 -5790836.9100821158 0 0 0 0 -36523672.223770142 -10811595.269521713 0 -10811595.269521713 -5824156.4458470345 0 0 0 0 -26676900.148216248 -23698031.795034647 0 -23698031.795034647 -1744824.7809000015 0 0 0 0 -37351516.619598389 -18338863.559798241 0 -18338863.559798241 6377702.3325386047 0 0 0 0 -48703380.029418945 -31523541.790462494 0 -31523541.790462494 24583687.073490858 0 0 0 0 33278983.089828491 -91893277.5922575 0 -91893277.5922575 -9421588.8409366608 0 0 0 0 -50162474.245035067 -22740830.002942216 0 -22740830.002942216 -4131932.7232745048 0 0 0 0 -76635312.825761795 -8920744.2922449112 0 -8920744.2922449112 39950914.045448303 0 0 0 0 -91021840.185287476 -56315457.980838776 0 -56315457.980838776 63352256.561964035 0 0 0 0 -7014735.727774987 -14861952.628222194 0 -14861952.628222194 -15574203.542641349 0 0 0 0 -5011503.5778467953 -9252800.9308968708 0 -9252800.9308968708 -9088200.7238465212 0 0 0 0 44414775.528762817 -54154989.09844017 0 -54154989.09844017 -1769269.3995304108 0 0 0 0 -52874982.386672974 -19212406.171508789 0 -19212406.171508789 -808515.65215682983 0 0 0 0 -52998242.447795868 -19734598.640106678 0 -19734598.640106678 -2038383.0456008911 0 0 0 0 -16535335.263664246 -41449776.429258347 0 -41449776.429258347 -115644.24255019426 0 0 0 0 -38604001.827316284 -15665620.501272202 0 -15665620.501272202 -8682265.6583557129 0 0 0 0 -18254752.382525593 2059297.1882348545 0 2059297.1882348545 5494686.1272717826 0 0 0 0 -79655443.257267952 -32359255.231809378 0 -32359255.231809378 -3400958.7465286255 0 0 0 0 -72606112.086029053 -28426252.467536926 0 -28426252.467536926 -23421344.247138977 0 0 0 0 -815485.53446634114 2619573.5505951103 0 2619573.5505951103 1426698.7473486606 0 0 0 0 -78920196.754516602 -25491503.913040161 0 -25491503.913040161 -1129050.8565368652 0 0 0 0 -74035408.44519043 -30626044.93800354 0 -30626044.93800354 1286089.8498840332 0 0 0 0 -78285413.828582764 -27726469.668403625 0 -27726469.668403625 4473511.1616134644 0 0 0 0 -69140566.875823975 -22692700.936546326 0 -22692700.936546326 3371831.6125335693 0 0 0 0 -81497746.009384155 -15965522.586048126 0 -15965522.586048126 -10591773.408531189 0 0 0 0 -69141261.012026653 -22138300.023892898 0 -22138300.023892898 -19155321.000747681 0 0 0 0 -4786773.5345916748 2967032.232088089 0 2967032.232088089 1573373.1186752319 0 0 0 0 -9344987.9892730713 -11779108.973659515 0 -11779108.973659515 -6003953.510269165 0 0 0 0 -14159926.810638815 -10772917.243662488 0 -10772917.243662488 -5026783.7574010864 0 0 0 0 -13189671.479396828 5215444.4764540568 0 5215444.4764540568 2676055.0900992006 0 0 0 0 -7600286.1164855957 -4808908.4664459229 0 -4808908.4664459229 -1141294.5194091797 0 0 0 0 -11194115.030731201 1490280.9927139282 0 1490280.9927139282 3337572.5482025146 0 0 0 0 -12300790.937316895 -7647790.790019989 0 -7647790.790019989 373097.12688064575 0 0 0 0 -14436800.81389752 -4335493.7612924138 0 -4335493.7612924138 752315.94815725135 0 0 0 0 -3703771.2070922852 -2122528.2291736603 0 -2122528.2291736603 -5383994.5038223267 0 0 0 0 -838722.17322519422 -592918.81591673195 0 -592918.81591673195 -79027.584752295166 0 0 0 0 -36956603.661506653 -7414483.2103073597 0 -7414483.2103073597 -3872555.5439682007 0 0 0 0 -25218500.322265625 -9325038.766160965 0 -9325038.766160965 -6556322.7520251274 0 0 0 0 -21300832.961486816 -7447119.9191665649 0 -7447119.9191665649 -6591356.7232084274 0 0 0 0 -19888208.927597046 -18115649.538259506 0 -18115649.538259506 11199693.874670029 0 0 0 0 -23466712.032836914 -6768824.0565004349 0 -6768824.0565004349 -6748530.5895080566 0 0 0 0 -8028133.5406671613 -6556211.7456006557 0 -6556211.7456006557 -3323887.6196085587 0 0 0 0 -26081777.483612061 -10756424.833441257 0 -10756424.833441257 -7288565.1546382904 0 0 0 0 -19866215.869761698 943221.59677257389 0 943221.59677257389 10248197.384823596 0 0 0 0 -47190747.992080688 -5406653.876745224 0 -5406653.876745224 -10825317.619319916 0 0 0 0 -49701805.155151367 -15555468.167064667 0 -15555468.167064667 -869116.77830886841 0 0 0 0 -15661234.300537109 -20254321.142681122 0 -20254321.142681122 -12493100.756187439 0 0 0 0 -34259946.097328186 -17393381.465495586 0 -17393381.465495586 17555358.818410873 0 0 0 0 -97342389.135391235 -65831954.520395279 0 -65831954.520395279 16300486.860290527 0 0 0 0 -3050633.684615165 -3869183.3737911806 0 -3869183.3737911806 -2220477.5124353729 0 0 0 0 -3802918.5158642009 -3144135.3364320844 0 -3144135.3364320844 -1535844.0416694023 0 0 0 0 -27309222.577629089 3955116.7978153229 0 3955116.7978153229 14279307.34141922 0 0 0 0 -10925462.573120117 -13726513.723712921 0 -13726513.723712921 15509149.465080261 0 0 0 0 -52165810.331726074 19049855.222484112 0 19049855.222484112 -3710585.9072227478 0 0 0 0 -108552737.52318573 -50888919.910825729 0 -50888919.910825729 -25417047.637359619 0 0 0 0 -1594788.719161246 -1079690.2907470651 0 -1079690.2907470651 843974.33140503429 0 0 0 0 54446728.497177124 34331114.296055317 0 34331114.296055317 24336009.267969131 0 0 0 0 -61872420.023040771 -43087679.795617104 0 -43087679.795617104 249373462.88883561 0 0 0 0 -72293306.11227417 -55211371.343955994 0 -55211371.343955994 248868910.9118281 0 0 0 0 -17346316.960479736 -12916370.18307209 0 -12916370.18307209 -41217420.079045296 0 0 0 0 -532321.62013967335 -1433221.0102055967 0 -1433221.0102055967 -958413.56834005378 0 0 0 0 1876207.7953338623 -51240325.934871197 0 -51240325.934871197 35077597.495304108 0 0 0 0 -64518740.775848389 -130448189.30453396 0 -130448189.30453396 73262276.844493866 0 0 0 0 7074550.3260650635 98658047.700752258 0 98658047.700752258 209645606.49478149 0 0 0 0 -23041114.136535645 -19906504.148795128 0 -19906504.148795128 17641309.158751488 0 0 0 0 -15389717.056121826 32717165.612444639 0 32717165.612444639 69492945.773275375 0 0 0 0 -83191359.170318604 -32911932.124300003 0 -32911932.124300003 188933639.79803848 0 0 0 0 -73158100.840637207 -69273176.764008522 0 -69273176.764008522 195866428.6410861 0 0 0 0 -96920118.337545395 -43061052.920579255 0 -43061052.920579255 181466788.89921379 0 0 0 0 -104508375.74588013 4211906.4651060104 0 4211906.4651060104 283201655.31812668 0 0 0 0 -156898799.75003052 -69604866.710181236 0 -69604866.710181236 200715088.82287598 0 0 0 0 -173887423.48077393 -111748649.35721922 0 -111748649.35721922 182646078.38635039 0 0 0 0 -141088940.23213196 -66383465.578588247 0 -66383465.578588247 111471560.07353783 0 0 0 0 -8949744.7763977051 -137151133.33774853 0 -137151133.33774853 164494267.58013105 0 0 0 0 -81012211.180030823 -57271371.158874094 0 -57271371.158874094 86327160.689594269 0 0 0 0 -24413040.815002441 -5534282.4874095917 0 -5534282.4874095917 25703970.879047394 0 0 0 0 -21101896.489440918 -48217820.62747097 0 -48217820.62747097 80209122.488311768 0 0 0 0 -19461254.66621542 -17064401.029348403 0 -17064401.029348403 13180273.517044067 0 0 0 0 -5200919.7037666999 -3774450.5414792895 0 -3774450.5414792895 -108089.48305919208 0 0 0 0 -50180111.54460144 -26610524.769249439 0 -26610524.769249439 18504580.71485281 0 0 0 0 161185844.06951904 -167963167.17734098 0 -167963167.17734098 67045396.19757843 0 0 0 0 -1421648.3821185771 -1433416.2455513403 0 -1433416.2455513403 -57418.153592107818 0 0 0 0 2971074.1641864777 -70187066.337234199 0 -70187066.337234199 17019214.129989624 0 0 0 0 55233880.050701141 -48295665.630594254 0 -48295665.630594254 -112002633.58930302 0 0 0 0 35743630.338523865 -129095952.52387494 0 -129095952.52387494 125000084.46169472 0 0 0 0 -586607.39311508834 834008.38568792341 0 834008.38568792341 96155.96838775964 0 0 0 0 -403718285.98574829 219888004.09872711 0 219888004.09872711 394870071.57774377 0 0 0 0 -31955673.044464111 -165003686.74912262 0 -165003686.74912262 -242800329.02382773 0 0 0 0 -200316058.2060051 31109294.368601233 0 31109294.368601233 -25738048.601095438 0 0 0 0 -445273372.67477417 -10229805.80004406 0 -10229805.80004406 119835087.2758255 0 0 0 0 -63316640.452713013 -201689534.99940109 0 -201689534.99940109 200964195.77799892 0 0 0 0 -141111853.55296326 -59448725.796589375 0 -59448725.796589375 152625361.45325375 0 0 0 0 -275236807.84616089 -230990986.73270464 0 -230990986.73270464 -52329987.703406334 0 0 0 0 -249707414.94094849 -73202006.373221397 0 -73202006.373221397 114637371.16396761 0 0 0 0 -122604778.38452148 64014575.117836952 0 64014575.117836952 -11240280.514785767 0 0 0 0 -86666155.688186646 -24079586.048034668 0 -24079586.048034668 51997297.511487961 0 0 0 0 -179487864.45922852 164131714.05797005 0 164131714.05797005 39184681.17921257 0 0 0 0 86855050.063568115 82305754.364279747 0 82305754.364279747 -21556206.950639725 0 0 0 0 -145980426.14659119 36570489.753083229 0 36570489.753083229 10202029.54983139 0 0 0 0 -310389220.77185059 71090477.206206322 0 71090477.206206322 63887487.589763641 0 0 0 0 -196685518.4239502 96373912.824016094 0 96373912.824016094 65140178.480464935 0 0 0 0 -343200148.22097778 143265703.37137747 0 143265703.37137747 8123521.4654846191 0 0 0 0 -217617945.14486694 -39660850.510826111 0 -39660850.510826111 -283423665.6747725 0 0 0 0 266178898.20643234 -266675400.44965699 0 -266675400.44965699 20510882.288613021 0 0 0 0 -232359276.89108276 -9679158.900914669 0 -9679158.900914669 -91142989.74819541 0 0 0 0 -3811646.9217316359 -1731332.7819947861 0 -1731332.7819947861 725126.1110663719 0 0 0 0 229757726.51135254 -121585305.21115541 0 -121585305.21115541 -28356165.579884529 0 0 0 0 392487904.63145447 32847559.863600492 0 32847559.863600492 -15176224.738864899 0 0 0 0 -67884950.665161133 290121629.8067379 0 290121629.8067379 351813888.09279823 0 0 0 0 -43525430.212280273 322361.43988037109 0 322361.43988037109 203207839.58898592 0 0 0 0 25263812.574493408 -19666709.705512524 0 -19666709.705512524 128881940.09160626 0 0 0 0 133979894.20684814 59322925.792124748 0 59322925.792124748 180177973.99366951 0 0 0 0 151155465.04986572 287621272.77948952 0 287621272.77948952 239424937.45198345 0 0 0 0 36416092.612091064 30496023.28874281 0 30496023.28874281 -14901935.110168666 0 0 0 0 220406863.75881958 -7344828.5272190571 0 -7344828.5272190571 -53936851.405180931 0 0 0 0 -90486926.463409424 -71340424.214530289 0 -71340424.214530289 -26194199.347187549 0 0 0 0 18387522.794662476 14721410.01909408 0 14721410.01909408 38981095.599642277 0 0 0 0 -81868169.548858643 -182170072.69201541 0 -182170072.69201541 195648641.88293147 0 0 0 0 30184730.359863281 -6086203.6113500595 0 -6086203.6113500595 11782174.593447685 0 0 0 0 -277682221.96040344 -129880522.50065422 0 -129880522.50065422 203139643.06133509 0 0 0 0 -5113394.8922123089 -2033576.5104054585 0 -2033576.5104054585 1317599.6174324071 0 0 0 0 -246139.04883569479 57634.159864330664 0 57634.159864330664 78426.192948453128 0 0 0 0 30312458.275100708 -7325839.808308363 0 -7325839.808308363 116114.2601852417 0 0 0 0 56829943.657012939 -357400429.22732162 0 -357400429.22732162 216206077.89412832 0 0 0 0 -74730710.011993408 -66430006.75591898 0 -66430006.75591898 280037079.97157884 0 0 0 0 -1739204.0433074757 381109.22692278773 0 381109.22692278773 1450340.9441355595 0 0 0 0 26787533.653793335 1823992.4401836395 0 1823992.4401836395 16524250.387543201 0 0 0 0 -33036649.701446533 -142694167.58344984 0 -142694167.58344984 -164270623.12996757 0 0 0 0 -142588343.55456543 114075533.41298163 0 114075533.41298163 41900483.773755074 0 0 0 0 159418230.82162476 -43036899.937990189 0 -43036899.937990189 -257284375.6393609 0 0 0 0 -215943258.93623352 -138763104.23146486 0 -138763104.23146486 76727353.477294922 0 0 0 0 -4272925.4971745908 -645958.61900403723 0 -645958.61900403723 1142543.7770355605 0 0 0 0 -281866067.85394287 81743328.112255573 0 81743328.112255573 6729902.7713605762 0 0 0 0 -14480768.122894287 13903144.283734798 0 13903144.283734798 -97622785.995391846 0 0 0 0 -14420418.900360107 8848137.945268631 0 8848137.945268631 -23686895.102802277 0 0 0 0 -5013634.4855709076 -27275449.510056674 0 -27275449.510056674 -86433566.721654892 0 0 0 0 -9278187.3870544434 -48412778.87301302 0 -48412778.87301302 -15398415.126728058 0 0 0 0 -77182734.102809906 -34489092.349040031 0 -34489092.349040031 -14659099.035690308 0 0 0 0 -127366898.28474236 -33274113.434705973 0 -33274113.434705973 60027362.345375061 0 0 0 0 -27500101.708480835 -108264165.12627172 0 -108264165.12627172 39504301.77207613 0 0 0 0 81659625.228546143 -75594481.816779613 0 -75594481.816779613 131685432.67813206 0 0 0 0 -65549031.928504944 -66967986.573013544 0 -66967986.573013544 131192044.53999996 0 0 0 0 10974558.783218384 -143172899.57918215 0 -143172899.57918215 117000164.48717165 0 0 0 0 -1014376.6757168472 1128060.9511899869 0 1128060.9511899869 173634.8360872163 0 0 0 0 -149649092.04650879 -231929096.30272168 0 -231929096.30272168 263775343.77367374 0 0 0 0 -12631820.483703613 -116654406.62373424 0 -116654406.62373424 141276704.58701086 0 0 0 0 -444304.46689319611 664268.22493130539 0 664268.22493130539 88698.769972050301 0 0 0 0 108702300.91680908 -215932178.40248203 0 -215932178.40248203 -307804344.41332728 0 0 0 0 -74811593.549133301 -175512385.86518955 0 -175512385.86518955 108027594.00219488 0 0 0 0 -173213799.13575745 -87650134.676805854 0 -87650134.676805854 445941231.53468299 0 0 0 0 -271857575.52433014 -60326622.379227638 0 -60326622.379227638 174334239.26413059 0 0 0 0 69845739.192092896 59029587.726294279 0 59029587.726294279 37757352.018108368 0 0 0 0 -58222745.774658203 -103638207.7678771 0 -103638207.7678771 173716653.23374122 0 0 0 0 -16813371.350738525 -157085741.5271976 0 -157085741.5271976 6092254.8916282654 0 0 0 0 5481904.2883300781 -168951166.39408731 0 -168951166.39408731 -70380402.227469444 0 0 0 0 -18728235.432067871 -6822538.6790380478 0 -6822538.6790380478 -1346861.2695674896 0 0 0 0 -27633531.969406128 -29981208.894494176 0 -29981208.894494176 -19042117.079247952 0 0 0 0 -8344770.166662504 -10936410.04280958 0 -10936410.04280958 -5207193.9551670374 0 0 0 0 -29500756.253051758 -10065977.965837479 0 -10065977.965837479 -1445380.0774040222 0 0 0 0 -22352916.873657227 -9877084.3530673981 0 -9877084.3530673981 -2407696.4081878662 0 0 0 0 -17862835.961479187 -4009533.7232489586 0 -4009533.7232489586 2329118.5162029266 0 0 0 0 -17384853.882297214 -8506627.9120795019 0 -8506627.9120795019 -900685.64289229736 0 0 0 0 -16576915.162322998 -3064566.9352588654 0 -3064566.9352588654 2903348.6507749557 0 0 0 0 -11492451.595802002 -3317492.8409223445 0 -3317492.8409223445 3310298.6469511716 0 0 0 0 -19239293.104034424 -2294808.6284837723 0 -2294808.6284837723 50115.498139381409 0 0 0 0 -15391973.848459732 -3931792.0453731865 0 -3931792.0453731865 -610179.27786668483 0 0 0 0 -26686470.986801147 -838330.53454732895 0 -838330.53454732895 1131222.9732627869 0 0 0 0 -8939767.0490646362 -8568736.4538621902 0 -8568736.4538621902 -8066928.3647842407 0 0 0 0 -39335724.389083862 -1168439.8607339859 0 -1168439.8607339859 1469807.3976287842 0 0 0 0 -572688.91261944547 -171908.25143121555 0 -171908.25143121555 364323.15502232779 0 0 0 0 -20957399.039016951 -8454094.9058071226 0 -8454094.9058071226 -2084800.6024035215 0 0 0 0 -26732715.769989014 -7171862.1864681244 0 -7171862.1864681244 1150908.1464385986 0 0 0 0 -11424205.001338754 -13707903.672255494 0 -13707903.672255494 -5821466.4402339458 0 0 0 0 -22537832.77400589 -7328684.7804201841 0 -7328684.7804201841 -1424438.3664932251 0 0 0 0 -78192139.077926636 -31483000.779131174 0 -31483000.779131174 -3658096.6671221256 0 0 0 0 -13328297.878949963 -6549784.2257610038 0 -6549784.2257610038 -739063.76561883022 0 0 0 0 -24893307.835021973 -4313023.953212738 0 -4313023.953212738 -4394009.4210367203 0 0 0 0 -30459593.921142578 -4381349.8817100525 0 -4381349.8817100525 571490.14421081543 0 0 0 0 -26245253.19294297 -8900910.2566106617 0 -8900910.2566106617 -4024724.0165364118 0 0 0 0 -12344493.677882915 -16122697.588086724 0 -16122697.588086724 -5235423.0937504712 0 0 0 0 -24906034.824432373 -8331901.0736551285 0 -8331901.0736551285 -1838135.9031953812 0 0 0 0 -24876831.202529907 -8818868.6889276505 0 -8818868.6889276505 -96557.21693277359 0 0 0 0 -38778396.456310272 -17177695.422807217 0 -17177695.422807217 -3699294.498046875 0 0 0 0 -14703150.959408049 -11180742.231144749 0 -11180742.231144749 -1092419.256070219 0 0 0 0 -18633204.159126282 -15381772.743590355 0 -15381772.743590355 -50576.452102661133 0 0 0 0 -27765635.384567261 -7207153.4350090027 0 -7207153.4350090027 -2563500.2144527435 0 0 0 0 -25344767.936343078 -13166230.994772691 0 -13166230.994772691 -640730.181717325 0 0 0 0 -20640075.851531982 -12616168.451778412 0 -12616168.451778412 -12549840.45526123 0 0 0 0 -11699719.351511084 -8283739.7959378883 0 -8283739.7959378883 -1274484.9719513915 0 0 0 0 -32129489.510025024 -9099547.4098939896 0 -9099547.4098939896 1705879.820980072 0 0 0 0 -30869397.286065102 -15496414.602276802 0 -15496414.602276802 -6068979.1559429169 0 0 0 0 -31997052.517295837 -10648146.304712296 0 -10648146.304712296 3302996.4550395012 0 0 0 0 -19253553.432859555 -6068918.0751179308 0 -6068918.0751179308 2774663.7423932031 0 0 0 0 -44092183.400665283 -11539654.359164238 0 -11539654.359164238 5829904.3182506561 0 0 0 0 -31842439.619785309 -10907552.407224178 0 -10907552.407224178 -4922411.2424049377 0 0 0 0 -19788727.684914578 -3979961.6215381958 0 -3979961.6215381958 2272755.5549906325 0 0 0 0 -15747587.544500381 -1757941.5056473911 0 -1757941.5056473911 3869724.7003959538 0 0 0 0 -35323561.603874207 -15813130.341964722 0 -15813130.341964722 -3870393.3367192745 0 0 0 0 -17611533.830253907 -2289592.6750923097 0 -2289592.6750923097 3531047.4664167338 0 0 0 0 -22393516.967948914 -6133603.7586679459 0 -6133603.7586679459 -1718355.857093811 0 0 0 0 -22425052.63864994 -6575946.3274172395 0 -6575946.3274172395 -2501197.6548233032 0 0 0 0 -15757153.19349248 4947297.0699340552 0 4947297.0699340552 6124505.437105516 0 0 0 0 40236270.569396973 26284411.012657642 0 26284411.012657642 8465412.6747356653 0 0 0 0 433987.52037097514 521054.84851556644 0 521054.84851556644 1428338.4985511363 0 0 0 0 26102458.090364456 -32554480.489373207 0 -32554480.489373207 96375366.067707062 0 0 0 0 89889205.609375 -64915622.592040539 0 -64915622.592040539 73815536.673368692 0 0 0 0 -39973209.188804626 -15942775.70113039 0 -15942775.70113039 -2802564.2669072151 0 0 0 0 -199725880.3686676 -5774895.5062987804 0 -5774895.5062987804 40461958.597616196 0 0 0 0 -180362980.49311066 20353326.998473644 0 20353326.998473644 43632137.075482368 0 0 0 0 -79801281.48765564 16955355.676484108 0 16955355.676484108 7755328.1327852607 0 0 0 0 -164161037.93927002 6441621.8995404243 0 6441621.8995404243 23243936.75039196 0 0 0 0 -77651453.697174072 -6052002.0343298912 0 -6052002.0343298912 7638861.7020392418 0 0 0 0 -13946455.134346008 -217819802.44082451 0 -217819802.44082451 -120548009.18293953 0 0 0 0 -68090.606931880116 203788.19493814185 0 203788.19493814185 538348.36475115176 0 0 0 0 -360402128.66177368 -96768214.523775101 0 -96768214.523775101 29093246.497511148 0 0 0 0 -224004555.87253189 29122474.818012178 0 29122474.818012178 29322283.367368698 0 0 0 0 -199418087.33935547 -52909521.658973217 0 -52909521.658973217 -9910663.232129097 0 0 0 0 -91987398.610595703 -3849184.7046365738 0 -3849184.7046365738 137947680.66556627 0 0 0 0 -94198423.004638672 -235385138.72598147 0 -235385138.72598147 -312321985.59368706 0 0 0 0 -2934427.697864458 -2438751.6022716444 0 -2438751.6022716444 -324374.14405542007 0 0 0 0 -304751844.9876442 61010138.206733227 0 61010138.206733227 51729625.673872948 0 0 0 0 -290432564.47080994 417197003.02736664 0 417197003.02736664 135991535.50984955 0 0 0 0 -546335929.66549301 -193022824.90256512 0 -193022824.90256512 90876101.584469795 0 0 0 0 307658029.86192322 -76231782.436948299 0 -76231782.436948299 -421257484.607265 0 0 0 0 -385189672.07293701 299737527.5771004 0 299737527.5771004 158554263.03554344 0 0 0 0 133315557.00343323 328916336.96227598 0 328916336.96227598 60538991.037475109 0 0 0 0 -28008308.417922974 -57979123.165036201 0 -57979123.165036201 89030525.770638853 0 0 0 0 51562893.737030029 30478250.033519745 0 30478250.033519745 -138060500.3361969 0 0 0 0 -209686140.4906311 -62391090.210690498 0 -62391090.210690498 250630937.83738327 0 0 0 0 -31164653.367233276 -4498640.2713673115 0 -4498640.2713673115 -2910212.0876939185 0 0 0 0 -19153290.794590581 4315281.0719857551 0 4315281.0719857551 4890896.1865457967 0 0 0 0 375804590.0141449 76286445.304502964 0 76286445.304502964 -193302078.07675838 0 0 0 0 -50538300.700790405 -23604478.170179963 0 -23604478.170179963 -194040.64257001877 0 0 0 0 -41474203.850496292 -11947576.031541377 0 -11947576.031541377 593525.18230819702 0 0 0 0 -39931245.995101929 -374806.90073826909 0 -374806.90073826909 1734451.6902951058 0 0 0 0 -20188468.046389047 -4099297.238818042 0 -4099297.238818042 3747786.1982324915 0 0 0 0 -26623472.232668102 802687.48873481899 0 802687.48873481899 2774605.9509244217 0 0 0 0 -23015043.254014969 -11468811.995569468 0 -11468811.995569468 4791500.4960594177 0 0 0 0 -22191568.729660034 -6499741.6784682274 0 -6499741.6784682274 2723227.7791414261 0 0 0 0 -28152322.15508873 -5053683.7885561399 0 -5053683.7885561399 7710983.4167753011 0 0 0 0 -55320446.408164978 -47560093.816652298 0 -47560093.816652298 50385051.945853233 0 0 0 0 -33251653.561839148 12875622.774457319 0 12875622.774457319 13067709.706849275 0 0 0 0 -60024648.95919311 72901342.810204208 0 72901342.810204208 -3593759.8355178833 0 0 0 0 -16144883.750835419 -20500882.77658844 0 -20500882.77658844 -10727829.943222046 0 0 0 0 -15986582.224693298 -22833293.956253052 0 -22833293.956253052 8538179.4049682617 0 0 0 0 -34598386.88874054 -8606116.5834217072 0 -8606116.5834217072 -1437238.2177734375 0 0 0 0 10576940.263290405 -42985502.266218185 0 -42985502.266218185 24890995.373817444 0 0 0 0 -47494936.10841652 -12835545.785157239 0 -12835545.785157239 3095086.5563368355 0 0 0 0 -34266416.932472229 -52869137.230237007 0 -52869137.230237007 69196861.08542347 0 0 0 0 -57969997.977050781 -54516370.88428688 0 -54516370.88428688 53228779.713298798 0 0 0 0 -31750629.233482983 -10224184.248353757 0 -10224184.248353757 8652220.3389957007 0 0 0 0 -18228354.734695435 -53397361.653408051 0 -53397361.653408051 60238960.800876617 0 0 0 0 -5381663.4609460607 182099.6478107702 0 182099.6478107702 1107737.0746258162 0 0 0 0 -43768859.614944458 653951.51380729675 0 653951.51380729675 -19459239.701141357 0 0 0 0 -94490909.675514221 -66459887.067697525 0 -66459887.067697525 25651661.652311802 0 0 0 0 -72942420.5414505 -4367219.0144279003 0 -4367219.0144279003 48704858.1557827 0 0 0 0 -25855733.392189026 -22461292.687564373 0 -22461292.687564373 -39363730.535420418 0 0 0 0 -27467316.922694206 -16064694.352135777 0 -16064694.352135777 -10102222.284076691 0 0 0 0 -26679477.050827026 -32344278.766365051 0 -32344278.766365051 -25277526.336920738 0 0 0 0 -16027993.106445312 -42269041.477638245 0 -42269041.477638245 26838861.524377823 0 0 0 0 -29336604.48607751 -10001460.032751296 0 -10001460.032751296 11545178.899225276 0 0 0 0 -46714268.798377991 -26373967.583489418 0 -26373967.583489418 -25444243.971279144 0 0 0 0 -42407443.757276535 -10973347.77630055 0 -10973347.77630055 -28447839.462047577 0 0 0 0 -38840505.404327393 -37729323.709371328 0 -37729323.709371328 -28606022.289250672 0 0 0 0 4386340.0308113098 -3303887.9822692871 0 -3303887.9822692871 20879660.746368408 0 0 0 0 353946.3916888237 -32656824.009422541 0 -32656824.009422541 -23309295.965873718 0 0 0 0 -48589255.576465607 -45740874.144346237 0 -45740874.144346237 30152525.563972473 0 0 0 0 -31405692.651794434 -10902217.678817749 0 -10902217.678817749 67558455.374450684 0 0 0 0 -29049851.000301361 -15182154.331508636 0 -15182154.331508636 22457932.751299381 0 0 0 0 -141256035.73516846 -56271801.358802795 0 -56271801.358802795 -11672224.457763672 0 0 0 0 -32466584.743008956 -8631734.6393738519 0 -8631734.6393738519 11829250.342967443 0 0 0 0 -175618869.6477356 -8102891.7839698792 0 -8102891.7839698792 36808769.443256378 0 0 0 0 -3751775.3015753208 -256979.54040305689 0 -256979.54040305689 644181.41020699963 0 0 0 0 -84720417.437768936 -55558964.404495239 0 -55558964.404495239 -50054362.215137482 0 0 0 0 -7038014.8937740233 8384325.1227065288 0 8384325.1227065288 6802537.0004031127 0 0 0 0 37370002.090278625 38147655.20009613 0 38147655.20009613 1120560.2823638916 0 0 0 0 -42678509.257166691 2260654.396407132 0 2260654.396407132 12118438.979235658 0 0 0 0 -15496747.270797729 -6309673.1648540497 0 -6309673.1648540497 -6533742.9035453796 0 0 0 0 -31043005.002738953 -19102155.706732273 0 -19102155.706732273 117910.16753005981 0 0 0 0 -189928036.86284828 46958733.56659317 0 46958733.56659317 21400928.189979553 0 0 0 0 -4096868.1184616089 -15033837.165197372 0 -15033837.165197372 -8762531.651348114 0 0 0 0 -1762700.1489271233 15173.562444522977 0 15173.562444522977 71633.95867208764 0 0 0 0 -32641147.745628357 18943832.472581863 0 18943832.472581863 -23060982.266616821 0 0 0 0 -92434581.68939209 13160788.739428997 0 13160788.739428997 26168741.615024567 0 0 0 0 -73772935.059577942 -27467068.237100601 0 -27467068.237100601 67897227.318828583 0 0 0 0 3412466.3775367737 -32073700.650828362 0 -32073700.650828362 4415708.2525634766 0 0 0 0 -131009948.17058659 -107632363.4668808 0 -107632363.4668808 40589657.95857811 0 0 0 0 -8421226.9355595373 -2544131.5155732585 0 -2544131.5155732585 2822632.1966111585 0 0 0 0 -22112714.61592447 -520536.31742441468 0 -520536.31742441468 12420842.65773749 0 0 0 0 -187684705.51177597 17946296.250068665 0 17946296.250068665 -42335553.539169312 0 0 0 0 -120965854.80481815 -147425376.36975098 0 -147425376.36975098 91495587.906864166 0 0 0 0 -180717052.80104733 -48212261.534255743 0 -48212261.534255743 188600864.55687714 0 0 0 0 -25488404.792757034 -24691671.890119553 0 -24691671.890119553 -34347258.638526917 0 0 0 0 -98549329.333072662 -70549064.73487854 0 -70549064.73487854 81969605.654651642 0 0 0 0 -91171992.663081169 -17128406.656077385 0 -17128406.656077385 3172952.5958175659 0 0 0 0 -6643736.6170873158 -1105922.3769676778 0 -1105922.3769676778 962632.18450227007 0 0 0 0 -105789566.55752182 -35714885.890117645 0 -35714885.890117645 52870609.251998901 0 0 0 0 -43110292.501743317 -63321692.708774567 0 -63321692.708774567 -135086109.26459122 0 0 0 0 -79946875.806087494 -54991593.102363586 0 -54991593.102363586 30408296.712547302 0 0 0 0 -7303441.7105026245 30146991.270814896 0 30146991.270814896 33526878.36541748 0 0 0 0 3772717.0311050415 -66947760.841854095 0 -66947760.841854095 -1212330.8578796387 0 0 0 0 -21884804.073773444 -6502074.8199109212 0 -6502074.8199109212 -4784829.4044245072 0 0 0 0 -39479416.448730469 -64554049.288749695 0 -64554049.288749695 41059077.228478432 0 0 0 0 -70126485.78163147 -28728546.563140869 0 -28728546.563140869 -17032878.935779572 0 0 0 0 -73078362.509571075 -34111004.926383972 0 -34111004.926383972 18509569.110855103 0 0 0 0 -54741551.908298492 -35967020.010105133 0 -35967020.010105133 -11138214.107711792 0 0 0 0 -22642453.147224322 -22486636.968612477 0 -22486636.968612477 -7475711.806085608 0 0 0 0 -65949258.751049042 -51310561.390960693 0 -51310561.390960693 979023.22406768799 0 0 0 0 -13110097.771320343 -49723121.987876892 0 -49723121.987876892 -8372930.6280479431 0 0 0 0 -12068440.95973238 -7056181.701698916 0 -7056181.701698916 -530184.61169475317 0 0 0 0 -6777022.1786956787 -13534989.703567505 0 -13534989.703567505 -2162383.7253408432 0 0 0 0 -25136567.19395718 -20510805.243431237 0 -20510805.243431237 -5820222.5433762111 0 0 0 0 -35940316.948993683 -2192280.5732703209 0 -2192280.5732703209 5355440.018447876 0 0 0 0 -19915012.833602905 -11821313.313358307 0 -11821313.313358307 972243.30438232422 0 0 0 0 -29906917.922386169 -13223009.794525146 0 -13223009.794525146 4946146.3915672302 0 0 0 0 -26355504.243635822 -14388441.269354455 0 -14388441.269354455 394883.40364963934 0 0 0 0 -43077875.224808693 -19797242.003469467 0 -19797242.003469467 5405235.7949829102 0 0 0 0 -30314286.221730452 -19863909.168235332 0 -19863909.168235332 6363626.9903773302 0 0 0 0 -29254917.512954712 -16278702.958133698 0 -16278702.958133698 -274984.83502578735 0 0 0 0 -27468481.081939697 -1663404.8167304993 0 -1663404.8167304993 -15762790.855255127 0 0 0 0 -26269491.98521065 11209022.414804757 0 11209022.414804757 17515531.173672155 0 0 0 0 -1826558.658694841 -500813.30100410059 0 -500813.30100410059 118208.48965621181 0 0 0 0 -25797473.100426663 -9043580.1886920575 0 -9043580.1886920575 5977401.2071775878 0 0 0 0 -30808679.905593872 -6970432.5206298828 0 -6970432.5206298828 14065996.724742889 0 0 0 0 -28509660.747718811 -25752585.887550354 0 -25752585.887550354 24608173.149209976 0 0 0 0 -32665260.197875977 -6127845.9383544922 0 -6127845.9383544922 -20503328.66268158 0 0 0 0 -37910704.785690308 -24144163.179494858 0 -24144163.179494858 13346758.944328308 0 0 0 0 -14904865.463008881 -22453268.670194626 0 -22453268.670194626 11177817.037307739 0 0 0 0 -35173434.055709839 -26797998.328071594 0 -26797998.328071594 8278814.6863708496 0 0 0 0 -1854592.5059089884 -320752.83965108916 0 -320752.83965108916 44629.873765859753 0 0 0 0 -25790237.740075596 -6506148.8896321114 0 -6506148.8896321114 11923528.31277395 0 0 0 0 -17218042.298173286 -9126304.3744515777 0 -9126304.3744515777 -3080367.6008978002 0 0 0 0 -55790284.712461472 -32203643.307102203 0 -32203643.307102203 -28154471.272331238 0 0 0 0 -64844565.732187271 -70040801.315486908 0 -70040801.315486908 -40020381.610204697 0 0 0 0 -1778414595.5692863 -1367616582.1844344 0 -1367616582.1844344 -544880964.60577798 0 0 0 0 -4085490368.945509 -3470355644.4566488 0 -3470355644.4566488 -2425097815.4418874 0 0 0 0 -9787091.5486962795 -841060.97254990228 0 -841060.97254990228 -3890721.9647462671 0 0 0 0 -1790545854.7413089 -1293528104.2604558 0 -1293528104.2604558 -604544667.55587626 0 0 0 0 -3557393.6745804846 154831.18844010355 0 154831.18844010355 -4850947.8428541198 0 0 0 0 -6329265.7354125977 2018083.9312572479 0 2018083.9312572479 -4699317.8078269958 0 0 0 0 -11807619.879528314 3642730.1354476106 0 3642730.1354476106 -5500888.8963656202 0 0 0 0 -4466519.2609405518 5586552.4561686516 0 5586552.4561686516 -286529.84275436401 0 0 0 0 -1020575962.5316467 -25519361.057321638 0 -25519361.057321638 126425078.36601996 0 0 0 0 -693833846.78131485 -622306582.71659386 0 -622306582.71659386 -448059244.88911974 0 0 0 0 -2493479289.9116392 -1090046629.6783471 0 -1090046629.6783471 -451584729.27250022 0 0 0 0 -1634432210.1920547 -1357112458.0526783 0 -1357112458.0526783 -562447639.64385462 0 0 0 0 -1421117928.2731152 63203227.245770276 0 63203227.245770276 56726195.628797531 0 0 0 0 -1769825.3438365189 38405.270736305683 0 38405.270736305683 -1902176.5354667411 0 0 0 0 -1595146930.4964857 -823477367.45106041 0 -823477367.45106041 -212710926.90719265 0 0 0 0 -2095284528.3758621 -706691226.03838933 0 -706691226.03838933 -164314083.67591584 0 0 0 0 -2486445801.993927 -1159174724.4759095 0 -1159174724.4759095 90637928.674380258 0 0 0 0 -4096411034.1926632 -2117296807.8405311 0 -2117296807.8405311 -287784431.21019471 0 0 0 0 -4093977219.5494061 -784113931.96086073 0 -784113931.96086073 617360063.70949626 0 0 0 0 -2971032628.1921892 -1081315821.5643725 0 -1081315821.5643725 84132522.159398809 0 0 0 0 -4094700212.3318634 -70467758.992697135 0 -70467758.992697135 901179832.5597744 0 0 0 0 -3165459439.2524614 -595249389.46370673 0 -595249389.46370673 655747789.97588229 0 0 0 0 -3128633469.0291839 -385129619.36882293 0 -385129619.36882293 456189753.05431354 0 0 0 0 -1721532950.7100854 -211690364.86258984 0 -211690364.86258984 75351339.559360981 0 0 0 0 -1841136804.3984561 -39768688.508487821 0 -39768688.508487821 164139489.12682152 0 0 0 0 -2670656317.958746 -141619048.08047903 0 -141619048.08047903 293459621.22400546 0 0 0 0 -2401893432.5802379 -159381540.18359703 0 -159381540.18359703 293930301.30149961 0 0 0 0 -1709605240.476562 -314197693.4797734 0 -314197693.4797734 125884185.21684414 0 0 0 0 -2316575868.6458735 -384686849.83594906 0 -384686849.83594906 221065742.70856285 0 0 0 0 -2298938749.8775926 -431295865.38207805 0 -431295865.38207805 226832417.25810516 0 0 0 0 -2301688764.3889456 -536663181.85806465 0 -536663181.85806465 234421469.78743601 0 0 0 0 -2767268882.0872121 -578085758.62480605 0 -578085758.62480605 275124840.4465636 0 0 0 0 -1586765046.1603403 -579795436.75604177 0 -579795436.75604177 -9377774.8977931738 0 0 0 0 -2018741025.0222843 -489182691.38069868 0 -489182691.38069868 62780059.429205537 0 0 0 0 -619221649.6765995 -539976169.10896826 0 -539976169.10896826 -264690830.8744835 0 0 0 0 -303208307.00630951 -165036544.80548483 0 -165036544.80548483 -254361348.53510043 0 0 0 0 -352340221.40661907 -49957444.65649879 0 -49957444.65649879 -188572431.69750571 0 0 0 0 -608143352.63457966 -97188883.143479779 0 -97188883.143479779 -92155264.999348864 0 0 0 0 -86665399.002023697 43056081.359923154 0 43056081.359923154 -189896990.60611987 0 0 0 0 -295558062.03561068 -114855095.77262449 0 -114855095.77262449 -135797451.65694916 0 0 0 0 -558661258.24446225 -241694223.40274924 0 -241694223.40274924 -149343124.55770993 0 0 0 0 -935223110.71798897 -71820304.265951395 0 -71820304.265951395 -85202007.199055433 0 0 0 0 -1550884016.9482691 -347854121.3854475 0 -347854121.3854475 13878892.166828156 0 0 0 0 -1022974991.8851652 -376767789.10728407 0 -376767789.10728407 -55046483.632799864 0 0 0 0 -1718514045.9796753 -230093116.77119425 0 -230093116.77119425 107486073.3386364 0 0 0 0 -1426296001.6622772 -305567016.3321594 0 -305567016.3321594 11659166.262487173 0 0 0 0 -1260645124.4552491 56411113.942420483 0 56411113.942420483 39946705.133500576 0 0 0 0 -608078715.81754684 -195651652.61551094 0 -195651652.61551094 -133357021.4169237 0 0 0 0 -518346049.72732973 -81237586.677667677 0 -81237586.677667677 -161248584.15648127 0 0 0 0 -281136994.25743747 -183680610.20074701 0 -183680610.20074701 -208305686.48292279 0 0 0 0 -553566259.79557931 193279082.42197275 0 193279082.42197275 -46921216.302937984 0 0 0 0 -1589692483.2722964 209615060.31896996 0 209615060.31896996 70917795.152245283 0 0 0 0 -181418313.62268138 -451646382.67758954 0 -451646382.67758954 -252421030.49084401 0 0 0 0 111481155.69686723 166360222.64519852 0 166360222.64519852 -451784973.80972761 0 0 0 0 172007821.36260012 -95009674.178288698 0 -95009674.178288698 -111966224.53467017 0 0 0 0 -193167444.68560672 179877933.97202599 0 179877933.97202599 -272811414.32111967 0 0 0 0 -174245157.7320838 -125027885.69781446 0 -125027885.69781446 -384440593.89139557 0 0 0 0 -7191670.387665987 -300094830.14577746 0 -300094830.14577746 -245598229.77982783 0 0 0 0 -256453160.80786943 -220808134.46319425 0 -220808134.46319425 -147433627.08013368 0 0 0 0 -177627330.92279053 -103176181.74588561 0 -103176181.74588561 -10571666.265624762 0 0 0 0 4439398.2841662765 -222516113.74986106 0 -222516113.74986106 -38516578.069418907 0 0 0 0 -110010521.48946643 73641711.235249072 0 73641711.235249072 -154057980.38976121 0 0 0 0 -224982033.28067541 282608689.65210354 0 282608689.65210354 -201960609.42498052 0 0 0 0 263644.83220291272 552658.52796909492 0 552658.52796909492 -1975301.7484236693 0 0 0 0 586560536.46901703 69187331.819559097 0 69187331.819559097 94248436.466146469 0 0 0 0 -73531576.884061813 -111563628.21502733 0 -111563628.21502733 241630602.9658289 0 0 0 0 289850134.06158471 -49310012.173411041 0 -49310012.173411041 -81593932.653668642 0 0 0 0 -1125398.8733311477 1214776.636418297 0 1214776.636418297 -4135920.1468256284 0 0 0 0 78558.763653425733 17968.548730883864 0 17968.548730883864 -141016.67309342758 0 0 0 0 183221759.79521751 182661529.11957896 0 182661529.11957896 243231160.57259846 0 0 0 0 508125661.15526485 -278757837.50020409 0 -278757837.50020409 136882007.11192107 0 0 0 0 -311041450.4947052 -5084839.2281726599 0 -5084839.2281726599 -51059033.587116957 0 0 0 0 90143742.936437607 9300495.952170372 0 9300495.952170372 -32827673.257546902 0 0 0 0 -108225734.69811058 -206370247.92335439 0 -206370247.92335439 142391346.03627872 0 0 0 0 -81918620.697688103 -8726681.2502424717 0 -8726681.2502424717 12261198.021517515 0 0 0 0 155396722.03707647 68493614.979246616 0 68493614.979246616 -109008784.75803196 0 0 0 0 -178359002.01122284 55642016.401839018 0 55642016.401839018 -76828492.768577009 0 0 0 0 -87002744.550028324 -59932174.095663898 0 -59932174.095663898 -127219672.87536454 0 0 0 0 -82158356.194516659 20084837.348484278 0 20084837.348484278 -83124097.118581355 0 0 0 0 -42566531.120625496 -34005372.425648093 0 -34005372.425648093 -108851551.3318212 0 0 0 0 78450289.827247143 74193723.103481531 0 74193723.103481531 -129546824.41476884 0 0 0 0 67953387.762587428 27027664.610927023 0 27027664.610927023 -484587.02581143379 0 0 0 0 199131341.26239556 -82271416.134489581 0 -82271416.134489581 -56245234.987801254 0 0 0 0 93360174.353135705 44115826.377483279 0 44115826.377483279 -39612621.416431442 0 0 0 0 43522603.026049376 73497594.579420924 0 73497594.579420924 -5168647.6253342628 0 0 0 0 34197627.685174584 65548883.562736452 0 65548883.562736452 56327155.5814569 0 0 0 0 -8243078.5129241943 23533498.790206909 0 23533498.790206909 -28529490.493565559 0 0 0 0 -49897946.573015213 -9497510.2966823578 0 -9497510.2966823578 3950006.9405326843 0 0 0 0 -16421700.027957328 2345491.6446590316 0 2345491.6446590316 -2195927.8604909405 0 0 0 0 -1887568.4140071869 136572877.84752083 0 136572877.84752083 131179663.03566957 0 0 0 0 50383366.030786991 58149561.143425703 0 58149561.143425703 72415827.269953489 0 0 0 0 15894409.110720873 128066965.06513667 0 128066965.06513667 -81214059.614541769 0 0 0 0 -135630358.87597799 70887072.483164907 0 70887072.483164907 73001272.867188692 0 0 0 0 -77560782.264296055 66078285.077320337 0 66078285.077320337 -250958773.5135321 0 0 0 0 -294907014.93802881 175188340.40343916 0 175188340.40343916 135895096.61421204 0 0 0 0 -133748163.43985939 -631499204.39996719 0 -631499204.39996719 -686698198.34715354 0 0 0 0 -6216552.6912202947 3749145.4521552222 0 3749145.4521552222 -4380177.0464022048 0 0 0 0 -188151985.33457804 -60963645.617902756 0 -60963645.617902756 339117725.94440174 0 0 0 0 7456385.1513519287 24046729.761374235 0 24046729.761374235 -29833885.444981098 0 0 0 0 -11593523.026843106 7931505.9047106504 0 7931505.9047106504 -9388022.7480093446 0 0 0 0 -14441147.518522263 6727394.5198378563 0 6727394.5198378563 8315233.0927028656 0 0 0 0 -10100364.003982544 9194959.6868944168 0 9194959.6868944168 1981122.0594658852 0 0 0 0 -22145113.519754555 -772681.80711355805 0 -772681.80711355805 -2333970.9699988812 0 0 0 0 16639706.986017227 60299577.392044306 0 60299577.392044306 18325936.404374838 0 0 0 0 89818963.575935364 -35681218.321967721 0 -35681218.321967721 -229167967.88094509 0 0 0 0 -1028304.0376313291 2651483.8112428952 0 2651483.8112428952 -7918660.7255789377 0 0 0 0 -4309439.914691925 7498322.4483180046 0 7498322.4483180046 -4128218.7863645554 0 0 0 0 -20012507.073033676 13752511.3315069 0 13752511.3315069 -7094436.9666610006 0 0 0 0 -22247498.823287964 48404390.102273941 0 48404390.102273941 173045541.02346802 0 0 0 0 -7543101.2401123047 105701386.48339081 0 105701386.48339081 113884818.78129959 0 0 0 0 -23853699.861866605 7385752.140273843 0 7385752.140273843 -3637704.5623795204 0 0 0 0 -64110405.547088623 114420535.16590118 0 114420535.16590118 265861597.47167778 0 0 0 0 9676237.8437576294 -1631399.3095779419 0 -1631399.3095779419 -20113897.207489014 0 0 0 0 -16915176.269821167 815477.99720191956 0 815477.99720191956 22976466.2524786 0 0 0 0 512008.92418721505 -290433.60016845632 0 -290433.60016845632 -4006063.0271153562 0 0 0 0 -10452430.070503235 3983888.1836223602 0 3983888.1836223602 -10794768.810325623 0 0 0 0 -13157705.96216248 15812.064124736935 0 15812.064124736935 -6481566.3612403609 0 0 0 0 -12289024.243278503 8279428.3185577393 0 8279428.3185577393 8734002.2788600922 0 0 0 0 -25211576.706948392 -8176604.7439166997 0 -8176604.7439166997 2503930.9476550883 0 0 0 0 -29054421.388131045 -4249388.7659233492 0 -4249388.7659233492 3175209.3483098825 0 0 0 0 -40332767.810872078 -4677353.6862201691 0 -4677353.6862201691 -19538032.410934448 0 0 0 0 -6779185.9321899414 2081750.8774757385 0 2081750.8774757385 40216517.344902039 0 0 0 0 -53922086.879212379 -3279457.1779384613 0 -3279457.1779384613 7905394.837474823 0 0 0 0 -29899255.927005127 9282184.0824783277 0 9282184.0824783277 -2020881.345151729 0 0 0 0 -4284434.4115372524 -3118537.8728114478 0 -3118537.8728114478 3538687.1545239128 0 0 0 0 -62158145.160522461 -109574606.91636658 0 -109574606.91636658 156803714.6269989 0 0 0 0 -46919971.277360916 -23967519.703344345 0 -23967519.703344345 -29365678.727596283 0 0 0 0 -28368911.613123707 -1823861.3862703126 0 -1823861.3862703126 -156316.33641088102 0 0 0 0 -14391079.343078613 4860151.0277376175 0 4860151.0277376175 29243665.691648483 0 0 0 0 -36436769.64891243 -23257282.143028259 0 -23257282.143028259 -38988218.618423462 0 0 0 0 -23995609.714579687 4132257.9830262149 0 4132257.9830262149 -3026968.1225792835 0 0 0 0 -78261767.347473145 9202895.0495300293 0 9202895.0495300293 -19772514.434165955 0 0 0 0 -30003503.051887512 -29076958.551462173 0 -29076958.551462173 -35003341.665325165 0 0 0 0 -111409695.07232666 130656813.73853683 0 130656813.73853683 195702667.96946049 0 0 0 0 -109381227.4289856 61870920.970790863 0 61870920.970790863 339721839.3826561 0 0 0 0 -5375062.2793540955 17425868.730917931 0 17425868.730917931 255247908.13124466 0 0 0 0 -84452690.181991577 41527948.318609238 0 41527948.318609238 259627114.5506115 0 0 0 0 -40774219.134185791 2626357.8204040527 0 2626357.8204040527 359970850.97193909 0 0 0 0 -85825523.958099365 71121784.743515015 0 71121784.743515015 291482722.15080261 0 0 0 0 -20993655.786865234 64161611.99124527 0 64161611.99124527 482430678.31858826 0 0 0 0 -76077048.953313828 -8740158.0126328468 0 -8740158.0126328468 391861979.78274536 0 0 0 0 -53925335.338317871 46359336.656879425 0 46359336.656879425 274406773.75864029 0 0 0 0 -111644048.06314087 -20302623.612785339 0 -20302623.612785339 507127190.02051544 0 0 0 0 -32712041.385061838 8142377.4368752772 0 8142377.4368752772 2358062.6971555231 0 0 0 0 -126851379.42214966 29713237.085330963 0 29713237.085330963 431632625.1691041 0 0 0 0 -87722191.349334717 -27372218.647323608 0 -27372218.647323608 376496660.70440674 0 0 0 0 -27634159.55657959 30113834.495326996 0 30113834.495326996 424990538.84662247 0 0 0 0 -58648298.077697754 -39459742.25220871 0 -39459742.25220871 423378982.36793518 0 0 0 0 -32622253.007057663 -2095192.0322100781 0 -2095192.0322100781 2142123.7731006229 0 0 0 0 -225951981.73355103 -10079683.049476624 0 -10079683.049476624 61059170.285543442 0 0 0 0 -95901076.934082031 -59841341.041351318 0 -59841341.041351318 657451133.21083069 0 0 0 0 -83267632.073425293 38645324.763362885 0 38645324.763362885 455305524.95071983 0 0 0 0 -33946195.828933716 -130110835.00535965 0 -130110835.00535965 516009788.32572365 0 0 0 0 -35978415.844996773 628935.8537667729 0 628935.8537667729 3384993.1465108171 0 0 0 0 -5569852.3898925781 38268169.173963547 0 38268169.173963547 53566367.199821472 0 0 0 0 -71015729.714164734 86519548.052717209 0 86519548.052717209 18024427.105033994 0 0 0 0 -181722834.73003006 18502133.903816223 0 18502133.903816223 47593451.867736816 0 0 0 0 -93888766.63444519 -72787686.234629631 0 -72787686.234629631 -29614701.351997375 0 0 0 0 -105295813.88635254 138371090.53866959 0 138371090.53866959 -19743319.653278351 0 0 0 0 64363375.061836243 11620382.103784561 0 11620382.103784561 14319996.697151184 0 0 0 0 -3774913.7869873047 39155487.369743347 0 39155487.369743347 -12479838.075191498 0 0 0 0 -58035880.892726898 -17756747.356901169 0 -17756747.356901169 -13147548.424835205 0 0 0 0 -8720960.4217224121 -7791286.9906730652 0 -7791286.9906730652 48475859.410856247 0 0 0 0 -17431530.918993782 -13939722.62227297 0 -13939722.62227297 6925192.2018652372 0 0 0 0 51190606.442962646 -15467450.021060944 0 -15467450.021060944 14970009.524822235 0 0 0 0 392905.03174390644 1221528.8690673839 0 1221528.8690673839 -631318.72261238284 0 0 0 0 -56348152.063886762 -5434262.6771185994 0 -5434262.6771185994 33400588.661123276 0 0 0 0 -75496337.568321228 -59000116.95116806 0 -59000116.95116806 17604661.70066452 0 0 0 0 -60938474.553412676 -41967384.354344487 0 -41967384.354344487 -64308185.143465042 0 0 0 0 -59196004.400138855 -72135613.265236378 0 -72135613.265236378 -38162029.959039688 0 0 0 0 -3786136.0735985623 -800159.37181963446 0 -800159.37181963446 258807.88746246835 0 0 0 0 -32828262.475853443 -36624409.902235031 0 -36624409.902235031 -48748852.782333374 0 0 0 0 -52354244.325147152 -72699386.587203979 0 -72699386.587203979 -70438870.535456657 0 0 0 0 -44774928.864634514 -21877481.165842533 0 -21877481.165842533 -24161992.689706802 0 0 0 0 -6328494.3622887945 985569.02673492767 0 985569.02673492767 -1551964.0940847995 0 0 0 0 -3017745.767931819 -582495.0813908577 0 -582495.0813908577 -3189766.4088821411 0 0 0 0 -31824927.827260971 -32325047.371126652 0 -32325047.371126652 -30848582.702285767 0 0 0 0 -63988629.932246208 -22450973.966323853 0 -22450973.966323853 -21689590.919372559 0 0 0 0 -45226812.533727646 -26633498.324194908 0 -26633498.324194908 -43490312.456878662 0 0 0 0 -44660525.263160706 -23069907.949092865 0 -23069907.949092865 -21780954.249065399 0 0 0 0 -28217446.990591049 16279852.93437767 0 16279852.93437767 20703646.364710808 0 0 0 0 -12404751.124846615 2205657.7968364358 0 2205657.7968364358 -2076893.4361853718 0 0 0 0 -40708458.998620987 -31103867.000389099 0 -31103867.000389099 -21230187.383293152 0 0 0 0 3784685.4638805389 -11802434.409719467 0 -11802434.409719467 -18858299.350889444 0 0 0 0 278130.36578476941 2147099.057182983 0 2147099.057182983 -1932721.7299987823 0 0 0 0 -4436503.969860971 949100.79680323601 0 949100.79680323601 -1621221.0009565353 0 0 0 0 58452377.712693542 49109467.872336745 0 49109467.872336745 23301000.170445442 0 0 0 0 102410231.31611705 21725064.607858956 0 21725064.607858956 -11983949.115594774 0 0 0 0 -1615350.835006411 2694505.3957278207 0 2694505.3957278207 -5475137.0978682032 0 0 0 0 -1281475.5137217045 614715.68305921555 0 614715.68305921555 -1951902.0365701914 0 0 0 0 -3457972.3305868506 196846.56924772263 0 196846.56924772263 -1893147.2049469948 0 0 0 0 -1055010.9447216392 -2545357.6311876774 0 -2545357.6311876774 605402.06808710098 0 0 0 0 -87324653.848987579 54358911.530206144 0 54358911.530206144 -129921055.99240899 0 0 0 0 -4354788.7709655762 -3189582.278642416 0 -3189582.278642416 3296254.5252876282 0 0 0 0 27494525.35326004 79546600.848776817 0 79546600.848776817 -204638528.65758002 0 0 0 0 -1987023.1602311432 -179073.30085635185 0 -179073.30085635185 171649.28584480286 0 0 0 0 -623485.87545863714 -1577990.6557910782 0 -1577990.6557910782 -1213383.7990630339 0 0 0 0 -2225427.3427910805 59500838.441943049 0 59500838.441943049 -200410518.94678429 0 0 0 0 55892763.724967837 116055621.10843378 0 116055621.10843378 -213994527.59237188 0 0 0 0 82435166.198395252 -27358146.907501519 0 -27358146.907501519 -85671858.368716955 0 0 0 0 14262872.373276472 -7199361.1474399827 0 -7199361.1474399827 -35990692.136683941 0 0 0 0 4139390.4885487556 74138600.575568557 0 74138600.575568557 -175735158.12519789 0 0 0 0 -495280.76746038697 -1195953.353693506 0 -1195953.353693506 516400.90854419325 0 0 0 0 -30668091.03410387 -11810381.872776926 0 -11810381.872776926 15421716.382230997 0 0 0 0 -36578713.349740982 -60963704.364617944 0 -60963704.364617944 -39157240.552490637 0 0 0 0 -149351419.081718 -167386440.16885775 0 -167386440.16885775 50983443.824979305 0 0 0 0 -155323594.75192344 -113933662.80905846 0 -113933662.80905846 -105382222.09964561 0 0 0 0 -130626804.86482716 11737281.838863134 0 11737281.838863134 -17963011.583067298 0 0 0 0 -28525021.316794872 -41737825.538310409 0 -41737825.538310409 5549361.1306586266 0 0 0 0 -127252045.88029313 -106452678.88284194 0 -106452678.88284194 -23857482.161928892 0 0 0 0 229137368.52760875 -493343605.77158219 0 -493343605.77158219 2204770.5408000946 0 0 0 0 60557980.8874228 -81167574.000739992 0 -81167574.000739992 150259965.03100526 0 0 0 0 121114901.82448944 -3517089.5084118908 0 -3517089.5084118908 -70999720.630014241 0 0 0 0 123983220.67267299 -149920770.29499245 0 -149920770.29499245 -18729604.203445196 0 0 0 0 922972.18737506866 -4836366.0876360536 0 -4836366.0876360536 -3383170.8299265504 0 0 0 0 6232413.4039421082 -26336348.409453601 0 -26336348.409453601 -32896553.104139566 0 0 0 0 7749304.7877225876 16124295.577100158 0 16124295.577100158 -27866055.247555643 0 0 0 0 -45195043.076000214 -29478657.879478037 0 -29478657.879478037 4493561.9775269032 0 0 0 0 -692697.90526497271 -2653092.6052840757 0 -2653092.6052840757 1181892.7233250136 0 0 0 0 -72521219.992071152 52279133.379915148 0 52279133.379915148 69098741.237089008 0 0 0 0 4655002.0533323288 5839002.6155014038 0 5839002.6155014038 8097348.1765524149 0 0 0 0 47612045.695711136 111878327.46966481 0 111878327.46966481 -347451730.77264595 0 0 0 0 -58728445.570158958 -72125586.818350315 0 -72125586.818350315 -51892719.983823776 0 0 0 0 41725903.389091492 115365141.69844437 0 115365141.69844437 -254198884.22256136 0 0 0 0 -1540177.6663552364 -1856493.819261085 0 -1856493.819261085 -1205898.4704341497 0 0 0 0 -4159212.990657419 -4068586.1064401269 0 -4068586.1064401269 -1883648.8181343079 0 0 0 0 -118973.30948972702 -534085.92273664474 0 -534085.92273664474 154673.02820825577 0 0 0 0 -2853847.9684851952 -2132276.8780692536 0 -2132276.8780692536 -1285316.9801415754 0 0 0 0 -4168083.1081926823 -4865766.8664957285 0 -4865766.8664957285 1937114.9900069237 0 0 0 0 -802062.95705360407 -2168973.2733972534 0 -2168973.2733972534 1212928.7261843588 0 0 0 0 -13737907.422569275 -131938072.02165127 0 -131938072.02165127 -160951720.3396101 0 0 0 0 -34950531.926062107 -104473791.99309826 0 -104473791.99309826 -119506083.8724823 0 0 0 0 -254107974.47710419 124313597.64959908 0 124313597.64959908 -72471021.965556145 0 0 0 0 29568094.287981987 -83092109.87009573 0 -83092109.87009573 -538697442.69010162 0 0 0 0 302492.33790906705 -1100125.8737572213 0 -1100125.8737572213 -563968.42474476388 0 0 0 0 -775571.44652923476 -481372.05959803739 0 -481372.05959803739 293203.84550186363 0 0 0 0 288866202.75619316 240710341.01682568 0 240710341.01682568 -581724366.18303871 0 0 0 0 -767704938.03005457 -375558341.35349202 0 -375558341.35349202 310732279.6157608 0 0 0 0 -1139100.1046183519 1151419.3097673166 0 1151419.3097673166 407481.55702074058 0 0 0 0 -447229286.46284962 -526886445.31503105 0 -526886445.31503105 245021258.74442673 0 0 0 0 64591553.897281647 -291502500.13790321 0 -291502500.13790321 -139159207.01012039 0 0 0 0 -222524701.58900166 -37442.029580533504 0 -37442.029580533504 237216569.89218998 0 0 0 0 48144927.377188683 316558830.29037571 0 316558830.29037571 -369097788.0741353 0 0 0 0 -135729433.28583908 -149760332.43586469 0 -149760332.43586469 218548486.59395832 0 0 0 0 -43501226.680707932 117659085.19733477 0 117659085.19733477 -161737427.76192093 0 0 0 0 -42826291.375883102 59830145.614006519 0 59830145.614006519 -775990558.41721869 0 0 0 0 -277242009.27696753 206079103.15465808 0 206079103.15465808 -80252146.031627655 0 0 0 0 -50627016.383108139 -71875171.888807774 0 -71875171.888807774 117605141.37024975 0 0 0 0 14737553.31477356 175560688.25791836 0 175560688.25791836 -123247701.71762562 0 0 0 0 44693297.002853394 -69337451.558367968 0 -69337451.558367968 163113848.73546958 0 0 0 0 -38660.779383429792 258477.78068772657 0 258477.78068772657 107090.60550855845 0 0 0 0 -29724761.780338287 -60121995.026006997 0 -60121995.026006997 -4014572.9109010696 0 0 0 0 -1594238.6606512582 -1703416.8472836129 0 -1703416.8472836129 859231.56232643872 0 0 0 0 -125827096.23731613 -48623237.844199181 0 -48623237.844199181 198472280.60679483 0 0 0 0 -50257535.079175949 45633974.789177597 0 45633974.789177597 177520937.50010443 0 0 0 0 142874154.32559204 -37871582.69434467 0 -37871582.69434467 -63387791.862081528 0 0 0 0 20676807.471565247 -148294213.41608632 0 -148294213.41608632 145679725.21637821 0 0 0 0 -41532525.654590607 80571902.399608254 0 80571902.399608254 -90218292.630615234 0 0 0 0 -616334.51168798096 -829084.00621318724 0 -829084.00621318724 388126.2354378266 0 0 0 0 -18135696.966897964 6147217.1889597178 0 6147217.1889597178 16367653.729182243 0 0 0 0 -15206889.365093231 2892970.4784752131 0 2892970.4784752131 11498003.61830616 0 0 0 0 -9233463.271572113 6431454.8960855007 0 6431454.8960855007 -3685542.3650256395 0 0 0 0 -1825750.5319410444 -20267.618729474489 0 -20267.618729474489 671623.26261766511 0 0 0 0 -3255949.1598958969 -912439.43854150176 0 -912439.43854150176 3850358.1807746887 0 0 0 0 -234341145.5564115 -48381274.630741388 0 -48381274.630741388 49228334.310344934 0 0 0 0 63253450.464084625 572166282.3306694 0 572166282.3306694 -91049648.535453796 0 0 0 0 -2423959.268927197 -832793.00450999476 0 -832793.00450999476 991540.48466264294 0 0 0 0 -369430732.26524353 -201488957.25600147 0 -201488957.25600147 107081931.18533325 0 0 0 0 -1466261175.8617325 1029039301.0934744 0 1029039301.0934744 67479041.481246948 0 0 0 0 -431439190.75727844 -386427420.6449523 0 -386427420.6449523 -403615351.38536453 0 0 0 0 -78994533.362045288 141731852.58075953 0 141731852.58075953 -1243446976.0034571 0 0 0 0 -123838448.80010605 80238735.658080816 0 80238735.658080816 -250726230.50343227 0 0 0 0 -2672768.5295562744 -88357834.662449121 0 -88357834.662449121 111635139.07988548 0 0 0 0 -39592988.411991119 -568768.46104764938 0 -568768.46104764938 19698117.395624876 0 0 0 0 -212742022.98904419 43334516.400227547 0 43334516.400227547 311767757.74252892 0 0 0 0 -253177345.78643799 -270892624.25387621 0 -270892624.25387621 106197337.33195591 0 0 0 0 -314682242.5021286 -262642059.68944073 0 -262642059.68944073 123118719.03465366 0 0 0 0 -366741283.26943398 -437124022.71268225 0 -437124022.71268225 196351080.00598717 0 0 0 0 -270823076.58799744 -235458202.16498804 0 -235458202.16498804 115669934.61381793 0 0 0 0 49914246.415176392 125111386.1536603 0 125111386.1536603 -132506475.19224548 0 0 0 0 -1624056.4059568727 1679046.8286570827 0 1679046.8286570827 -890829.23792247241 0 0 0 0 -231810894.74484253 -319957171.86155224 0 -319957171.86155224 -213134502.55890274 0 0 0 0 -268280596.79413223 -335214656.97372723 0 -335214656.97372723 461249861.51873589 0 0 0 0 -177005145.60295677 -62537471.16735065 0 -62537471.16735065 20907609.184347153 0 0 0 0 76411079.356697083 -30405270.472589016 0 -30405270.472589016 -82494250.167639256 0 0 0 0 -30112497.364696503 -444418252.45047855 0 -444418252.45047855 260970489.90155792 0 0 0 0 36106665.210044861 -10242135.640998602 0 -10242135.640998602 -84199921.93879126 0 0 0 0 -96071963.058946609 -3380633.8574117422 0 -3380633.8574117422 61697829.048488885 0 0 0 0 -17357324.859044343 4442238.2242397135 0 4442238.2242397135 -3323544.1687535224 0 0 0 0 27310059.514438629 145528666.72759724 0 145528666.72759724 -233834434.73452377 0 0 0 0 -11485972.941935873 -1614950.430074973 0 -1614950.430074973 6081585.5233276412 0 0 0 0 -78363406.189430237 47452129.104987144 0 47452129.104987144 -547426796.81956387 0 0 0 0 -115454063.04659271 28891099.611251831 0 28891099.611251831 104021566.25368118 0 0 0 0 43314032.488868713 -190998444.16309643 0 -190998444.16309643 -26032815.219490051 0 0 0 0 -347741058.48804855 233479831.93752384 0 233479831.93752384 -420283564.3672452 0 0 0 0 -59925823.529360771 58398225.286363602 0 58398225.286363602 -4154523.4227895737 0 0 0 0 144811944.05669403 112774377.91849136 0 112774377.91849136 49416057.703523636 0 0 0 0 43242562.809242249 135542458.36544609 0 135542458.36544609 533758843.96504211 0 0 0 0 1341485.4042991996 582877.53676377772 0 582877.53676377772 -757161.7964858301 0 0 0 0 -53622698.139117688 20871070.387768675 0 20871070.387768675 6116027.9109675121 0 0 0 0 -33758428.908931017 -151282706.38012886 0 -151282706.38012886 17383000.035835266 0 0 0 0 -182910148.07240295 117932809.69910622 0 117932809.69910622 32031294.850372314 0 0 0 0 -127524757.19503784 -82495081.925630569 0 -82495081.925630569 546999819.79071808 0 0 0 0 -177311212.68493271 631154407.03790259 0 631154407.03790259 -652956461.70967102 0 0 0 0 76347289.800598145 -160197019.90665817 0 -160197019.90665817 -463593917.70305634 0 0 0 0 826565891.65298462 -958375649.29999542 0 -958375649.29999542 378196148.46299171 0 0 0 0 1606874257.1493988 266146754.37256718 0 266146754.37256718 -1476473122.4582672 0 0 0 0 -106180179.23884583 -86678329.721702576 0 -86678329.721702576 -323387198.78049088 0 0 0 0 -39028067.217483521 -163862348.96338654 0 -163862348.96338654 -312179322.1199131 0 0 0 0 897105.13126243651 -2012942.0818813369 0 -2012942.0818813369 -3627391.8410296589 0 0 0 0 -1617330034.6739655 75749122.129283905 0 75749122.129283905 330027233.4963913 0 0 0 0 -88535495.520469531 744890680.04535222 0 744890680.04535222 176422205.88360596 0 0 0 0 -852529433.8163147 477523411.85092926 0 477523411.85092926 -151102175.56321335 0 0 0 0 -1225582899.8440399 -694244435.89703751 0 -694244435.89703751 -237563246.59755707 0 0 0 0 -84246415.321487427 -1945847957.2666225 0 -1945847957.2666225 1060773821.3308411 0 0 0 0 -61196202.647045463 -8179964.7232312262 0 -8179964.7232312262 17530559.789863586 0 0 0 0 -43752264.813057698 5105787.7275386397 0 5105787.7275386397 -516411.43492176384 0 0 0 0 -276175.90018725768 20506488.487116791 0 20506488.487116791 -11086340.381962076 0 0 0 0 12988844.013346776 8353081.6900581606 0 8353081.6900581606 -7489881.1177878762 0 0 0 0 -4046204068.6934814 2459857642.3207092 0 2459857642.3207092 -1599087298.4862518 0 0 0 0 -22793101.821006641 16916025.809574164 0 16916025.809574164 -3217623.1726888437 0 0 0 0 30571118.444168091 45265581.643238068 0 45265581.643238068 35374101.130290985 0 0 0 0 -266025790.93720484 -181274949.71369123 0 -181274949.71369123 46596164.488334656 0 0 0 0 233490044.34460831 175102089.08341312 0 175102089.08341312 -663699199.82371426 0 0 0 0 -101031189.08756447 40963260.56029129 0 40963260.56029129 206824868.32056332 0 0 0 0 -112160173.53803444 -149257809.63519287 0 -149257809.63519287 26055957.629138947 0 0 0 0 -9127463.3839111328 24708696.442180634 0 24708696.442180634 27729119.607158661 0 0 0 0 -28942240.058997296 12034994.127617132 0 12034994.127617132 -2572241.9102549031 0 0 0 0 -38071978.043380737 -8556593.7172355652 0 -8556593.7172355652 44824714.667858124 0 0 0 0 1001177.9018705375 481809.70601034909 0 481809.70601034909 -2174081.2128874231 0 0 0 0 -85631332.974212646 -102930919.95358658 0 -102930919.95358658 209708409.14362788 0 0 0 0 -41883470.090740979 -2020343.7019785121 0 -2020343.7019785121 10702762.758543387 0 0 0 0 724473151.94225311 394408990.82083702 0 394408990.82083702 -232945496.9427681 0 0 0 0 -34993034.672644913 12463565.853467626 0 12463565.853467626 -2934111.9675841648 0 0 0 0 70805007.596652985 12237775.008514643 0 12237775.008514643 40334159.129657745 0 0 0 0 378424339.12139893 11491720.443119049 0 11491720.443119049 -58850642.691631317 0 0 0 0 22473332.657342911 -37797970.887930393 0 -37797970.887930393 -57390400.065177917 0 0 0 0 37678143.772628784 1916363.5611724854 0 1916363.5611724854 -21039723.354133606 0 0 0 0 -45806740.376373291 40686890.101799011 0 40686890.101799011 41148448.359916687 0 0 0 0 411661483.60270691 99298656.268730164 0 99298656.268730164 3120372.2619400024 0 0 0 0 -23525358.958929993 10286260.573548598 0 10286260.573548598 -6978380.3599968329 0 0 0 0 16630916.579956055 -48478649.803070068 0 -48478649.803070068 -18116685.829902649 0 0 0 0 76611615.760452271 38794266.963516235 0 38794266.963516235 -10175749.997409821 0 0 0 0 35152.77368735522 106179.45749662071 0 106179.45749662071 -382336.77576195635 0 0 0 0 74476612.834533691 -29933086.243701935 0 -29933086.243701935 -39310729.696094513 0 0 0 0 -10526982.348388672 -80653160.756973267 0 -80653160.756973267 1203849355.5776749 0 0 0 0 420063298.44146729 108112530.36825562 0 108112530.36825562 -9758639.1322097778 0 0 0 0 293212663.34236145 112684396.49940681 0 112684396.49940681 350429741.54164886 0 0 0 0 -1787182.2761797309 5401713.2188946009 0 5401713.2188946009 954910.74183763005 0 0 0 0 143531190.75639343 -222769827.46520233 0 -222769827.46520233 342150956.08731842 0 0 0 0 281925835.56719971 -132787628.90389252 0 -132787628.90389252 341881534.07946777 0 0 0 0 431455057.59872437 96088749.456619263 0 96088749.456619263 474341377.64805603 0 0 0 0 190529990.92660522 191766849.15970612 0 191766849.15970612 973878767.28387451 0 0 0 0 147632167.89703369 -15102181.593345642 0 -15102181.593345642 594630812.23278809 0 0 0 0 24334468.319244385 -129921069.87771988 0 -129921069.87771988 835158755.5072937 0 0 0 0 64063696.816650391 53809342.124824524 0 53809342.124824524 676484337.99932861 0 0 0 0 120104310.62738037 -26349537.810913086 0 -26349537.810913086 407358497.81977844 0 0 0 0 151961579.60404968 65317406.163654327 0 65317406.163654327 564082651.96121216 0 0 0 0 -6973413.0156860352 9338931.5771636963 0 9338931.5771636963 489423428.95765686 0 0 0 0 35680073.648803711 55434863.658157349 0 55434863.658157349 527486285.84004188 0 0 0 0 24257547.4609375 -84801695.161560059 0 -84801695.161560059 606310693.19174194 0 0 0 0 64445547.145507812 4595642.5688171387 0 4595642.5688171387 528513507.37649059 0 0 0 0 -234066105.91351318 -128698399.23731995 0 -128698399.23731995 259883022.84136963 0 0 0 0 41673041.615570068 -187936450.48087692 0 -187936450.48087692 -4213049.7277345657 0 0 0 0 -58804970.366424561 -139428694.32365417 0 -139428694.32365417 365377147.34903336 0 0 0 0 -96972896.50567627 -236739533.26734543 0 -236739533.26734543 155460954.38412476 0 0 0 0 -251248006.24872589 -186280433.43909836 0 -186280433.43909836 76004910.265663147 0 0 0 0 -645882790.05107117 -175604878.56468201 0 -175604878.56468201 224688648.07190704 0 0 0 0 -780185934.78314209 172540713.09916878 0 172540713.09916878 87588792.268050909 0 0 0 0 -433866674.5453186 93988817.250543594 0 93988817.250543594 75726935.799637318 0 0 0 0 -4476458.7512724958 -5782164.2726200484 0 -5782164.2726200484 -826140.40645328537 0 0 0 0 -181284328.86923981 201670393.80394173 0 201670393.80394173 -249334312.07475281 0 0 0 0 -4019309.6761034951 -184060.32366646826 0 -184060.32366646826 1753522.0091667846 0 0 0 0 96212198.545272827 -137602615.25920248 0 -137602615.25920248 -615651517.82994843 0 0 0 0 -858577625.04586792 -379011232.92589378 0 -379011232.92589378 26239468.939424515 0 0 0 0 -231655467.91818237 -195479315.11312103 0 -195479315.11312103 66751140.524484634 0 0 0 0 -165919863.30822754 -219243698.03102112 0 -219243698.03102112 46533685.896568298 0 0 0 0 -143665931.85862732 -187976374.81705093 0 -187976374.81705093 -4626901.217918396 0 0 0 0 -114598118.05197144 -62049848.776662827 0 -62049848.776662827 23873074.228259563 0 0 0 0 -266324481.79058456 26454464.560655594 0 26454464.560655594 74573103.049476624 0 0 0 0 -295641081.27314758 -27516194.840662003 0 -27516194.840662003 17544813.390701294 0 0 0 0 -264525786.04161835 -178017966.15665197 0 -178017966.15665197 156681241.10264587 0 0 0 0 -296403617.3576355 -168225853.89479637 0 -168225853.89479637 154051891.873703 0 0 0 0 -147058465.31808472 -260609066.93012619 0 -260609066.93012619 167267232.16180801 0 0 0 0 -323936407.82868958 -261325247.86674833 0 -261325247.86674833 245760939.79033661 0 0 0 0 17896898.788391113 -287738596.88221741 0 -287738596.88221741 228350311.77520752 0 0 0 0 -147587036.88482666 -255463622.93552399 0 -255463622.93552399 238797687.89109421 0 0 0 0 -124126661.46975708 -267980059.76846313 0 -267980059.76846313 154223841.88414383 0 0 0 0 -20953316.011260986 -248749496.9124794 0 -248749496.9124794 149553995.98763275 0 0 0 0 -215273878.18878174 -252899762.47680473 0 -252899762.47680473 166405211.60472107 0 0 0 0 21724453.250183105 -77693722.163879395 0 -77693722.163879395 408767837.12058544 0 0 0 0 171625147.88577271 -68279739.639141083 0 -68279739.639141083 253476036.36490631 0 0 0 0 -11063688.067626953 -110008467.65115356 0 -110008467.65115356 252780607.61041272 0 0 0 0 48569075.24810791 -136580304.05080795 0 -136580304.05080795 370142220.42842102 0 0 0 0 108577724.90675354 -157859175.85894012 0 -157859175.85894012 226470985.93964386 0 0 0 0 -42442364.092834473 -233331165.45907211 0 -233331165.45907211 222154690.06260324 0 0 0 0 -44860823.06942749 -203000534.56454086 0 -203000534.56454086 86370001.692810059 0 0 0 0 -76154231.12097168 -208894237.55292892 0 -208894237.55292892 147565679.31932449 0 0 0 0 61892750.216278076 -157455303.54653549 0 -157455303.54653549 163809539.88209534 0 0 0 0 -51125919.019195557 -137468512.02060604 0 -137468512.02060604 102602761.23580933 0 0 0 0 10967708.62878418 -133029463.777668 0 -133029463.777668 184932220.57281494 0 0 0 0 -46444540.959564209 -99616324.605422974 0 -99616324.605422974 167969595.19954109 0 0 0 0 -107702354.22329712 -57358628.983068466 0 -57358628.983068466 206613448.38881683 0 0 0 0 6383868.6577320099 -22307908.220721245 0 -22307908.220721245 213430628.64431763 0 0 0 0 -151297981.33364105 -151511345.35968065 0 -151511345.35968065 101429421.15445709 0 0 0 0 -147542876.64047241 -121643074.43978119 0 -121643074.43978119 45446670.804779053 0 0 0 0 -132200643.30169678 -233964311.41770172 0 -233964311.41770172 24248317.559326172 0 0 0 0 -144827501.08462524 -213915911.57720566 0 -213915911.57720566 86543084.678253174 0 0 0 0 -195713132.98068237 -207172321.40093231 0 -207172321.40093231 -56979880.838722229 0 0 0 0 -217969178.46417236 -196993059.0235405 0 -196993059.0235405 9968954.590637207 0 0 0 0 -273574598.30200195 -175915644.84810448 0 -175915644.84810448 22088944.096372604 0 0 0 0 -224924578.44408417 -58798861.802615166 0 -58798861.802615166 -12412827.484359741 0 0 0 0 -169422994.36168861 -240518815.2655375 0 -240518815.2655375 36073072.025550842 0 0 0 0 -141660760.95373535 -280060159.30626869 0 -280060159.30626869 72229274.240306854 0 0 0 0 -116686081.14550781 -276454942.99947357 0 -276454942.99947357 20433211.022705078 0 0 0 0 -132936389.30406189 -239345134.84950066 0 -239345134.84950066 94152223.838882446 0 0 0 0 -149179491.54421997 -264090797.76304626 0 -264090797.76304626 -50094166.122261047 0 0 0 0 -155320502.08862305 -247934478.04504776 0 -247934478.04504776 9107708.4604692459 0 0 0 0 -140264064.49420166 -276072704.07839775 0 -276072704.07839775 -29282481.778354645 0 0 0 0 -102842605.23251343 -222590776.28907394 0 -222590776.28907394 -68813778.992923737 0 0 0 0 -107921672.29394531 -239157187.20132685 0 -239157187.20132685 -90228661.149562836 0 0 0 0 -121144098.02603149 -292440185.15020514 0 -292440185.15020514 -190625763.28736115 0 0 0 0 -77371453.374633789 -208552793.40858841 0 -208552793.40858841 -158600832.85085964 0 0 0 0 -45640284.441375732 -193070930.4603672 0 -193070930.4603672 -139103809.80717087 0 0 0 0 -277322468.8890686 -272719720.70926094 0 -272719720.70926094 -50506770.557652473 0 0 0 0 -266145905.44702148 -164809959.63676071 0 -164809959.63676071 -70907617.915119171 0 0 0 0 -391848488.43733978 -145497744.28879094 0 -145497744.28879094 -143666001.30676651 0 0 0 0 -378007323.51309204 -229073602.93526268 0 -229073602.93526268 -95421033.539579391 0 0 0 0 -1057662220.564682 -246231899.68524742 0 -246231899.68524742 -61753026.29460144 0 0 0 0 -279744124.16749954 -421189480.26854897 0 -421189480.26854897 -336557164.98337173 0 0 0 0 -121142966.80076599 -535482594.14713383 0 -535482594.14713383 -582464311.36672783 0 0 0 0 -1764297.1290199608 70380.585676848888 0 70380.585676848888 924962.57940953784 0 0 0 0 53730362.569580078 -56575386.212880135 0 -56575386.212880135 -198742533.1448555 0 0 0 0 -16899611.673248291 -166981795.30751801 0 -166981795.30751801 -162608214.66189098 0 0 0 0 -83287902.379364014 -201730290.02519417 0 -201730290.02519417 -123086575.36118317 0 0 0 0 -53466837.109466553 -55023893.162989616 0 -55023893.162989616 78883579.989519119 0 0 0 0 -22398142.73550415 -57438968.520524979 0 -57438968.520524979 -35960023.903659821 0 0 0 0 -3244791.3734893799 -127788493.6829052 0 -127788493.6829052 -17463522.892606735 0 0 0 0 8026878.1115875244 -41529822.735285759 0 -41529822.735285759 1945717.0735530853 0 0 0 0 7259312.2248840332 -99227356.097439766 0 -99227356.097439766 -85617272.42911911 0 0 0 0 -59458326.226547241 -168755430.15463257 0 -168755430.15463257 -84555631.912406921 0 0 0 0 -59562520.16607666 -170999311.77087021 0 -170999311.77087021 -89292585.734835148 0 0 0 0 -65307756.006231308 -99268375.666065872 0 -99268375.666065872 -22780727.412635803 0 0 0 0 -107501709.62356949 -199429923.3309958 0 -199429923.3309958 -47944496.287891388 0 0 0 0 -168648782.22323608 -118707401.80039811 0 -118707401.80039811 -26285361.92962265 0 0 0 0 -61526016.101547241 -55549357.45127964 0 -55549357.45127964 -31326181.44464016 0 0 0 0 -54423753.932525635 -92970033.850271225 0 -92970033.850271225 -40419274.4772892 0 0 0 0 -17261690.596710205 -18361586.665438652 0 -18361586.665438652 116012839.5669775 0 0 0 0 -15089159.173950195 -105426604.00266361 0 -105426604.00266361 64648042.614976883 0 0 0 0 -69906505.600189209 -65990196.674347401 0 -65990196.674347401 235125394.99044609 0 0 0 0 92471602.853416443 -114260574.754282 0 -114260574.754282 27525631.275035858 0 0 0 0 -14714723.453460693 -93510237.845205307 0 -93510237.845205307 25093443.074363708 0 0 0 0 9192581.9579696655 -33884010.147865295 0 -33884010.147865295 201043275.74032021 0 0 0 0 -203918143.21142578 109216454.67843819 0 109216454.67843819 299249071.00860894 0 0 0 0 86337.606628417969 -3691737.3841056824 0 -3691737.3841056824 9696612.5378036499 0 0 0 0 -3108675.1568416581 969367.21828869358 0 969367.21828869358 2833327.4521804899 0 0 0 0 -188233656.28323364 -135291447.26608086 0 -135291447.26608086 257059054.81935799 0 0 0 0 -2511555.5852661133 -34810200.238195419 0 -34810200.238195419 201050964.2440033 0 0 0 0 -11526314.81237793 -6805655.0828809738 0 -6805655.0828809738 15050136.951678276 0 0 0 0 -4568387.133292675 -462642.76403339021 0 -462642.76403339021 1162756.4028923872 0 0 0 0 -59467894.37979126 -53787195.358373642 0 -53787195.358373642 236043119.66978991 0 0 0 0 -1047249.7185847312 -65799.315948400646 0 -65799.315948400646 1025394.448032666 0 0 0 0 -293167128.62130737 -51165877.45149827 0 -51165877.45149827 20133435.412075043 0 0 0 0 175677357.59841919 -93213063.533730984 0 -93213063.533730984 -8127258.4791135788 0 0 0 0 184125899.39259338 131597831.15084481 0 131597831.15084481 132081195.12226486 0 0 0 0 324878002.94833374 -50759100.370729446 0 -50759100.370729446 -40625417.387859344 0 0 0 0 -202958037.66854858 139669096.96207619 0 139669096.96207619 45702390.445100307 0 0 0 0 -244594825.27709961 24381032.961884499 0 24381032.961884499 115195528.05215883 0 0 0 0 -382742366.62018013 204966304.05123699 0 204966304.05123699 28053725.422245026 0 0 0 0 -337596841.05307007 -20116525.19274807 0 -20116525.19274807 175523546.05089283 0 0 0 0 -477807425.09786749 276033921.42559075 0 276033921.42559075 -73461535.217687607 0 0 0 0 -479796455.44189453 84585584.895529985 0 84585584.895529985 44390887.75972724 0 0 0 0 -620156437.10583878 62615198.867754638 0 62615198.867754638 -108078342.96044159 0 0 0 0 -150062151.82957458 103055010.22811091 0 103055010.22811091 -131027777.58965874 0 0 0 0 -366001283.33782959 185316275.80627507 0 185316275.80627507 -339868645.08073074 0 0 0 0 -129021980.63572693 96211517.662358403 0 96211517.662358403 -147013675.80980781 0 0 0 0 9018723.5583190918 -147469767.38402539 0 -147469767.38402539 -110764243.31431079 0 0 0 0 -609735626.41816711 589688423.02143133 0 589688423.02143133 -316156921.22243464 0 0 0 0 -736875327.54153442 641926894.23485565 0 641926894.23485565 -250121901.63679242 0 0 0 0 -984325707.92490387 475667642.13358688 0 475667642.13358688 -24836886.614320755 0 0 0 0 -536318013.12134933 282559958.22323251 0 282559958.22323251 -319530678.30214047 0 0 0 0 -763226986.48800659 171841426.38188362 0 171841426.38188362 -105594663.02319241 0 0 0 0 -638065815.21490479 185409826.1236763 0 185409826.1236763 66934464.978484631 0 0 0 0 -564127052.40097809 417034287.9074102 0 417034287.9074102 -60350508.143645287 0 0 0 0 -629174072.98519897 496323648.2691617 0 496323648.2691617 -168057709.23590946 0 0 0 0 -669148033.61767578 411462836.68883133 0 411462836.68883133 -5240716.3293151855 0 0 0 0 -653212477.7472229 557970774.3611486 0 557970774.3611486 -165875400.27171326 0 0 0 0 -672676808.63412476 502495372.47462225 0 502495372.47462225 -112476250.56653786 0 0 0 0 -662411610.50515747 388118864.19269276 0 388118864.19269276 -72771261.636976957 0 0 0 0 -658639800.9694519 402444100.94484901 0 402444100.94484901 -24581548.654613495 0 0 0 0 -451230540.28646851 371457441.92641068 0 371457441.92641068 -88669349.864106178 0 0 0 0 -319852549.19680786 97184508.029877663 0 97184508.029877663 91959753.536959648 0 0 0 0 -468573824.3815155 356889365.39936304 0 356889365.39936304 -4326460.5543270111 0 0 0 0 -459930541.27050781 352955920.32322502 0 352955920.32322502 -48556218.197097301 0 0 0 0 -423060016.25955582 242499584.25863421 0 242499584.25863421 25060248.960861206 0 0 0 0 -116442463.2053833 322155944.40896034 0 322155944.40896034 -96204567.727497101 0 0 0 0 45622072.918670654 25760071.017205238 0 25760071.017205238 -74827196.177607536 0 0 0 0 835783.19827270508 -3775161.4990997314 0 -3775161.4990997314 9637882.1297283173 0 0 0 0 -69092702.251296997 -122343113.03414917 0 -122343113.03414917 117104561.44097137 0 0 0 0 -392095380.8069458 162034914.24173927 0 162034914.24173927 -136307020.01920176 0 0 0 0 -363820912.08029175 346965666.19564056 0 346965666.19564056 -74490869.488470078 0 0 0 0 -3532597.8760405257 -703124.5485190358 0 -703124.5485190358 487999.43289103173 0 0 0 0 -17707527.882446289 -171946987.31714487 0 -171946987.31714487 106085582.26119995 0 0 0 0 -2368362.8351431638 1480590.0270008072 0 1480590.0270008072 2945871.7432578076 0 0 0 0 -7598290.2730407715 -159046085.3434639 0 -159046085.3434639 19780203.644504547 0 0 0 0 -850225788.38178635 120273053.62871766 0 120273053.62871766 -299183273.87639618 0 0 0 0 -708252053.102005 465920176.65334511 0 465920176.65334511 -156288898.98407745 0 0 0 0 -503034207.78268433 285970367.39600372 0 285970367.39600372 -59483905.15526247 0 0 0 0 -508778003.25350952 717001755.1978054 0 717001755.1978054 -568155833.08514404 0 0 0 0 -1106551105.7470074 58292642.656129479 0 58292642.656129479 -259735828.94802094 0 0 0 0 -1132606917.7059326 273906922.09472752 0 273906922.09472752 -242242567.70222092 0 0 0 0 -497555276.85282898 157356945.14362907 0 157356945.14362907 -481074821.05652547 0 0 0 0 -458333370.22705078 156325700.79613876 0 156325700.79613876 -483219158.1748333 0 0 0 0 -272197243.30680084 220469836.36783028 0 220469836.36783028 -575711386.47354126 0 0 0 0 -385161658.94039154 268214263.96824932 0 268214263.96824932 -504623709.38664627 0 0 0 0 -386641568.33634186 437531362.72973728 0 437531362.72973728 -452770780.65170097 0 0 0 0 -632818761.46910095 276302848.49502325 0 276302848.49502325 -188009713.88293076 0 0 0 0 -613902404.84796906 382154893.32856679 0 382154893.32856679 -248317046.53340244 0 0 0 0 -532062469.45778275 454210439.53165984 0 454210439.53165984 -284659914.95264626 0 0 0 0 -536427438.80639648 456097261.6654563 0 456097261.6654563 -190373310.06209707 0 0 0 0 -342947696.00405884 448045034.91313863 0 448045034.91313863 -285392535.15351725 0 0 0 0 -375426060.45686722 419432551.24615622 0 419432551.24615622 -256811027.29900029 0 0 0 0 -478827738.18508911 579687442.55521226 0 579687442.55521226 -303959583.87477481 0 0 0 0 -612201173.0692749 636317700.83432221 0 636317700.83432221 -327864512.06629121 0 0 0 0 -387796131.2651825 176895413.14082646 0 176895413.14082646 -51102936.581643462 0 0 0 0 -250414906.14100647 338285318.8206706 0 338285318.8206706 -279841687.08967638 0 0 0 0 -415449465.53871155 432399412.92616129 0 432399412.92616129 -266974961.81192291 0 0 0 0 -739829133.81222153 279627308.4793272 0 279627308.4793272 -64955812.282020807 0 0 0 0 -137927179.21505737 -59065937.90659821 0 -59065937.90659821 4622899.160381794 0 0 0 0 632195.63448095694 -295967.07439599559 0 -295967.07439599559 -2486318.7324956069 0 0 0 0 -459059458.96470642 593737066.55203867 0 593737066.55203867 -646320023.88223839 0 0 0 0 -196837380.19997787 277749273.3588891 0 277749273.3588891 -871916744.84222889 0 0 0 0 -298664261.38002777 180472250.83493567 0 180472250.83493567 -538026796.10850525 0 0 0 0 -186683354.93522644 301764651.24465179 0 301764651.24465179 -445844756.55447292 0 0 0 0 -128036972.19691467 248093914.67705345 0 248093914.67705345 -248492171.2867794 0 0 0 0 -60661875.043743134 175250398.71993732 0 175250398.71993732 -369944829.48001671 0 0 0 0 -242271196.78120422 243415186.52136421 0 243415186.52136421 -320180701.1434803 0 0 0 0 -194024018.70056152 155450168.40672159 0 155450168.40672159 -101617576.16864777 0 0 0 0 -156920501.81790161 138541388.81004143 0 138541388.81004143 -237914110.20082664 0 0 0 0 -251038580.84547806 117737573.39556098 0 117737573.39556098 -436384253.0458622 0 0 0 0 -317668144.11547089 99453172.090166092 0 99453172.090166092 -526955136.21979523 0 0 0 0 -244176997.09547424 209383353.29225636 0 209383353.29225636 -584912391.79125309 0 0 0 0 -343920409.46075439 231606754.9710598 0 231606754.9710598 -441647096.49912739 0 0 0 0 -428187095.36424255 41252450.92767334 0 41252450.92767334 -261515409.97323227 0 0 0 0 -571733328.3009491 -70889044.090828896 0 -70889044.090828896 -688455263.90342712 0 0 0 0 -594611268.99302673 287062929.98840714 0 287062929.98840714 -599053944.20730257 0 0 0 0 -356145401.53027344 103441786.00204086 0 103441786.00204086 -225130100.0621357 0 0 0 0 -287253422.73815918 11966970.974544525 0 11966970.974544525 -142505753.98817444 0 0 0 0 -330094875.93314362 66108114.51067543 0 66108114.51067543 -57094835.225315094 0 0 0 0 -509931740.32987976 -7741728.5614614487 0 -7741728.5614614487 -59546052.583244324 0 0 0 0 -299191279.49026489 -94906383.287914276 0 -94906383.287914276 -27434090.354564667 0 0 0 0 -325281206.97912598 52627513.697002411 0 52627513.697002411 -50102986.715648651 0 0 0 0 -287311316.41825867 95545139.772452354 0 95545139.772452354 -239192681.6581955 0 0 0 0 -222527503.26092529 164794339.40728569 0 164794339.40728569 -207250471.5306921 0 0 0 0 -194154089.86867905 190969476.49186969 0 190969476.49186969 -110178268.56197357 0 0 0 0 -201049162.65791321 74667720.395671844 0 74667720.395671844 -61353522.511936188 0 0 0 0 -204504005.95397663 27050167.051447272 0 27050167.051447272 39959687.373916626 0 0 0 0 -199665899.72555494 137927204.92408973 0 137927204.92408973 41390395.642196655 0 0 0 0 -135400545.07159424 57300370.568218231 0 57300370.568218231 80501926.794143677 0 0 0 0 -215199404.86972046 -97125201.373439789 0 -97125201.373439789 44254322.495708466 0 0 0 0 -217461233.89123535 19742053.117271423 0 19742053.117271423 43307031.381767273 0 0 0 0 -229037768.19775391 99259412.916938782 0 99259412.916938782 -46303538.543279648 0 0 0 0 -248449563.269104 -19601670.411594391 0 -19601670.411594391 3529443.1819038391 0 0 0 0 -190332521.22848511 82350707.617206573 0 82350707.617206573 113886452.39321518 0 0 0 0 -159972496.74700928 -37839091.324165344 0 -37839091.324165344 87393688.221305847 0 0 0 0 -140508065.03280258 -42314235.032183886 0 -42314235.032183886 83197681.510246277 0 0 0 0 -106947568.1897583 -85115392.369270325 0 -85115392.369270325 124965715.72609329 0 0 0 0 -133288825.33015442 14144550.783706188 0 14144550.783706188 152748206.38796997 0 0 0 0 -129664300.61233521 -40369189.796127319 0 -40369189.796127319 226705464.28243446 0 0 0 0 -135844015.32529449 62271975.268963456 0 62271975.268963456 252940843.96503448 0 0 0 0 -57060574.579666138 -7195342.5214614868 0 -7195342.5214614868 253247008.19314575 0 0 0 0 -113869232.32644653 -30413447.766609192 0 -30413447.766609192 398090536.86064911 0 0 0 0 -48892101.798217773 12834282.765895844 0 12834282.765895844 252479480.23844528 0 0 0 0 1716911.9386138916 -29913403.276163101 0 -29913403.276163101 340961607.26112366 0 0 0 0 -80447811.884063721 -35626309.452602386 0 -35626309.452602386 340679368.28919983 0 0 0 0 -174267010.60754395 130854398.48878622 0 130854398.48878622 146170747.14188004 0 0 0 0 -97280419.234392166 94083517.655138969 0 94083517.655138969 148252680.78853607 0 0 0 0 -147083903.2718811 106972847.12141418 0 106972847.12141418 170903178.83985138 0 0 0 0 -133074775.78955078 7245084.6857032776 0 7245084.6857032776 152694599.01292992 0 0 0 0 -128313891.54450989 64660292.432064056 0 64660292.432064056 344766614.34200668 0 0 0 0 -115233609.01409912 7198950.6417121887 0 7198950.6417121887 249373668.86808968 0 0 0 0 -90437890.59941864 134951601.11694479 0 134951601.11694479 124907422.55591202 0 0 0 0 -130677058.38780212 53033839.546020508 0 53033839.546020508 281439168.57831097 0 0 0 0 -126101316.31639099 104489010.05657387 0 104489010.05657387 111287273.44767475 0 0 0 0 -107053834.57466125 172262444.05382538 0 172262444.05382538 40891590.612030029 0 0 0 0 -74879274.37739563 176792916.75707436 0 176792916.75707436 -74934012.185131073 0 0 0 0 -101021929.75458527 157293267.44506979 0 157293267.44506979 -81836937.931560516 0 0 0 0 -142919935.19229126 93832640.334791183 0 93832640.334791183 41708978.611385345 0 0 0 0 -135821490.9750824 192575274.89942265 0 192575274.89942265 -82310863.759086609 0 0 0 0 42593375.648460388 64216672.938975334 0 64216672.938975334 -198881510.22332191 0 0 0 0 -13625077.325775146 109112460.3766613 0 109112460.3766613 -18603076.827136993 0 0 0 0 -3360297.3455810547 176023981.25281334 0 176023981.25281334 -198150571.59676933 0 0 0 0 -12389618.52154541 112337775.36362076 0 112337775.36362076 -102501961.8835392 0 0 0 0 -50450584.16494751 214495293.6886487 0 214495293.6886487 -246475513.72375488 0 0 0 0 -24668025.757324219 73300084.269517899 0 73300084.269517899 90520193.977502823 0 0 0 0 -70038422.047351837 141578796.15827465 0 141578796.15827465 127377642.48275375 0 0 0 0 15840613.745620728 116800431.42488766 0 116800431.42488766 -20178300.964460373 0 0 0 0 -1402644.6844863892 83324045.754919052 0 83324045.754919052 91006527.545681 0 0 0 0 69375142.34368515 127235807.24297714 0 127235807.24297714 -6802301.5947685242 0 0 0 0 -14422883.891061382 9692006.4302830268 0 9692006.4302830268 -15952301.4316407 0 0 0 0 -14272208.446640015 3432125.0715655088 0 3432125.0715655088 26503062.86687997 0 0 0 0 166309343.90179443 -36977651.957663327 0 -36977651.957663327 -207833045.38993621 0 0 0 0 40900373.642138481 114399396.14277828 0 114399396.14277828 -206394391.99141693 0 0 0 0 45372409.853149414 7905719.0619659424 0 7905719.0619659424 28285794.393170834 0 0 0 0 159961538.44718933 28753108.472300529 0 28753108.472300529 -640448341.44996643 0 0 0 0 74993556.48740387 -162303488.09407902 0 -162303488.09407902 -313386042.17546892 0 0 0 0 35246038.295408249 -75592578.636243105 0 -75592578.636243105 62802615.743520737 0 0 0 0 -10279882.625824397 7731592.958198972 0 7731592.958198972 -12248107.483275617 0 0 0 0 147504528.97675705 47587815.588147402 0 47587815.588147402 -139878324.09697056 0 0 0 0 -227076657.34263611 -287543027.85476494 0 -287543027.85476494 -902223762.9123373 0 0 0 0 -1874548.6375186071 5057393.9895272776 0 5057393.9895272776 -2693.0682639600709 0 0 0 0 199982628.34037018 -126655238.65346766 0 -126655238.65346766 -1020477655.1808357 0 0 0 0 21195826.391174316 260834712.32821465 0 260834712.32821465 -1648678388.3206406 0 0 0 0 191084610.94578552 22060174.181296349 0 22060174.181296349 -642106400.96068978 0 0 0 0 250648358.60552979 143462041.23283482 0 143462041.23283482 -670217179.07741165 0 0 0 0 243877290.11907196 33500118.041568756 0 33500118.041568756 -868531806.48494053 0 0 0 0 87006980.364135742 126670299.25901413 0 126670299.25901413 -242041493.91555977 0 0 0 0 88155726.56048584 121387523.91892052 0 121387523.91892052 -337812547.55890465 0 0 0 0 159213801.68401003 9512680.1094330251 0 9512680.1094330251 -503955831.05044174 0 0 0 0 -86916496.447719574 198014571.89241076 0 198014571.89241076 -252465308.35058975 0 0 0 0 21544723.509094238 261935717.88911772 0 261935717.88911772 -500302731.02922249 0 0 0 0 242940901.42854309 229066241.88114882 0 229066241.88114882 -553738896.02566624 0 0 0 0 485135086.08894348 473877579.71978664 0 473877579.71978664 -809124763.4397428 0 0 0 0 -64213746.007957458 449488580.43672109 0 449488580.43672109 -709337227.81356621 0 0 0 0 353406796.23223114 124812453.12547684 0 124812453.12547684 -696428398.42612267 0 0 0 0 293201523.09953308 237989961.30097532 0 237989961.30097532 -892311430.39828587 0 0 0 0 308970754.67987823 430143546.33085251 0 430143546.33085251 -496598253.72348547 0 0 0 0 771172281.09329224 236493138.7646904 0 236493138.7646904 -683876975.20635545 0 0 0 0 345017476.45316696 137235314.02763209 0 137235314.02763209 74745427.097471654 0 0 0 0 171895432.38977051 514798004.64107811 0 514798004.64107811 829524084.35905266 0 0 0 0 319637949.06023407 547147598.81990337 0 547147598.81990337 174939277.13319385 0 0 0 0 -1537349.983343523 857506.45881232992 0 857506.45881232992 -2896763.9559945106 0 0 0 0 54045478.279193878 27477057.018704057 0 27477057.018704057 -65555435.042653799 0 0 0 0 -488523390.12505722 -103020606.36518067 0 -103020606.36518067 559169889.48556805 0 0 0 0 395509285.53614426 477051679.9388355 0 477051679.9388355 -263116931.47474062 0 0 0 0 -344768147.45550537 437766888.60865784 0 437766888.60865784 -198377520.06844503 0 0 0 0 -378442369.18906498 250362108.58725521 0 250362108.58725521 -369767757.9789378 0 0 0 0 -1373340322.0742188 545379865.64691353 0 545379865.64691353 177517916.7875303 0 0 0 0 287805703.26133728 296457953.64252472 0 296457953.64252472 -809416408.94005799 0 0 0 0 152822282.90785217 111097521.56382847 0 111097521.56382847 -752957749.66130781 0 0 0 0 -147963077.53816223 496872696.32755429 0 496872696.32755429 -1378085590.5732594 0 0 0 0 -172657296.02259064 451460692.54224968 0 451460692.54224968 -1074753372.9573622 0 0 0 0 -323133178.36621094 273964556.97970819 0 273964556.97970819 -1227141610.9149413 0 0 0 0 -1261451926.9034729 630511942.8644743 0 630511942.8644743 -1255085951.145689 0 0 0 0 -1297048415.1229401 935727917.84545302 0 935727917.84545302 -1246104421.6249659 0 0 0 0 -1567721797.4953117 749181981.72922754 0 749181981.72922754 -893647549.58023262 0 0 0 0 -1862048753.6972733 1068380274.8511918 0 1068380274.8511918 -1178607143.8914518 0 0 0 0 -1275474363.00634 823882426.20733404 0 823882426.20733404 -1744958723.6588087 0 0 0 0 -2057086069.72995 1174104773.4415236 0 1174104773.4415236 -722413423.24974728 0 0 0 0 -1016097410.9615707 509820823.43771636 0 509820823.43771636 -757364442.53335595 0 0 0 0 -1002542135.2196045 786387938.50071049 0 786387938.50071049 -762128120.96618223 0 0 0 0 -1367111575.9600143 627206771.91642141 0 627206771.91642141 -104280968.41900349 0 0 0 0 -1659455177.7094803 543394266.54939818 0 543394266.54939818 -26597726.914578319 0 0 0 0 -2407883497.7532501 538433859.61949563 0 538433859.61949563 555516167.91325116 0 0 0 0 -2379141713.5275345 638166247.14065218 0 638166247.14065218 689904612.58776855 0 0 0 0 -3271963562.3451385 942124810.48556447 0 942124810.48556447 795839401.15333891 0 0 0 0 -3071089026.6184006 1175883627.7548261 0 1175883627.7548261 206904211.2674669 0 0 0 0 -2673097850.6517868 913738279.2937628 0 913738279.2937628 163445829.93755054 0 0 0 0 -4093849370.6204147 1539663725.9373107 0 1539663725.9373107 400814793.95292836 0 0 0 0 -2063926627.2570038 1636352971.1841674 0 1636352971.1841674 -1727382865.9731026 0 0 0 0 -4097383368.8869133 2114012031.3841243 0 2114012031.3841243 -609433897.7085768 0 0 0 0 -2865062724.1568146 1265755627.8402891 0 1265755627.8402891 -71825865.42841965 0 0 0 0 -1488209575.4578094 1410032298.0597038 0 1410032298.0597038 -1691292179.6243398 0 0 0 0 -4083944427.3325133 3686743655.4423556 0 3686743655.4423556 -3677114272.4172611 0 0 0 0 -7009828.2300076522 4385548.0964938123 0 4385548.0964938123 -2563684.2666384066 0 0 0 0 -567577562.58288574 -548185540.21345246 0 -548185540.21345246 -185037454.29638293 0 0 0 0 -1561709668.1122465 1126857295.8764467 0 1126857295.8764467 -1839035081.822382 0 0 0 0 -964712992.58996582 1328154686.6345606 0 1328154686.6345606 -1854889642.0513611 0 0 0 0 -821726243.48187256 1027366751.6910014 0 1027366751.6910014 -2220874071.2303028 0 0 0 0 -2613117.6365887299 1062832.2910496332 0 1062832.2910496332 288765.54013568535 0 0 0 0 11123641.815673828 -356057697.2049408 0 -356057697.2049408 -2119782912.1932449 0 0 0 0 -15364496.623581715 4383667.7137664882 0 4383667.7137664882 -2071714.3884177958 0 0 0 0 7273513.9684410095 72634387.176145718 0 72634387.176145718 154431610.17770705 0 0 0 0 80954109.981773376 230576799.81144851 0 230576799.81144851 -120448723.43274936 0 0 0 0 162895280.4751358 -23553896.771790393 0 -23553896.771790393 -154376501.80539021 0 0 0 0 -229301192.60357285 -84244874.524864048 0 -84244874.524864048 122750924.02264953 0 0 0 0 26740578.000688553 63294757.747078128 0 63294757.747078128 -6916555.770097971 0 0 0 0 114153573.0353241 -42574269.937745407 0 -42574269.937745407 -117977996.71565384 0 0 0 0 -631875.86945142224 278439.91184116458 0 278439.91184116458 76074.220993311057 0 0 0 0 12599658.947574615 12446270.285670832 0 12446270.285670832 -14617968.97774747 0 0 0 0 -12526086.045028687 6929618.8474880755 0 6929618.8474880755 17112690.955902249 0 0 0 0 -1776321.5273401588 1391518.1574173658 0 1391518.1574173658 380877.85526486137 0 0 0 0 2448463.767375946 4842991.1555828452 0 4842991.1555828452 1931814.2575370073 0 0 0 0 -273100461.48600769 -227772664.42160612 0 -227772664.42160612 212269585.83796409 0 0 0 0 -3600879.0009884164 -3406515.5821229238 0 -3406515.5821229238 -4021539.2715868037 0 0 0 0 -4636655.6713089664 -2051028.2694101902 0 -2051028.2694101902 -3401256.4673311161 0 0 0 0 -12277865.641845703 6119260.1186163519 0 6119260.1186163519 -33822466.050160192 0 0 0 0 -352756.7807113044 1107524.4704053993 0 1107524.4704053993 -2170200.0145074781 0 0 0 0 -4052553411.8104706 1235979.1389364286 0 1235979.1389364286 1490762.5355305742 0 0 0 0 -3946005869.4956055 -207933864.98504451 0 -207933864.98504451 187520496.85828793 0 0 0 0 -769191619.00068665 1970876523.5413489 0 1970876523.5413489 -439065615.34206831 0 0 0 0 -2170485.4845676795 -1223505.4267550828 0 -1223505.4267550828 -1933092.1743549998 0 0 0 0 -4075948580.8342881 1009528847.2582773 0 1009528847.2582773 554120761.32158303 0 0 0 0 -2618035483.8191719 -144110123.2593891 0 -144110123.2593891 52381590.340849102 0 0 0 0 -477948720.66635084 -558316355.5379051 0 -558316355.5379051 -303628125.30985063 0 0 0 0 74686187.559143066 272440101.02608603 0 272440101.02608603 -311444760.54046875 0 0 0 0 156412584.37136459 20020211.110620961 0 20020211.110620961 -415198097.72277045 0 0 0 0 -3521697193.1481857 315465937.59562486 0 315465937.59562486 -524958067.63437778 0 0 0 0 -3139737494.4397736 21501962.590852022 0 21501962.590852022 -695887859.09552026 0 0 0 0 -3626720343.0449142 -300485534.39293635 0 -300485534.39293635 -277069796.01235616 0 0 0 0 -4096469551.3624954 -21348554.165952746 0 -21348554.165952746 -355304597.84531093 0 0 0 0 -2764724362.7784119 -471855486.93964201 0 -471855486.93964201 -314755579.23125988 0 0 0 0 -3114542112.5031509 -23202209.759690389 0 -23202209.759690389 -231512438.15398046 0 0 0 0 -2771509323.3887634 123623542.1657944 0 123623542.1657944 -494789882.52661395 0 0 0 0 -3481919498.1975174 732080434.63402331 0 732080434.63402331 -56492132.020111308 0 0 0 0 -3576148760.8281555 495760779.86268032 0 495760779.86268032 -475861134.82127237 0 0 0 0 -3759022231.9787292 1016588682.5347095 0 1016588682.5347095 364600974.11326277 0 0 0 0 -908442.14676889777 1281814.5099630691 0 1281814.5099630691 -1306225.9485801682 0 0 0 0 -4672243104.7512627 1086187846.8873417 0 1086187846.8873417 -260787692.84539032 0 0 0 0 -3866329645.7969208 984462817.09421659 0 984462817.09421659 -830430186.70687711 0 0 0 0 -4636313287.2405396 1132329650.9661431 0 1132329650.9661431 -519588259.56230748 0 0 0 0 -3408079790.2089081 346088927.61470282 0 346088927.61470282 -662576138.35296249 0 0 0 0 -4297733160.2104187 494087497.70722866 0 494087497.70722866 -649568838.45263636 0 0 0 0 -4325389205.8169022 -82969967.408956289 0 -82969967.408956289 -957781713.36988401 0 0 0 0 -3581096273.4396667 268056614.59007502 0 268056614.59007502 -887233155.99517727 0 0 0 0 -4927181456.9714966 1323686404.4255672 0 1323686404.4255672 -331087712.45634699 0 0 0 0 -5048270.4881116301 214854.75389603898 0 214854.75389603898 1032666.4736340493 0 0 0 0 -24909303.273681641 -20803681.729846001 0 -20803681.729846001 -33654946.60233736 0 0 0 0 -4177249131.3837433 749963194.47895932 0 749963194.47895932 -233942480.47264719 0 0 0 0 -5390100170.8322601 451717077.40230584 0 451717077.40230584 -291823026.69081914 0 0 0 0 -2033900359.8437729 -1212646282.6919715 0 -1212646282.6919715 -731454050.96486378 0 0 0 0 -4204678752.9187126 211720215.99454236 0 211720215.99454236 448044054.0961144 0 0 0 0 -3627944509.3822937 914255843.13034034 0 914255843.13034034 -1068189290.7882694 0 0 0 0 -3739338539.3386889 706520109.69219947 0 706520109.69219947 12712304.74980966 0 0 0 0 -3594498036.1748199 220825857.67145914 0 220825857.67145914 -690832821.03512645 0 0 0 0 -3663440746.0154419 186616630.80604982 0 186616630.80604982 -439913122.37432981 0 0 0 0 -3747506045.308136 475673079.11372709 0 475673079.11372709 -573334107.60774505 0 0 0 0 -4094036838.0951052 458002751.34651428 0 458002751.34651428 47075647.3696298 0 0 0 0 -3838866058.5145493 740818989.24348032 0 740818989.24348032 244112020.21083993 0 0 0 0 -3891684974.940773 540281134.39185643 0 540281134.39185643 393238393.4372859 0 0 0 0 -3484768193.1890106 717456050.04644608 0 717456050.04644608 458967383.14658231 0 0 0 0 -4094909250.9797363 631931136.03613913 0 631931136.03613913 666877175.00940514 0 0 0 0 -3726937828.7736816 769792523.25657868 0 769792523.25657868 917405046.71491075 0 0 0 0 -3936505453.7705231 833808408.06367028 0 833808408.06367028 919574147.97336018 0 0 0 0 -3298710964.1188908 930846811.93859541 0 930846811.93859541 756030887.71270871 0 0 0 0 -3733565174.3367767 1039387054.4811305 0 1039387054.4811305 835194199.38076377 0 0 0 0 -4094982294.636673 907592103.48029232 0 907592103.48029232 1016377627.5945438 0 0 0 0 -2218503518.004097 805204066.70225227 0 805204066.70225227 623660981.0928278 0 0 0 0 -1568359485.4593544 191112968.93335426 0 191112968.93335426 508735270.2215836 0 0 0 0 -2257467604.0429993 704832771.63130629 0 704832771.63130629 498522577.51516616 0 0 0 0 -3223688974.5765772 529801421.57299614 0 529801421.57299614 818869973.40831923 0 0 0 0 -2532163747.0992355 676524256.86865306 0 676524256.86865306 641217742.91316831 0 0 0 0 -2436271241.5057917 -39039998.284896359 0 -39039998.284896359 461972833.22653484 0 0 0 0 -1657989564.7977753 200645160.11564994 0 200645160.11564994 345486413.88084936 0 0 0 0 -3585482435.5073433 430460930.41065872 0 430460930.41065872 738599793.5617013 0 0 0 0 -3698548461.4638462 406533757.7816205 0 406533757.7816205 11650597.832122356 0 0 0 0 -3328208770.9514313 749753804.36951315 0 749753804.36951315 275364795.88123262 0 0 0 0 -2978047596.0537338 -460516412.00223601 0 -460516412.00223601 650658017.9778471 0 0 0 0 -1140095280.9637451 -604764750.24051762 0 -604764750.24051762 -49975122.075766385 0 0 0 0 -87591477.223388672 3053764.9546108246 0 3053764.9546108246 84684008.801423073 0 0 0 0 -56245219.210357666 -25027165.42206955 0 -25027165.42206955 -58089241.163172722 0 0 0 0 -86797239.554504395 -82861068.928741455 0 -82861068.928741455 101410221.31928492 0 0 0 0 -50464539.007415771 56500747.133564949 0 56500747.133564949 29141878.075390816 0 0 0 0 -9095416.7144031227 7431867.8448960036 0 7431867.8448960036 315065.33160466258 0 0 0 0 -9925959.7765960693 45168455.150584936 0 45168455.150584936 13926194.032055855 0 0 0 0 -216586929.51934433 191158094.08722335 0 191158094.08722335 -51317084.144290209 0 0 0 0 291920040.35893631 277248051.42490572 0 277248051.42490572 15493977.269923925 0 0 0 0 -1154372220.1052399 594541656.94035494 0 594541656.94035494 441450372.30634546 0 0 0 0 -877137074.0007782 -102363357.06232861 0 -102363357.06232861 55932971.568690777 0 0 0 0 -1059981240.6605682 779694001.85885882 0 779694001.85885882 858201164.41927516 0 0 0 0 128563620.31651306 -16893873.086605906 0 -16893873.086605906 1529739.7337085009 0 0 0 0 -10765013.067535892 3878378.9831593996 0 3878378.9831593996 2246762.0684426995 0 0 0 0 -9893310.7259941101 5759884.5637561083 0 5759884.5637561083 -16985674.980846643 0 0 0 0 -13582332.770507812 -65987704.045226574 0 -65987704.045226574 39216156.933447361 0 0 0 0 -216056.52292882651 4627819.5643559201 0 4627819.5643559201 666809.9491376006 0 0 0 0 -8511055.5374450684 -4420921.4188344479 0 -4420921.4188344479 4414251.499324441 0 0 0 0 -8201727.7348103523 7307140.8345687464 0 7307140.8345687464 -1493582.1074425092 0 0 0 0 -22185240.869510651 -4491243.1699020565 0 -4491243.1699020565 6360343.5264544487 0 0 0 0 -2750170.8320770264 3698655.7151618004 0 3698655.7151618004 2933806.6392612457 0 0 0 0 -17039836.912872314 877608.68671107292 0 877608.68671107292 14954867.671153784 0 0 0 0 -10089570.558349609 1191601.1723335981 0 1191601.1723335981 12402805.29043591 0 0 0 0 6738522.2490119934 4909399.9074675441 0 4909399.9074675441 11931574.104610443 0 0 0 0 -9357636.2702941895 1406978.5288846493 0 1406978.5288846493 9267786.4779000282 0 0 0 0 -7961730.8312988281 -87635.906075000763 0 -87635.906075000763 10581987.724021912 0 0 0 0 -8607832.9517822266 2831502.832908392 0 2831502.832908392 11899571.355368614 0 0 0 0 -17810699.421966553 2768870.805208683 0 2768870.805208683 14723246.582845688 0 0 0 0 -75084204.844650269 -29434808.687510848 0 -29434808.687510848 1882724.6249952316 0 0 0 0 -16151240.952671051 -22037944.394774973 0 -22037944.394774973 3026343.9644203186 0 0 0 0 -4231.811212234199 57193.892325438093 0 57193.892325438093 7536.7547268242197 0 0 0 0 85926.920898087323 171518.85352722183 0 171518.85352722183 -69610.104401944322 0 0 0 0 -29281678.872558594 36730709.941588402 0 36730709.941588402 -6632248.6450366974 0 0 0 0 -8679079.0476074219 -12432418.795963287 0 -12432418.795963287 -27820043.553226471 0 0 0 0 890334.32663770765 886626.65094092581 0 886626.65094092581 -136178.82790539452 0 0 0 0 4032104.9201049805 -10645918.901677012 0 -10645918.901677012 3076587.1884179115 0 0 0 0 2599221.6545715332 2786000.2601878643 0 2786000.2601878643 2483567.3261462897 0 0 0 0 465514.68603993952 721286.07076396048 0 721286.07076396048 -538978.85419281095 0 0 0 0 721310.90170489997 412038.70608044043 0 412038.70608044043 -472883.74158560578 0 0 0 0 -27488051.568786621 5898037.4215444326 0 5898037.4215444326 -3682385.2482590675 0 0 0 0 2733236.2814941406 2889672.321876049 0 2889672.321876049 2037577.9114723206 0 0 0 0 -86533626.365356445 25601829.89293313 0 25601829.89293313 -4962781.092291832 0 0 0 0 -38128392.272583008 24724639.504009247 0 24724639.504009247 -14285793.751591206 0 0 0 0 -797975.39852917939 390437.88501057774 0 390437.88501057774 40843.190389324212 0 0 0 0 59528.387939453125 770590.89447116852 0 770590.89447116852 1330020.2722296715 0 0 0 0 821785.38298670202 5032809.8750576749 0 5032809.8750576749 114507.0270946083 0 0 0 0 5051413.9705200195 10964197.21335862 0 10964197.21335862 5852200.0440404415 0 0 0 0 -325621.1091003418 4141748.8479220867 0 4141748.8479220867 5082951.0049962997 0 0 0 0 -2100429.8975243941 -72136.476969249547 0 -72136.476969249547 215921.31429702532 0 0 0 0 587857.66918945312 1504460.3728189468 0 1504460.3728189468 2244979.2196903229 0 0 0 0 -372492.5180844143 -31930.123307552189 0 -31930.123307552189 86462.486658957321 0 0 0 0 398802.38472307473 2498384.3197305137 0 2498384.3197305137 -117523.81340211243 0 0 0 0 5271760.8278815746 1372537.1791304722 0 1372537.1791304722 15216580.192318916 0 0 0 0 -3512785.1110416874 2109720.0613535028 0 2109720.0613535028 467643.84771969391 0 0 0 0 -1152688.3141937256 5788806.396207571 0 5788806.396207571 3209920.2631151676 0 0 0 0 -926914.32670261711 2813677.9650829732 0 2813677.9650829732 1234717.6779900058 0 0 0 0 6010885.0956573486 5374932.7402311563 0 5374932.7402311563 1402483.3728380203 0 0 0 0 985157.07696533203 10580254.542457342 0 10580254.542457342 -5235440.1284322739 0 0 0 0 -7635381.0981903076 11520244.39402914 0 11520244.39402914 -4905433.0329089165 0 0 0 0 3762741.5390625 15412884.136491776 0 15412884.136491776 8961285.2770301104 0 0 0 0 -46872216.390975952 41631074.317514896 0 41631074.317514896 4178921.0846138 0 0 0 0 22144273.592456818 33514779.084638834 0 33514779.084638834 -62872382.268686771 0 0 0 0 8815009.9823455811 3467601.0322655439 0 3467601.0322655439 -10729634.408298492 0 0 0 0 1142891.3979516402 709358.77646344528 0 709358.77646344528 -671487.59844585578 0 0 0 0 -11777197.449249268 31217994.894726276 0 31217994.894726276 5103066.539696455 0 0 0 0 340667.58697119355 132867.91288500652 0 132867.91288500652 -262884.86763582448 0 0 0 0 1621232.562286377 3386638.4385886192 0 3386638.4385886192 3024905.4254848957 0 0 0 0 36047460.763504028 -27510073.011337519 0 -27510073.011337519 -2172364.9670467377 0 0 0 0 -27271880.555847168 44184563.271076679 0 44184563.271076679 -51212717.099769115 0 0 0 0 -54367065.311950684 -131879517.42936087 0 -131879517.42936087 -27841838.144749761 0 0 0 0 28255146.756332397 12204941.995443344 0 12204941.995443344 -187128078.30071449 0 0 0 0 178491.0778740719 238796.32855921984 0 238796.32855921984 -210770.99861515814 0 0 0 0 -76806602.159210205 -140546097.26117277 0 -140546097.26117277 59989206.154446125 0 0 0 0 -38587657.389160156 53276014.312945843 0 53276014.312945843 -28276559.007439613 0 0 0 0 -24468345.481262207 3473022.127913475 0 3473022.127913475 284417.69939804077 0 0 0 0 -10911226.186104309 6871013.8702216409 0 6871013.8702216409 3500504.7067241296 0 0 0 0 -36583174.541435242 -11940516.261449456 0 -11940516.261449456 90176110.507543802 0 0 0 0 21747499.123214722 58248124.071484804 0 58248124.071484804 -26830700.401616096 0 0 0 0 -4559813.0087654218 120373.99034309387 0 120373.99034309387 547117.5781955577 0 0 0 0 -6128211.7738037109 1371397.1501245499 0 1371397.1501245499 2001462.3172521591 0 0 0 0 -15487289.282830417 -171089.26144610532 0 -171089.26144610532 5198843.8622823274 0 0 0 0 -35537991.880943298 -3935292.2975649834 0 -3935292.2975649834 -20351630.407337189 0 0 0 0 -4788858.5606178865 7704021.2644631825 0 7704021.2644631825 -2263734.6705089044 0 0 0 0 -7738381.2128768116 1845300.2482424751 0 1845300.2482424751 1365598.0950436019 0 0 0 0 -20498054.118209839 -28300391.615690231 0 -28300391.615690231 48824881.190630496 0 0 0 0 -50009836.949829102 1553722.6824641228 0 1553722.6824641228 52193319.544358253 0 0 0 0 -10879245.288609892 6497344.197847452 0 6497344.197847452 5497912.9825831838 0 0 0 0 -36879092.720092773 -6109580.7720136642 0 -6109580.7720136642 29233873.764389515 0 0 0 0 -1244576.8776245117 34661182.258876801 0 34661182.258876801 11914251.004281998 0 0 0 0 -50849056.472961426 -18329691.248457789 0 -18329691.248457789 155814999.44093561 0 0 0 0 -30777908.541473389 8982326.6251454353 0 8982326.6251454353 12339296.136635698 0 0 0 0 -931804277.99059296 1126548002.1979165 0 1126548002.1979165 -1354421621.0212626 0 0 0 0 3769690.051574707 37898861.117050171 0 37898861.117050171 21893829.564376354 0 0 0 0 -5440146.5088198539 2678400.790146891 0 2678400.790146891 -1403651.0985136349 0 0 0 0 -9234276.1101074219 46788670.304169297 0 46788670.304169297 75598980.904057503 0 0 0 0 -57261036.988250732 94101838.308268547 0 94101838.308268547 52977379.360912323 0 0 0 0 -59163366.43196106 99896028.955744743 0 99896028.955744743 188035125.574027 0 0 0 0 -69629003.871356964 62138908.994652659 0 62138908.994652659 260623166.07975006 0 0 0 0 8082368.4561462402 -26659423.695691824 0 -26659423.695691824 35390223.173327446 0 0 0 0 -31080800.40511322 -165152618.80206192 0 -165152618.80206192 190194446.3917855 0 0 0 0 29261109.863677979 -110993557.92439091 0 -110993557.92439091 211707043.28478566 0 0 0 0 -182077948.17759705 -44796929.84349221 0 -44796929.84349221 441959267.41600025 0 0 0 0 -8971790.3814914078 4787110.5479381569 0 4787110.5479381569 4338738.1831646198 0 0 0 0 132714.13437595963 -1287788.9224043326 0 -1287788.9224043326 799526.9242237478 0 0 0 0 -13776081.192230225 9009748.7081956863 0 9009748.7081956863 5784389.7812085152 0 0 0 0 -9955928.0252609253 5699468.9169871807 0 5699468.9169871807 -1381461.9113817215 0 0 0 0 -6026622.6282653809 19870000.947026014 0 19870000.947026014 15370012.19654274 0 0 0 0 -9716327.7709870711 3220475.462704625 0 3220475.462704625 4068046.1410144046 0 0 0 0 -11538120.507019043 4862025.374994278 0 4862025.374994278 17007840.809903622 0 0 0 0 -2818899.0673446655 -5806813.8201990128 0 -5806813.8201990128 22252887.093694687 0 0 0 0 -2997733.6137695312 -15023526.187420368 0 -15023526.187420368 -9766742.454621315 0 0 0 0 9725451.0443267822 -6564590.6133902073 0 -6564590.6133902073 -7227887.4482254982 0 0 0 0 -1686528.1104652137 3309889.2485083565 0 3309889.2485083565 640580.09305397002 0 0 0 0 -4164370.40658319 1891708.1801655632 0 1891708.1801655632 1406824.7459413507 0 0 0 0 -26972167.944793701 -4921010.9955360889 0 -4921010.9955360889 295488.47241351008 0 0 0 0 -2680244.8023430705 367628.04290543357 0 367628.04290543357 623729.98075829016 0 0 0 0 -21410358.560394287 16419247.896351814 0 16419247.896351814 28394546.47065635 0 0 0 0 -23657434.487167358 -53078276.624810219 0 -53078276.624810219 -48904223.041962117 0 0 0 0 -145205881.93354797 -206824163.5783968 0 -206824163.5783968 -286361809.16070867 0 0 0 0 -964911.65025788546 41404.512548754923 0 41404.512548754923 157510.1961151982 0 0 0 0 -46230219.441855431 79631396.636381358 0 79631396.636381358 -54985769.694135666 0 0 0 0 -55331931.362197876 -15499266.422644377 0 -15499266.422644377 -1413669.9249558449 0 0 0 0 -13639407.424333572 14537528.080331862 0 14537528.080331862 -28369137.088634491 0 0 0 0 -129381074.12239075 -7709004.0759301186 0 -7709004.0759301186 -7073266.0647916794 0 0 0 0 -293005499.69685364 59643677.2176404 0 59643677.2176404 27713777.79849124 0 0 0 0 -138060844.45936584 19968466.018551886 0 19968466.018551886 35512083.880298615 0 0 0 0 -10846393.499160767 26851078.543814659 0 26851078.543814659 -214104.95814275742 0 0 0 0 -11228845.07220459 -10346755.536305904 0 -10346755.536305904 -29753389.872904778 0 0 0 0 -22158258.631103516 10144610.824139714 0 10144610.824139714 9322368.9089822769 0 0 0 0 -4500225.882522583 20984997.445586443 0 20984997.445586443 -8470571.7074604034 0 0 0 0 1606519.9138336182 11085097.339686394 0 11085097.339686394 4188871.7105064392 0 0 0 0 -15836718.733261108 3571971.2553231716 0 3571971.2553231716 -6772340.1800734401 0 0 0 0 2896123.5936889648 -921956.75004410744 0 -921956.75004410744 -24767454.389793873 0 0 0 0 3291076.2914276123 2970234.8937935829 0 2970234.8937935829 2672569.1261975765 0 0 0 0 5319933.2622375488 7754106.040702343 0 7754106.040702343 -6660824.8285493851 0 0 0 0 1973226.8856506348 13956291.742530346 0 13956291.742530346 3373630.6403646469 0 0 0 0 78290.436227276921 3345572.9836656493 0 3345572.9836656493 787814.84797148174 0 0 0 0 -1079271.5482635498 8512063.6179981232 0 8512063.6179981232 10596828.53922224 0 0 0 0 -3403197.5240936279 12884409.724322796 0 12884409.724322796 21362217.386646271 0 0 0 0 5021232.904876709 19099176.634336472 0 19099176.634336472 375801.36830925941 0 0 0 0 4061697.6322937012 2813240.8834097385 0 2813240.8834097385 10753956.024369478 0 0 0 0 2671627.8181610107 17847439.336819172 0 17847439.336819172 9651514.0573456287 0 0 0 0 233128.92216491699 5771801.2215924263 0 5771801.2215924263 10964401.693598509 0 0 0 0 -1705502.2117150202 1986406.8155062255 0 1986406.8155062255 -45658.852184148796 0 0 0 0 -22941722.087127686 7591367.381601572 0 7591367.381601572 20003930.365507126 0 0 0 0 -5443115.8622440398 50661.108364161104 0 50661.108364161104 789414.20577990171 0 0 0 0 -7686749.9280853271 -3826780.6949906945 0 -3826780.6949906945 13782352.700005531 0 0 0 0 13264675.07484436 -14593264.154131889 0 -14593264.154131889 -6491638.9207447767 0 0 0 0 -9577114.1117553711 2649914.2865133286 0 2649914.2865133286 7329735.6593606472 0 0 0 0 -1931150.4278800189 1352777.1197595308 0 1352777.1197595308 93152.781409187475 0 0 0 0 -3894903.327529341 1239989.5124454517 0 1239989.5124454517 -50087.124901782372 0 0 0 0 -783744.07955169678 4696216.716904521 0 4696216.716904521 6796540.8888545036 0 0 0 0 166429.52624511719 4164871.8620896339 0 4164871.8620896339 6924288.6104311943 0 0 0 0 -600514.79795863479 -422845.20676614158 0 -422845.20676614158 177158.60266176972 0 0 0 0 1705350.3003540039 3336855.3857307434 0 3336855.3857307434 28607215.964400291 0 0 0 0 -703882.59245765209 -315917.87857258692 0 -315917.87857258692 131026.33034012862 0 0 0 0 -1727312.6003265381 17393780.94330889 0 17393780.94330889 21821929.436033726 0 0 0 0 -12984852.345092773 -7810243.0952191353 0 -7810243.0952191353 5594749.4084587097 0 0 0 0 -5283800.8937683105 7651848.6839518547 0 7651848.6839518547 27134607.354930878 0 0 0 0 18291607.91506958 9797015.781181097 0 9797015.781181097 9750945.077532053 0 0 0 0 -6234928.4613342285 -9784905.7635805607 0 -9784905.7635805607 3669847.4327254817 0 0 0 0 16933690.520324707 1176744.5841155052 0 1176744.5841155052 23046244.528669834 0 0 0 0 2296432.3811950684 11628387.305655479 0 11628387.305655479 16334697.121562481 0 0 0 0 -29418207.325622559 11242995.885692358 0 11242995.885692358 11608073.100036025 0 0 0 0 -4558157.0688476562 34723972.968189001 0 34723972.968189001 10339750.323909879 0 0 0 0 8384795.6680374146 37242189.856821179 0 37242189.856821179 8590891.2694549561 0 0 0 0 25621329.237457275 5471852.9138431549 0 5471852.9138431549 11270169.609840393 0 0 0 0 5161610.8837890625 6256156.6981965899 0 6256156.6981965899 -11182060.776127577 0 0 0 0 -145240.48549578339 -90297.594859153032 0 -90297.594859153032 -31927.58582793083 0 0 0 0 -117757.0447537154 -95652.872589714825 0 -95652.872589714825 -13074.001810161746 0 0 0 0 4997254.2141113281 10663576.471949577 0 10663576.471949577 -14149544.967317104 0 0 0 0 -25491985.753509521 -11079700.801221848 0 -11079700.801221848 7411259.1403589249 0 0 0 0 -20924488.788635254 12142368.031108856 0 12142368.031108856 12090609.914366722 0 0 0 0 -16721573.508911133 -2896562.8074817657 0 -2896562.8074817657 8226998.0495204926 0 0 0 0 -12266932.013038635 6148233.3019649982 0 6148233.3019649982 -13614758.302685261 0 0 0 0 -6592742.7339091823 3187478.3819836397 0 3187478.3819836397 1173658.7594726826 0 0 0 0 -143638097.78195953 26413758.568639517 0 26413758.568639517 68316016.223391533 0 0 0 0 -23762586.093109131 49629438.74263835 0 49629438.74263835 -91636928.601142824 0 0 0 0 -110004863.47827148 436842186.70329487 0 436842186.70329487 -524252747.00835896 0 0 0 0 -429945272.39672852 615513226.38192034 0 615513226.38192034 -611129320.95069122 0 0 0 0 -193377812.41231918 362797464.55109334 0 362797464.55109334 -318890681.76393366 0 0 0 0 -10816044.998329163 178801389.35539579 0 178801389.35539579 -249691253.05558315 0 0 0 0 -103309799.40760803 -71224369.767980099 0 -71224369.767980099 31328112.915855408 0 0 0 0 -3418897.3570375815 5159426.2596478704 0 5159426.2596478704 1009518.2949096116 0 0 0 0 380221.77835083008 8669831.1956114769 0 8669831.1956114769 1398566.6893050671 0 0 0 0 -14501793.273897171 8359808.988140583 0 8359808.988140583 10076362.474834442 0 0 0 0 24013878.357543945 12169835.378253937 0 12169835.378253937 10420975.222912788 0 0 0 0 -435797.76286240667 -287370.61100523546 0 -287370.61100523546 275942.07021747914 0 0 0 0 -8905588.161315918 1567404.7498879433 0 1567404.7498879433 5019789.4741888046 0 0 0 0 -7533988.0568833202 667994.51088373177 0 667994.51088373177 1275862.1695203269 0 0 0 0 148149099.57499695 66600806.89128828 0 66600806.89128828 -901595989.8594141 0 0 0 0 293829775.28674316 287610121.35677147 0 287610121.35677147 316251895.13421798 0 0 0 0 -211183.17179073393 553272.07468850538 0 553272.07468850538 237475.70534347661 0 0 0 0 31954004.039581299 110199388.12191582 0 110199388.12191582 121555858.56899786 0 0 0 0 149424338.34579468 34772232.147062421 0 34772232.147062421 -126365556.98291922 0 0 0 0 -135580255.79364014 -21637854.671506405 0 -21637854.671506405 -22552388.307935715 0 0 0 0 43982422.338577271 -4337471.4681954384 0 -4337471.4681954384 -72790208.875166416 0 0 0 0 27350063.887542725 34973191.147622585 0 34973191.147622585 27492109.319137573 0 0 0 0 41549144.823684692 21659486.547156334 0 21659486.547156334 -26477618.235304832 0 0 0 0 33601356.974655151 3530202.8745951653 0 3530202.8745951653 -13698053.368336439 0 0 0 0 33690545.641921997 -237313.83740925789 0 -237313.83740925789 -21060068.108972073 0 0 0 0 -25226789.651779175 8978327.0323655605 0 8978327.0323655605 55461804.854127884 0 0 0 0 -790.24445024132729 1141311.0431089611 0 1141311.0431089611 340206.65756702051 0 0 0 0 -159201785.62147522 7825746.2712757587 0 7825746.2712757587 10935966.010874271 0 0 0 0 -117003987.52799225 -107543064.42067891 0 -107543064.42067891 -19442817.049458504 0 0 0 0 -50405.689617499709 319672.0127798277 0 319672.0127798277 99727.840722123801 0 0 0 0 -509562767.32339478 -60597098.932123899 0 -60597098.932123899 50550603.494246244 0 0 0 0 -505806132.02871704 32663679.720831156 0 32663679.720831156 -31924497.517741203 0 0 0 0 -495804613.27954102 189501861.11703086 0 189501861.11703086 1108194.7230824828 0 0 0 0 -1102423365.1972275 383431352.75629878 0 383431352.75629878 -17132741.292648315 0 0 0 0 -832961431.50714111 -43325017.694817066 0 -43325017.694817066 84933573.343278408 0 0 0 0 -404325500.93432617 -157517739.82002997 0 -157517739.82002997 483420.72763156891 0 0 0 0 -96787689.040184021 -98338347.836750627 0 -98338347.836750627 -69117974.23998642 0 0 0 0 -740688040.58938599 -6185033.4701552391 0 -6185033.4701552391 4412073.4038705826 0 0 0 0 -702691655.14978027 -287456425.48975396 0 -287456425.48975396 -26760058.866539001 0 0 0 0 16021270.928985596 -291669068.33752167 0 -291669068.33752167 -149003258.31332302 0 0 0 0 -899445123.62145996 -294733341.38024116 0 -294733341.38024116 -54474996.568261623 0 0 0 0 -2459731.4092089683 2796148.8241389431 0 2796148.8241389431 -682609.43153989455 0 0 0 0 -125623308.19827271 456129020.01635981 0 456129020.01635981 -1426895434.7976015 0 0 0 0 -56630879.213729858 -119763363.4779079 0 -119763363.4779079 -316192057.97038293 0 0 0 0 -1162003676.501812 1175255680.9906416 0 1175255680.9906416 -1693688563.54445 0 0 0 0 -1790154704.7602386 187920513.64486432 0 187920513.64486432 54150554.192403316 0 0 0 0 -1451447875.6242232 -155582307.22212929 0 -155582307.22212929 -652841542.685637 0 0 0 0 -908346188.41162109 315138534.55808878 0 315138534.55808878 -299661964.17554885 0 0 0 0 -427757758.84251404 893578124.10617399 0 893578124.10617399 -1254494321.0674129 0 0 0 0 -1420817978.2538676 960315574.64390767 0 960315574.64390767 -466599443.93939734 0 0 0 0 -306453283.58378601 320856697.86227441 0 320856697.86227441 -442591821.306189 0 0 0 0 -239597123.68089294 -64515519.652639449 0 -64515519.652639449 -374843412.40584099 0 0 0 0 -301929981.91629028 297709494.6410253 0 297709494.6410253 -1033821787.1991812 0 0 0 0 -691880237.07131958 -68731921.150437474 0 -68731921.150437474 -537680087.39726305 0 0 0 0 -842641039.87541962 555535432.15237641 0 555535432.15237641 -491248227.7378087 0 0 0 0 -104508771.09414673 204777344.02346295 0 204777344.02346295 -511554446.37515438 0 0 0 0 -431350196.28050613 511174551.02222896 0 511174551.02222896 -431882647.52275157 0 0 0 0 -529787580.03144073 399035053.80852461 0 399035053.80852461 -251508587.07249355 0 0 0 0 -639474166.90351868 582387927.98133397 0 582387927.98133397 -549300829.52094352 0 0 0 0 -513460869.7779541 412797546.3956337 0 412797546.3956337 -252886444.0715827 0 0 0 0 -500164309.6794281 386039653.93829024 0 386039653.93829024 -199325658.7114625 0 0 0 0 -659572843.62788391 169792320.54122353 0 169792320.54122353 -146793798.35213041 0 0 0 0 -1184140420.5858612 476345844.35238159 0 476345844.35238159 -179530674.37541246 0 0 0 0 366780396.14663696 -85688670.37266016 0 -85688670.37266016 -48042262.126107693 0 0 0 0 -238942.36365338042 239601.70285462588 0 239601.70285462588 -98478.617833953351 0 0 0 0 -642862094.46535492 287720043.63798624 0 287720043.63798624 8852503.8447170258 0 0 0 0 -347628627.20558929 12520891.132466912 0 12520891.132466912 18435995.181639194 0 0 0 0 -230151527.00048828 -40277657.964794636 0 -40277657.964794636 23689508.433460772 0 0 0 0 -280081459.32312775 -42037812.245880604 0 -42037812.245880604 87721986.45717144 0 0 0 0 -206844956.92405701 213820693.87331557 0 213820693.87331557 -11799355.47401166 0 0 0 0 -483567900.80859375 64575516.360340595 0 64575516.360340595 104825285.37397289 0 0 0 0 -282013248.23114014 -2884256.1737384796 0 -2884256.1737384796 127116943.82988739 0 0 0 0 -237033930.80325317 209894893.73350024 0 209894893.73350024 -117709617.45560551 0 0 0 0 -362829965.34558105 225263900.2398181 0 225263900.2398181 -33253403.942645073 0 0 0 0 -121719974.36683655 -119666642.5499351 0 -119666642.5499351 -309345610.71703053 0 0 0 0 324843443.82305908 -76173381.912715435 0 -76173381.912715435 -97509085.345580697 0 0 0 0 -439729.85261613876 1143284.5521957055 0 1143284.5521957055 -210518.24395711068 0 0 0 0 -990119398.08795547 241733015.17647016 0 241733015.17647016 -131828046.84924936 0 0 0 0 -14200596.741340637 124312789.78646779 0 124312789.78646779 4468447.9937710762 0 0 0 0 20127362.988754272 29044960.810267448 0 29044960.810267448 55608006.919136107 0 0 0 0 -5144814.9666252136 118130846.77387094 0 118130846.77387094 24597702.975512505 0 0 0 0 -546477.0825862214 2311313.9489286914 0 2311313.9489286914 -159120.34354699682 0 0 0 0 245544110.75422859 60058738.777579486 0 60058738.777579486 -43497054.953720093 0 0 0 0 -1154527884.3812561 13695883.705665797 0 13695883.705665797 125135985.87059402 0 0 0 0 44251999.783599854 168124811.47327709 0 168124811.47327709 -50424413.524180591 0 0 0 0 -62993407.70905304 93912135.930583 0 93912135.930583 46799956.204202652 0 0 0 0 -68686246.416290283 111902168.21417284 0 111902168.21417284 -9457086.0440211296 0 0 0 0 -136334801.51279449 -38806593.392003298 0 -38806593.392003298 52912593.168175697 0 0 0 0 -486806991.9488678 -89152438.20666945 0 -89152438.20666945 48952233.213805199 0 0 0 0 -250647753.60426331 88331332.022143841 0 88331332.022143841 97789866.848817825 0 0 0 0 -85377195.018783569 38017573.944076061 0 38017573.944076061 105502164.1107707 0 0 0 0 -109377936.24368286 102499533.55033755 0 102499533.55033755 74287472.96362114 0 0 0 0 -47859468.72959137 70000325.241514921 0 70000325.241514921 86005172.25570631 0 0 0 0 -340463.58048774302 -347389.19552787533 0 -347389.19552787533 57746.291560368263 0 0 0 0 -23841354.205169678 -41704371.688023567 0 -41704371.688023567 92542321.988464117 0 0 0 0 -91254562.264160156 -33641015.111201525 0 -33641015.111201525 104433721.09816456 0 0 0 0 17054183.179870605 18345418.303499699 0 18345418.303499699 79115324.760222197 0 0 0 0 -47042609.769256592 20446883.346089363 0 20446883.346089363 84397786.531781197 0 0 0 0 -24284345.106468201 -35191870.605350971 0 -35191870.605350971 99753788.182215691 0 0 0 0 -954759.93653054535 -680952.92578832759 0 -680952.92578832759 58267.825900049589 0 0 0 0 20646806.998123169 -72550898.674829602 0 -72550898.674829602 35857668.320721626 0 0 0 0 -1704897.6392221004 130075.79392351955 0 130075.79392351955 1111207.6055772433 0 0 0 0 -3522167.2390594482 9655478.6551136971 0 9655478.6551136971 13836053.289526939 0 0 0 0 -12641948.646438599 -22514346.473108292 0 -22514346.473108292 -81152074.509477854 0 0 0 0 -35463759.847702026 -42199308.696170807 0 -42199308.696170807 24601110.502666414 0 0 0 0 -25157671.13917923 58107474.484131515 0 58107474.484131515 2595556.4370903969 0 0 0 0 -54380879.284156799 44868023.949553072 0 44868023.949553072 13717260.334981918 0 0 0 0 -9946759.8299713135 11187575.186444521 0 11187575.186444521 17146634.751855373 0 0 0 0 -92429975.401901245 -33003280.864245415 0 -33003280.864245415 -5623088.5639295578 0 0 0 0 -51837199.990249634 71889912.722477913 0 71889912.722477913 89398399.612265587 0 0 0 0 -62615388.308288574 40684121.416659355 0 40684121.416659355 54305595.295556068 0 0 0 0 -795046.77325403318 3333748.1530668736 0 3333748.1530668736 -499843.26320553618 0 0 0 0 86873398.526390076 6372670.3351588249 0 6372670.3351588249 -59620375.609309673 0 0 0 0 -1358443293.4669991 206044251.65383607 0 206044251.65383607 306469318.14022446 0 0 0 0 -1557594.4817238562 3525286.8231897056 0 3525286.8231897056 -841063.79189430852 0 0 0 0 -636880430.65717316 421035932.49280453 0 421035932.49280453 -849313009.75122356 0 0 0 0 21833093.797538757 27303546.160506606 0 27303546.160506606 10091956.175712109 0 0 0 0 -7790905.3775051832 288045.86438169051 0 288045.86438169051 958356.69243876496 0 0 0 0 -28013226.16368866 13338772.430804729 0 13338772.430804729 36282751.371654987 0 0 0 0 -16649929.841949463 -233394.7720137462 0 -233394.7720137462 31081936.037446186 0 0 0 0 -413604.96153259277 -4370722.5148948878 0 -4370722.5148948878 5767919.3511087671 0 0 0 0 18008643.077156067 -27588548.368698344 0 -27588548.368698344 29967906.332327515 0 0 0 0 -1344493.2973896302 769705.35742261261 0 769705.35742261261 177480.06840109156 0 0 0 0 -22514005.586669922 -30452699.12461669 0 -30452699.12461669 71578034.819428921 0 0 0 0 -31169788.649906158 5754457.6628911216 0 5754457.6628911216 28631133.527174562 0 0 0 0 -24202717.175445557 18614946.193984337 0 18614946.193984337 40833555.187740594 0 0 0 0 -23664580.758956909 40215749.012307934 0 40215749.012307934 7698.4976824369514 0 0 0 0 -80788206.709571838 10357675.009384878 0 10357675.009384878 68172013.982764006 0 0 0 0 -57728310.958694458 46286477.420167543 0 46286477.420167543 21884541.719565593 0 0 0 0 27835578.030273438 18929670.623975337 0 18929670.623975337 28025.252440354459 0 0 0 0 22183163.914405823 21820683.134459816 0 21820683.134459816 -573122.80792615563 0 0 0 0 13101717.283706665 4870478.2193759028 0 4870478.2193759028 -7042398.2843433321 0 0 0 0 -6106599.9803771973 25988692.417092357 0 25988692.417092357 11309249.330653489 0 0 0 0 -1578687.2153625488 30186965.631252401 0 30186965.631252401 4887666.0919793174 0 0 0 0 -24130720.697812021 28028382.326232769 0 28028382.326232769 12481619.853394054 0 0 0 0 -8006572.6309051514 16588649.939633936 0 16588649.939633936 20308902.846482366 0 0 0 0 -6533406.2627716064 13446122.519356944 0 13446122.519356944 4902903.2828448564 0 0 0 0 976405.05764770508 15151910.162141189 0 15151910.162141189 -1150611.0724050561 0 0 0 0 6387634.0633239746 5766950.6629231162 0 5766950.6629231162 -1463955.0831834823 0 0 0 0 -2976694.1722831726 4554848.1859069653 0 4554848.1859069653 793914.0993950218 0 0 0 0 -6803159.4289855957 1451982.1793656833 0 1451982.1793656833 1792672.4683980197 0 0 0 0 -4951912.1314163208 7184574.7137094811 0 7184574.7137094811 8274231.2193115652 0 0 0 0 -8295817.390045166 3622228.5222956687 0 3622228.5222956687 4600187.7990801334 0 0 0 0 -13049382.795089722 6722359.9099225327 0 6722359.9099225327 12281237.960475147 0 0 0 0 -6668203.9483661354 -222768.15938331001 0 -222768.15938331001 370467.24272986403 0 0 0 0 7461702.7115631104 -21786095.362022161 0 -21786095.362022161 26072699.414292812 0 0 0 0 -5584591.4385223389 3268855.5134208053 0 3268855.5134208053 4234920.2942419201 0 0 0 0 -3789695.6476721913 939821.63618749008 0 939821.63618749008 113557.73573563143 0 0 0 0 -2069434.8691253662 -102403.65164363384 0 -102403.65164363384 1302117.1838252246 0 0 0 0 -3610577.6462794095 317972.81015687529 0 317972.81015687529 319878.09364939143 0 0 0 0 -8378252.2518310547 159289.0672326088 0 159289.0672326088 8276423.5532828569 0 0 0 0 -2195180.6752548218 182626.2364783287 0 182626.2364783287 900056.63763284683 0 0 0 0 -1859801.1795654297 84609.10381269455 0 84609.10381269455 -1919.7124013900757 0 0 0 0 -2209785.7095947266 562360.02653285861 0 562360.02653285861 -207889.31725239754 0 0 0 0 -2078379.1246185303 106935.55238597095 0 106935.55238597095 160326.33709263802 0 0 0 0 -2775885.9833984375 4159686.8260179646 0 4159686.8260179646 -1565604.3428806849 0 0 0 0 -3523607.6390228271 2247921.3086147271 0 2247921.3086147271 -500764.65120479465 0 0 0 0 -2441926.9260864258 4322628.9503045008 0 4322628.9503045008 329050.43179675937 0 0 0 0 -1891612.1551208496 1383788.4231084697 0 1383788.4231084697 -2901541.5611333922 0 0 0 0 -2440556.1782952696 703599.35896972567 0 703599.35896972567 -648223.24991343927 0 0 0 0 -2237149.9648132324 450210.66397629678 0 450210.66397629678 -387328.83285427094 0 0 0 0 -2225131.3741912842 521618.45413994789 0 521618.45413994789 -7582.9708735048771 0 0 0 0 -2044485.2554804385 921330.18355971202 0 921330.18355971202 -859671.87470614666 0 0 0 0 -635416.38882979751 716790.12623818591 0 716790.12623818591 -89647.08990336259 0 0 0 0 -2452887.3641868383 495843.00352668017 0 495843.00352668017 250056.54536249314 0 0 0 0 -2149059.1708145142 251526.81301072869 0 251526.81301072869 -207.32298596121109 0 0 0 0 -2449822.4765625 309965.08490876446 0 309965.08490876446 6423.9061490014592 0 0 0 0 -2543097.8673248291 775371.54156973911 0 775371.54156973911 -321549.7526335736 0 0 0 0 -154271.52440561354 196977.7589137964 0 196977.7589137964 -64509.779597549423 0 0 0 0 -231315.76083374023 5025899.4685650254 0 5025899.4685650254 9001041.6422246452 0 0 0 0 -8293534.8538360596 3091573.7649563486 0 3091573.7649563486 812.51872180749069 0 0 0 0 -7329243.4331512451 2620971.9130424168 0 2620971.9130424168 -118536.71062619891 0 0 0 0 -2465334.690612793 827132.10448205471 0 827132.10448205471 446124.34216308594 0 0 0 0 -9237133.9625396729 2540352.4465449392 0 2540352.4465449392 528543.80481826887 0 0 0 0 -12679681.676269531 1410597.8667653343 0 1410597.8667653343 1587089.0994589676 0 0 0 0 -3309195.050946028 409017.79135655612 0 409017.79135655612 597075.61964621767 0 0 0 0 -4974523.3232296193 937083.443819426 0 937083.443819426 -30158.930797718898 0 0 0 0 -7803724.6871948242 1953486.2403360116 0 1953486.2403360116 151372.64056090638 0 0 0 0 -4914910.9782605916 666199.56184840947 0 666199.56184840947 -700614.25947437098 0 0 0 0 -7086309.4691314697 3346375.2341497047 0 3346375.2341497047 -1306426.269158442 0 0 0 0 -7429966.9270057678 2897772.5118768485 0 2897772.5118768485 43301.666076241061 0 0 0 0 -4790146.771599263 1452412.9622327089 0 1452412.9622327089 -911850.37986610061 0 0 0 0 -2844293.8936195374 92036.916663408279 0 92036.916663408279 154603.67179203033 0 0 0 0 -2708266.2422027588 450652.8568251133 0 450652.8568251133 30248.487908959389 0 0 0 0 -1776246.8184219489 1369315.7667386979 0 1369315.7667386979 -31802.640528093441 0 0 0 0 -9541206.4064788818 -842335.88151550293 0 -842335.88151550293 756789.79830527306 0 0 0 0 -2365627.1289215088 -1639793.1610146463 0 -1639793.1610146463 -2139605.7068061829 0 0 0 0 -2177810.8594512939 -109070.59935224056 0 -109070.59935224056 123622.61660933495 0 0 0 0 -18911393.369934082 1469006.3742051125 0 1469006.3742051125 7185077.3254332542 0 0 0 0 -1047700.5087817844 1249117.8558572531 0 1249117.8558572531 -677273.12564630248 0 0 0 0 -12282126.146606445 3877939.4193668365 0 3877939.4193668365 -1780033.7810059786 0 0 0 0 -16177374.867553711 -112677.0554151535 0 -112677.0554151535 7484467.0214071274 0 0 0 0 -19726010.732299805 7526447.8703708649 0 7526447.8703708649 -8791945.5582275391 0 0 0 0 2749035.0624084473 2174440.4083472788 0 2174440.4083472788 -1048095.1623237133 0 0 0 0 -4224078.5259647965 1986998.5423811711 0 1986998.5423811711 -1103883.508010183 0 0 0 0 -1538324.7561187744 -6122568.4536459446 0 -6122568.4536459446 5005653.9391336441 0 0 0 0 -45040766.73789978 6868617.4305310249 0 6868617.4305310249 -209261805.12780333 0 0 0 0 103337770.26228905 -46053894.504149497 0 -46053894.504149497 -191127092.60804939 0 0 0 0 95862701.835788727 8961122.4753026664 0 8961122.4753026664 -2001178.6315402985 0 0 0 0 103946746.96627045 31127247.385550618 0 31127247.385550618 -232351407.00407505 0 0 0 0 20096852.057571411 -72627899.640761375 0 -72627899.640761375 -146123363.02529049 0 0 0 0 164082044.49667358 3733016.0144851208 0 3733016.0144851208 -105641695.1230073 0 0 0 0 330672613.5937767 -515845497.39436138 0 -515845497.39436138 -375205145.99880314 0 0 0 0 92406132.802124023 -36844341.567214012 0 -36844341.567214012 579742701.63294363 0 0 0 0 519626720.7673645 38977623.980662823 0 38977623.980662823 -268115308.14450073 0 0 0 0 -158049385.37860107 -81134826.042664051 0 -81134826.042664051 -248335335.80224997 0 0 0 0 -315036.42046862841 -265394.61925389245 0 -265394.61925389245 10752.055123451632 0 0 0 0 -96802180.454906464 -603217512.81441796 0 -603217512.81441796 -319906266.16648006 0 0 0 0 186772305.582901 -27129149.141505122 0 -27129149.141505122 -590414342.69754028 0 0 0 0 24240.515922427177 231833.68316190969 0 231833.68316190969 -227392.54214182321 0 0 0 0 4481679.0724487305 18451321.161232471 0 18451321.161232471 -20345062.390336037 0 0 0 0 -2464670.146039471 883797.21952735633 0 883797.21952735633 -1087625.4486713125 0 0 0 0 -134708.43889646605 180800.18529090285 0 180800.18529090285 -18300.687809300609 0 0 0 0 8920783.992980957 -26269542.168520927 0 -26269542.168520927 -90295088.428833008 0 0 0 0 -31087269.184057236 -13890977.051195264 0 -13890977.051195264 -10742959.396583557 0 0 0 0 -48924.790921717882 126696.21858491283 0 126696.21858491283 -11273.988012911985 0 0 0 0 -1535437.2578121126 -524349.77041348163 0 -524349.77041348163 -147096.83462418977 0 0 0 0 -2530140.762838766 -423173.30816293135 0 -423173.30816293135 352322.40042793582 0 0 0 0 -3302087.4508666992 -874880.19140434265 0 -874880.19140434265 3340186.9304685593 0 0 0 0 -13465536.734493256 -26234957.226293802 0 -26234957.226293802 9609803.8182606697 0 0 0 0 -3922202.8055419922 -7627869.234967947 0 -7627869.234967947 -1985614.4087309837 0 0 0 0 -11984258.28729248 5646078.060669899 0 5646078.060669899 3933068.5903639793 0 0 0 0 15695754.880523682 -22042174.698203325 0 -22042174.698203325 -38004751.390899658 0 0 0 0 -52513190.8698349 -73114967.751891851 0 -73114967.751891851 77208558.861748695 0 0 0 0 39665481.647125244 -57099881.25432539 0 -57099881.25432539 79402522.880170822 0 0 0 0 -3810811.4675292969 1407291.1446046829 0 1407291.1446046829 -3542400.3065282106 0 0 0 0 23390639.772499084 14550025.192856252 0 14550025.192856252 -853801.72735214233 0 0 0 0 80530725.319793701 -32186643.212765217 0 -32186643.212765217 11011620.498491049 0 0 0 0 -93796.493942558765 -199064.16846038029 0 -199064.16846038029 198658.38915048493 0 0 0 0 -255577173.23150635 74011215.937777996 0 74011215.937777996 369154335.5915153 0 0 0 0 -341446512.35482025 -214777160.82841861 0 -214777160.82841861 91931255.470729828 0 0 0 0 54642484.188079834 -131122177.75237894 0 -131122177.75237894 108530405.45882845 0 0 0 0 -170931117.91430664 -71628474.395736694 0 -71628474.395736694 127692420.87638485 0 0 0 0 -33508779.929168701 -38358569.525059223 0 -38358569.525059223 -37940173.374283791 0 0 0 0 -36948305.708404541 -116546915.03965068 0 -116546915.03965068 -50355037.922933578 0 0 0 0 -45067822.52180481 -124667438.87835598 0 -124667438.87835598 106359911.27188873 0 0 0 0 -40167654.547309875 -44122328.873565376 0 -44122328.873565376 -16371715.501541138 0 0 0 0 -29514625.42647934 -4530978.9022957683 0 -4530978.9022957683 4550006.3352804184 0 0 0 0 -3523933.3750985973 1700754.9102225676 0 1700754.9102225676 4140500.9809615472 0 0 0 0 13481947.971572876 -191760779.13348925 0 -191760779.13348925 172944295.11905587 0 0 0 0 148997318.45024872 -175626374.02467385 0 -175626374.02467385 155026766.93582344 0 0 0 0 -55831094.103853226 -195436129.95441711 0 -195436129.95441711 299497313.35971737 0 0 0 0 335290568.73574829 -152014003.79548144 0 -152014003.79548144 75047889.492134333 0 0 0 0 -47470171.563163757 30310494.711494446 0 30310494.711494446 27879436.453351974 0 0 0 0 -1067214.8247839957 406653.58664645255 0 406653.58664645255 1424624.4345125288 0 0 0 0 511234136.9887085 -479424205.82036924 0 -479424205.82036924 206188691.13823509 0 0 0 0 -827052983.35932922 -131619155.45443916 0 -131619155.45443916 59554312.046048641 0 0 0 0 -34638582.708006859 -47085111.841819271 0 -47085111.841819271 -41342532.917788506 0 0 0 0 -244635940.62641907 -229448096.3517974 0 -229448096.3517974 168955028.23761058 0 0 0 0 20027575.243238449 -125231738.06583911 0 -125231738.06583911 173225113.91139281 0 0 0 0 -222932890.89193726 29265272.193405807 0 29265272.193405807 77501132.127902269 0 0 0 0 -544783123.17781067 47790865.12401557 0 47790865.12401557 264841601.50023949 0 0 0 0 -21818562.402778625 515265633.3793897 0 515265633.3793897 28731814.039175153 0 0 0 0 -4078449275.1581764 1235019214.7345743 0 1235019214.7345743 217021244.91557401 0 0 0 0 457156926.97464752 225123946.2559281 0 225123946.2559281 -23133210.452667117 0 0 0 0 -2056954.4416427221 159305.26679927856 0 159305.26679927856 -554019.65920211608 0 0 0 0 -2254626280.5070629 789015257.26635754 0 789015257.26635754 270204531.10404396 0 0 0 0 -3128258788.3135376 1385299713.7437301 0 1385299713.7437301 -93307650.278617516 0 0 0 0 -2217127233.950882 255323638.03193378 0 255323638.03193378 205796567.90513611 0 0 0 0 -1073913319.8155823 709871128.09997272 0 709871128.09997272 6433684.1505179405 0 0 0 0 -2295896990.8626251 434511002.6123004 0 434511002.6123004 205442754.69411349 0 0 0 0 -2403508224.6800079 251667444.8647337 0 251667444.8647337 211403867.91108799 0 0 0 0 -3179563120.0627975 604622859.3971833 0 604622859.3971833 393110469.93231964 0 0 0 0 -2588919355.7759247 390579244.76389933 0 390579244.76389933 -502834880.71117783 0 0 0 0 -3475389169.6346283 122217614.91205293 0 122217614.91205293 240779605.10625362 0 0 0 0 -3346604007.6728287 572651219.89035892 0 572651219.89035892 -25365229.452241898 0 0 0 0 -1143429772.919899 -91029530.792857409 0 -91029530.792857409 -259997537.03278923 0 0 0 0 -2442596951.7361603 -62751638.905998707 0 -62751638.905998707 113792362.70521307 0 0 0 0 -342253133.64141846 -171897150.02312756 0 -171897150.02312756 -353344331.53937817 0 0 0 0 -1119407033.1617184 16111509.519978404 0 16111509.519978404 -88560465.426855087 0 0 0 0 -343744539.3838501 4744145.184073925 0 4744145.184073925 -284686313.37717676 0 0 0 0 -365468471.9046936 -101180750.45905304 0 -101180750.45905304 13350337.815568447 0 0 0 0 9569712.4763793945 -23165162.292734146 0 -23165162.292734146 -318085722.3478775 0 0 0 0 -111522419.87304688 104186052.61782789 0 104186052.61782789 -269215133.21871328 0 0 0 0 -62581315.274124146 161362166.30269098 0 161362166.30269098 15810856.797288895 0 0 0 0 -98435036.685928345 -93947653.066889763 0 -93947653.066889763 77194032.587984085 0 0 0 0 -461367341.59547424 286084574.85751534 0 286084574.85751534 -302848574.96080637 0 0 0 0 -1564223773.071846 -494058969.54678011 0 -494058969.54678011 404760540.65684891 0 0 0 0 -655317417.06868553 226436919.61150679 0 226436919.61150679 -493133518.81462002 0 0 0 0 -627329237.22982025 -25182944.914820552 0 -25182944.914820552 -5310739.6849243641 0 0 0 0 -6807644.2841739804 3412985.5945210978 0 3412985.5945210978 -1799810.2911286918 0 0 0 0 -643934.90685556084 1740655.4845329262 0 1740655.4845329262 116042.36569705186 0 0 0 0 -7118390.0346899033 3062058.3648451017 0 3062058.3648451017 64973.680037336424 0 0 0 0 -4937041.8257770538 3253372.9884202662 0 3253372.9884202662 6370.9124579126901 0 0 0 0 -5269270.5280761719 2315266.9157936294 0 2315266.9157936294 -157832.04719815991 0 0 0 0 -6961773.5015678406 3171048.312045034 0 3171048.312045034 -1539.1840689375022 0 0 0 0 -3900479554.7430115 977595521.19533873 0 977595521.19533873 323076374.73835135 0 0 0 0 -3136386070.7466888 1034478946.7646738 0 1034478946.7646738 -1921058.2925075064 0 0 0 0 -4455951016.6471491 470642435.83550018 0 470642435.83550018 385957402.66156387 0 0 0 0 -4466511393.4332428 -737340806.92363262 0 -737340806.92363262 172469943.16250944 0 0 0 0 -5776723.3602202386 981650.92650594935 0 981650.92650594935 877931.00074195338 0 0 0 0 -2622353702.0639801 -720297112.02573061 0 -720297112.02573061 139622010.38663328 0 0 0 0 -3810988109.790863 549528358.86655474 0 549528358.86655474 291389368.38029051 0 0 0 0 -3190438466.644577 -15364593.622116566 0 -15364593.622116566 40593204.249676704 0 0 0 0 -3841526876.3295517 94719007.18796058 0 94719007.18796058 59960235.005569458 0 0 0 0 -3931763708.2375031 848109751.47402525 0 848109751.47402525 173493289.55335712 0 0 0 0 -4899671988.4982758 258244971.18415856 0 258244971.18415856 521097596.85233498 0 0 0 0 -2926895048.2582092 545624984.81964397 0 545624984.81964397 -41879443.928043842 0 0 0 0 -2365975586.4656372 575990773.6681869 0 575990773.6681869 -447821799.12927341 0 0 0 0 -3014651500.5418549 134992872.11361265 0 134992872.11361265 107097556.91808581 0 0 0 0 -4270799726.5041809 1119410777.8836551 0 1119410777.8836551 -567749324.02487946 0 0 0 0 -3581445678.369751 140356328.71582127 0 140356328.71582127 -274839902.13483715 0 0 0 0 -9040780244.9995117 370269202.69625092 0 370269202.69625092 -208206450.37342262 0 0 0 0 -3843994688.1207581 782067974.72406769 0 782067974.72406769 -1741558330.2213135 0 0 0 0 -2367685403.7969818 1371307343.3856368 0 1371307343.3856368 -803939902.94350052 0 0 0 0 -540289065.73950195 3429273027.5220184 0 3429273027.5220184 -1459444672.3521042 0 0 0 0 -2340578347.3302612 1160545198.6084042 0 1160545198.6084042 461871649.40001297 0 0 0 0 -2339945.7564956844 415682.29088162631 0 415682.29088162631 415263.59855922591 0 0 0 0 1326003920.7353363 -1891314864.0276785 0 -1891314864.0276785 2011256514.8473892 0 0 0 0 -89299014.454467773 3420258221.5263519 0 3420258221.5263519 -1459614727.5821204 0 0 0 0 -4219135046.9075584 -6570716.2980992347 0 -6570716.2980992347 -280405590.79069901 0 0 0 0 69011292.712677002 -377234029.75110435 0 -377234029.75110435 989727937.90259719 0 0 0 0 -8158634.4351949245 7157261.8166981637 0 7157261.8166981637 -3005686.1872189357 0 0 0 0 694102454.19076538 -1027118101.7842336 0 -1027118101.7842336 773312748.11300552 0 0 0 0 -595003154.1885376 338057830.67783356 0 338057830.67783356 273446547.40063477 0 0 0 0 -21756171.30279541 8551066.6908166371 0 8551066.6908166371 10027845.697567992 0 0 0 0 -3759307.1360607594 -883715.56139580905 0 -883715.56139580905 3898115.7970914957 0 0 0 0 -1628718.8030101378 1182314.403015092 0 1182314.403015092 216451.27901222277 0 0 0 0 -4060020098.6847382 404792425.61103511 0 404792425.61103511 472195214.60516548 0 0 0 0 -2803296354.5539627 -26517683.12120425 0 -26517683.12120425 -268554345.74259222 0 0 0 0 -2858228069.7610321 -14642521.941423178 0 -14642521.941423178 -231221983.10586882 0 0 0 0 -50867955.218688965 4615211.0260632616 0 4615211.0260632616 9187937.2537997589 0 0 0 0 -6636117.7287597656 7481689.412510138 0 7481689.412510138 -4168069.1596715152 0 0 0 0 -16221178.938920021 22106131.396659367 0 22106131.396659367 -43604.082225802667 0 0 0 0 -3208143.166299019 2159912.3696554601 0 2159912.3696554601 451620.1252121079 0 0 0 0 -4162860908.8046875 1128597710.4397898 0 1128597710.4397898 5654863.9130138466 0 0 0 0 -3500480.9131121607 -201528.16043824703 0 -201528.16043824703 1403237.6458024089 0 0 0 0 -2091072769.5737762 637617994.49951279 0 637617994.49951279 -308062127.69677353 0 0 0 0 -987491599.76708221 920678421.97500622 0 920678421.97500622 -1191496850.1795518 0 0 0 0 -4082011369.8229828 1156651605.0416875 0 1156651605.0416875 -70287630.902205691 0 0 0 0 -7790750.4380074013 1128568.2645330653 0 1128568.2645330653 600293.64516757894 0 0 0 0 -2559818444.6844025 -24704793.147823367 0 -24704793.147823367 1637724.0470054778 0 0 0 0 16129670.774124146 14384373.469214506 0 14384373.469214506 -9706882.4800587073 0 0 0 0 -14923304.957941055 10553228.867773606 0 10553228.867773606 1534636.6739551425 0 0 0 0 -7874.171142578125 21623365.476882946 0 21623365.476882946 35184.047636096817 0 0 0 0 -7377636.5854644775 14311941.319379648 0 14311941.319379648 10158453.343387827 0 0 0 0 7351382.7594451904 5728128.5122766495 0 5728128.5122766495 -5181059.3288699985 0 0 0 0 -4089925482.7749176 -1471025187.8762927 0 -1471025187.8762927 -463353728.06301475 0 0 0 0 -1693578303.9092865 1572392548.4413581 0 1572392548.4413581 -787133557.67804611 0 0 0 0 -4828729.3634773493 173560.2650533691 0 173560.2650533691 2285078.7955591222 0 0 0 0 -2738882914.20298 -775727347.02903259 0 -775727347.02903259 -149774348.54437655 0 0 0 0 -11779464.833555758 7145540.4664069153 0 7145540.4664069153 -1254030.9314011438 0 0 0 0 -6488161.4265799988 -1744844.4969050065 0 -1744844.4969050065 6530324.0884905318 0 0 0 0 -59917116.906944275 26662655.329611301 0 26662655.329611301 5283292.5866932869 0 0 0 0 736476488.43742371 -468331100.85783339 0 -468331100.85783339 108105815.24689221 0 0 0 0 137111256.39699078 206082640.11684686 0 206082640.11684686 168610297.3211298 0 0 0 0 -4094499214.446228 -332700199.45655823 0 -332700199.45655823 299117831.68046331 0 0 0 0 -2967973906.5200043 236783093.59262121 0 236783093.59262121 420205643.31026244 0 0 0 0 -3440168695.3700256 42084566.891636848 0 42084566.891636848 568954815.01068366 0 0 0 0 -3149523099.2145996 20832414.646647036 0 20832414.646647036 430604457.32671332 0 0 0 0 -4095799953.523294 597032103.64665854 0 597032103.64665854 966687393.65117323 0 0 0 0 -2679852715.0123138 357508789.06841677 0 357508789.06841677 283284177.45420164 0 0 0 0 -3265769756.537468 441943547.41080058 0 441943547.41080058 696063417.10659826 0 0 0 0 -906899497.83117676 -1420392824.6048155 0 -1420392824.6048155 1880309196.0877581 0 0 0 0 -1066486971.7781219 -74563533.959564686 0 -74563533.959564686 865560566.13027096 0 0 0 0 -5878108.8092459664 -2030291.3277968019 0 -2030291.3277968019 2554519.6417747233 0 0 0 0 72816439.976425171 -257383278.65616322 0 -257383278.65616322 1695213165.6604366 0 0 0 0 -743060262.05557251 788132948.58231437 0 788132948.58231437 825946943.28268301 0 0 0 0 -1964815.2446023887 -1528902.8165016174 0 -1528902.8165016174 2372358.1543778186 0 0 0 0 744440688.53790855 -634395611.74265623 0 -634395611.74265623 431111364.25607204 0 0 0 0 -3117805.0609193146 -892730.83561053872 0 -892730.83561053872 1721801.0377675588 0 0 0 0 -2402253564.5377731 1294764436.4774537 0 1294764436.4774537 -508308174.64014626 0 0 0 0 -1901352793.7384491 1348100891.934365 0 1348100891.934365 -513983401.96062255 0 0 0 0 -5634927328.8430023 2558522292.5189571 0 2558522292.5189571 -300592838.27790833 0 0 0 0 -5054749317.4911499 -96905058.910773277 0 -96905058.910773277 -279182880.76482391 0 0 0 0 -2994891053.7647095 1215674240.6246128 0 1215674240.6246128 -104249558.82518184 0 0 0 0 -2935971733.9006805 1260530012.7230341 0 1260530012.7230341 -104134148.65916835 0 0 0 0 -3685752737.9255829 609729272.42958069 0 609729272.42958069 491754990.34322262 0 0 0 0 -2948877374.5511703 701871251.60724187 0 701871251.60724187 581622511.69497037 0 0 0 0 -3078892304.7936554 825936675.21075916 0 825936675.21075916 568750347.26248562 0 0 0 0 -879199525.63467026 448640714.563223 0 448640714.563223 -91767165.312574387 0 0 0 0 -2677150938.3525162 765915656.35241556 0 765915656.35241556 384265800.51537895 0 0 0 0 -2456665050.2254486 1009716602.706484 0 1009716602.706484 364430306.93395966 0 0 0 0 -2286632662.0774078 430022593.61327505 0 430022593.61327505 860279544.93748569 0 0 0 0 -1684179903.5687103 707480529.80351293 0 707480529.80351293 449150646.30555475 0 0 0 0 -2621866249.982748 486061575.42900658 0 486061575.42900658 506681973.24108458 0 0 0 0 -2794182938.6190338 1057402589.6002587 0 1057402589.6002587 497451821.75459683 0 0 0 0 -3394871445.7361145 801796349.1609956 0 801796349.1609956 451261729.50455987 0 0 0 0 -2691421277.3860397 661870083.11231256 0 661870083.11231256 -54435938.96698837 0 0 0 0 -2627300997.1562042 865664641.31172824 0 865664641.31172824 281342844.14459765 0 0 0 0 -1886781717.8375244 -129995477.63911033 0 -129995477.63911033 -229448729.88577929 0 0 0 0 -1650589307.5179596 159578099.45633435 0 159578099.45633435 124614001.79448175 0 0 0 0 -4085958846.3161163 -1039041532.2029713 0 -1039041532.2029713 300026178.11030209 0 0 0 0 -1817694789.7935181 -1850626951.3308709 0 -1850626951.3308709 438231243.63158333 0 0 0 0 -4513432.9318423122 -1157113.0170023367 0 -1157113.0170023367 2236084.6764769866 0 0 0 0 511990419.90802002 -1924214681.9094331 0 -1924214681.9094331 187521128.24799854 0 0 0 0 -4089599702.8480225 1182491482.5834072 0 1182491482.5834072 -72616585.843971089 0 0 0 0 531627658.28305054 383131603.56470901 0 383131603.56470901 144139267.21846473 0 0 0 0 -1795877374.55336 446705923.24891561 0 446705923.24891561 995902008.62115598 0 0 0 0 -653529262.99073792 -281921435.5187211 0 -281921435.5187211 210843419.45125115 0 0 0 0 -3049271.6664485186 634716.97823043168 0 634716.97823043168 -535982.92067996832 0 0 0 0 -13809076.479930878 67700.880296051502 0 67700.880296051502 -31033501.790082932 0 0 0 0 -18094038.263458252 -1575159.0190272331 0 -1575159.0190272331 -5611509.2841053009 0 0 0 0 -1735257.8381958008 10762547.308693171 0 10762547.308693171 -1425702.4083068371 0 0 0 0 1019943.0240707397 -6428133.4402031302 0 -6428133.4402031302 -18537532.600850582 0 0 0 0 -16201747.29800415 -3713290.1887216568 0 -3713290.1887216568 16112308.043192565 0 0 0 0 36420997.353668213 8194589.8807291985 0 8194589.8807291985 -20052133.308976173 0 0 0 0 7967156.9101257324 22940928.891091943 0 22940928.891091943 13628935.953876495 0 0 0 0 -15520844.037963867 -2868823.4706954956 0 -2868823.4706954956 -5756656.4825019836 0 0 0 0 -9216400.2657470703 -7670226.317293644 0 -7670226.317293644 -2604573.0496706963 0 0 0 0 -10999426.610137939 -2470564.3093929291 0 -2470564.3093929291 -9174863.3232569695 0 0 0 0 -922532.55860235542 -1236126.3091784492 0 -1236126.3091784492 224501.39174157497 0 0 0 0 -37358844.505041122 -34523478.556045353 0 -34523478.556045353 -7650430.5378711224 0 0 0 0 -31409193.34670639 -11883982.208816677 0 -11883982.208816677 18483935.587714195 0 0 0 0 112489054.09303284 -37957523.376001477 0 -37957523.376001477 -38231491.869651198 0 0 0 0 -177287.40209463239 -392755.00655838102 0 -392755.00655838102 88671.210954388836 0 0 0 0 -3140482.3958282471 -445810.94716978073 0 -445810.94716978073 -6450644.2166376114 0 0 0 0 -15195964.156845093 4620759.32137537 0 4620759.32137537 -10008730.853586197 0 0 0 0 -10144731.283172607 529225.71892547607 0 529225.71892547607 -9316842.1705932617 0 0 0 0 -11507477.015197754 1275564.6235084534 0 1275564.6235084534 -9712111.4711999893 0 0 0 0 -8359508.6997070312 -1130680.46667099 0 -1130680.46667099 -10907217.982830048 0 0 0 0 -3141825.6176452637 -2626550.7507529259 0 -2626550.7507529259 -11319633.6191504 0 0 0 0 -5272978.6186218262 2384474.1861364841 0 2384474.1861364841 -12827811.45451355 0 0 0 0 -8321051.8783569336 3740515.3931474686 0 3740515.3931474686 -11787165.904989243 0 0 0 0 -8829969.9860992432 -14012402.825774193 0 -14012402.825774193 23138513.548024178 0 0 0 0 -8360195.7013397217 -10638819.368182421 0 -10638819.368182421 -59318.207078456879 0 0 0 0 -15479932.382352829 -9578367.6023202837 0 -9578367.6023202837 18748664.680936813 0 0 0 0 -513332.97030885518 347710.03024996817 0 347710.03024996817 278875.85044420604 0 0 0 0 -2021140.9192835577 900866.77702243626 0 900866.77702243626 -662557.73068757635 0 0 0 0 -2883218.6871323586 -21321314.413644359 0 -21321314.413644359 27017710.750619411 0 0 0 0 47705037.638427734 -64671000.669794559 0 -64671000.669794559 34748453.391489506 0 0 0 0 17483507.929443359 -14594333.780423999 0 -14594333.780423999 -14035442.381929874 0 0 0 0 63867268.951507568 4843523.2335948944 0 4843523.2335948944 -76102177.634878397 0 0 0 0 53684407.367324829 -15525567.462268114 0 -15525567.462268114 -14456210.580847442 0 0 0 0 -2660062.9390942641 1728874.8123480156 0 1728874.8123480156 -243871.50287382142 0 0 0 0 6535989.0280303955 3515878.9316735864 0 3515878.9316735864 -1951879.7697838545 0 0 0 0 1478642.9237594604 -1626824.5292036533 0 -1626824.5292036533 -4408710.9917721748 0 0 0 0 -604529.70709228516 2653879.5203511715 0 2653879.5203511715 3274495.4490315914 0 0 0 0 -765324.99179360271 786561.70977325737 0 786561.70977325737 -586036.04841464013 0 0 0 0 5627524.8067054749 2975387.8401237428 0 2975387.8401237428 -5155183.4860160351 0 0 0 0 7286869.0954284668 6575408.2261794806 0 6575408.2261794806 -2569551.3619408607 0 0 0 0 694580.55017089844 5794446.2618554831 0 5794446.2618554831 1411758.3442146778 0 0 0 0 293620.20771789551 6333347.2922143396 0 6333347.2922143396 4582360.8845335413 0 0 0 0 655942.34527587891 -376157.48433193751 0 -376157.48433193751 -3669663.4006363512 0 0 0 0 10916573.797302246 2076927.104125984 0 2076927.104125984 -5537227.6449481174 0 0 0 0 -295779773.57351685 -146953417.44966054 0 -146953417.44966054 115597030.96042609 0 0 0 0 -749494902.58252716 278273620.7892108 0 278273620.7892108 96288699.038054466 0 0 0 0 -61385981.5962677 -175101012.71996331 0 -175101012.71996331 -52813728.845541716 0 0 0 0 228418816.74981689 -8010152.7732048035 0 -8010152.7732048035 -218488130.98806381 0 0 0 0 -314390.5485829711 -381789.53871518373 0 -381789.53871518373 -786827.7066302367 0 0 0 0 -539007227.52580261 -2403550.4851481915 0 -2403550.4851481915 32686990.775866985 0 0 0 0 -629246874.56848145 159655443.38433075 0 159655443.38433075 -29748506.957590103 0 0 0 0 -876919601.44680786 -71882895.501110435 0 -71882895.501110435 241637582.86243296 0 0 0 0 -204245304.12466431 -216166919.26900449 0 -216166919.26900449 -63867937.097659662 0 0 0 0 -401468365.31222534 -127474597.93583907 0 -127474597.93583907 102872818.18092619 0 0 0 0 -630826.29638671875 7433924.6452785134 0 7433924.6452785134 -7102019.8272254467 0 0 0 0 7249474.1732139587 2147484.5381677803 0 2147484.5381677803 -6734699.634958744 0 0 0 0 84709.632367587648 25213.973388448358 0 25213.973388448358 -6319.8732774673626 0 0 0 0 -1275568.9554432333 995065.96856783703 0 995065.96856783703 -793618.43103292852 0 0 0 0 -11416798.566497803 2200649.4416903183 0 2200649.4416903183 7499134.7165286914 0 0 0 0 -529053.89882940799 365369.51767075807 0 365369.51767075807 -224945.98088159808 0 0 0 0 -51804404.931259155 -15014294.621432165 0 -15014294.621432165 -171244372.90356553 0 0 0 0 -188647621.13275146 180334320.98906225 0 180334320.98906225 -416393024.21885514 0 0 0 0 6921465.2943267822 -468546.92629958689 0 -468546.92629958689 7925653.9993728548 0 0 0 0 45775302.120811462 41621661.695631415 0 41621661.695631415 45223925.158702374 0 0 0 0 -1074684.8903038651 198415.31672871113 0 198415.31672871113 106127.83299689717 0 0 0 0 -69105208.009292603 -116414971.60658097 0 -116414971.60658097 -60209669.661457181 0 0 0 0 34806942.703556061 78775658.553581655 0 78775658.553581655 63577924.683806896 0 0 0 0 -137650445.12495422 -95056947.97705552 0 -95056947.97705552 -66808003.473058961 0 0 0 0 -148039183.63401031 -103737363.84978956 0 -103737363.84978956 1689129.1540457606 0 0 0 0 -114317351.30982208 -47395348.682696208 0 -47395348.682696208 15836082.684281886 0 0 0 0 -2719994.2110210508 334231.3464370966 0 334231.3464370966 -418683.89987695159 0 0 0 0 -166265625.21359634 -74246831.555080548 0 -74246831.555080548 33314916.785826594 0 0 0 0 -186900004.0968399 -110589156.98398502 0 -110589156.98398502 1174977.9375809133 0 0 0 0 -222923199.66056824 -93597653.24821806 0 -93597653.24821806 33700726.787530661 0 0 0 0 -155966679.57977295 -79033597.962184429 0 -79033597.962184429 -6587553.7123084068 0 0 0 0 -164769558.31359863 -95531864.604402423 0 -95531864.604402423 -2617550.2292590141 0 0 0 0 -179381619.10336304 -66544140.010821342 0 -66544140.010821342 20580309.706942201 0 0 0 0 -189741243.30361938 -94761482.42283155 0 -94761482.42283155 20826746.073372513 0 0 0 0 14012564.649230957 8483506.7756817341 0 8483506.7756817341 -13793852.650378704 0 0 0 0 -158387622.38113403 -5605701.1194052696 0 -5605701.1194052696 -1340616.776273489 0 0 0 0 -243593711.74609375 92731141.899264336 0 92731141.899264336 294770862.63282144 0 0 0 0 -214.69433548301458 -17970.284198064357 0 -17970.284198064357 -42379.553979413235 0 0 0 0 -271826228.19438171 -101889092.65994875 0 -101889092.65994875 70372945.485253558 0 0 0 0 -329051938.48475647 -36864981.301540911 0 -36864981.301540911 127941698.14178157 0 0 0 0 -218223120.62127686 -78821183.465958476 0 -78821183.465958476 79872346.158739567 0 0 0 0 -225527805.82855225 -8549376.3830535412 0 -8549376.3830535412 126185147.38852505 0 0 0 0 -183095470.68237305 1854611.216186285 0 1854611.216186285 72154221.171606064 0 0 0 0 -245063136.05732727 -54057673.789407551 0 -54057673.789407551 70704900.254504204 0 0 0 0 -157533508.46334839 -16543632.989825726 0 -16543632.989825726 25992521.919050217 0 0 0 0 -187959669.45239258 -29705187.111293972 0 -29705187.111293972 42757271.289925575 0 0 0 0 -179903677.29794312 -41724887.924259901 0 -41724887.924259901 22588411.329104662 0 0 0 0 -165734421.7401123 -34834017.896120071 0 -34834017.896120071 -13065166.89751482 0 0 0 0 -776589.47571493685 1162867.110519506 0 1162867.110519506 -885415.25551956391 0 0 0 0 -52289980.597122192 -17670459.49487257 0 -17670459.49487257 22827560.690768719 0 0 0 0 12064546.577667236 -62850623.285617113 0 -62850623.285617113 34507285.908637047 0 0 0 0 50461241.263122559 55304027.204073429 0 55304027.204073429 -21848492.432997942 0 0 0 0 101458215.16747284 -38185961.109590411 0 -38185961.109590411 1196088.0906705856 0 0 0 0 -58910051.871520996 3985049.8502206802 0 3985049.8502206802 11788358.90288496 0 0 0 0 19836452.019668579 1670242.7678932548 0 1670242.7678932548 -5506231.4054164886 0 0 0 0 -164365549.07925415 -7514962.6765568256 0 -7514962.6765568256 -27472044.976468563 0 0 0 0 -307375.18846187741 576136.22483602911 0 576136.22483602911 -201433.63238317193 0 0 0 0 -28967737.057121277 -46134805.602388144 0 -46134805.602388144 -74601216.034516335 0 0 0 0 -133612989.14575195 -31619582.665991783 0 -31619582.665991783 -12882112.485177368 0 0 0 0 -138198046.21094131 -52651069.736005306 0 -52651069.736005306 -69105776.180207253 0 0 0 0 -81066238.089660645 -121644005.90659666 0 -121644005.90659666 130810540.81800604 0 0 0 0 -81701401.688583374 41356396.648299694 0 41356396.648299694 -85050759.528377533 0 0 0 0 81967057.576477051 -74250799.359638214 0 -74250799.359638214 -3917335.6763887405 0 0 0 0 -56852120.805969238 -95989255.455215454 0 -95989255.455215454 -5448806.6703996658 0 0 0 0 -43784010.192993164 93346900.400411606 0 93346900.400411606 75696040.022165775 0 0 0 0 -160184628.19651031 81495188.844846725 0 81495188.844846725 75648361.253005028 0 0 0 0 11583883.016662598 72651418.675848484 0 72651418.675848484 -90722316.192009926 0 0 0 0 20993588.935699463 42019687.697431564 0 42019687.697431564 8828609.4887619019 0 0 0 0 25029580.450744629 29603351.295158386 0 29603351.295158386 21458580.627144814 0 0 0 0 40801784.170959473 34279528.322939396 0 34279528.322939396 -45300274.938741684 0 0 0 0 19302838.560699463 -4475814.9237003326 0 -4475814.9237003326 -61579005.804660797 0 0 0 0 -324378730.36843872 -285589006.67952442 0 -285589006.67952442 -106986785.65741205 0 0 0 0 -153674610.84881592 -127655302.29636335 0 -127655302.29636335 -18197608.589966774 0 0 0 0 67346516.631561279 42423563.624069691 0 42423563.624069691 13262902.869606972 0 0 0 0 -74577694.595802307 -115528881.45567358 0 -115528881.45567358 -115606680.74470329 0 0 0 0 -75427616.942443848 -192717455.64499104 0 -192717455.64499104 -244712914.90563059 0 0 0 0 -292999425.43994141 186402771.29044008 0 186402771.29044008 -123956707.38215208 0 0 0 0 -825624.91233447194 -330760.75893759541 0 -330760.75893759541 -12808.433063063538 0 0 0 0 -499730861.33365631 53835581.200538635 0 53835581.200538635 48369169.121923447 0 0 0 0 -279841809.93639243 -13782902.113141695 0 -13782902.113141695 43230357.684698105 0 0 0 0 -279851925.03857422 95493396.746946812 0 95493396.746946812 23378288.947514534 0 0 0 0 -2656740.5617959201 -203803.94392443448 0 -203803.94392443448 558706.50041106518 0 0 0 0 -51842919.158325195 77538052.443551064 0 77538052.443551064 -81783435.495017529 0 0 0 0 -40517194.445034027 -6813546.7495691478 0 -6813546.7495691478 18170250.200312614 0 0 0 0 -14208186.237854004 49505707.951997757 0 49505707.951997757 -16702621.488989353 0 0 0 0 -55738040.248962402 62036521.961330414 0 62036521.961330414 -5340725.990231514 0 0 0 0 -40849071.052505493 20767929.045019388 0 20767929.045019388 -3526159.3314876556 0 0 0 0 -70459563.796974182 25783630.327650964 0 25783630.327650964 11231544.904921532 0 0 0 0 -68322468.446540833 16218252.510925829 0 16218252.510925829 8360735.5631313324 0 0 0 0 -125946355.25700378 28578340.169110537 0 28578340.169110537 20981104.099295616 0 0 0 0 -142635197.47735596 61839697.179673553 0 61839697.179673553 24729273.638667107 0 0 0 0 -226315772.75967407 14201905.23252964 0 14201905.23252964 45152528.125864983 0 0 0 0 -213492947.13321686 1557344.7810993195 0 1557344.7810993195 46589239.55037117 0 0 0 0 -43889643.114395142 12959119.80116272 0 12959119.80116272 133121637.31469727 0 0 0 0 3818601.1257171631 166084.41477847099 0 166084.41477847099 12482217.397300243 0 0 0 0 -5355020.7965107262 2040603.7243215702 0 2040603.7243215702 2626713.4405159755 0 0 0 0 -854723.16168212891 6327349.1306195259 0 6327349.1306195259 4072667.4466929436 0 0 0 0 463517.14256411791 9826005.2506179046 0 9826005.2506179046 4588087.0818555886 0 0 0 0 -10787981.959906232 -1516801.7569258958 0 -1516801.7569258958 1686382.7645383219 0 0 0 0 -1659994.0792236328 4382349.9230273664 0 4382349.9230273664 4439229.3761043549 0 0 0 0 -3694744.3000397235 6722193.7312994357 0 6722193.7312994357 4956300.5649984498 0 0 0 0 -3247864.4732182026 1402984.9593273066 0 1402984.9593273066 1351044.9223879762 0 0 0 0 17470719.812228203 25476277.10675028 0 25476277.10675028 25660674.939247131 0 0 0 0 17220847.040771484 31440504.869296074 0 31440504.869296074 24233303.108371735 0 0 0 0 44406117.762512207 9293086.5052881241 0 9293086.5052881241 -11184137.046262741 0 0 0 0 -28435150.193023682 1389723.3624200821 0 1389723.3624200821 24282243.790329933 0 0 0 0 14860338.277862549 -6044179.2349090576 0 -6044179.2349090576 14913319.922475338 0 0 0 0 -620864.99834245443 1565431.1970269484 0 1565431.1970269484 1243930.2400294328 0 0 0 0 30465095.520629883 19321361.144796848 0 19321361.144796848 -19526897.979131699 0 0 0 0 26273773.006958008 -10648671.96695137 0 -10648671.96695137 -4680902.0037994385 0 0 0 0 825019.30966186523 8010902.6738672256 0 8010902.6738672256 -5155709.2483081818 0 0 0 0 223025.48577880859 6910482.6505870819 0 6910482.6505870819 -1346760.3038966656 0 0 0 0 -17165716.172241211 -9493520.2354154587 0 -9493520.2354154587 11226234.234860182 0 0 0 0 21679085.283309937 7128092.7560442686 0 7128092.7560442686 -14456619.877574921 0 0 0 0 20674029.888671875 8429893.9153523445 0 8429893.9153523445 4241262.3914241791 0 0 0 0 2373619.9647657499 922816.86709279567 0 922816.86709279567 1843438.4578017492 0 0 0 0 19303630.659545898 4726936.1673935652 0 4726936.1673935652 -1500841.8341994882 0 0 0 0 -30531866.19619751 -11107638.646828651 0 -11107638.646828651 -1188733.0772719383 0 0 0 0 -15119786.036743823 3476556.0431277119 0 3476556.0431277119 6178091.6927940194 0 0 0 0 15898498.093078613 11817352.097429037 0 11817352.097429037 5497168.6929397583 0 0 0 0 -25055380.870445251 -5188381.2004404068 0 -5188381.2004404068 2446577.5354099274 0 0 0 0 -12151513.658410609 -767706.91832054034 0 -767706.91832054034 4748401.8906230051 0 0 0 0 -3077472.8120117188 2593338.6767292023 0 2593338.6767292023 7736235.9258069992 0 0 0 0 -15974424.190460205 -7830618.5616483688 0 -7830618.5616483688 -2005901.3253394365 0 0 0 0 -16667901.891987275 -2942849.3493015021 0 -2942849.3493015021 330233.53213175153 0 0 0 0 -9019772.172164917 -5455317.0324258804 0 -5455317.0324258804 3674496.1605949402 0 0 0 0 -9687695.4956359863 -4019838.5336096287 0 -4019838.5336096287 4795412.118637085 0 0 0 0 -18789469.368157938 -8962902.6635112278 0 -8962902.6635112278 -2229134.1239762725 0 0 0 0 -17510140.130954813 -1070420.9629130475 0 -1070420.9629130475 6867271.8571795598 0 0 0 0 -3151981.1953693628 -2920164.8825908201 0 -2920164.8825908201 1849649.5777514712 0 0 0 0 -2077958.1185627133 -2001208.2891143598 0 -2001208.2891143598 2570293.692488892 0 0 0 0 52212.926879882812 -4612206.9927864075 0 -4612206.9927864075 10097718.876222759 0 0 0 0 -157669.62406921387 -4848714.0184459686 0 -4848714.0184459686 10092446.393468857 0 0 0 0 -14056958.842568345 -649052.97316633165 0 -649052.97316633165 7918799.8412838569 0 0 0 0 -9458550.7288801968 -551917.08008832484 0 -551917.08008832484 2972367.4906343292 0 0 0 0 -5941755.9632015228 -2011438.6772396415 0 -2011438.6772396415 2901207.5081515312 0 0 0 0 -22096521.611572266 -8228104.1162149906 0 -8228104.1162149906 2287791.7403197289 0 0 0 0 -12922622.238154538 -4991630.3716213144 0 -4991630.3716213144 1033066.7042855143 0 0 0 0 -5710442.7584838867 -3887547.1046181321 0 -3887547.1046181321 3742284.210627228 0 0 0 0 -21574154.124694824 -5662043.8905014992 0 -5662043.8905014992 2305941.5501289368 0 0 0 0 -4208869.5218696967 2620301.4227217119 0 2620301.4227217119 4870729.4019361064 0 0 0 0 -3004455.5115356445 2780592.3642761707 0 2780592.3642761707 7779167.8418236971 0 0 0 0 -5112759.3190307617 1659057.2821449041 0 1659057.2821449041 4296176.1652619839 0 0 0 0 -7174380.9375 79091.588580727577 0 79091.588580727577 3086766.0463888645 0 0 0 0 434443.9670715332 1583655.4357770681 0 1583655.4357770681 1176971.6624516845 0 0 0 0 -6165392.4427300319 -1913308.0698618367 0 -1913308.0698618367 203029.94803647674 0 0 0 0 -4514566.5107581764 2116367.3342419975 0 2116367.3342419975 1419457.4617745196 0 0 0 0 -2460115.8426183164 -411911.7235735096 0 -411911.7235735096 150260.28399041621 0 0 0 0 -5517964.5209261551 989524.03607302904 0 989524.03607302904 987303.00704016723 0 0 0 0 27655317.184463501 23866038.259073973 0 23866038.259073973 22900451.415054321 0 0 0 0 35846540.147819519 31089094.964197636 0 31089094.964197636 -1036615.5848093033 0 0 0 0 45682956.887115479 16661200.739855766 0 16661200.739855766 13300449.082026482 0 0 0 0 -5965478.0410302207 -1263389.5398873091 0 -1263389.5398873091 225310.37485132366 0 0 0 0 -5063906.1986694336 -704985.93562817574 0 -704985.93562817574 1558585.8794803619 0 0 0 0 -5647615.5417088456 -649607.7024948895 0 -649607.7024948895 1086426.0995731498 0 0 0 0 -5086510.9860229492 -678138.09351444244 0 -678138.09351444244 1609409.2538127899 0 0 0 0 -6139051.970347099 -2518235.6015102342 0 -2518235.6015102342 482507.24148818711 0 0 0 0 -3515524.5117797852 -1743643.3556191921 0 -1743643.3556191921 -530316.73155117035 0 0 0 0 -6393134.3718986213 -1465672.9468472451 0 -1465672.9468472451 284360.70159508614 0 0 0 0 -8902824.1086999327 -3406249.8413765244 0 -3406249.8413765244 705067.08956548152 0 0 0 0 -6014992.4881591797 -2191114.3793525696 0 -2191114.3793525696 2579797.795583725 0 0 0 0 -13692529.083007812 -12729813.96621418 0 -12729813.96621418 -3259837.0309019089 0 0 0 0 -15572163.92855072 -7354798.3214090466 0 -7354798.3214090466 -164663.29964351654 0 0 0 0 -22141095.298126221 -9546671.3936786652 0 -9546671.3936786652 -773004.16490745544 0 0 0 0 -23254052.986236572 -10295346.342119694 0 -10295346.342119694 -10480.77515411377 0 0 0 0 -19123653.610961914 -14180534.788760185 0 -14180534.788760185 -3549606.0330489874 0 0 0 0 -12591951.656860352 -5128730.9214508533 0 -5128730.9214508533 -2202467.9056973457 0 0 0 0 -3445248.3421153948 -2373629.0355629697 0 -2373629.0355629697 898442.56900785607 0 0 0 0 -24438763.034790039 -14030967.600395679 0 -14030967.600395679 -2325939.5082314014 0 0 0 0 -13265773.696166992 -6619009.4556376934 0 -6619009.4556376934 356376.87999153137 0 0 0 0 -5319974.2082482055 177569.38045856357 0 177569.38045856357 -342163.09434292698 0 0 0 0 -13857495.655654907 2036626.5969572067 0 2036626.5969572067 3663055.3621101379 0 0 0 0 -1664428.5475767478 7673.4783522933722 0 7673.4783522933722 663907.94521685224 0 0 0 0 73913320.578125 -8337638.8710763454 0 -8337638.8710763454 -19684077.708435059 0 0 0 0 53964603.464691162 14893872.140275955 0 14893872.140275955 -9926895.8056960106 0 0 0 0 -1195199.5180673227 2216120.3563734666 0 2216120.3563734666 1322574.6970730755 0 0 0 0 -4477499.7483622804 -2885872.6056342982 0 -2885872.6056342982 913703.54065951472 0 0 0 0 -4060306.6584472656 81305.042298316956 0 81305.042298316956 685501.79851150513 0 0 0 0 -20756017.307342529 -12954995.575435281 0 -12954995.575435281 -2418337.7488162518 0 0 0 0 -2338801.7839660645 -11400035.250588298 0 -11400035.250588298 -3042119.0878763199 0 0 0 0 -21006627.84236145 -13308128.683407724 0 -13308128.683407724 12826293.523696423 0 0 0 0 -20373436.198883057 -10475610.993484974 0 -10475610.993484974 -8569362.3458461314 0 0 0 0 -24881475.242858887 -8204018.2777817249 0 -8204018.2777817249 -3538335.2994718552 0 0 0 0 -23777174.536376953 -11354003.404202938 0 -11354003.404202938 -1331097.438334465 0 0 0 0 -26801414.62437439 -10222300.177632332 0 -10222300.177632332 -1687697.8701229095 0 0 0 0 -23058182.42755127 -10664126.93739748 0 -10664126.93739748 -2919839.6671335697 0 0 0 0 -23357636.901000977 -8131274.7924189568 0 -8131274.7924189568 1708036.9003591239 0 0 0 0 -24842433.868469238 -9772343.1656103134 0 -9772343.1656103134 1758507.1395559311 0 0 0 0 -23373459.711883545 -7996119.1653499603 0 -7996119.1653499603 2071162.3876485825 0 0 0 0 -23406433.853271484 -8037085.6087393761 0 -8037085.6087393761 2095418.4831016064 0 0 0 0 -23686620.196792603 -7235495.7049580812 0 -7235495.7049580812 4752476.9089632034 0 0 0 0 -23804880.748657227 -8149432.4106240273 0 -8149432.4106240273 2247338.694065094 0 0 0 0 -23434198.486633301 -7697480.8803229332 0 -7697480.8803229332 2649269.0008440018 0 0 0 0 -21043099.471374512 -5823447.1184225082 0 -5823447.1184225082 2199158.9442801476 0 0 0 0 -2542241.1869384572 -3104941.1531346291 0 -3104941.1531346291 -654198.41195342573 0 0 0 0 -18688899.438690186 -5095799.8746316433 0 -5095799.8746316433 2416076.4746084213 0 0 0 0 30905662.261993408 -135413422.64328146 0 -135413422.64328146 -83102153.279704809 0 0 0 0 -19135661.25402832 -3974391.583386004 0 -3974391.583386004 5291484.6005458832 0 0 0 0 -20034192.740097046 -7308384.6844003201 0 -7308384.6844003201 -517407.88213920593 0 0 0 0 -23226186.140342712 -10908827.580545664 0 -10908827.580545664 5148624.8830003738 0 0 0 0 -22649611.667449951 -5975430.5603477955 0 -5975430.5603477955 6237817.2061457634 0 0 0 0 -71762706.608734131 -36154492.553050578 0 -36154492.553050578 -7221958.2619593143 0 0 0 0 -1284691.7125396729 132491720.56264991 0 132491720.56264991 -129195921.08067255 0 0 0 0 -21248171.911254883 -86594368.419410318 0 -86594368.419410318 35629626.630427107 0 0 0 0 -20752073.097717285 -8455299.247531414 0 -8455299.247531414 -1773800.4016294479 0 0 0 0 -199970027.96891785 -70882015.730607808 0 -70882015.730607808 294231105.55189991 0 0 0 0 -24596695.601379395 -40895332.276142418 0 -40895332.276142418 22219950.731755972 0 0 0 0 -51502820.128540039 -53717450.940073222 0 -53717450.940073222 46022459.303791344 0 0 0 0 -48198012.801452637 -25926894.156039536 0 -25926894.156039536 13494221.681333542 0 0 0 0 -81891030.191619873 -45435806.270124584 0 -45435806.270124584 44697080.648085117 0 0 0 0 -42159666.698440552 -40309986.396778315 0 -40309986.396778315 36287468.903941631 0 0 0 0 -130703771.01489258 -96053889.589725882 0 -96053889.589725882 11600399.305135489 0 0 0 0 -8527845.4608862028 -5711830.1272808351 0 -5711830.1272808351 -59269.060499503277 0 0 0 0 -24921042.424987793 -10245153.499634027 0 -10245153.499634027 -272822.52571630478 0 0 0 0 -21687795.700302124 -7599010.1185130179 0 -7599010.1185130179 1922766.8425683975 0 0 0 0 -23286627.719848633 -7167515.4372649193 0 -7167515.4372649193 2330804.4782590866 0 0 0 0 -22324506.294494629 -10003490.45447731 0 -10003490.45447731 -1434444.5766181946 0 0 0 0 -24280323.363586426 -8764654.0276260376 0 -8764654.0276260376 1256841.9920115471 0 0 0 0 -22799513.040893555 -7168653.8685231209 0 -7168653.8685231209 2120540.327275753 0 0 0 0 -23435878.357845306 -8415502.6910374761 0 -8415502.6910374761 891347.5911693573 0 0 0 0 -22915267.127868652 -7699362.7290229797 0 -7699362.7290229797 713339.4921579361 0 0 0 0 -22209234.186401367 -7586938.8839746118 0 -7586938.8839746118 -913518.37774753571 0 0 0 0 -26387284.280273438 -8300596.0734295845 0 -8300596.0734295845 232835.11477279663 0 0 0 0 -23768394.585754395 -9098835.2535591125 0 -9098835.2535591125 372321.88677310944 0 0 0 0 -24283709.640563965 -8607009.7782068253 0 -8607009.7782068253 1767334.9709339142 0 0 0 0 -25400391.038848877 -4954666.0321598053 0 -4954666.0321598053 -2907298.1812968254 0 0 0 0 608493.64025878906 -5195342.9052648544 0 -5195342.9052648544 13530904.079755783 0 0 0 0 -10153967.638054647 -5041027.2622347698 0 -5041027.2622347698 3604982.5865879562 0 0 0 0 -1777828.6750465482 -2340664.2903474253 0 -2340664.2903474253 3092205.3059975132 0 0 0 0 -5002038.365234375 -3417417.6009397507 0 -3417417.6009397507 4957213.0904932022 0 0 0 0 -72245221.301269531 -48532939.933773041 0 -48532939.933773041 -85456386.171685338 0 0 0 0 -66309790.074127197 -60470507.517322063 0 -60470507.517322063 -61968896.726876497 0 0 0 0 -95786662.807861328 -12730773.085275292 0 -12730773.085275292 -101669415.65219375 0 0 0 0 616315.87401868403 -2436372.2420609528 0 -2436372.2420609528 -765873.89776860713 0 0 0 0 -74044369.570251465 -55850261.572282195 0 -55850261.572282195 -25664513.165918231 0 0 0 0 -15295005.504629798 -2508714.6321936017 0 -2508714.6321936017 5756135.1112353541 0 0 0 0 -7692348.4714355469 -557710.85664558411 0 -557710.85664558411 2446117.0836009979 0 0 0 0 -9315971.2286911011 -2381564.8338875771 0 -2381564.8338875771 3024752.6011962891 0 0 0 0 -82757487.947509766 -11615865.162899494 0 -11615865.162899494 5987914.8147678375 0 0 0 0 -17384541.411129132 -10336601.549022811 0 -10336601.549022811 -2694387.9312255885 0 0 0 0 -12885720.000012182 -1553834.4311021827 0 -1553834.4311021827 3786900.0775326565 0 0 0 0 -29230089.98815918 -24390942.935068488 0 -24390942.935068488 1509429.9883356094 0 0 0 0 -4155328.4997209273 -1379573.995960936 0 -1379573.995960936 -91600.986888513609 0 0 0 0 -40769727.977996826 14423.520776987076 0 14423.520776987076 -12555438.447331429 0 0 0 0 -27675180.675476074 -10409131.624985933 0 -10409131.624985933 -9696739.7127981186 0 0 0 0 -32068240.579833984 -12044837.707734108 0 -12044837.707734108 -8703341.8673820496 0 0 0 0 -92205854.43850708 7472767.6079903841 0 7472767.6079903841 13546668.533506274 0 0 0 0 -56328242.157791138 -19314991.942130715 0 -19314991.942130715 33510623.22999692 0 0 0 0 -48986712.263702393 -7865079.9576822519 0 -7865079.9576822519 1117700.8462219238 0 0 0 0 -29125945.65860939 -19527652.899455033 0 -19527652.899455033 -10172372.372375488 0 0 0 0 -27531086.139892578 -20489733.687632561 0 -20489733.687632561 -13824129.999141693 0 0 0 0 -39897900.771850586 -17890784.652991772 0 -17890784.652991772 12154637.190204322 0 0 0 0 -29104480.372091293 -20397849.509916686 0 -20397849.509916686 -3213970.9369029999 0 0 0 0 -31276947.547973633 -15545001.62993145 0 -15545001.62993145 -8445369.2564816475 0 0 0 0 -26940015.605712891 -16094603.046030998 0 -16094603.046030998 -11491792.323792458 0 0 0 0 -26246819.868652344 -18887762.567750931 0 -18887762.567750931 -15038736.194114685 0 0 0 0 -23328643.962524414 -17950242.126271248 0 -17950242.126271248 -16657873.162951946 0 0 0 0 -22667746.892456055 -11975445.976613998 0 -11975445.976613998 -15429955.745540619 0 0 0 0 -28706981.913696289 -12385366.14576602 0 -12385366.14576602 -13341722.555186272 0 0 0 0 -20210962.927818298 -5397593.4399638176 0 -5397593.4399638176 -1319917.0825958252 0 0 0 0 -17085113.843505859 -11577493.670633316 0 -11577493.670633316 -15726533.07200098 0 0 0 0 -19353584.16015625 -16123805.020228386 0 -16123805.020228386 -15819006.728827 0 0 0 0 -17947968.242337272 -8457540.55203983 0 -8457540.55203983 4076659.2399360416 0 0 0 0 -23108806.454223633 -19459155.005121231 0 -19459155.005121231 -18453220.012245178 0 0 0 0 2104632.3337964565 -4637264.5070805633 0 -4637264.5070805633 -2593021.8618053114 0 0 0 0 -91088319.56628418 -69934792.829064846 0 -69934792.829064846 -42450009.655515194 0 0 0 0 -66527732.325622559 23358715.668407679 0 23358715.668407679 -25387099.788743496 0 0 0 0 -29752463.905944824 -3471369.6525294781 0 -3471369.6525294781 -12653686.195958853 0 0 0 0 -145401475.78852081 -39133842.590608329 0 -39133842.590608329 61985077.544172287 0 0 0 0 -3218719.3490419388 -2216144.9629369453 0 -2216144.9629369453 -631339.94931080099 0 0 0 0 75887378.558029175 96326084.249902844 0 96326084.249902844 -9185484.8153430149 0 0 0 0 -81789929.076511383 -38242794.153752767 0 -38242794.153752767 -46038475.313536286 0 0 0 0 -95507657.52205801 -71218017.634452358 0 -71218017.634452358 82578159.586427987 0 0 0 0 4819853.1348266602 -138033267.93069589 0 -138033267.93069589 72999917.105679989 0 0 0 0 -36690970.06288147 -113156012.30304565 0 -113156012.30304565 95090195.076675415 0 0 0 0 192716483.94224548 -106579112.70563829 0 -106579112.70563829 -63230293.098789155 0 0 0 0 89517903.906829834 -26650922.598578632 0 -26650922.598578632 33334818.572586827 0 0 0 0 13780512.02947998 -257906891.93781227 0 -257906891.93781227 -12378497.238959312 0 0 0 0 103538024.46256351 -283392959.62915057 0 -283392959.62915057 -179584642.5758028 0 0 0 0 9777144.9256286621 -180230105.03852028 0 -180230105.03852028 -158290008.34516394 0 0 0 0 15266846.526412964 -146479773.6562182 0 -146479773.6562182 -80494185.200418234 0 0 0 0 -98806796.979656219 -170310845.93108854 0 -170310845.93108854 -84907774.355059981 0 0 0 0 -19612364.812728882 -70529306.241434574 0 -70529306.241434574 -250754650.82462525 0 0 0 0 -4354549.2487182617 -128347196.4960057 0 -128347196.4960057 -75885520.459763527 0 0 0 0 -174203465.89318848 -65255503.349832296 0 -65255503.349832296 -88619278.498878956 0 0 0 0 -109804881.60775757 21375302.844425678 0 21375302.844425678 -141033911.94845587 0 0 0 0 -300674048.90758896 -454070.07153087854 0 -454070.07153087854 -14575428.295514107 0 0 0 0 -113715152.68751526 -32345189.397762179 0 -32345189.397762179 -17212201.970602751 0 0 0 0 111832090.5637207 -151747273.67969191 0 -151747273.67969191 24051322.474161625 0 0 0 0 285728680.0160675 12342843.64551425 0 12342843.64551425 -98741539.358001947 0 0 0 0 -459962.63745988905 -988964.19984715804 0 -988964.19984715804 -342849.04231579392 0 0 0 0 -2960406.420797348 -54158827.392758518 0 -54158827.392758518 120609186.1610136 0 0 0 0 29157423.939119577 -57131152.913184129 0 -57131152.913184129 -78015773.191477895 0 0 0 0 135456815.60037231 -26495781.287025571 0 -26495781.287025571 -83815259.622468114 0 0 0 0 149152422.30290222 -51778253.791044116 0 -51778253.791044116 -131770487.03865421 0 0 0 0 -14385353.86038208 37918611.075882748 0 37918611.075882748 -193600486.8009724 0 0 0 0 -130626802.02494049 227411406.29024801 0 227411406.29024801 -267230299.96202391 0 0 0 0 74655536.464782715 3300667.0182190239 0 3300667.0182190239 -282269573.78151667 0 0 0 0 85331091.029052734 -79398631.126033366 0 -79398631.126033366 8410218.3535041511 0 0 0 0 81624221.086242676 58971610.930909306 0 58971610.930909306 -216786323.03208318 0 0 0 0 -53973390.523712158 -53765948.592036135 0 -53765948.592036135 209964411.86381924 0 0 0 0 26618668.23526001 204042128.78029001 0 204042128.78029001 -370881810.91679144 0 0 0 0 -100200012.68921471 -112222597.77952035 0 -112222597.77952035 -250540737.64221704 0 0 0 0 166252055.46109009 -20772217.287383795 0 -20772217.287383795 -219189043.8073248 0 0 0 0 -526714606.01951599 408406904.4324019 0 408406904.4324019 33771778.36999353 0 0 0 0 -1609184.4618401527 -644652.95268563181 0 -644652.95268563181 442651.76966461784 0 0 0 0 135680939.05735016 -3386291.3699557185 0 -3386291.3699557185 -31886859.654250622 0 0 0 0 -650581913.84275818 -162069624.62419644 0 -162069624.62419644 -54570377.86317575 0 0 0 0 -82946461.64305687 -146306588.8922106 0 -146306588.8922106 -437519734.56062919 0 0 0 0 -442697455.2150116 13371895.100542784 0 13371895.100542784 -120652473.63524365 0 0 0 0 -257459173.36920929 105317025.01524818 0 105317025.01524818 -319683254.43615812 0 0 0 0 -342275835.56735229 91513079.740983605 0 91513079.740983605 -145337514.28505623 0 0 0 0 -382630447.18876648 74001576.990897119 0 74001576.990897119 -123682321.96263456 0 0 0 0 -384108967.96664429 -51344011.185648918 0 -51344011.185648918 -257195721.49242353 0 0 0 0 -178912368.0677948 80056153.544430375 0 80056153.544430375 -242824454.14742374 0 0 0 0 -309329304.53448486 204463129.56533968 0 204463129.56533968 -331625140.64078271 0 0 0 0 -436626916.61346436 161857921.08994389 0 161857921.08994389 -234196658.71251103 0 0 0 0 -524839817.81083679 339592053.658849 0 339592053.658849 -279398966.02498901 0 0 0 0 -243319890.57374573 285236195.35237849 0 285236195.35237849 -278272843.45000839 0 0 0 0 -654806998.35534668 277418566.04687285 0 277418566.04687285 -221973604.66810513 0 0 0 0 -525038207.65913391 292233988.8750881 0 292233988.8750881 -272499960.03618169 0 0 0 0 -403248140.70962524 185214884.65050423 0 185214884.65050423 -235509383.45135283 0 0 0 0 -439950134.54320526 202758455.30174029 0 202758455.30174029 -219835038.23959613 0 0 0 0 -471419278.60865784 206571547.51867461 0 206571547.51867461 -143506732.79222766 0 0 0 0 -383450297.06739044 83554114.903634727 0 83554114.903634727 -76263553.038034916 0 0 0 0 -426731056.85725403 206917403.75415659 0 206917403.75415659 -142760726.07222891 0 0 0 0 -650818545.16086102 130026213.46847335 0 130026213.46847335 -134697260.46786737 0 0 0 0 -486945928.61427307 378222424.66192937 0 378222424.66192937 -325193647.04946041 0 0 0 0 -624219112.89328194 379049639.2847265 0 379049639.2847265 -228359246.74181128 0 0 0 0 -509464792.39944458 309708456.11643314 0 309708456.11643314 -192112617.85247016 0 0 0 0 -529457137.4981308 266400554.16298246 0 266400554.16298246 -285561525.23804998 0 0 0 0 -308437730.39733124 256469212.64242446 0 256469212.64242446 -293293630.67061758 0 0 0 0 -674647577.97453308 26559082.04606986 0 26559082.04606986 -99086439.046114326 0 0 0 0 112741797.65930176 -49410551.408986092 0 -49410551.408986092 -106037676.43180299 0 0 0 0 -1700575.4394187927 121837084.89255035 0 121837084.89255035 73263341.4155972 0 0 0 0 187916990.40116882 -129456319.19740415 0 -129456319.19740415 -44788118.835384607 0 0 0 0 -127487541.81515503 -15033807.61086452 0 -15033807.61086452 -58274114.972670555 0 0 0 0 -272997072.49822998 143142725.50713921 0 143142725.50713921 -69011609.538667917 0 0 0 0 -217028658.64370728 115460046.69932127 0 115460046.69932127 -40113872.750819147 0 0 0 0 -350652283.7691803 214160965.85586166 0 214160965.85586166 -192528691.44893265 0 0 0 0 -309720859.05849457 29080137.559272051 0 29080137.559272051 -104557001.63234425 0 0 0 0 -392154074.84443665 128570542.23611438 0 128570542.23611438 -368085425.35964251 0 0 0 0 -233738349.98138428 214851442.93921447 0 214851442.93921447 -204370461.84340668 0 0 0 0 -246936035.70317078 48042415.937648177 0 48042415.937648177 -61406425.823155403 0 0 0 0 -100764292.31098938 93229987.727540016 0 93229987.727540016 -54706458.851204872 0 0 0 0 -44192280.529914856 -35308784.919855297 0 -35308784.919855297 27107126.705060005 0 0 0 0 -29960291.203964233 83314293.142103195 0 83314293.142103195 -182282631.71000671 0 0 0 0 128798512.33595276 -61980179.511116982 0 -61980179.511116982 -52711160.819355488 0 0 0 0 87626104.16897583 67526294.30470109 0 67526294.30470109 -99416182.69991684 0 0 0 0 -4396397.8964538574 74933017.514606953 0 74933017.514606953 -69246664.616605282 0 0 0 0 37535611.480209351 -6623223.935526371 0 -6623223.935526371 -60768558.695998192 0 0 0 0 17796807.435334206 125828695.10609017 0 125828695.10609017 23977090.738779068 0 0 0 0 30394447.038528442 28835730.898372173 0 28835730.898372173 -58152928.639432192 0 0 0 0 -155288851.77030945 -1102356.0214807987 0 -1102356.0214807987 -8509712.375490427 0 0 0 0 -135895638.69378662 57547364.061491489 0 57547364.061491489 -42223003.918196678 0 0 0 0 -325905604.35493469 186897332.3781215 0 186897332.3781215 -70331691.109522343 0 0 0 0 -492785007.99073792 246374080.93631935 0 246374080.93631935 -4045373.5532435179 0 0 0 0 -497825344.17823601 273822366.78659356 0 273822366.78659356 -63842471.042402744 0 0 0 0 -619396161.23904419 280545606.97546828 0 280545606.97546828 47238516.079619229 0 0 0 0 -362784287.06640625 171457220.00993669 0 171457220.00993669 30320394.871746778 0 0 0 0 -631199821.82757568 335502950.71335053 0 335502950.71335053 -41397859.996450067 0 0 0 0 -541929021.13987732 279538336.73691458 0 279538336.73691458 -85749689.836277008 0 0 0 0 -457613663.11132812 45806239.570204258 0 45806239.570204258 -237758238.8717832 0 0 0 0 -555207279.29232788 338258557.49565208 0 338258557.49565208 -165129172.88722634 0 0 0 0 -391680663.52600098 374050719.66941845 0 374050719.66941845 -233306772.63252202 0 0 0 0 19002353.037765503 19156793.38609156 0 19156793.38609156 -254279212.51654708 0 0 0 0 -51124471.504150391 915047.46094490588 0 915047.46094490588 3949283.9605793357 0 0 0 0 -567768064.92220116 -23413196.668020204 0 -23413196.668020204 110532166.99618554 0 0 0 0 -655560.18079373986 585017.49863034859 0 585017.49863034859 -469604.78596329439 0 0 0 0 -788674505.24107361 287389219.04206967 0 287389219.04206967 -168914602.47151375 0 0 0 0 -571937250.17721558 115681074.8643775 0 115681074.8643775 -131110271.05067921 0 0 0 0 -423661263.8759613 -119802561.96128774 0 -119802561.96128774 117792154.35883379 0 0 0 0 -1781381.9100891799 1759490.55963815 0 1759490.55963815 -1012346.8488919293 0 0 0 0 -57445774.192092896 396219797.28744793 0 396219797.28744793 119791708.61229594 0 0 0 0 -419506177.62237549 -90820951.948827803 0 -90820951.948827803 111967486.33441579 0 0 0 0 -846834.25740112364 834161.39646649733 0 834161.39646649733 -560311.43431531126 0 0 0 0 -1130683283.2173004 48150398.870325685 0 48150398.870325685 85429208.737225056 0 0 0 0 327780773.4591217 329413684.60507965 0 329413684.60507965 -324327659.90451777 0 0 0 0 -874901751.31661987 543679461.49299264 0 543679461.49299264 -254706219.13329244 0 0 0 0 -712512686.21868896 316074031.77045846 0 316074031.77045846 31965703.178528965 0 0 0 0 -514920729.64007568 189876022.39126328 0 189876022.39126328 111216745.17854214 0 0 0 0 -416809788.89588928 83961026.099713206 0 83961026.099713206 -57881917.768394709 0 0 0 0 -323621079.17771912 56377371.852018118 0 56377371.852018118 -62261050.707733274 0 0 0 0 -322340087.83862305 107811927.96181363 0 107811927.96181363 -37328163.062393546 0 0 0 0 -91206064.13243866 217471873.28648555 0 217471873.28648555 97463966.116235256 0 0 0 0 -81056216.797164917 -107787545.64682275 0 -107787545.64682275 151601682.92258355 0 0 0 0 -1346809623.8625641 43584999.247751355 0 43584999.247751355 236601669.00629449 0 0 0 0 -1034912.2371385992 923655.04793320596 0 923655.04793320596 -410019.77967381617 0 0 0 0 217464814.63238525 471638942.5765028 0 471638942.5765028 -218018762.07796192 0 0 0 0 -471795581.49268341 -192843819.37429416 0 -192843819.37429416 66874148.251261711 0 0 0 0 -1112260433.9728394 1192587.0319533348 0 1192587.0319533348 231088672.50460339 0 0 0 0 -290663497.6006012 -112792009.56404364 0 -112792009.56404364 -48368515.643195421 0 0 0 0 -893209.24015378952 947512.45594776794 0 947512.45594776794 24310.9127953485 0 0 0 0 -655986430.42779541 509891745.80337524 0 509891745.80337524 -206825096.28906941 0 0 0 0 -944787389.1800766 708954734.86540735 0 708954734.86540735 9611483.6688306332 0 0 0 0 -786906568.71780396 524669185.21195281 0 524669185.21195281 149836560.03811687 0 0 0 0 -703859866.33517075 191129921.50435692 0 191129921.50435692 -191114230.45306253 0 0 0 0 -2823516.9261016846 280976542.58270049 0 280976542.58270049 -281104825.74124587 0 0 0 0 -422084110.49172974 298501878.93955606 0 298501878.93955606 -204609169.85176611 0 0 0 0 -376968643.26359558 142167525.43764985 0 142167525.43764985 -92551969.007719845 0 0 0 0 -322345374.30342102 88193655.500671059 0 88193655.500671059 -118144855.37727666 0 0 0 0 -276621449.0476532 35735141.247613519 0 35735141.247613519 -60552890.683766723 0 0 0 0 -373688806.86047363 63724806.190261871 0 63724806.190261871 -67087605.648575306 0 0 0 0 -405442367.20065308 127779363.19620076 0 127779363.19620076 -30759573.806123853 0 0 0 0 -434764659.60331726 123120787.12531185 0 123120787.12531185 -31485864.250478476 0 0 0 0 -415358364.2723999 149958582.99927971 0 149958582.99927971 81731.216300200613 0 0 0 0 -401573528.79794312 157813431.31534126 0 157813431.31534126 -36194476.33370547 0 0 0 0 -351894753.43093872 185279441.45445675 0 185279441.45445675 -26888155.053005517 0 0 0 0 -134070551.60227966 80475784.380894199 0 80475784.380894199 39398.762984736277 0 0 0 0 -417443451.6798954 48392595.057395071 0 48392595.057395071 160470276.06585288 0 0 0 0 -568416869.22898102 203279939.21660057 0 203279939.21660057 60714730.338574946 0 0 0 0 -478845814.01454163 160176349.78897476 0 160176349.78897476 -37674264.56407088 0 0 0 0 -373522740.13856506 179293423.65695435 0 179293423.65695435 -36958691.23525741 0 0 0 0 -454994018.9161377 146349223.3051948 0 146349223.3051948 -39494116.883141443 0 0 0 0 -199771021.40812683 206233421.52849549 0 206233421.52849549 -94257765.692660093 0 0 0 0 -363399196.39494324 253230190.06246433 0 253230190.06246433 -96871624.27539748 0 0 0 0 -70427635.941589355 189946332.75883913 0 189946332.75883913 -178623605.29188311 0 0 0 0 -682463471.4033432 116937412.26446357 0 116937412.26446357 -31662617.424407423 0 0 0 0 -432825505.14225769 113838906.32726076 0 113838906.32726076 -67921067.304931641 0 0 0 0 -394442976.59396362 97050764.9757514 0 97050764.9757514 -82944979.239929199 0 0 0 0 -366588342.67237854 63377513.589517221 0 63377513.589517221 -58830301.157948762 0 0 0 0 -593157113.29412842 134756984.38732231 0 134756984.38732231 9863152.0004608035 0 0 0 0 -216305.12210595352 138373.25496594608 0 138373.25496594608 -6901.1486551177222 0 0 0 0 -467715940.84391785 86988118.985373661 0 86988118.985373661 -12274633.474683732 0 0 0 0 -420655220.52347946 88095839.662519068 0 88095839.662519068 -8367217.9310456514 0 0 0 0 -541292494.82505798 93340872.41684702 0 93340872.41684702 -634237.40023121203 0 0 0 0 -453266078.60076141 133665445.50981697 0 133665445.50981697 -85436.746250704862 0 0 0 0 -439162.77975405054 268816.07132767886 0 268816.07132767886 -12333.217380514165 0 0 0 0 -311803752.32277918 109992467.44736567 0 109992467.44736567 -9075693.493929714 0 0 0 0 -350170588.13005066 125249502.22504483 0 125249502.22504483 75620.674349202454 0 0 0 0 -351134059.79850006 151660799.43888986 0 151660799.43888986 -7581223.4497261941 0 0 0 0 -263599375.13691711 120916586.52482727 0 120916586.52482727 -40888.05489314055 0 0 0 0 -334610414.16646004 169264379.18836522 0 169264379.18836522 -9521593.8498455584 0 0 0 0 -240068756.67398834 157184031.97486651 0 157184031.97486651 -28756102.710638523 0 0 0 0 -144789362.49572754 112705378.89346945 0 112705378.89346945 -38709235.44474417 0 0 0 0 -179056563.43925476 105868396.8023982 0 105868396.8023982 -15791.337968661916 0 0 0 0 -144141423.18235779 90145431.064508885 0 90145431.064508885 -24490805.888453156 0 0 0 0 -144232382.23950195 125732072.86162409 0 125732072.86162409 -62901101.563904703 0 0 0 0 -270518.97617263161 -31565.464505076408 0 -31565.464505076408 -110203.9748462865 0 0 0 0 -133262839.526474 85544290.260229722 0 85544290.260229722 -27353.973728656358 0 0 0 0 -145707311.17834473 70001877.786416426 0 70001877.786416426 -19321434.281309009 0 0 0 0 -214890.19162191823 -132947.52008801699 0 -132947.52008801699 -319419.3328199134 0 0 0 0 -17841878.017066956 34936540.0759122 0 34936540.0759122 -26422537.058813512 0 0 0 0 -75467736.892456055 18631572.926728204 0 18631572.926728204 3815544.0580425113 0 0 0 0 -16324674.794204712 -13962021.257692903 0 -13962021.257692903 -7574160.4236341342 0 0 0 0 -82564230.247497559 113960360.23890972 0 113960360.23890972 -129672017.69978678 0 0 0 0 -188928353.22173691 142250637.74817017 0 142250637.74817017 -64043007.888799965 0 0 0 0 -89665374.231536865 65544449.509021372 0 65544449.509021372 -36058865.643949866 0 0 0 0 -78728729.527886391 83685099.62737827 0 83685099.62737827 -73015765.446825117 0 0 0 0 -23563616.152709961 21354244.723242417 0 21354244.723242417 -53787736.779454477 0 0 0 0 -75521816.942491055 59581300.145250969 0 59581300.145250969 -64587708.555596292 0 0 0 0 -67650562.717605591 68965346.133450836 0 68965346.133450836 -53596018.400661558 0 0 0 0 10008744.809951782 34696369.844252259 0 34696369.844252259 -52009112.79747501 0 0 0 0 40568893.408592224 3361710.1385127157 0 3361710.1385127157 -21337497.094229698 0 0 0 0 -127423.78742587194 -59585.206453874707 0 -59585.206453874707 166051.20433215782 0 0 0 0 -4828844.6300048828 28215558.869670138 0 28215558.869670138 15503737.078186274 0 0 0 0 3727076.1099853516 34618086.687034845 0 34618086.687034845 1004675.0365422964 0 0 0 0 -30510727.31993866 2681860.1641644612 0 2681860.1641644612 8897441.6152718067 0 0 0 0 -5964391.289276123 2539912.6458072364 0 2539912.6458072364 5182528.4098655432 0 0 0 0 -12565918.235145569 10566252.099686876 0 10566252.099686876 12262772.291795194 0 0 0 0 -40143566.710762024 18223184.568215542 0 18223184.568215542 -17955893.669405699 0 0 0 0 -14065950.139053345 -9271671.1572061181 0 -9271671.1572061181 -10938239.072652098 0 0 0 0 12676071.268844604 127558.57107446343 0 127558.57107446343 -13731625.225072786 0 0 0 0 -150359.14827208221 -271804.78559360653 0 -271804.78559360653 -481110.33226305759 0 0 0 0 -9406538.4817886353 -9996093.9580055028 0 -9996093.9580055028 875007.97055155039 0 0 0 0 -13774485.984733582 -3921533.0582571067 0 -3921533.0582571067 3810697.9572384655 0 0 0 0 -8342948.3047637939 -2750139.2497204617 0 -2750139.2497204617 5298120.1496613994 0 0 0 0 -5626753.5385284424 -3953763.5944224745 0 -3953763.5944224745 3637464.2357904613 0 0 0 0 -2301626.9788970947 -7174145.699416697 0 -7174145.699416697 912889.99783414602 0 0 0 0 -6313771.525428772 -5354171.2401235281 0 -5354171.2401235281 1504886.8487095311 0 0 0 0 -4034170.8505096436 655155.22296601906 0 655155.22296601906 184663.0843963623 0 0 0 0 2821592.1510162354 4285271.7986602113 0 4285271.7986602113 6279326.6084416658 0 0 0 0 -3042720.2468414307 -1183202.0884095549 0 -1183202.0884095549 3411030.2624554224 0 0 0 0 1157482.088104248 8347680.5064422414 0 8347680.5064422414 9063866.9960748777 0 0 0 0 46608.605745963752 641221.44842644781 0 641221.44842644781 -603530.83823347196 0 0 0 0 2765788.013458252 1087066.3213232756 0 1087066.3213232756 151216.79443085194 0 0 0 0 -1703614.3636703417 914695.25269017369 0 914695.25269017369 638811.4621153262 0 0 0 0 112440133.75930786 33186038.865319252 0 33186038.865319252 -29188438.307151616 0 0 0 0 66536997.614379883 -9741926.7100508213 0 -9741926.7100508213 -19048557.900872231 0 0 0 0 43740493.552459717 8125954.9175111055 0 8125954.9175111055 23302077.342342854 0 0 0 0 -1541078.8769980706 1290628.6506019309 0 1290628.6506019309 -456825.24031356582 0 0 0 0 1526451.5930786133 1668493.0853779316 0 1668493.0853779316 973975.00323104858 0 0 0 0 19306713.474777222 27147628.323366947 0 27147628.323366947 6393892.1268295646 0 0 0 0 -19707600.430053711 -6177000.570479393 0 -6177000.570479393 1332426.476480484 0 0 0 0 -733684.30723616853 184544.75171300769 0 184544.75171300769 808733.80329173384 0 0 0 0 -1862073.1577453613 9863228.6550481319 0 9863228.6550481319 13539819.949216664 0 0 0 0 -1362767.2544071898 1552408.9938584343 0 1552408.9938584343 -1342889.1208953136 0 0 0 0 -29723973.228683472 8632446.0941699147 0 8632446.0941699147 32994060.364577055 0 0 0 0 99750.933677010238 1031239.5691336058 0 1031239.5691336058 -1190295.2042122118 0 0 0 0 -526650.36103967577 362122.16645053029 0 362122.16645053029 417411.39580516133 0 0 0 0 2563652.1742401123 3230157.6813840643 0 3230157.6813840643 9320737.1672951654 0 0 0 0 17042727.197860718 13622105.613176238 0 13622105.613176238 8030229.3558730483 0 0 0 0 -5748484.9870300293 8246211.4437411837 0 8246211.4437411837 11751415.190987647 0 0 0 0 -211328541.764328 12348215.815361142 0 12348215.815361142 -23680895.472778559 0 0 0 0 -228915194.6875 34296452.142264187 0 34296452.142264187 15533080.764878154 0 0 0 0 -1059530.5547915921 -1247419.2826007754 0 -1247419.2826007754 -1601969.5431016532 0 0 0 0 42962051.6509552 19191540.361030817 0 19191540.361030817 54501762.555844784 0 0 0 0 -42750482.417312622 35790157.217415333 0 35790157.217415333 83921451.844865322 0 0 0 0 -32449235.549430847 25103188.560401678 0 25103188.560401678 76976738.221258163 0 0 0 0 -30427676.291412354 29873046.757655621 0 29873046.757655621 63158831.559183836 0 0 0 0 16705705.464614868 38977453.10927701 0 38977453.10927701 58158709.186374664 0 0 0 0 -83214086.77142334 5952450.125772953 0 5952450.125772953 205530134.90481377 0 0 0 0 43317008.277222514 -32240176.628313586 0 -32240176.628313586 101878631.97528458 0 0 0 0 -12828342.639221191 72547674.255402565 0 72547674.255402565 67164905.15112114 0 0 0 0 12407250.603271484 42615869.458178043 0 42615869.458178043 93469717.405944824 0 0 0 0 -215567960.22167206 63513488.649713278 0 63513488.649713278 -111469986.90207958 0 0 0 0 -463692908.41357422 176293445.40195656 0 176293445.40195656 228904492.99424934 0 0 0 0 -514676926.97784424 272586969.53761292 0 272586969.53761292 -136514336.56934547 0 0 0 0 -354844096.03479004 214701027.17120171 0 214701027.17120171 -212287621.80013365 0 0 0 0 -298902091.33215332 152153639.4450841 0 152153639.4450841 -204447595.17387855 0 0 0 0 -331987900.58361816 60796775.543915272 0 60796775.543915272 -73446551.64364624 0 0 0 0 -472409541.51794434 163421409.73613787 0 163421409.73613787 -121254862.96203542 0 0 0 0 -420748789.96313477 52672194.330072284 0 52672194.330072284 -10400186.170726776 0 0 0 0 -309659881.44932556 -91973805.496397495 0 -91973805.496397495 -6474011.326359272 0 0 0 0 -421062547.8822937 37531591.427688599 0 37531591.427688599 -40066067.988154888 0 0 0 0 -342148996.76571655 -25334052.035072088 0 -25334052.035072088 -8295297.5803867579 0 0 0 0 -283598151.47747803 -7587842.2038249969 0 -7587842.2038249969 -15402140.514243126 0 0 0 0 -273992581.73522949 2556259.4029512405 0 2556259.4029512405 -8887582.8778982162 0 0 0 0 -327209540.85977936 61879565.269151688 0 61879565.269151688 -75008714.602720261 0 0 0 0 282731.25625161454 207839.95117409527 0 207839.95117409527 -22426.224682190259 0 0 0 0 -143990203.84027863 -55349316.236580908 0 -55349316.236580908 -52033476.044676304 0 0 0 0 -11986632.146911621 -2473726.2838932946 0 -2473726.2838932946 2651950.1080850251 0 0 0 0 -293700.46741557866 -341968.52375816554 0 -341968.52375816554 -885836.99786343577 0 0 0 0 -216563739.41563416 -11411323.667850673 0 -11411323.667850673 -23448605.964390755 0 0 0 0 -289309965.33755493 -32901043.572685719 0 -32901043.572685719 20197678.56948185 0 0 0 0 -245200592.36958313 -51576940.338727355 0 -51576940.338727355 5545069.3037096262 0 0 0 0 169212.24077384314 81605.340992435813 0 81605.340992435813 -161449.75092040095 0 0 0 0 -64503214.092193604 -19398757.137464643 0 -19398757.137464643 -7333876.2618093491 0 0 0 0 -125302.69297181256 -372375.01519209892 0 -372375.01519209892 -595370.55218387151 0 0 0 0 -261331970.15988159 -52065989.273111701 0 -52065989.273111701 18568914.290390491 0 0 0 0 -252654382.70826721 -42924898.499166459 0 -42924898.499166459 -3973729.7463548183 0 0 0 0 -285604302.67498779 4838739.5545445681 0 4838739.5545445681 1814411.6424348354 0 0 0 0 -282381386.19628906 -34687508.720674992 0 -34687508.720674992 13804042.966997862 0 0 0 0 -270654359.32875061 -31033818.741651416 0 -31033818.741651416 -123430.21309614182 0 0 0 0 -250068474.00646973 -36064401.168214798 0 -36064401.168214798 13591886.489786357 0 0 0 0 -213014294.31072998 -6404865.5544047356 0 -6404865.5544047356 344731.9480342865 0 0 0 0 -255085154.43981934 -31242962.218749225 0 -31242962.218749225 12058563.536862254 0 0 0 0 -213062274.12850952 -8977314.5545799136 0 -8977314.5545799136 8698145.5583524629 0 0 0 0 -237256330.7729187 -44829494.716039777 0 -44829494.716039777 -9068332.1693491936 0 0 0 0 -198059051.82328796 -19839808.580117911 0 -19839808.580117911 7122344.5292752981 0 0 0 0 -341151852.55975342 -50087730.265701979 0 -50087730.265701979 12856939.824908614 0 0 0 0 35861.988627712242 -37867.320718385279 0 -37867.320718385279 -50950.46326140262 0 0 0 0 -111464140.08059692 64186388.920570731 0 64186388.920570731 2207696.1992197037 0 0 0 0 -273379228.76623535 -19284414.052766562 0 -19284414.052766562 -4663498.3422780968 0 0 0 0 -252802190.31872559 -17041214.606121063 0 -17041214.606121063 3866027.6333190501 0 0 0 0 -227246786.36129761 -28277250.289015695 0 -28277250.289015695 1707891.7889810801 0 0 0 0 -185285694.84814453 -100820567.30351609 0 -100820567.30351609 -22313576.432468891 0 0 0 0 -222232568.38775635 -33935660.527165055 0 -33935660.527165055 -27172905.389693588 0 0 0 0 -254074795.52676392 -69029491.541584134 0 -69029491.541584134 -31572878.575858235 0 0 0 0 -231063988.47408295 -21941640.746319875 0 -21941640.746319875 9210528.4945720434 0 0 0 0 -164006349.73097229 14253309.436363786 0 14253309.436363786 3543907.1532521248 0 0 0 0 -204989557.20817566 -12558351.890744835 0 -12558351.890744835 13912654.3423177 0 0 0 0 -200646529.71417236 -17367732.865864575 0 -17367732.865864575 -18092529.863625646 0 0 0 0 -151348107.89425659 -855253.72110390663 0 -855253.72110390663 -4050436.7460316867 0 0 0 0 -150372583.75187683 16899737.280488655 0 16899737.280488655 12899432.155621931 0 0 0 0 -79974686.039855957 -3915382.2925028503 0 -3915382.2925028503 -5296095.4759379625 0 0 0 0 -111079429.08224487 22046326.631994307 0 22046326.631994307 -1331964.5924113989 0 0 0 0 -134556763.74630737 -8232113.0481907725 0 -8232113.0481907725 4278235.3299221396 0 0 0 0 -53539472.496546745 5697920.2944147009 0 5697920.2944147009 -20736011.871671319 0 0 0 0 -124417753.61376953 52336827.440057516 0 52336827.440057516 3371375.1599179506 0 0 0 0 -207408167.19848633 -49499512.8682971 0 -49499512.8682971 85034195.183780193 0 0 0 0 -1546970.0550750196 -1733128.8987636343 0 -1733128.8987636343 -1783005.9221377345 0 0 0 0 -309246640.51681519 -198498483.57121539 0 -198498483.57121539 -46088388.858434677 0 0 0 0 -54278820.707828999 -14133212.897824725 0 -14133212.897824725 -3710613.6028258801 0 0 0 0 -169437671.38562012 -273841297.67192459 0 -273841297.67192459 -603187589.28058243 0 0 0 0 -49700043.877655029 33773441.548839629 0 33773441.548839629 4092120.637079671 0 0 0 0 -70741468.459197998 14949595.686184406 0 14949595.686184406 24124446.702464759 0 0 0 0 -51523658.55241394 23878754.675124019 0 23878754.675124019 -5083747.4712817278 0 0 0 0 -5816340.2065505981 -18956291.279368374 0 -18956291.279368374 -6130683.0950376093 0 0 0 0 -97312506.276794434 -9530836.6602480412 0 -9530836.6602480412 3443829.4245346189 0 0 0 0 -114967186.78285217 20947447.391404472 0 20947447.391404472 9633386.0794667862 0 0 0 0 -58209085.691738129 -14555410.646743111 0 -14555410.646743111 -5681768.6381944567 0 0 0 0 -39884461.242023468 16887881.728058457 0 16887881.728058457 11267439.045898288 0 0 0 0 -187025785.77963257 -12652659.249885142 0 -12652659.249885142 -776363.11322010122 0 0 0 0 -216894419.96942139 -30124646.971435398 0 -30124646.971435398 -1906542.1233460903 0 0 0 0 -193359105.2522583 -7740550.8076448143 0 -7740550.8076448143 2500819.0918614268 0 0 0 0 -187887552.29241943 5417299.6603404433 0 5417299.6603404433 14089583.195581317 0 0 0 0 -191884212.20626831 -12131406.71858003 0 -12131406.71858003 15520047.561919868 0 0 0 0 -135133639.81150055 -15933635.966849655 0 -15933635.966849655 -1000416.3447652832 0 0 0 0 -233472128.49151802 -26203659.73926672 0 -26203659.73926672 14964240.117333293 0 0 0 0 -174574389.53979492 -24136081.73147884 0 -24136081.73147884 -4646078.5793679915 0 0 0 0 -164895099.64581299 538480.67476247996 0 538480.67476247996 13517894.04477641 0 0 0 0 -154735740.05764389 -18015745.758970823 0 -18015745.758970823 53981.032803198759 0 0 0 0 -202757214.89285469 -7801564.1522925599 0 -7801564.1522925599 8634605.1717076227 0 0 0 0 -154734406.77320862 -18019725.267875541 0 -18019725.267875541 -46742.166714274135 0 0 0 0 -98818998.007575989 -3311438.491838811 0 -3311438.491838811 -10793918.223596888 0 0 0 0 -90227224.842391968 17213826.250963889 0 17213826.250963889 10252517.302197205 0 0 0 0 -41741160.46963501 -19355829.202720113 0 -19355829.202720113 -29379.36047232234 0 0 0 0 -17745766.997062683 10234701.087979607 0 10234701.087979607 3654549.5363312066 0 0 0 0 -979800.51148057729 -395029.71544808894 0 -395029.71544808894 177883.41011541468 0 0 0 0 15760043.955085754 -17539780.562503777 0 -17539780.562503777 1416.9624276081377 0 0 0 0 -623216619.37306976 138379030.08808094 0 138379030.08808094 36609861.446123123 0 0 0 0 -282795955.12426758 -203197106.00795233 0 -203197106.00795233 -463946.48968751373 0 0 0 0 116123941.20274353 -216519783.98383099 0 -216519783.98383099 285282.99824927672 0 0 0 0 -70052522.743034363 -26340885.309718743 0 -26340885.309718743 -24010678.144674182 0 0 0 0 -58013428.035079956 -173235780.70502856 0 -173235780.70502856 -30514747.740300238 0 0 0 0 88510618.911239624 -81925827.870757043 0 -81925827.870757043 -59899727.758614302 0 0 0 0 -155909050.66860962 37018230.110882998 0 37018230.110882998 -95698993.390670121 0 0 0 0 -238414513.86712646 -46025498.1328578 0 -46025498.1328578 23586777.692230463 0 0 0 0 -52223798.088897705 -97149807.487770319 0 -97149807.487770319 -739072.09565663338 0 0 0 0 -49020976.878295898 -45012666.328297615 0 -45012666.328297615 -31515897.079244852 0 0 0 0 36587404.959793091 -86091232.35020566 0 -86091232.35020566 -2657390.3722503185 0 0 0 0 -51647610.342400074 -101646452.44752996 0 -101646452.44752996 -385680.49035215378 0 0 0 0 -48998053.570037842 -73532913.531912327 0 -73532913.531912327 52309465.819870234 0 0 0 0 35967508.276000977 -45956406.697838783 0 -45956406.697838783 53408544.559186026 0 0 0 0 -143154597.48011017 -4680739.2404383421 0 -4680739.2404383421 64942357.740130424 0 0 0 0 -6544519.2582092285 -42011646.959079742 0 -42011646.959079742 51785451.819013476 0 0 0 0 -57848143.918235779 49176158.039918005 0 49176158.039918005 -86080256.12536931 0 0 0 0 -1694067.1026386023 -1612370.5503882244 0 -1612370.5503882244 -1097593.0806605488 0 0 0 0 -182468301.9745636 -40258217.233696222 0 -40258217.233696222 59713084.011596918 0 0 0 0 -232680755.0131073 78354802.949280739 0 78354802.949280739 179780732.07713318 0 0 0 0 6306934.2218780518 -21893408.259058259 0 -21893408.259058259 -1558598.0891330913 0 0 0 0 -1341158.4557672217 -958630.37960056216 0 -958630.37960056216 -292146.4555699277 0 0 0 0 -312134876.88949585 97913547.64359051 0 97913547.64359051 -14151860.757899165 0 0 0 0 -14075555.428588867 -8912455.2848724239 0 -8912455.2848724239 -4019363.6995728537 0 0 0 0 -20460802.515052795 -2474916.9183454309 0 -2474916.9183454309 -4726703.8861436322 0 0 0 0 -2557185.3076688275 -1076171.1987484246 0 -1076171.1987484246 -363586.24930108216 0 0 0 0 -1684075.6099081081 -130664.9420190677 0 -130664.9420190677 5433.9162914299886 0 0 0 0 18897404.393793106 -5523005.547252316 0 -5523005.547252316 -9143705.6559041701 0 0 0 0 -47789129.647201538 -22662651.422344219 0 -22662651.422344219 62114.762838941431 0 0 0 0 -10899368.804000854 3661150.7824178226 0 3661150.7824178226 -947423.23747432977 0 0 0 0 -12236156.194335938 -17043514.35563679 0 -17043514.35563679 -2794444.8204010995 0 0 0 0 -11981695.276809692 -14409727.187143989 0 -14409727.187143989 -1347.2406000553565 0 0 0 0 -851998.38223695755 -840394.35016782582 0 -840394.35016782582 -79273.983473671396 0 0 0 0 -38034326.816009521 -10874212.494723259 0 -10874212.494723259 8644248.2082586959 0 0 0 0 402686026.19496155 -1927874.8567629158 0 -1927874.8567629158 -103887825.14861953 0 0 0 0 67108626.065734863 -47736784.780492306 0 -47736784.780492306 31282494.227539062 0 0 0 0 93872035.009628296 -60860566.842747509 0 -60860566.842747509 -28099713.078788519 0 0 0 0 44521265.125576019 -65756489.553124011 0 -65756489.553124011 -1286549.8507530689 0 0 0 0 -26960451.820022583 -17538781.904915333 0 -17538781.904915333 24970332.851722717 0 0 0 0 -9252230.9294128418 -11015269.477187097 0 -11015269.477187097 -3381824.2629973739 0 0 0 0 -3573047.9081221819 -2002602.3635372818 0 -2002602.3635372818 981661.07836000063 0 0 0 0 -1569996.5679081753 -1336659.3894630373 0 -1336659.3894630373 450510.29883408127 0 0 0 0 -31400403.290420532 -13972649.837830253 0 -13972649.837830253 5824586.2432208359 0 0 0 0 -16708898.72769165 4929303.2590395808 0 4929303.2590395808 1209488.3008939028 0 0 0 0 -29633386.682245731 -3865358.4555699416 0 -3865358.4555699416 1599019.1591137648 0 0 0 0 -2510807.017656602 -400792.09674467891 0 -400792.09674467891 31037.327643625977 0 0 0 0 7158314.0859375 -7777913.4148931205 0 -7777913.4148931205 -8487521.6315318346 0 0 0 0 -4600220.8353679366 -1571099.8104851767 0 -1571099.8104851767 144137.18774458766 0 0 0 0 -15305192.390258789 -5354030.9354432076 0 -5354030.9354432076 5947783.6799793541 0 0 0 0 -11330155.959106445 -2530384.4887804613 0 -2530384.4887804613 635598.38849267364 0 0 0 0 -22049621.703025222 -3289239.5277928943 0 -3289239.5277928943 2038315.5403461456 0 0 0 0 -21995128.800720215 -9177537.962877512 0 -9177537.962877512 1494384.7933850288 0 0 0 0 -17446626.417560577 -2976983.5366499126 0 -2976983.5366499126 1224779.4110012054 0 0 0 0 -18772709.942865372 -7881738.5701836646 0 -7881738.5701836646 1687305.0852303505 0 0 0 0 -11559697.248714417 -5845283.6751197986 0 -5845283.6751197986 271445.20389251155 0 0 0 0 -2629485.775511831 -3988295.128790684 0 -3988295.128790684 -333602.60942825733 0 0 0 0 -4121778.2401580811 -379691.57260899246 0 -379691.57260899246 141789.3837890625 0 0 0 0 -16781952.813034058 -7584248.4543449879 0 -7584248.4543449879 1111198.060428977 0 0 0 0 -4591627.5151196457 -4581189.4709587991 0 -4581189.4709587991 62121.462149215862 0 0 0 0 -4449291.6385411955 -3794504.6088547632 0 -3794504.6088547632 419262.85501986975 0 0 0 0 -49785134.803741455 -11075006.729769707 0 -11075006.729769707 -996485.74480247498 0 0 0 0 -50831307.814544678 -12032829.35180378 0 -12032829.35180378 2933586.6760394573 0 0 0 0 -33461124.954696655 -109602.53430461884 0 -109602.53430461884 -161695.4271774292 0 0 0 0 -21939882.391357422 4445659.9040260315 0 4445659.9040260315 -976520.33264255524 0 0 0 0 -34273900.054397583 1988312.6100492477 0 1988312.6100492477 -5573517.3651485443 0 0 0 0 -49569789.837768555 3642413.0326080322 0 3642413.0326080322 -5517294.3357129097 0 0 0 0 -56992935.668228149 11540967.56522584 0 11540967.56522584 -13342920.767204285 0 0 0 0 -91911996.305786133 6372239.520711422 0 6372239.520711422 -12309243.014623642 0 0 0 0 -42418038.403533936 -45698941.521538496 0 -45698941.521538496 21041086.45642662 0 0 0 0 -17298460.483642578 -5781632.8070683777 0 -5781632.8070683777 765954.14449059963 0 0 0 0 317060.43872784078 -287135.54308208823 0 -287135.54308208823 -229205.68964126322 0 0 0 0 -90882443.433837891 -47999407.661561012 0 -47999407.661561012 4385514.2056007385 0 0 0 0 -30854085.588897705 -4856874.5341305733 0 -4856874.5341305733 -19084104.111415863 0 0 0 0 -37001749.949768066 1717658.6047239304 0 1717658.6047239304 -25251489.249306679 0 0 0 0 -24851831.60559082 4290475.8734054565 0 4290475.8734054565 -4815304.4308605194 0 0 0 0 -10984834.054412842 7443110.0148165226 0 7443110.0148165226 -7493684.9191942215 0 0 0 0 -5878686.9811248779 -71896618.664631605 0 -71896618.664631605 103407870.58157849 0 0 0 0 -94259.257754638791 504195.09104304668 0 504195.09104304668 174276.08948999763 0 0 0 0 -31168168.889259338 -3444730.712713182 0 -3444730.712713182 -10038979.876317024 0 0 0 0 -11491984.646789551 9960642.348074913 0 9960642.348074913 -7926931.7210872173 0 0 0 0 -20791112.290184021 4786430.845340848 0 4786430.845340848 -1465308.7727012634 0 0 0 0 -21720954.097808838 8168894.5409765244 0 8168894.5409765244 -6686649.2621517181 0 0 0 0 -11888809.19744873 6716886.2130432129 0 6716886.2130432129 -3210699.7747616768 0 0 0 0 -8251807.9550933838 5336876.7612841129 0 5336876.7612841129 -3590201.3845596313 0 0 0 0 -12465156.79341507 9109560.5501440763 0 9109560.5501440763 6786900.1167612076 0 0 0 0 532270.28206253052 16184187.849158764 0 16184187.849158764 4545330.62150383 0 0 0 0 -15315793.378069401 153613.54902293906 0 153613.54902293906 -369972.57525062561 0 0 0 0 3587865.8733825684 4142289.9676756859 0 4142289.9676756859 -785359.95921421051 0 0 0 0 -15386032.669616699 8522684.89473629 0 8522684.89473629 6084900.9716920853 0 0 0 0 -4268394.4879760742 -7311348.1986203194 0 -7311348.1986203194 7276711.4222412109 0 0 0 0 -13054546.777954102 -7407202.6524162292 0 -7407202.6524162292 13837771.237243652 0 0 0 0 -35844126.361984253 -28241094.154991746 0 -28241094.154991746 -19191795.757572174 0 0 0 0 -30023680.187922478 -26000737.363374248 0 -26000737.363374248 -19091122.862034798 0 0 0 0 -22159478.814086914 -24420124.655946732 0 -24420124.655946732 -17914913.456131935 0 0 0 0 -30413138.18823719 -32494490.108158052 0 -32494490.108158052 -23037696.549711227 0 0 0 0 -539854.41538704932 -324243.75395609066 0 -324243.75395609066 277028.01124894293 0 0 0 0 -33086192.147315979 -34079055.736805081 0 -34079055.736805081 -22666009.718531609 0 0 0 0 -19710244.378967285 16945169.512360573 0 16945169.512360573 -44869006.147793531 0 0 0 0 -24701396.670532227 3528995.3124380112 0 3528995.3124380112 8273221.966884613 0 0 0 0 -22688255.104064941 -769292.14903831482 0 -769292.14903831482 16599396.994103432 0 0 0 0 -8659182.3458526284 -92355.429723545909 0 -92355.429723545909 704900.10581123922 0 0 0 0 -23249111.987121582 5770347.8722200394 0 5770347.8722200394 11951010.762339115 0 0 0 0 -6726721.5002441406 -10634298.13481617 0 -10634298.13481617 -5717452.9107513428 0 0 0 0 -1689800.7821557671 -1023204.9911346585 0 -1023204.9911346585 858892.4248947904 0 0 0 0 -20846736.925964355 6909104.3758764267 0 6909104.3758764267 4369068.3821306229 0 0 0 0 -23641742.890289307 -641643.40523934364 0 -641643.40523934364 -2932177.6034069061 0 0 0 0 -26517690.056915283 2553654.7849578857 0 2553654.7849578857 10349554.156324863 0 0 0 0 -28375431.428283691 -6691860.0016298294 0 -6691860.0016298294 7622305.3620821834 0 0 0 0 -24757300.375488281 -207333.68472337723 0 -207333.68472337723 12000027.090955734 0 0 0 0 -25107976.380493164 -1811557.4357719421 0 -1811557.4357719421 6435484.0420188904 0 0 0 0 -12542108.755126953 -69333.104807376862 0 -69333.104807376862 6003450.2267599106 0 0 0 0 -31722141.192565918 2850215.0599389076 0 2850215.0599389076 5591677.8141355515 0 0 0 0 -33270875.717788696 -3141255.2578868866 0 -3141255.2578868866 6086367.0393152237 0 0 0 0 -33004694.749328613 -9400288.9010272026 0 -9400288.9010272026 319951.83035564423 0 0 0 0 -16901054.223693848 -1935932.8911533356 0 -1935932.8911533356 1168977.6288108826 0 0 0 0 -5248768.8118896186 -3192660.0181819387 0 -3192660.0181819387 567235.12659924268 0 0 0 0 -40177007.906402588 -8675410.5737872124 0 -8675410.5737872124 7259325.1051988602 0 0 0 0 -2214071.144393499 -4783460.8065147847 0 -4783460.8065147847 789409.49596331897 0 0 0 0 -18030158.326423645 -10407779.371921897 0 -10407779.371921897 -879021.48613643646 0 0 0 0 -4379979.9991101874 -4323685.9883342534 0 -4323685.9883342534 1501944.4934006513 0 0 0 0 -10680332.82371521 -2857316.2487988472 0 -2857316.2487988472 -286481.35161113739 0 0 0 0 -25186349.053146362 943109.35668849945 0 943109.35668849945 5915952.5217752457 0 0 0 0 -11608774.644989014 -13911359.92440033 0 -13911359.92440033 -4285589.3461761475 0 0 0 0 -38009593.83908844 -4700663.5673335195 0 -4700663.5673335195 2773988.1632375717 0 0 0 0 -19744505.209533691 -6444672.9430844784 0 -6444672.9430844784 -9540499.4130276442 0 0 0 0 -29713384.852630615 -15114125.687335491 0 -15114125.687335491 -633272.12137007713 0 0 0 0 -26126486.955291748 -8778885.0184156895 0 -8778885.0184156895 1474714.0495753288 0 0 0 0 -24743835.491199493 -6040805.5512254238 0 -6040805.5512254238 2901672.4079761505 0 0 0 0 -23285915.240356445 -39000233.485975266 0 -39000233.485975266 -100156123.1493392 0 0 0 0 -13524012.976196289 -35266983.773440361 0 -35266983.773440361 -102688354.41806173 0 0 0 0 -24549128.915405273 -53246705.589828014 0 -53246705.589828014 -69975400.227082014 0 0 0 0 -23626447.116882324 -61217955.436993599 0 -61217955.436993599 -75871912.363152027 0 0 0 0 -22707575.790836334 -66098195.576511323 0 -66098195.576511323 -144775927.23441505 0 0 0 0 -62615093.421951294 -107037968.19776273 0 -107037968.19776273 -60828154.355489254 0 0 0 0 -10106433.045196533 -132456301.85840082 0 -132456301.85840082 -418971091.10995197 0 0 0 0 -92970328.247772217 -173439229.02369881 0 -173439229.02369881 -199206799.03604937 0 0 0 0 -20176183.110626221 -31418767.118227005 0 -31418767.118227005 -189279278.12629771 0 0 0 0 -23546319.383514404 -28554886.726382256 0 -28554886.726382256 -113609681.24997091 0 0 0 0 -175837654.85133743 54806270.05978018 0 54806270.05978018 240712197.4219799 0 0 0 0 -688953.69470864534 124058.66982035432 0 124058.66982035432 81757.926001641958 0 0 0 0 170833247.13191223 554197587.67207813 0 554197587.67207813 -210405391.32950497 0 0 0 0 -168562346.50125122 79090125.572673798 0 79090125.572673798 166032959.07994008 0 0 0 0 -2116305.2705260962 345877.2496656091 0 345877.2496656091 323554.41597271734 0 0 0 0 17488984.870727539 -49087070.520427704 0 -49087070.520427704 122308652.35391808 0 0 0 0 -1762897.0855407715 66572455.908830643 0 66572455.908830643 122669224.36185217 0 0 0 0 44915126.770202637 64870081.448981762 0 64870081.448981762 318461242.83042336 0 0 0 0 -98022.207183003426 -84667.417258128524 0 -84667.417258128524 111889.25212758547 0 0 0 0 -51937795.594688416 -68783994.879319429 0 -68783994.879319429 176569857.72063065 0 0 0 0 -64707607.439186096 -60122726.967234135 0 -60122726.967234135 221952156.5441227 0 0 0 0 -157497.66408216953 1562247.2889832149 0 1562247.2889832149 509537.95637801418 0 0 0 0 -69220875.490386963 -16332149.367300391 0 -16332149.367300391 193305317.08754992 0 0 0 0 4294452.1621856689 1877122.4856848717 0 1877122.4856848717 -5965141.0548775196 0 0 0 0 -7774035.0327758789 8101488.0414390564 0 8101488.0414390564 11825794.250936031 0 0 0 0 5157005.4383392334 4868955.32746315 0 4868955.32746315 1378264.5066539049 0 0 0 0 -3359560.4767642468 244450.47090076655 0 244450.47090076655 -120975.16298427107 0 0 0 0 -17150608.176952362 -33830707.842406869 0 -33830707.842406869 -63592919.631922722 0 0 0 0 -27544562.522888184 -49406088.169022083 0 -49406088.169022083 -55727315.095129251 0 0 0 0 -35820085.992126465 -34395994.729423046 0 -34395994.729423046 -39358909.016354322 0 0 0 0 -43746229.533218384 -48824986.396621227 0 -48824986.396621227 -18745744.520093441 0 0 0 0 -3999424.8617858887 18457860.321335793 0 18457860.321335793 9333442.5623664856 0 0 0 0 -29981086.053131104 -48945965.658695698 0 -48945965.658695698 -19791854.637457252 0 0 0 0 -37040898.724258423 -40867009.364815235 0 -40867009.364815235 -28618255.502338409 0 0 0 0 -4755847.3819098175 626187.35848697647 0 626187.35848697647 -483475.57258178294 0 0 0 0 -41697726.382476807 -36993606.556537628 0 -36993606.556537628 -14974708.317773581 0 0 0 0 -31196444.499969482 -30790159.627437592 0 -30790159.627437592 -28078946.254767835 0 0 0 0 -38668159.192840576 -26442497.603746653 0 -26442497.603746653 -1623355.3310337067 0 0 0 0 -38159494.646484375 -30460830.576285362 0 -30460830.576285362 -10898991.618474483 0 0 0 0 -40345044.591217041 -30058020.724749804 0 -30058020.724749804 -4909510.5334217548 0 0 0 0 -50038200.992095947 -33709216.349406242 0 -33709216.349406242 6286503.6173157692 0 0 0 0 -45920971.586425781 -17327093.866610527 0 -17327093.866610527 31671389.993733406 0 0 0 0 -65274673.740112305 -49239293.688687563 0 -49239293.688687563 10494812.476824045 0 0 0 0 -43046925.349838257 -42289582.923627973 0 -42289582.923627973 -14819806.983885765 0 0 0 0 -56222668.527526855 -71077459.056148529 0 -71077459.056148529 -33947077.365350723 0 0 0 0 -56217244.912366152 -72079281.554172963 0 -72079281.554172963 -36720298.556046486 0 0 0 0 -121690157.82223511 -86950078.669416428 0 -86950078.669416428 4670403.7517819405 0 0 0 0 -139849295.64111328 -14443714.302304268 0 -14443714.302304268 78121925.790356636 0 0 0 0 -88506120.798675537 -13121278.038636208 0 -13121278.038636208 55333128.859178185 0 0 0 0 -19208896.942108154 11721319.71457839 0 11721319.71457839 44938233.453055501 0 0 0 0 -56532930.158576965 -29572684.005619168 0 -29572684.005619168 32475667.862506866 0 0 0 0 -29951782.17980957 22125387.382876396 0 22125387.382876396 60426057.567655563 0 0 0 0 -6277637.7878265381 10083723.436545372 0 10083723.436545372 36702546.541901588 0 0 0 0 -32877534.168945312 16742625.862540364 0 16742625.862540364 58167641.598435879 0 0 0 0 -38729088.681640625 -4480464.402615428 0 -4480464.402615428 36545443.974189758 0 0 0 0 -40157896.978988647 -14248612.918960094 0 -14248612.918960094 23979373.844362736 0 0 0 0 -15803536.053276062 9962410.1283270121 0 9962410.1283270121 27083944.950995445 0 0 0 0 -7105999.3877868652 3693667.62568748 0 3693667.62568748 17362586.114775896 0 0 0 0 7145591.8235321045 31140259.980933785 0 31140259.980933785 37450986.902298167 0 0 0 0 -10700738.077651978 10120960.193323314 0 10120960.193323314 19885885.308905676 0 0 0 0 -10162002.871423721 6140695.4696063697 0 6140695.4696063697 11709382.895153761 0 0 0 0 -29126116.454818726 -1969326.6974434853 0 -1969326.6974434853 20556943.001058459 0 0 0 0 -67359015.055603027 25147662.345662713 0 25147662.345662713 38869057.381506443 0 0 0 0 -80825539.908447266 91199522.226673841 0 91199522.226673841 93450661.128551483 0 0 0 0 -4528475.3500698656 -122808.8046005331 0 -122808.8046005331 -1595033.5714961737 0 0 0 0 -26805447.454498291 -3416196.2404165268 0 -3416196.2404165268 2814044.0169756338 0 0 0 0 -26893730.063354492 -3423350.8681018353 0 -3423350.8681018353 6322071.7966834903 0 0 0 0 -19386825.392189026 -2259293.2647302151 0 -2259293.2647302151 7264343.109606266 0 0 0 0 -20054712.556930542 -690793.33271038532 0 -690793.33271038532 6488929.1996408701 0 0 0 0 -33652236.171234131 -8999474.3976588249 0 -8999474.3976588249 13321412.183523536 0 0 0 0 -30363429.371704102 -3065379.510391593 0 -3065379.510391593 15512305.896671057 0 0 0 0 -29147979.432830811 -6894681.338452667 0 -6894681.338452667 7664180.2359817028 0 0 0 0 -35218204.689193726 -12189811.26984632 0 -12189811.26984632 9730543.0192508698 0 0 0 0 -32897703.195392609 -11211936.126984924 0 -11211936.126984924 9646956.4854040146 0 0 0 0 -39389146.796417236 -20294106.277995348 0 -20294106.277995348 7446050.6276516914 0 0 0 0 -37232780.431594849 -14956517.258337498 0 -14956517.258337498 13313261.61665535 0 0 0 0 -38103496.693664551 -16440425.553634167 0 -16440425.553634167 12073884.157777309 0 0 0 0 -39584494.767333984 -15057604.099472046 0 -15057604.099472046 19827719.563737303 0 0 0 0 -28265232.819717407 -3432716.5786011219 0 -3432716.5786011219 18275270.196779966 0 0 0 0 -41303725.020446777 -17503433.954791307 0 -17503433.954791307 17860439.835733652 0 0 0 0 -36343115.761119843 -15988495.738114804 0 -15988495.738114804 14756132.543944359 0 0 0 0 -44874195.260704041 -24134566.379596233 0 -24134566.379596233 10671964.351657867 0 0 0 0 -38068315.57321167 -20945728.966565847 0 -20945728.966565847 7764541.4376525879 0 0 0 0 -39560294.001525879 -26204664.687173009 0 -26204664.687173009 -1686225.2787117958 0 0 0 0 -35554807.965332031 -23311109.525898457 0 -23311109.525898457 -2370030.6772246361 0 0 0 0 -37277948.636791229 -24488419.339073658 0 -24488419.339073658 -1292297.1869335175 0 0 0 0 -34147135.183197021 -20251642.480253935 0 -20251642.480253935 3940728.3317332268 0 0 0 0 -33420588.829589844 -21152109.730543137 0 -21152109.730543137 -2334837.9939337969 0 0 0 0 -26899696.571380615 -20061366.749644756 0 -20061366.749644756 -3192164.7924933434 0 0 0 0 -34298351.072937012 -26939156.725964189 0 -26939156.725964189 -9570079.7682962418 0 0 0 0 -18881323.379608154 -20028888.96060133 0 -20028888.96060133 -13049082.94671917 0 0 0 0 -28020062.946487427 -13818831.495852351 0 -13818831.495852351 -3806853.5046128035 0 0 0 0 -21505916.87191391 -12331662.32371825 0 -12331662.32371825 -2961034.1657381058 0 0 0 0 -8037382.9697265625 -5112670.1977176666 0 -5112670.1977176666 -354193.11396217346 0 0 0 0 -29638781.304237366 -13575401.045060009 0 -13575401.045060009 895519.01139378548 0 0 0 0 -32428144.042259216 -18084798.233474612 0 -18084798.233474612 955332.22332191467 0 0 0 0 -34287678.604370117 -16425032.318996668 0 -16425032.318996668 5675559.9523080587 0 0 0 0 -36049736.661727905 -18334357.336464167 0 -18334357.336464167 3693059.1014471054 0 0 0 0 -65588977.075592041 -41031673.351671696 0 -41031673.351671696 -33872116.167820215 0 0 0 0 -28216930.025421143 -18028323.027322769 0 -18028323.027322769 -25194984.710613251 0 0 0 0 32177938.758384705 -47574327.177958608 0 -47574327.177958608 35151991.26658392 0 0 0 0 -11895678.383491516 -3241208.5852529407 0 -3241208.5852529407 2087916.5008764267 0 0 0 0 -3102471.5713792332 -2674488.5056117587 0 -2674488.5056117587 246172.21759475442 0 0 0 0 -13484640.852752969 -306171.85327856988 0 -306171.85327856988 3404482.4851641376 0 0 0 0 -15936228.786592141 -2713896.3990749605 0 -2713896.3990749605 4605584.7172491103 0 0 0 0 -422110093.69775391 -391902337.63598967 0 -391902337.63598967 3464341.8455791473 0 0 0 0 -3478229.5820922852 157506672.55737019 0 157506672.55737019 -45430368.652988434 0 0 0 0 -6934309.0288131181 -5836788.0110560395 0 -5836788.0110560395 530363.2695784329 0 0 0 0 64949437.812789917 7371078.1389844418 0 7371078.1389844418 -268488045.03067017 0 0 0 0 -8752125.2576904297 38621629.682365417 0 38621629.682365417 77490645.109241486 0 0 0 0 -154635619.87533569 -82696699.869260311 0 -82696699.869260311 4564434.3371684551 0 0 0 0 -2896125.5256244764 -564341.6200459078 0 -564341.6200459078 -85843.307708898094 0 0 0 0 -28680735.911621094 199443161.74608552 0 199443161.74608552 173362839.03515768 0 0 0 0 -2009462.0570804775 -826992.93019082025 0 -826992.93019082025 1077163.416812089 0 0 0 0 10591629.050811768 -15349743.476152897 0 -15349743.476152897 -6438799.0419578552 0 0 0 0 69949102.617149353 96625911.44652164 0 96625911.44652164 -46466175.459826469 0 0 0 0 -95840515.371974945 -12691901.241493016 0 -12691901.241493016 -1780842.2699656487 0 0 0 0 -246389123.77861023 -247701626.16398621 0 -247701626.16398621 -201775879.59511375 0 0 0 0 -38630997.741911054 6439749.9800987765 0 6439749.9800987765 4407637.9240407944 0 0 0 0 -1159074.3656975329 -217398.6730658561 0 -217398.6730658561 111023.59073307062 0 0 0 0 -134324626.16699219 -104793390.50542307 0 -104793390.50542307 -21035713.67274642 0 0 0 0 -39901975.608949661 -69009964.389816433 0 -69009964.389816433 -52569503.772766113 0 0 0 0 -170008894.04614258 -20984259.918099165 0 -20984259.918099165 78907746.372259617 0 0 0 0 -95661951.427062988 -12270169.199068546 0 -12270169.199068546 42668774.851477623 0 0 0 0 -713207525.85549927 -34536288.451129436 0 -34536288.451129436 168936117.52432251 0 0 0 0 -630074605.27898216 616212860.35472703 0 616212860.35472703 272063319.81146145 0 0 0 0 4160039.5161743164 480552087.65332651 0 480552087.65332651 11822254.777779579 0 0 0 0 -7270547.6798366122 -5610919.6397068277 0 -5610919.6397068277 -933977.55814129848 0 0 0 0 291718119.12903595 101701159.91905296 0 101701159.91905296 -92029953.946922779 0 0 0 0 62852533.377708435 -125939020.3977623 0 -125939020.3977623 77039391.309854507 0 0 0 0 -57874729.059051514 1149869.0788161755 0 1149869.0788161755 61825394.511347771 0 0 0 0 -92443521.724563599 -46236227.251874924 0 -46236227.251874924 46192060.91570425 0 0 0 0 -120119905.16184998 -49010108.417298317 0 -49010108.417298317 68045663.316382885 0 0 0 0 -170880286.59065247 32616927.182579041 0 32616927.182579041 86311871.244794965 0 0 0 0 -35964606.253555298 -10746280.82721889 0 -10746280.82721889 7556027.6873853207 0 0 0 0 -35170228.227386475 -12416958.690422177 0 -12416958.690422177 3851467.6068388224 0 0 0 0 -35128946.635665894 -8749031.6257290244 0 -8749031.6257290244 -319289.2321960628 0 0 0 0 -46905318.349517822 -12014464.941108465 0 -12014464.941108465 4444384.8607130647 0 0 0 0 -33359498.943206787 -11328515.259721041 0 -11328515.259721041 2998501.7300004959 0 0 0 0 -30888141.683120728 -6780538.7850888297 0 -6780538.7850888297 -2272916.7181313038 0 0 0 0 -29801530.322303772 -3122593.4507326856 0 -3122593.4507326856 5436039.7916254997 0 0 0 0 -41910217.195999146 -8487922.6469677687 0 -8487922.6469677687 3433592.5451075286 0 0 0 0 -25452849.950225987 -5923147.3152036509 0 -5923147.3152036509 3871476.9963817345 0 0 0 0 -78404005.401428223 26280171.727610588 0 26280171.727610588 33142826.305057287 0 0 0 0 -22036434.441795349 -56503672.748744726 0 -56503672.748744726 -55386420.95961833 0 0 0 0 -85549055.124847412 37626983.758890212 0 37626983.758890212 -24885589.507197857 0 0 0 0 -1225356.2380122691 -5042451.7435672432 0 -5042451.7435672432 603074.24770261347 0 0 0 0 -62544287.045318604 124101193.47684062 0 124101193.47684062 -100594136.40754724 0 0 0 0 -13384051.212909268 -5252663.480954174 0 -5252663.480954174 -616409.44190633623 0 0 0 0 -138607940.08048248 -82154222.02469644 0 -82154222.02469644 147758181.05614328 0 0 0 0 48686501.783358097 4742924.5713156648 0 4742924.5713156648 -23590178.066846967 0 0 0 0 -75698870.479400635 27751296.447013944 0 27751296.447013944 66352364.950508475 0 0 0 0 -90696259.930325508 -58858580.030490384 0 -58858580.030490384 20075620.231344104 0 0 0 0 -19930569.803390503 -5457969.1797573566 0 -5457969.1797573566 25198041.37354048 0 0 0 0 -24616555.220586777 -6199446.7315538824 0 -6199446.7315538824 6274963.2018105984 0 0 0 0 -39341337.63727951 -26105032.311625838 0 -26105032.311625838 38200003.406978726 0 0 0 0 -36145270.334823608 -7957624.0976356268 0 -7957624.0976356268 5960525.1990128756 0 0 0 0 -25348298.395280853 -4466051.8957988378 0 -4466051.8957988378 2643550.1009515878 0 0 0 0 -25399342.487869263 -8788362.9970903397 0 -8788362.9970903397 214577.52111899853 0 0 0 0 -24850845.857876778 -5075440.80695948 0 -5075440.80695948 932946.37440371513 0 0 0 0 18230772.786270142 -20965895.269450724 0 -20965895.269450724 -14107162.737860203 0 0 0 0 -7188932.9005045891 -5371941.0575086474 0 -5371941.0575086474 -18438533.5514884 0 0 0 0 -19623741.066818237 -12265175.265267372 0 -12265175.265267372 -7663032.3735594749 0 0 0 0 -56113833.211532593 10693259.636927843 0 10693259.636927843 -3053055.1351441145 0 0 0 0 -93973945.793212891 20485702.919686794 0 20485702.919686794 4904433.7979855537 0 0 0 0 -508398.58088213345 333881.57422728464 0 333881.57422728464 -22321.611260043457 0 0 0 0 342729.04907226562 14272567.740581751 0 14272567.740581751 -35351215.923460007 0 0 0 0 -707229.96091792732 351963.24657779559 0 351963.24657779559 -246346.45147413283 0 0 0 0 -27547594.050628662 16443678.538955212 0 16443678.538955212 -16625596.76448822 0 0 0 0 -18251274.89781177 -3174587.5048461929 0 -3174587.5048461929 2097904.4513037475 0 0 0 0 12086924.196266174 -16639395.033890724 0 -16639395.033890724 -16371153.114929676 0 0 0 0 -33034988.02494812 -33479620.908846736 0 -33479620.908846736 6230534.8727184534 0 0 0 0 -42044964.246429443 -19720984.024055719 0 -19720984.024055719 5970926.7893871963 0 0 0 0 -87143247.398555756 -3234433.0565222204 0 -3234433.0565222204 5175360.3334765434 0 0 0 0 -37892833.054779053 -9205992.8250823021 0 -9205992.8250823021 12477752.11414814 0 0 0 0 -21760781.285446167 1670148.223474741 0 1670148.223474741 2817538.4193973541 0 0 0 0 -9274553.8538513184 -957413.55120885372 0 -957413.55120885372 -3529508.1653630733 0 0 0 0 -37815789.976226807 -8732950.6279768944 0 -8732950.6279768944 -2092487.590514183 0 0 0 0 -18384097.716813542 1690846.075988438 0 1690846.075988438 2513437.9381892458 0 0 0 0 -42936371.376220703 -276465.85581231117 0 -276465.85581231117 6046242.1635432243 0 0 0 0 -7013304.3998260498 1188482.6367459297 0 1188482.6367459297 625237.20133304596 0 0 0 0 -7459423.724470445 4382478.1224849224 0 4382478.1224849224 292172.62349482835 0 0 0 0 2721115.9275101572 -3824374.2439352199 0 -3824374.2439352199 -150705.32756820426 0 0 0 0 -21291204.52087228 -5220847.1268023252 0 -5220847.1268023252 -629420.4835140158 0 0 0 0 35092081.050949097 -37342996.207371712 0 -37342996.207371712 -10632181.290106356 0 0 0 0 -5654495.9561888464 -12078130.342391621 0 -12078130.342391621 -3310087.432540731 0 0 0 0 43647274.856277466 -9891869.7333374023 0 -9891869.7333374023 -6059623.6508638859 0 0 0 0 -7779984.3830692172 -11643994.488062598 0 -11643994.488062598 659958.37530588219 0 0 0 0 35858541.02853775 -28284674.431645632 0 -28284674.431645632 -37909423.794487953 0 0 0 0 58539325.33493042 17854020.661800385 0 17854020.661800385 -6542570.5592598915 0 0 0 0 592734.82775878906 -36193437.09607029 0 -36193437.09607029 -12104924.772314548 0 0 0 0 29285355.223007202 -28683996.773028851 0 -28683996.773028851 -15170767.919217587 0 0 0 0 -100725555.77989197 -46693292.664776564 0 -46693292.664776564 3923714.9580764771 0 0 0 0 2133956.3651518822 -66373765.258186758 0 -66373765.258186758 -41711792.070402145 0 0 0 0 -223251085.34997559 -8420458.1346718073 0 -8420458.1346718073 47397688.604156494 0 0 0 0 -144348431.5717926 -97167623.154649734 0 -97167623.154649734 -11042550.383208752 0 0 0 0 -97779872.774368286 -72436893.765642166 0 -72436893.765642166 -29871597.281245708 0 0 0 0 -357306621.85012054 -236978566.09365451 0 -236978566.09365451 -101090563.67031908 0 0 0 0 -95207038.336166382 -89387514.951836586 0 -89387514.951836586 -38841135.302875757 0 0 0 0 60172055.768463135 -91550523.444247246 0 -91550523.444247246 -131168404.0300231 0 0 0 0 162495676.77555847 12962767.506509304 0 12962767.506509304 -104648242.22559166 0 0 0 0 -56620999.4402771 -46237361.409252167 0 -46237361.409252167 27435928.801627636 0 0 0 0 -61927653.030609131 19859829.476068735 0 19859829.476068735 -329327618.56418872 0 0 0 0 -497775528.01771545 32301608.037890613 0 32301608.037890613 23610289.976668358 0 0 0 0 -126856177.61514282 -37818863.034074545 0 -37818863.034074545 4910052.801363945 0 0 0 0 -165652989.85896301 30490442.41862607 0 30490442.41862607 97710213.125194043 0 0 0 0 119043946.17766571 120530724.87300336 0 120530724.87300336 -81778906.685813427 0 0 0 0 -18265246.111923218 1252757.1642261147 0 1252757.1642261147 6053565.7074392568 0 0 0 0 158659529.09350586 50599414.055078745 0 50599414.055078745 11029806.432915688 0 0 0 0 -8221859.8741238713 -1743963.2244891375 0 -1743963.2244891375 -2835806.3589798841 0 0 0 0 -18347524.8984375 -1582358.8278573565 0 -1582358.8278573565 3338950.9346504956 0 0 0 0 -27347794.768356323 -16825758.194844723 0 -16825758.194844723 19796204.10337162 0 0 0 0 -19831187.523095608 -3483053.6878897501 0 -3483053.6878897501 2546504.8428469812 0 0 0 0 -3490207.2672250718 -8517851.7617408596 0 -8517851.7617408596 -2985966.4084487003 0 0 0 0 -25582938.445167542 -5281824.3177421261 0 -5281824.3177421261 2173882.9570699744 0 0 0 0 72889745.077301025 40146232.825643063 0 40146232.825643063 -22496664.878598213 0 0 0 0 106450937.94635773 111460581.60417092 0 111460581.60417092 107113626.44114017 0 0 0 0 -694039.86590921879 -1945869.8689774526 0 -1945869.8689774526 -390314.57946277614 0 0 0 0 49674902.66633606 -112658932.50979948 0 -112658932.50979948 -102995202.6307267 0 0 0 0 -165449378.23774719 -43667768.205262303 0 -43667768.205262303 202262473.1535995 0 0 0 0 40195167.357147217 66695254.73077774 0 66695254.73077774 -379524943.32140017 0 0 0 0 71761335.907897949 22318015.103542805 0 22318015.103542805 -192222877.98082399 0 0 0 0 -70702039.810218811 105729984.16586447 0 105729984.16586447 187107290.37499952 0 0 0 0 68147985.780441284 157335022.05507398 0 157335022.05507398 -25026589.177255392 0 0 0 0 -77311404.785049438 -68770762.980887413 0 -68770762.980887413 -6858499.4745345116 0 0 0 0 -5240117.9416542351 320107.24753261218 0 320107.24753261218 556946.98508495081 0 0 0 0 -197091936.74407959 -31587522.915401459 0 -31587522.915401459 38584492.70023188 0 0 0 0 -1562714.6555723622 99140.466814965126 0 99140.466814965126 104109.75284549198 0 0 0 0 57398548.511314392 -136544611.1925422 0 -136544611.1925422 208399376.48712993 0 0 0 0 386233800.72262573 -270566610.38908744 0 -270566610.38908744 -388122593.82725215 0 0 0 0 -92248623.63495636 112112904.46712267 0 112112904.46712267 20264686.387061119 0 0 0 0 8269630.2163848877 110854383.01444376 0 110854383.01444376 359363.33333304524 0 0 0 0 -4405887.0368078947 656923.49206322432 0 656923.49206322432 2592191.5819717133 0 0 0 0 -278134464.64395142 382798129.40427351 0 382798129.40427351 149652111.95663023 0 0 0 0 -394017581.90956116 -326118299.97123027 0 -326118299.97123027 188032290.2484417 0 0 0 0 -23369776.140380651 5957284.660614443 0 5957284.660614443 1863452.983758973 0 0 0 0 102684973.43070984 -43718062.900721014 0 -43718062.900721014 -308280532.56690598 0 0 0 0 -370765376.23313904 -155207133.98135352 0 -155207133.98135352 -46649639.400984287 0 0 0 0 119570646.76828003 -56558580.046227217 0 -56558580.046227217 -27274756.157563388 0 0 0 0 -242118189.25120544 253325146.76755333 0 253325146.76755333 -56657062.66140914 0 0 0 0 -271833396.30535889 172853073.47149208 0 172853073.47149208 333236165.56323302 0 0 0 0 -5664687.5420875549 43539276.861589909 0 43539276.861589909 23042751.170696259 0 0 0 0 -23758410.875801086 -79925531.109309256 0 -79925531.109309256 146159714.65755403 0 0 0 0 -30916544.340931192 10303270.388814196 0 10303270.388814196 174271.57601631765 0 0 0 0 -21542240.506656647 49867587.190816879 0 49867587.190816879 34081777.078036308 0 0 0 0 -22940106.258132935 42792691.02184248 0 42792691.02184248 63846099.565764427 0 0 0 0 -32736149.626497559 8091435.6967317853 0 8091435.6967317853 120397.08844495704 0 0 0 0 5345756.6041603088 86422792.808683872 0 86422792.808683872 113777645.73173523 0 0 0 0 -87120081.522716522 -138628529.69565201 0 -138628529.69565201 47902047.029371262 0 0 0 0 90470790.856369019 -4830430.9314389229 0 -4830430.9314389229 14749613.556629181 0 0 0 0 -32630331.488715123 7311924.9423891027 0 7311924.9423891027 594465.23292357125 0 0 0 0 -94683700.925640106 -40793889.809718609 0 -40793889.809718609 33858591.898700953 0 0 0 0 -94911584.972805023 -43451939.737127781 0 -43451939.737127781 54851146.191261292 0 0 0 0 -281397974.87174225 11860442.15042305 0 11860442.15042305 81314726.993282318 0 0 0 0 -175061537.60238647 -80846234.491902351 0 -80846234.491902351 77445901.090133667 0 0 0 0 -188434235.00039577 3587692.6462709904 0 3587692.6462709904 38162917.016633987 0 0 0 0 -215734891.17524338 80828063.653198242 0 80828063.653198242 13624523.994558096 0 0 0 0 -276657819.33363342 -51854708.366662025 0 -51854708.366662025 90002579.81423378 0 0 0 0 -14766636.251720428 -20301026.963348389 0 -20301026.963348389 -3471498.0106506348 0 0 0 0 -13762628.119534969 -32943844.407162905 0 -32943844.407162905 -1218589.3622779846 0 0 0 0 270188.86117619276 -1464373.6772062257 0 -1464373.6772062257 400635.94650184549 0 0 0 0 82482017.468994141 -163834484.97888088 0 -163834484.97888088 105081845.56746769 0 0 0 0 86102694.880727768 76153668.883056641 0 76153668.883056641 -166669351.45899391 0 0 0 0 4342266.8672561646 -25119433.167983055 0 -25119433.167983055 -11031224.506620407 0 0 0 0 273762024.06497574 -108942838.11201763 0 -108942838.11201763 -196509080.19294238 0 0 0 0 -449096334.72023773 264834114.83387661 0 264834114.83387661 265064351.1230011 0 0 0 0 -19532917.785102844 -6778151.7935295105 0 -6778151.7935295105 2007394.2035742998 0 0 0 0 -18906884.064872567 -3783766.2501874827 0 -3783766.2501874827 4055820.6090233307 0 0 0 0 -28778811.227020264 -7122076.7169551849 0 -7122076.7169551849 -349465.81830132008 0 0 0 0 23970274.34778595 -36517650.591834068 0 -36517650.591834068 -13137427.157318115 0 0 0 0 -18635985.092393767 -7605339.1915704943 0 -7605339.1915704943 809856.62025924213 0 0 0 0 4863973.2081680298 -43923358.299866676 0 -43923358.299866676 -8133774.8247435093 0 0 0 0 22152958.736110687 -38517577.407743454 0 -38517577.407743454 -12575744.688674927 0 0 0 0 -33549728.790752411 -9630903.260134697 0 -9630903.260134697 72979915.593505859 0 0 0 0 -30557979.523241043 -4570212.3397357464 0 -4570212.3397357464 2858322.86977005 0 0 0 0 -3399837.1106583364 -8276392.9308208078 0 -8276392.9308208078 4546838.9216781557 0 0 0 0 -23729019.97203064 -88588.916240334511 0 -88588.916240334511 -859160.03974074125 0 0 0 0 14432719.915863037 -35108021.685464859 0 -35108021.685464859 -7488167.3136982918 0 0 0 0 18351213.90978241 -33045213.442615509 0 -33045213.442615509 -4897349.3987197876 0 0 0 0 4520273.0451278687 -28781438.512372971 0 -28781438.512372971 -9424571.8759460449 0 0 0 0 7971968.3375320435 -39882729.217626572 0 -39882729.217626572 -8820554.8722496033 0 0 0 0 12568927.127985001 -39696554.055600405 0 -39696554.055600405 -2530199.0964164734 0 0 0 0 -25782631.161063299 -6398459.2761935247 0 -6398459.2761935247 3786253.7905699741 0 0 0 0 -20430072.766889274 -15685027.694161769 0 -15685027.694161769 5591869.8166145971 0 0 0 0 -20675569.721693274 -5923884.3938682377 0 -5923884.3938682377 1536110.1490240681 0 0 0 0 -19315672.027160645 -20604493.530658364 0 -20604493.530658364 -5305945.8487164974 0 0 0 0 -32898395.505348206 -11062762.677743196 0 -11062762.677743196 3048243.1625347137 0 0 0 0 -19750536.695568085 -12971412.829610944 0 -12971412.829610944 -1539268.0580596924 0 0 0 0 -2652164.4400005806 -998277.80731854215 0 -998277.80731854215 378428.73893679027 0 0 0 0 -26801128.961914062 -5892287.0378632545 0 -5892287.0378632545 -975023.35856604576 0 0 0 0 -713137.82192590088 -1953953.7267606659 0 -1953953.7267606659 406589.82114491059 0 0 0 0 31197814.194608688 11145986.103034377 0 11145986.103034377 28383387.921965122 0 0 0 0 -14315094.514049008 -1371404.261858332 0 -1371404.261858332 3219664.0105925584 0 0 0 0 15872184.488891602 293216.09948730469 0 293216.09948730469 9589238.1735420227 0 0 0 0 -7787424.7872314453 7755690.346716404 0 7755690.346716404 18274033.421376467 0 0 0 0 -59090091.391540527 42605284.443518639 0 42605284.443518639 22242613.31624794 0 0 0 0 1350809.210255146 9491236.0467869379 0 9491236.0467869379 5417580.6416835785 0 0 0 0 -37882124.141716003 -8569977.4407875538 0 -8569977.4407875538 16542242.162397385 0 0 0 0 -8870066.2386409044 1255708.7868148331 0 1255708.7868148331 8674565.9684047699 0 0 0 0 -10671843.498082617 -1285966.7619476765 0 -1285966.7619476765 2168380.4068995388 0 0 0 0 -58298708.258087158 -41262695.062376976 0 -41262695.062376976 66048358.689866543 0 0 0 0 32065297.541252136 59280932.173339605 0 59280932.173339605 -42649471.310548782 0 0 0 0 -34371953.067129135 -42640017.45609951 0 -42640017.45609951 162963261.61818123 0 0 0 0 -31546452.040173255 3985355.9164265604 0 3985355.9164265604 3170815.3280138536 0 0 0 0 -41219050.786407471 43962077.322669983 0 43962077.322669983 66676788.0630126 0 0 0 0 -38341225.247161865 -15032708.294235229 0 -15032708.294235229 -6290876.12059021 0 0 0 0 8638296.9115905762 67883758.666546822 0 67883758.666546822 13627283.765886307 0 0 0 0 -9583898.3429919481 322297.59511634859 0 322297.59511634859 1429262.2448039539 0 0 0 0 -29065960.449645996 10658307.521225214 0 10658307.521225214 55468341.087920904 0 0 0 0 30463453.954299927 21127388.637425423 0 21127388.637425423 -73179452.162009239 0 0 0 0 869563.98883056641 -1447311.5373218656 0 -1447311.5373218656 22529524.296311736 0 0 0 0 -6514116.3493995667 14983989.384074911 0 14983989.384074911 4277490.964138031 0 0 0 0 -25372106.403533936 21466468.013383627 0 21466468.013383627 40725780.599294782 0 0 0 0 -33509136.079223633 -48830193.735117793 0 -48830193.735117793 -1241244.0484881401 0 0 0 0 -15118705.020187378 16334998.763811648 0 16334998.763811648 -38024957.139577389 0 0 0 0 -91045038.473762512 1161420.730764892 0 1161420.730764892 6065360.1151952744 0 0 0 0 -3133847.1858673096 -2097085.3541909456 0 -2097085.3541909456 -10247793.437781515 0 0 0 0 -6914702.0238800049 21222675.809421539 0 21222675.809421539 -9919648.3122742176 0 0 0 0 -79174998.083404541 876686.97171396017 0 876686.97171396017 14790242.803237915 0 0 0 0 -45310998.936599731 -33154033.304365635 0 -33154033.304365635 -17637132.681182027 0 0 0 0 -663214.4675205946 -1172914.0845306553 0 -1172914.0845306553 483470.59697443363 0 0 0 0 -1230655.5807189941 -11143724.483479023 0 -11143724.483479023 -4384661.7834455967 0 0 0 0 -6877488.0888519287 1158473.5152169466 0 1158473.5152169466 -874242.37978899479 0 0 0 0 3740065.0074615479 -2539618.4754459858 0 -2539618.4754459858 -3050554.4124449492 0 0 0 0 699296.22087931633 -106881.32937638089 0 -106881.32937638089 -352792.13082977221 0 0 0 0 -2157991.5445289612 4987169.0506648794 0 4987169.0506648794 -2383429.8138886094 0 0 0 0 -3340962.6082305908 5404671.8675541878 0 5404671.8675541878 1282925.501734972 0 0 0 0 -3374616.9227752686 2314986.0952883959 0 2314986.0952883959 1903523.9357225895 0 0 0 0 -159024.52618408203 -4220829.8504981995 0 -4220829.8504981995 -1526139.3091192245 0 0 0 0 -1811300.9131011963 1284144.6528271437 0 1284144.6528271437 -7715562.5416157246 0 0 0 0 -1706892.7956791818 -2881155.5121387658 0 -2881155.5121387658 1209554.3606800009 0 0 0 0 -8741625.9779060334 -717665.04579366744 0 -717665.04579366744 1211529.3096129983 0 0 0 0 3301268.345998764 -1281632.1898760945 0 -1281632.1898760945 1594060.3924179077 0 0 0 0 -17009926.738830566 61217384.384041786 0 61217384.384041786 -60391019.88836813 0 0 0 0 -3787196.2616285086 -1437732.5664164824 0 -1437732.5664164824 709147.01436277363 0 0 0 0 141087.45858001709 -968707.81911604106 0 -968707.81911604106 129352.44058990479 0 0 0 0 -2238617.5455601588 -1924263.297557395 0 -1924263.297557395 -913632.40173030226 0 0 0 0 -7137077.6563412696 417408.51355861872 0 417408.51355861872 761935.01320964145 0 0 0 0 -903550.89317207038 -5554651.2776396684 0 -5554651.2776396684 781371.04837640014 0 0 0 0 -27015948.869445801 -2120987.1913027763 0 -2120987.1913027763 124549566.97788143 0 0 0 0 -6900280.7366256714 -5992482.9304215908 0 -5992482.9304215908 482158.34770393372 0 0 0 0 -9565154.7578125 135079861.70926142 0 135079861.70926142 -8632296.8052358627 0 0 0 0 -905402.89341851627 -15968.198194783181 0 -15968.198194783181 366092.61094155954 0 0 0 0 -478334834.1288147 252735577.41083336 0 252735577.41083336 396601791.80042648 0 0 0 0 249673307.53033447 -496966421.90557718 0 -496966421.90557718 -585490262.64058685 0 0 0 0 -118272927.2074585 121664269.92387247 0 121664269.92387247 28194935.254565716 0 0 0 0 -6665654.2147979736 52995194.61961484 0 52995194.61961484 15113091.606688499 0 0 0 0 -18916352.462600708 6179653.0454204082 0 6179653.0454204082 -2954427.1443018913 0 0 0 0 -7633133.4434966445 -1719923.1586065069 0 -1719923.1586065069 -2030077.5607457268 0 0 0 0 -15958337.063498378 2908715.1000771252 0 2908715.1000771252 -9855401.6910991669 0 0 0 0 -34573108.35168457 11526613.415010691 0 11526613.415010691 -3050153.1050011516 0 0 0 0 -63251645.544219971 -3639631.1432780027 0 -3639631.1432780027 1581241.6733627319 0 0 0 0 -35020128.535079956 3441225.5583150387 0 3441225.5583150387 -4723343.8278620243 0 0 0 0 -95799140.186248779 4427037.1443970203 0 4427037.1443970203 3067533.6940937042 0 0 0 0 -5176776.3844051361 -10575298.201100409 0 -10575298.201100409 -7864129.9616394043 0 0 0 0 -32800943.55758667 4708485.9779151082 0 4708485.9779151082 11461093.327821732 0 0 0 0 -38523234.901069641 -3206040.4285626411 0 -3206040.4285626411 2671806.8346705437 0 0 0 0 -28501106.063423157 -9182201.5297698975 0 -9182201.5297698975 2424624.7460274994 0 0 0 0 101130427.25396729 -19962270.265699625 0 -19962270.265699625 -227442916.26538062 0 0 0 0 -154018822.20043945 85148128.639631629 0 85148128.639631629 93779322.247964978 0 0 0 0 -86014517.455810547 -46151996.540518522 0 -46151996.540518522 133848234.93919396 0 0 0 0 -455753.79325151443 296578.81283100694 0 296578.81283100694 -89513.514751622919 0 0 0 0 108282091.12068939 59435893.146511853 0 59435893.146511853 -94790986.094129562 0 0 0 0 83588738.850189209 88522498.296858549 0 88522498.296858549 -86257100.557211235 0 0 0 0 -9920290.4489135742 -149448951.96195877 0 -149448951.96195877 -70414934.516165018 0 0 0 0 -84191305.604125977 -81693417.577866912 0 -81693417.577866912 139169687.2047677 0 0 0 0 -131527829.69091797 -143695855.15420389 0 -143695855.15420389 74396357.880639791 0 0 0 0 78054131.172073364 51833473.008505285 0 51833473.008505285 66697237.035178721 0 0 0 0 -15286704.74065043 10283980.462122116 0 10283980.462122116 2464906.41487021 0 0 0 0 36630531.058502197 -86898052.48967427 0 -86898052.48967427 744474.13126313686 0 0 0 0 -6911558.8187866211 8979481.5394666791 0 8979481.5394666791 -47771662.742586225 0 0 0 0 -17961434.191915553 10639730.835531637 0 10639730.835531637 1630957.6326353967 0 0 0 0 -18138002.824966431 168080271.64765316 0 168080271.64765316 -73587062.54635796 0 0 0 0 -114194103.19005966 -91086740.549916953 0 -91086740.549916953 5381527.7312571406 0 0 0 0 2181635.378626734 2670644.138863937 0 2670644.138863937 -1698818.4292881906 0 0 0 0 -40629492.059089661 -26506679.410993837 0 -26506679.410993837 47752290.751684844 0 0 0 0 -59656695.888534546 -7930627.4816509783 0 -7930627.4816509783 36797235.403158873 0 0 0 0 -8914436.6702880859 29532443.45467785 0 29532443.45467785 -4341364.2549461126 0 0 0 0 -77887589.577774048 -38878214.659696534 0 -38878214.659696534 7007191.9203443825 0 0 0 0 -86993922.672178268 -51031529.736392893 0 -51031529.736392893 -3843512.4133167863 0 0 0 0 -13614143.360006154 -2243800.7876971252 0 -2243800.7876971252 3139167.9502836773 0 0 0 0 2682339.8614349365 117685704.8166379 0 117685704.8166379 -15392305.152209282 0 0 0 0 -77642555.570404053 -44806438.247630894 0 -44806438.247630894 33607989.30351156 0 0 0 0 -23133445.740096785 7746889.9063709136 0 7746889.9063709136 1929296.2511639718 0 0 0 0 -40825726.352020264 60313258.555557311 0 60313258.555557311 67489198.097897589 0 0 0 0 -3225160.8834262937 -669388.76626854017 0 -669388.76626854017 182657.64516788436 0 0 0 0 20018635.235916138 -29787905.16912967 0 -29787905.16912967 44798846.469235778 0 0 0 0 -459754.12788556516 276275.0821672231 0 276275.0821672231 -50493.978213628056 0 0 0 0 98511320.91299057 66139287.094804615 0 66139287.094804615 -12416675.156577826 0 0 0 0 -180283966.55705261 -20539038.428865433 0 -20539038.428865433 154571705.66914845 0 0 0 0 -234261269.41159058 -3161996.288441062 0 -3161996.288441062 151337141.07159019 0 0 0 0 106191319.47998047 50476329.060634017 0 50476329.060634017 28830043.11792779 0 0 0 0 -192701300.42074585 147659121.43437672 0 147659121.43437672 -2514413.6086893082 0 0 0 0 -135219152.33115387 58102192.266186178 0 58102192.266186178 -1219919.4597034454 0 0 0 0 -858759.00839281082 589937.45503210649 0 589937.45503210649 -182326.07977093849 0 0 0 0 4448560.5415649414 236612561.19719958 0 236612561.19719958 49842312.388307095 0 0 0 0 -4125375.599603653 241630327.41308951 0 241630327.41308951 -11831999.467318058 0 0 0 0 61407924.72315979 -17364095.372184515 0 -17364095.372184515 -317635056.48097658 0 0 0 0 -2894808.7858428955 -55136066.44341588 0 -55136066.44341588 84099561.492050037 0 0 0 0 176203.16256350279 411562.59297377244 0 411562.59297377244 -8177.3020128774224 0 0 0 0 -51806830.922576904 152301576.61129642 0 152301576.61129642 193220271.63999009 0 0 0 0 -20742886.002586365 174398129.14157701 0 174398129.14157701 -161777883.58457518 0 0 0 0 -174499517.2628479 45600651.120347738 0 45600651.120347738 -20981257.973317623 0 0 0 0 -221372857.13485718 -168603319.79006171 0 -168603319.79006171 -29403696.759439826 0 0 0 0 -131709503.98677826 -230398956.04566443 0 -230398956.04566443 -379273477.32535267 0 0 0 0 54447025.330566406 12748020.597893953 0 12748020.597893953 -229027026.47295547 0 0 0 0 -742452.49699401855 -4012943.5384013653 0 -4012943.5384013653 -33157463.02070725 0 0 0 0 76065893.328826904 -4403068.4822136164 0 -4403068.4822136164 -36567093.231532097 0 0 0 0 62455324.371398926 -35725606.138672829 0 -35725606.138672829 -68665632.110561371 0 0 0 0 144767220.74942017 -17996707.82298708 0 -17996707.82298708 -94215784.437201023 0 0 0 0 1227692.0576574355 1629106.4748143516 0 1629106.4748143516 -418276.55176799023 0 0 0 0 67652299.29208374 66466710.79561758 0 66466710.79561758 -94254592.957362086 0 0 0 0 -155223037.71664429 131933280.9369173 0 131933280.9369173 160030804.80193901 0 0 0 0 151731077.14918709 76962098.434202388 0 76962098.434202388 -46625280.61669445 0 0 0 0 110673239.0692749 -148170360.88313723 0 -148170360.88313723 -56700238.402666092 0 0 0 0 -21457461.270324707 25793517.975907326 0 25793517.975907326 92254770.391459823 0 0 0 0 5317995.2881938964 4480558.2010916602 0 4480558.2010916602 -2658605.6299791168 0 0 0 0 17711102.744873047 -4567791.0022978783 0 -4567791.0022978783 15000982.798365593 0 0 0 0 -134422820.88018799 -25513463.645905495 0 -25513463.645905495 89175000.959577084 0 0 0 0 -120990425.0735817 -88911634.778606594 0 -88911634.778606594 -1820384.2450289726 0 0 0 0 26791328.706756592 93975374.70946002 0 93975374.70946002 -85734572.110410482 0 0 0 0 -135250443.78806305 -42788468.438511848 0 -42788468.438511848 68066530.212489128 0 0 0 0 32649527.039367676 62487209.394984722 0 62487209.394984722 51534810.05248642 0 0 0 0 18077460.927368164 13185271.158018112 0 13185271.158018112 3002362.6577654909 0 0 0 0 85073063.483062744 60777853.057507038 0 60777853.057507038 2943692.3776254654 0 0 0 0 151439183.41235352 -23396037.819483042 0 -23396037.819483042 -56479545.852125168 0 0 0 0 -19989061.103179932 -7058438.0100369453 0 -7058438.0100369453 2306510.3357553482 0 0 0 0 19929906.614105225 3754328.968776226 0 3754328.968776226 -23069721.847486496 0 0 0 0 -2839089.3561706543 17878863.248125553 0 17878863.248125553 -26164250.521969318 0 0 0 0 15078683.155944824 16498913.383319736 0 16498913.383319736 -429325.17565536499 0 0 0 0 21431937.130950928 18378958.550027132 0 18378958.550027132 -8368324.9510774612 0 0 0 0 25668007.10446167 14323162.740608931 0 14323162.740608931 -4887548.790848732 0 0 0 0 -24754.381939547136 -160533.98855017126 0 -160533.98855017126 -421424.71454759641 0 0 0 0 -28180853.7734375 16423882.741961241 0 16423882.741961241 -9675154.4687643051 0 0 0 0 -78842629.390380859 -96978152.323093772 0 -96978152.323093772 19292370.460216761 0 0 0 0 16690669.221374512 48690076.131468534 0 48690076.131468534 -47612497.174336746 0 0 0 0 -32541593.270507812 12297656.928747177 0 12297656.928747177 -2331774.8181142807 0 0 0 0 1161846.56640625 -1858944.1279218197 0 -1858944.1279218197 -5003137.1861941814 0 0 0 0 -119347.53302346542 -378773.98255652934 0 -378773.98255652934 -1266129.1668267511 0 0 0 0 -1791453.5232620239 -16284.370272308588 0 -16284.370272308588 183369.12736129761 0 0 0 0 241286.26926411688 -521800.12059481069 0 -521800.12059481069 -544042.33276767586 0 0 0 0 -7111013.1832733154 -9014715.9663673639 0 -9014715.9663673639 -10534001.681154728 0 0 0 0 7992557.3927063942 2326040.0856106542 0 2326040.0856106542 -10043897.428019524 0 0 0 0 14870590.050811768 2012488.3302235603 0 2012488.3302235603 -15114047.330063224 0 0 0 0 7741796.8889160156 -6369253.7313027382 0 -6369253.7313027382 -29391857.976151466 0 0 0 0 4539408.3145751953 -1374959.311178565 0 -1374959.311178565 -11352677.29788065 0 0 0 0 -133221.6666982919 86097.763571415097 0 86097.763571415097 -1233600.9949386695 0 0 0 0 1752974.9899597168 1930022.1975419056 0 1930022.1975419056 -1579097.9255681774 0 0 0 0 -1132868.8879394531 -1624832.9583893418 0 -1624832.9583893418 -1945022.0964419842 0 0 0 0 -2228628.4902191162 -1609785.2889918089 0 -1609785.2889918089 -2782796.7101835608 0 0 0 0 -7404461.6667785645 -871257.26127660275 0 -871257.26127660275 -1690444.6101326942 0 0 0 0 -440836351.77966309 -476152663.92596281 0 -476152663.92596281 -327983403.93377012 0 0 0 0 -283351.51932923496 -113066.81893900409 0 -113066.81893900409 -126666.37205310771 0 0 0 0 -464982183.18372726 -437211957.65942001 0 -437211957.65942001 -217149935.64177752 0 0 0 0 -466920731.70053864 -381994563.62834811 0 -381994563.62834811 -232254555.99981618 0 0 0 0 3048495.6458129883 -8158048.7709047794 0 -8158048.7709047794 13472976.219263077 0 0 0 0 -4601308.7434768677 4768815.8364531994 0 4768815.8364531994 1770388.6844139099 0 0 0 0 19113504.139816284 -30497755.948727131 0 -30497755.948727131 15829004.921411991 0 0 0 0 79282.863126650453 -168015.6495995447 0 -168015.6495995447 -159273.08316810615 0 0 0 0 16700262.456176758 -16586512.996005774 0 -16586512.996005774 -5255202.030974865 0 0 0 0 -26427945.004516602 2238998.1498174667 0 2238998.1498174667 1202452.3769619465 0 0 0 0 -28760371.775032043 -3992683.4299601316 0 -3992683.4299601316 2609716.6601979733 0 0 0 0 -38814859.565933228 4259922.3016539812 0 4259922.3016539812 2521203.7133779526 0 0 0 0 -32735853.515167236 -2457986.7231681347 0 -2457986.7231681347 1016305.6775188446 0 0 0 0 -19737720.893371582 7267322.0654799938 0 7267322.0654799938 -5488830.1751141548 0 0 0 0 -26054532.998504639 2941488.5076487064 0 2941488.5076487064 1914978.3537650108 0 0 0 0 -26002584.01360321 2661551.8139270544 0 2661551.8139270544 2943931.0752029419 0 0 0 0 -29878911.274505615 6512888.8256950378 0 6512888.8256950378 1378362.0809038877 0 0 0 0 -7292419.5766601562 2830480.5842471123 0 2830480.5842471123 -1512535.7866990566 0 0 0 0 -7541715.6232933775 -854244.05033574626 0 -854244.05033574626 78052.498206559801 0 0 0 0 -29471016.667022705 -1173523.8053281307 0 -1173523.8053281307 2985750.5804672241 0 0 0 0 1101950.8794406205 887127.35547261499 0 887127.35547261499 -709430.67321858753 0 0 0 0 -20950790.564155579 5799248.6240262985 0 5799248.6240262985 -339031.9848074913 0 0 0 0 -12353572.090956166 -3130102.9877840877 0 -3130102.9877840877 -1454861.2879611559 0 0 0 0 -17081347.041595459 814478.24844816327 0 814478.24844816327 -701190.58161258698 0 0 0 0 108835538.19125366 47542682.157229781 0 47542682.157229781 -50250905.154726982 0 0 0 0 -13581187.942796022 8782824.7247090414 0 8782824.7247090414 3061726.43445354 0 0 0 0 43477288.410491943 -8430405.3334403038 0 -8430405.3334403038 42070538.551214814 0 0 0 0 42022055.648925781 -2673053.0432190895 0 -2673053.0432190895 43169992.895539761 0 0 0 0 36300919.126098633 -6876691.8925890923 0 -6876691.8925890923 42372935.59214592 0 0 0 0 21615129.539093018 5427155.6225568056 0 5427155.6225568056 40405107.414357662 0 0 0 0 -4268494.1025238037 1337001.281957984 0 1337001.281957984 2402418.6352491379 0 0 0 0 5758521.6381835938 17691905.058834076 0 17691905.058834076 32770760.923532963 0 0 0 0 5758521.6380615234 17691905.058976173 0 17691905.058976173 32770760.92354548 0 0 0 0 5758521.6380004883 17691905.058944702 0 17691905.058944702 32770760.923611641 0 0 0 0 -8179207.4980564341 8728042.7824666724 0 8728042.7824666724 2157381.1937936628 0 0 0 0 4142050.0575256348 12024774.975655079 0 12024774.975655079 2654906.1898646355 0 0 0 0 -6346194.266860202 4584028.9196349028 0 4584028.9196349028 1870576.8257402908 0 0 0 0 16431590.00769043 15914946.981182098 0 15914946.981182098 -2523622.1708292961 0 0 0 0 3886069.9084014893 10577402.369272232 0 10577402.369272232 14841506.174746513 0 0 0 0 20105016.412231445 26207954.327961683 0 26207954.327961683 15741038.426124573 0 0 0 0 6337538.9793968201 4345896.5413129032 0 4345896.5413129032 -3164251.1021962166 0 0 0 0 5435129.6676025391 7222639.4174451232 0 7222639.4174451232 -5792354.5083022118 0 0 0 0 12343759.725952148 12782771.598276615 0 12782771.598276615 -1640078.8708672523 0 0 0 0 -71936.562061309814 3083113.4369692849 0 3083113.4369692849 138897.92601798289 0 0 0 0 1455207.2362518311 2991364.7988572959 0 2991364.7988572959 -3506217.5956646916 0 0 0 0 -1271911.3364257812 5068377.4523959905 0 5068377.4523959905 502953.21304531395 0 0 0 0 -18968620.680297852 9499535.7356491089 0 9499535.7356491089 229006.51595473289 0 0 0 0 -9477875.6232552677 3088476.529709056 0 3088476.529709056 17123.034828763804 0 0 0 0 -4284637.6084365845 5539763.0824974775 0 5539763.0824974775 439998.28101336956 0 0 0 0 -724395.47050476074 12860671.554945588 0 12860671.554945588 3244896.3897988498 0 0 0 0 -19616174.531555176 -1222360.7158838511 0 -1222360.7158838511 879903.85760545731 0 0 0 0 -16409980.720306396 1951287.5739305019 0 1951287.5739305019 -2139092.5258152485 0 0 0 0 -21848111.311889648 4986553.0080485344 0 4986553.0080485344 -3781052.0700640678 0 0 0 0 -24395186.632049561 862845.2821636796 0 862845.2821636796 341865.70313119888 0 0 0 0 -21570711.044555664 -1787849.8853569031 0 -1787849.8853569031 2047941.9922684431 0 0 0 0 -22211378.858413696 -1402691.2348668575 0 -1402691.2348668575 1888859.4875537157 0 0 0 0 -22109682.018081665 -3440361.343558073 0 -3440361.343558073 2163702.2326693535 0 0 0 0 -9773195.9079284668 -4600107.994622983 0 -4600107.994622983 -1000624.3973414749 0 0 0 0 -5339341.0588986278 -1290800.9628195539 0 -1290800.9628195539 350323.52362899709 0 0 0 0 -9207597.0265617371 8606859.3151931949 0 8606859.3151931949 9096520.2715309262 0 0 0 0 -21337758.917404175 -1625437.0204646587 0 -1625437.0204646587 864812.93118834496 0 0 0 0 -9558313.0090312958 -10085151.058503211 0 -10085151.058503211 3109985.1162911057 0 0 0 0 -14018401.496305481 -3697496.768343037 0 -3697496.768343037 1566115.8422943172 0 0 0 0 -4005104.2793731689 3546639.68397782 0 3546639.68397782 1207641.8185276389 0 0 0 0 -10416107.993158169 2411423.5559882298 0 2411423.5559882298 852396.04161248263 0 0 0 0 -5677601.4572883248 1826856.1989318132 0 1826856.1989318132 455345.5719502141 0 0 0 0 -10408330.661361694 -1781118.6088631973 0 -1781118.6088631973 3162247.9199721515 0 0 0 0 -2087431.3667449951 3132140.5225214511 0 3132140.5225214511 1270797.2278326303 0 0 0 0 -2111504.9241390228 2967803.5407404751 0 2967803.5407404751 149715.74871969782 0 0 0 0 -1080022.8905759454 478046.35188771784 0 478046.35188771784 -1120077.2980244209 0 0 0 0 -2153945.716217041 760913.06165105104 0 760913.06165105104 518085.39498864114 0 0 0 0 -612373.23192596436 189966.52968543768 0 189966.52968543768 -466056.90093851089 0 0 0 0 -480436.38870239258 4098.1712304353714 0 4098.1712304353714 -567362.84931874275 0 0 0 0 -2462241.4012971371 744126.19126930088 0 744126.19126930088 -124967.91292020387 0 0 0 0 -216727.14228028059 203711.4683018066 0 203711.4683018066 175721.83132336597 0 0 0 0 6505821.2783050537 -11358685.507790593 0 -11358685.507790593 -51848473.997517884 0 0 0 0 -21938583.739501953 -11234339.6800097 0 -11234339.6800097 71370631.940293163 0 0 0 0 -76516612.309417725 -14400359.527212694 0 -14400359.527212694 -31690526.251439415 0 0 0 0 -157636729.1489563 -66482668.806827426 0 -66482668.806827426 -108550.16927741487 0 0 0 0 -18920251.83921814 -31397979.29198043 0 -31397979.29198043 -95598465.334673241 0 0 0 0 -18639736.610916138 -113264634.63531429 0 -113264634.63531429 -199507976.0196054 0 0 0 0 -27099364.225769043 -46116638.347842805 0 -46116638.347842805 -16418656.865344061 0 0 0 0 -16893026.217689514 33363300.304862119 0 33363300.304862119 -11480306.799792357 0 0 0 0 -5583506.854019165 -4840580.8396401256 0 -4840580.8396401256 -1222492.9894955102 0 0 0 0 -14955147.986373901 1705373.9693712667 0 1705373.9693712667 11950138.131292224 0 0 0 0 -1052341.50569731 -478493.41488422826 0 -478493.41488422826 91933.929036857109 0 0 0 0 -848208.30796163529 -230118.02960737795 0 -230118.02960737795 385975.49733142729 0 0 0 0 -12555882.212524414 -4766777.6247868463 0 -4766777.6247868463 5333858.8762392327 0 0 0 0 -4786347.7588195801 51098.018746558577 0 51098.018746558577 -13705766.838348381 0 0 0 0 -22743271.401153564 -10111958.367247885 0 -10111958.367247885 2600160.8066743724 0 0 0 0 -24014970.773071289 -29089279.74842814 0 -29089279.74842814 -9802130.9355060607 0 0 0 0 3466891.893245697 -7078489.7875247663 0 -7078489.7875247663 -48529.448532848648 0 0 0 0 -442717.45227651298 -277977.85334942862 0 -277977.85334942862 -146599.53852812716 0 0 0 0 -38426127.624313354 22524758.303665534 0 22524758.303665534 3971.3654633320339 0 0 0 0 12145506.350280762 10978645.325408868 0 10978645.325408868 -4662425.5928044245 0 0 0 0 -28624045.919403076 4668168.4015892632 0 4668168.4015892632 12955294.225263685 0 0 0 0 -430893221.54809475 -257535499.36355641 0 -257535499.36355641 -81898532.223858833 0 0 0 0 -428371660.86643982 -282899281.12327838 0 -282899281.12327838 -87027037.459648788 0 0 0 0 -485868511.59907532 -337570685.06144309 0 -337570685.06144309 -133401279.16852856 0 0 0 0 -448222174.53539276 -334215468.54542822 0 -334215468.54542822 -139287479.14364696 0 0 0 0 -496597345.6191597 -310808118.40650415 0 -310808118.40650415 -42847319.901200533 0 0 0 0 -364389870.64028931 -336462578.7409724 0 -336462578.7409724 -334150858.48838639 0 0 0 0 -303484253.23603058 -214184821.61622876 0 -214184821.61622876 -142516689.09144962 0 0 0 0 -806830.7167551294 -253944.44455335289 0 -253944.44455335289 -333474.78900665569 0 0 0 0 126164.83901977539 -398182.73909848928 0 -398182.73909848928 -1112939.9751753807 0 0 0 0 -662944.9111483749 -739557.30976753682 0 -739557.30976753682 -1200700.8425694986 0 0 0 0 -1033426.4842654392 -336904.81473050639 0 -336904.81473050639 -597226.34069171222 0 0 0 0 -485558.67871615663 -489849.69940822572 0 -489849.69940822572 -946373.38432839268 0 0 0 0 -3139928.5231933594 -1796407.6570767611 0 -1796407.6570767611 10538665.358738244 0 0 0 0 -257104312.74407196 -147082050.38482457 0 -147082050.38482457 -86997239.119797111 0 0 0 0 -379577244.15487671 -251219026.5817681 0 -251219026.5817681 -141964639.80734912 0 0 0 0 -445270797.39672852 -261190425.42328393 0 -261190425.42328393 -82524709.352398098 0 0 0 0 -431732767.34144592 -251980468.04910082 0 -251980468.04910082 -119532668.35574341 0 0 0 0 -447819012.92999268 -204792408.08763736 0 -204792408.08763736 -101338227.25934252 0 0 0 0 -602864546.91841125 -284854074.58686018 0 -284854074.58686018 -94884623.62227425 0 0 0 0 36316336.147705078 -10258288.178090021 0 -10258288.178090021 -73118405.140233815 0 0 0 0 -176452.18137607165 -158782.0415020287 0 -158782.0415020287 -328977.67398220883 0 0 0 0 -16760359.834091187 -30735443.688398238 0 -30735443.688398238 24933973.569327742 0 0 0 0 -492877968.77880859 -202375989.13037723 0 -202375989.13037723 -61112167.558217615 0 0 0 0 -459154211.34994507 -261112363.33215544 0 -261112363.33215544 -189369302.64002797 0 0 0 0 -390926806.59463501 -207642044.59303051 0 -207642044.59303051 -60398419.963671416 0 0 0 0 -389132952.95416021 -141057080.6287398 0 -141057080.6287398 -131826035.19264281 0 0 0 0 -481150789.50682068 -171358028.0752801 0 -171358028.0752801 -108465.5050167283 0 0 0 0 -463656199.10418701 -215339735.99443239 0 -215339735.99443239 -75735896.816988289 0 0 0 0 -491863266.95337677 -246731943.10468042 0 -246731943.10468042 158896.65354962807 0 0 0 0 -471420189.05476379 -233369233.26795316 0 -233369233.26795316 -64888007.607430816 0 0 0 0 -477865172.88804626 -288660175.9433409 0 -288660175.9433409 -77665686.351678044 0 0 0 0 -448273676.7129364 -265003336.18060657 0 -265003336.18060657 -65016688.711197555 0 0 0 0 -495345095.63034058 -274962807.85536742 0 -274962807.85536742 -33354593.067997098 0 0 0 0 -501561130.36222839 -265978214.46056777 0 -265978214.46056777 -37264287.22362715 0 0 0 0 -509626440.80683899 -267443289.35543466 0 -267443289.35543466 -829863.54908410925 0 0 0 0 -515329840.87817383 -283296890.84575987 0 -283296890.84575987 -39282217.474642396 0 0 0 0 -486305350.12088013 -252763383.35756421 0 -252763383.35756421 -34734444.749824673 0 0 0 0 -518609512.76277161 -296060180.32029694 0 -296060180.32029694 -52231756.355438352 0 0 0 0 -520354478.97238159 -268593980.02728009 0 -268593980.02728009 17285361.086608052 0 0 0 0 -561448954.70869446 -329340368.85554165 0 -329340368.85554165 -29008855.137692928 0 0 0 0 -542000580.845047 -394833528.88507688 0 -394833528.88507688 -121994665.94859743 0 0 0 0 -538670884.75585938 -360193712.05554748 0 -360193712.05554748 -2453417.3813232183 0 0 0 0 -399277576.74026489 -163221069.43322515 0 -163221069.43322515 91771901.42868036 0 0 0 0 -72904490.16390717 54051563.545329303 0 54051563.545329303 183112675.43834352 0 0 0 0 -540364418.2475872 -234736718.84265587 0 -234736718.84265587 124895863.43327546 0 0 0 0 -694680846.50361633 -355776795.77778125 0 -355776795.77778125 73954973.263886809 0 0 0 0 -477185074.89465332 -214742638.99534112 0 -214742638.99534112 44556171.178079963 0 0 0 0 -426922882.37625122 -230216636.29999661 0 -230216636.29999661 29343643.359071612 0 0 0 0 -352834917.27132034 -76004594.930773273 0 -76004594.930773273 115974522.60178566 0 0 0 0 -71511425.627593994 -84399119.108181119 0 -84399119.108181119 -25136009.054710686 0 0 0 0 -323968.33623370528 -172312.62902159244 0 -172312.62902159244 -72867.991674118137 0 0 0 0 -59281703.905792236 -39338519.485294387 0 -39338519.485294387 -154591.74373542628 0 0 0 0 -229118635.26480865 -89696056.038416982 0 -89696056.038416982 -9979510.2558348179 0 0 0 0 -222572814.94960022 -196225785.478854 0 -196225785.478854 -102622020.73846221 0 0 0 0 -451802534.77257919 -387424704.69891191 0 -387424704.69891191 -255424916.78694195 0 0 0 0 -378212.20161475241 -257472.8803278096 0 -257472.8803278096 -118675.11015939192 0 0 0 0 -117128802.71522522 -107911798.71989042 0 -107911798.71989042 -81417990.187583596 0 0 0 0 -132413290.08919525 -122539346.27660964 0 -122539346.27660964 31508.731096568023 0 0 0 0 -141880852.42718506 -69189388.389073253 0 -69189388.389073253 -84813217.999909908 0 0 0 0 -60509817.749954224 -44245663.854165465 0 -44245663.854165465 70396229.017932892 0 0 0 0 29011299.44493103 -172515314.77543861 0 -172515314.77543861 29390497.764926285 0 0 0 0 93534906.35017395 -222276211.87993181 0 -222276211.87993181 170816430.94608521 0 0 0 0 73783066.676956177 -173599654.91618907 0 -173599654.91618907 -432623417.19645774 0 0 0 0 -171246933.097229 -286025578.17854756 0 -286025578.17854756 302315538.22598553 0 0 0 0 -283576.47176136076 -299115.77532084193 0 -299115.77532084193 -52259.715869260981 0 0 0 0 -23656248.972290039 -273014131.24086475 0 -273014131.24086475 77948569.219167769 0 0 0 0 -57771733.40322876 -274007240.05334401 0 -274007240.05334401 -120784522.41620946 0 0 0 0 -181144558.35632324 -388146040.16976333 0 -388146040.16976333 -87621259.38637352 0 0 0 0 -37139045.750457764 -155577836.54028857 0 -155577836.54028857 30188130.673316956 0 0 0 0 -134732779.22549438 -172284459.5551002 0 -172284459.5551002 195724209.6926558 0 0 0 0 -3734936.3068695068 -45579555.381300628 0 -45579555.381300628 -39663145.799216747 0 0 0 0 -62756603.637145996 12424388.580327094 0 12424388.580327094 123815843.17870998 0 0 0 0 -86102842.157302856 7336273.9152883887 0 7336273.9152883887 198398090.90677571 0 0 0 0 -91576.491123065352 -59150.534232687205 0 -59150.534232687205 -58656.584637627762 0 0 0 0 -16113047.448699951 -58768325.51536417 0 -58768325.51536417 103334820.15335035 0 0 0 0 -214668436.82666016 -132159565.57373297 0 -132159565.57373297 -87247179.353723526 0 0 0 0 -192394125.72860718 -327375140.97798514 0 -327375140.97798514 -156556276.0962626 0 0 0 0 -384991079.92181396 -218110235.16946054 0 -218110235.16946054 96232165.649391651 0 0 0 0 -174348571.95043945 -194925623.86985588 0 -194925623.86985588 -32345849.490781784 0 0 0 0 -133013639.92041016 -120683596.54420328 0 -120683596.54420328 202027195.35079134 0 0 0 0 -163906104.24255371 -107017405.13700771 0 -107017405.13700771 106535569.97663295 0 0 0 0 -175486832.10290146 -207189388.6238265 0 -207189388.6238265 100822674.57865143 0 0 0 0 -52841663.446723938 -102630991.18561164 0 -102630991.18561164 52777708.169669628 0 0 0 0 -51933982.218063354 -105920865.41971517 0 -105920865.41971517 56064716.636738777 0 0 0 0 -242588859.52624512 -249057856.09942532 0 -249057856.09942532 58914310.979550362 0 0 0 0 -97393382.894897461 -201328315.05529785 0 -201328315.05529785 29622776.540978432 0 0 0 0 -146044808.95355225 -166148016.64599514 0 -166148016.64599514 76489323.097057819 0 0 0 0 -181965113.7076416 -214833103.07039785 0 -214833103.07039785 73379192.410996914 0 0 0 0 -56838726.11114502 -232990263.01465464 0 -232990263.01465464 70411205.770882845 0 0 0 0 -43324503.114349365 -130830170.18718219 0 -130830170.18718219 68214937.666415095 0 0 0 0 -42401585.782531738 -151813412.20180595 0 -151813412.20180595 137128727.17914295 0 0 0 0 39452346.480697632 -98443721.697048664 0 -98443721.697048664 52707818.764823437 0 0 0 0 -19637204.190452576 -29196212.327572644 0 -29196212.327572644 180969758.70447969 0 0 0 0 -15308338.94393158 -28469771.22240784 0 -28469771.22240784 30879073.475642204 0 0 0 0 -71288422.009628296 -99190057.864300728 0 -99190057.864300728 87060932.235809326 0 0 0 0 22922928.748794556 -244000633.32508421 0 -244000633.32508421 576577184.89905834 0 0 0 0 185517670.47189331 -190448307.53551507 0 -190448307.53551507 130029112.21379179 0 0 0 0 39373343.061950684 -123325905.77034593 0 -123325905.77034593 141584814.44315305 0 0 0 0 -25283172.165493011 -258079500.34900564 0 -258079500.34900564 227167790.32609606 0 0 0 0 2528202.2018280029 -24539708.500121117 0 -24539708.500121117 -51735386.251168966 0 0 0 0 955733.72023831308 -428902.84717776254 0 -428902.84717776254 112707.30957289046 0 0 0 0 -81909178.500823975 10129862.819361746 0 10129862.819361746 835952992.13449621 0 0 0 0 8266746.6869506836 -45444116.094926119 0 -45444116.094926119 320501307.60505009 0 0 0 0 -34346102.52768898 -200139653.01685345 0 -200139653.01685345 197291136.23853767 0 0 0 0 149699249.39241028 -171503373.42331207 0 -171503373.42331207 136515607.36199939 0 0 0 0 -26786309.864471436 -121014716.66956866 0 -121014716.66956866 370742305.19035554 0 0 0 0 -11201515.473876953 -77796829.281945109 0 -77796829.281945109 289248140.73556554 0 0 0 0 2142504.9847572893 -2814451.0769980494 0 -2814451.0769980494 922557.19953191222 0 0 0 0 -24300285.335571289 -8467113.9181809425 0 -8467113.9181809425 -333822.14147150517 0 0 0 0 -1436658.6373367831 -826934.65327175334 0 -826934.65327175334 728135.07923984551 0 0 0 0 55804291.209762573 -113035143.03954196 0 -113035143.03954196 233719483.36294067 0 0 0 0 -3390053.7327766418 1631714.7501312643 0 1631714.7501312643 -1547618.1650675535 0 0 0 0 -1039433.0847221613 -118723.55500449799 0 -118723.55500449799 686110.27972326928 0 0 0 0 -5247816.0764923096 6112900.5174892545 0 6112900.5174892545 2406179.6337051392 0 0 0 0 -2748313.9257965088 -5647630.9042389393 0 -5647630.9042389393 15180667.807835579 0 0 0 0 -3762238.7546958923 1407905.778747797 0 1407905.778747797 7145721.0257041454 0 0 0 0 -8713962.92377083 -567183.59328592196 0 -567183.59328592196 3547955.7435718607 0 0 0 0 -3746834.0631256104 -26436100.784375668 0 -26436100.784375668 693917.71010398865 0 0 0 0 -13682319.26233352 -5254951.2473673942 0 -5254951.2473673942 3294994.8068908416 0 0 0 0 -357350211.4236908 -672045258.83369923 0 -672045258.83369923 -700891224.93878937 0 0 0 0 -5617284.4942932129 5965462.8139789104 0 5965462.8139789104 10919813.653562546 0 0 0 0 -155604702.13641357 -477070985.09139299 0 -477070985.09139299 -770131347.39885235 0 0 0 0 -970737.15590041876 -143275.17307961732 0 -143275.17307961732 673594.69920496084 0 0 0 0 89953264.398620605 -422902293.65057564 0 -422902293.65057564 -1711600650.179306 0 0 0 0 -10714227.700321198 -48330016.236886561 0 -48330016.236886561 20278350.727923393 0 0 0 0 -30350229.423553467 -5130600.2631187439 0 -5130600.2631187439 45690095.269713402 0 0 0 0 -10701039.546228036 254684.65051087178 0 254684.65051087178 2125150.5373137398 0 0 0 0 -333188252.27442932 -436067397.38031244 0 -436067397.38031244 -1136337933.5052536 0 0 0 0 -288441249.2565918 -677987283.73356628 0 -677987283.73356628 -1660442508.0639133 0 0 0 0 -284417046.15679932 -889633778.84555817 0 -889633778.84555817 -1489385954.8384199 0 0 0 0 -591858564.29393768 -675291697.85815132 0 -675291697.85815132 -991525785.85223484 0 0 0 0 -15008667.390123367 -36182757.389138997 0 -36182757.389138997 159289264.59996986 0 0 0 0 -572755197.16609955 -1361369007.0031178 0 -1361369007.0031178 -2570001724.1918006 0 0 0 0 -3518797.4391184747 -170356.30879707634 0 -170356.30879707634 449176.65851486032 0 0 0 0 -767151793.02323151 -8002650.2042691708 0 -8002650.2042691708 -922048705.06794739 0 0 0 0 -481751157.04620361 187587117.78088045 0 187587117.78088045 -377029840.86518836 0 0 0 0 -1619981959.8542404 -802407133.21820259 0 -802407133.21820259 -676692454.68295097 0 0 0 0 -375352285.27664185 -643343907.86853218 0 -643343907.86853218 -916517927.02309203 0 0 0 0 -313003916.41915894 -274497534.82902479 0 -274497534.82902479 -783429053.03304791 0 0 0 0 -220532510.37161255 33236220.47183013 0 33236220.47183013 -390209818.17732143 0 0 0 0 -132207741.00737 -38734745.268001318 0 -38734745.268001318 -332622746.78491926 0 0 0 0 -262281424.44638062 -392955119.63636518 0 -392955119.63636518 -550727322.73075688 0 0 0 0 -412472254.63195801 -575065085.65322042 0 -575065085.65322042 -1159301985.0129843 0 0 0 0 -397688550.20168781 -433093673.91929394 0 -433093673.91929394 -374789284.59309626 0 0 0 0 -416021728.29179382 -420745807.75362837 0 -420745807.75362837 -220641599.06228828 0 0 0 0 -422049438.03112793 -528463121.63440478 0 -528463121.63440478 -432842867.94745886 0 0 0 0 -692479989.12315369 -581503636.13901436 0 -581503636.13901436 -15793161.432607889 0 0 0 0 -581654989.7956543 -407606875.43835592 0 -407606875.43835592 -52949467.004240036 0 0 0 0 -603284388.97841644 -130623289.46145242 0 -130623289.46145242 223038021.58619452 0 0 0 0 53700520.176639557 245497785.78651407 0 245497785.78651407 304503011.60740709 0 0 0 0 -542826741.43936157 -193644082.9794116 0 -193644082.9794116 106379449.18660307 0 0 0 0 -544265191.69766235 -125236352.91672063 0 -125236352.91672063 207969297.74818477 0 0 0 0 -1023618215.3261566 -137465168.96972275 0 -137465168.96972275 572522092.69438648 0 0 0 0 -916734248.2791748 -959715831.73028445 0 -959715831.73028445 -544106282.21883273 0 0 0 0 -1297828359.0987778 -596513822.59444141 0 -596513822.59444141 387157774.55120993 0 0 0 0 -927129629.37641144 -82568433.733294442 0 -82568433.733294442 390393.30932664662 0 0 0 0 -4093480997.444212 114629802.00187254 0 114629802.00187254 -573427562.23322988 0 0 0 0 -4251660574.7258072 1032521760.1265191 0 1032521760.1265191 278996080.39184999 0 0 0 0 -2198240354.1642857 2496438798.6517382 0 2496438798.6517382 -562160002.29240918 0 0 0 0 -4810438557.8145676 -879738503.60834968 0 -879738503.60834968 215926493.3950603 0 0 0 0 428861368.40830994 -539586734.50605428 0 -539586734.50605428 225384655.04307848 0 0 0 0 -3854491.4280427992 -821696.48544143513 0 -821696.48544143513 194957.54191924309 0 0 0 0 -75903880.025268555 -17403424.185511462 0 -17403424.185511462 -42936220.568494737 0 0 0 0 -7686964.8793055266 -2672248.1329680551 0 -2672248.1329680551 -109259.80576761352 0 0 0 0 -616236444.40924835 -294540431.80503643 0 -294540431.80503643 910449527.77126932 0 0 0 0 -2282423788.5797353 -343084744.61673021 0 -343084744.61673021 1934739639.6201565 0 0 0 0 -349720689.82597351 364836172.065961 0 364836172.065961 170425337.64568615 0 0 0 0 -199333998.49833679 -2190683452.7170768 0 -2190683452.7170768 -280934252.02738464 0 0 0 0 -3766599.2985311747 -1867005.4015558101 0 -1867005.4015558101 -478874.9210450133 0 0 0 0 -1013635665.6280518 -2370902588.221313 0 -2370902588.221313 1063445603.2969785 0 0 0 0 -2723352360.1336212 465382455.94260406 0 465382455.94260406 422956799.76461339 0 0 0 0 -2546993284.3488159 -1187286099.323643 0 -1187286099.323643 134793699.00091648 0 0 0 0 -817961589.30551147 -1287994491.1602898 0 -1287994491.1602898 -519939855.05853701 0 0 0 0 -1157770358.634613 566953353.51927757 0 566953353.51927757 -312284371.82384127 0 0 0 0 -808569161.37338257 -456712338.11039233 0 -456712338.11039233 383558648.01934934 0 0 0 0 -1661144179.1031647 -700156527.41480768 0 -700156527.41480768 500734944.35700119 0 0 0 0 -1985775292.1667175 -306786240.92911977 0 -306786240.92911977 188271619.18052429 0 0 0 0 -1221147731.1719971 362287088.78796458 0 362287088.78796458 406079460.3401922 0 0 0 0 -1001783453.6453242 -657499905.9658246 0 -657499905.9658246 -76261319.629885286 0 0 0 0 -979505424.71067047 -59412805.366555162 0 -59412805.366555162 -9799162.7945826668 0 0 0 0 -1041806270.3079834 -41216434.124276385 0 -41216434.124276385 119849369.84351045 0 0 0 0 -157145198.10219574 -76094598.716370463 0 -76094598.716370463 -309895.05823634681 0 0 0 0 -610998.25620733202 -382927.54342388548 0 -382927.54342388548 -3349.7570157984737 0 0 0 0 213643631.38560486 -248951479.39672923 0 -248951479.39672923 167585448.86344349 0 0 0 0 327691010.20333862 -210029320.22616363 0 -210029320.22616363 93556299.793592453 0 0 0 0 -880628.11707825959 -710025.33324273955 0 -710025.33324273955 -93639.880428082135 0 0 0 0 -1087807839.3120728 -332512451.63028014 0 -332512451.63028014 661056922.41913724 0 0 0 0 324835773.25328064 -24300209.213948965 0 -24300209.213948965 268481552.72415602 0 0 0 0 -174555.63435881585 -162163.34928995743 0 -162163.34928995743 7962.8621704555117 0 0 0 0 227691875.03398132 134903673.3411451 0 134903673.3411451 -35646362.638679028 0 0 0 0 -822978969.87154388 -302671074.58924282 0 -302671074.58924282 -216907574.50904274 0 0 0 0 199776198.18611145 -265834432.15596437 0 -265834432.15596437 97861048.26717189 0 0 0 0 231565111.98774719 -163126566.64296585 0 -163126566.64296585 97037608.201816797 0 0 0 0 -97327225.611923218 30783355.082176685 0 30783355.082176685 14837659.044578552 0 0 0 0 -616552.80873070657 -493676.13842924312 0 -493676.13842924312 135203.04611409782 0 0 0 0 -58898821.782455444 -43492726.88600564 0 -43492726.88600564 35338881.077230304 0 0 0 0 11261122.666564941 -2641079.7652454376 0 -2641079.7652454376 7867557.7216689587 0 0 0 0 -52340691.617294312 -81384334.890601933 0 -81384334.890601933 43138832.712060452 0 0 0 0 -48446884.146217346 -919992.56953309476 0 -919992.56953309476 52747452.032022238 0 0 0 0 -20351437.918823242 -16320528.801509976 0 -16320528.801509976 9467173.0136921406 0 0 0 0 -49543838.356536865 -8132601.1538952589 0 -8132601.1538952589 12841394.819168352 0 0 0 0 -57898249.774047852 -103585747.48314667 0 -103585747.48314667 -268305280.80323029 0 0 0 0 -17359843.44241333 25064299.859889269 0 25064299.859889269 23048873.861260176 0 0 0 0 -18293383.092828177 -2675709.3664975744 0 -2675709.3664975744 4401760.7046104362 0 0 0 0 -8557468.6295623779 6651292.9328629971 0 6651292.9328629971 9715417.8100383282 0 0 0 0 -10901392.625261925 -3085844.850005243 0 -3085844.850005243 2766175.5274135331 0 0 0 0 -133238850.29881287 82384050.188604593 0 82384050.188604593 65053867.355116129 0 0 0 0 -5230359.6613874435 -3000087.3312698081 0 -3000087.3312698081 4419831.0479930639 0 0 0 0 -37114361.195159912 -27991020.714390278 0 -27991020.714390278 94934711.903550446 0 0 0 0 8763259.0670623779 15239001.860443234 0 15239001.860443234 -57115454.998406887 0 0 0 0 -26168153.203094482 -58764848.066206098 0 -58764848.066206098 -73142511.918192625 0 0 0 0 -261980.26909193397 114285.28188703954 0 114285.28188703954 115284.90543068195 0 0 0 0 -9465890.4145958479 -1167748.1177435741 0 -1167748.1177435741 8157637.2812180845 0 0 0 0 17558513.437194824 49479892.917832673 0 49479892.917832673 -173444224.39598012 0 0 0 0 124923487.8015213 105675105.84136629 0 105675105.84136629 54012166.600475311 0 0 0 0 -12856967.773322327 -5476988.1371940114 0 -5476988.1371940114 2495695.730245891 0 0 0 0 382052660.30142212 53828188.728366494 0 53828188.728366494 -263656616.931687 0 0 0 0 -451145227.49221802 -297729299.26969457 0 -297729299.26969457 168895945.08550644 0 0 0 0 -173651702.01157761 248168821.88609648 0 248168821.88609648 -634874730.49776173 0 0 0 0 -15274811.702407807 -8828367.5640789587 0 -8828367.5640789587 168057.79777074512 0 0 0 0 -54216119.2448349 17724501.065858364 0 17724501.065858364 352799736.31639099 0 0 0 0 -224258463.34143066 231727014.80298615 0 231727014.80298615 239412551.19750547 0 0 0 0 169475044.64324188 79876614.280703068 0 79876614.280703068 -734080501.2626524 0 0 0 0 -231864026.112257 -908474886.97485626 0 -908474886.97485626 -1354556804.3945866 0 0 0 0 85215237.821884155 216505582.14198446 0 216505582.14198446 -137951073.82777452 0 0 0 0 -286759521.7953186 -274953202.08345532 0 -274953202.08345532 74785897.180425167 0 0 0 0 293635661.80619049 123324752.93030624 0 123324752.93030624 -577038539.69315219 0 0 0 0 -2705815.6650243625 455274.88448828459 0 455274.88448828459 2514817.3596712463 0 0 0 0 -726859784.99533081 -694823555.99989235 0 -694823555.99989235 -219231083.82175064 0 0 0 0 -871519923.99810028 -1337156533.3636019 0 -1337156533.3636019 -620886926.97480929 0 0 0 0 -2668527123.261322 -1111016838.6810875 0 -1111016838.6810875 128313782.90384078 0 0 0 0 -645141709.7796936 -919750165.79596281 0 -919750165.79596281 118379829.41856182 0 0 0 0 -1019305023.8667603 -1304812435.477941 0 -1304812435.477941 -565802258.70919609 0 0 0 0 -3449878922.1779633 -471893835.54422951 0 -471893835.54422951 -338444147.15907741 0 0 0 0 -3593058387.2546387 -398720264.45593822 0 -398720264.45593822 78704694.172934175 0 0 0 0 -3345576724.0414429 -45267379.682684898 0 -45267379.682684898 -174041393.47659659 0 0 0 0 -5054041609.3152466 1223320775.5248137 0 1223320775.5248137 -1774838966.7016611 0 0 0 0 -3306226678.4418488 -332148408.70368958 0 -332148408.70368958 -1040392575.9610057 0 0 0 0 -3869029277.6430817 642326016.32144308 0 642326016.32144308 -3960948637.0364952 0 0 0 0 -952187096.58953857 -1364101912.9848273 0 -1364101912.9848273 -1397980925.6561413 0 0 0 0 -3888347900.6906433 -1550116497.7050862 0 -1550116497.7050862 -952480469.25408745 0 0 0 0 -611646233.35346985 -1121523453.6908543 0 -1121523453.6908543 -1718612607.7478476 0 0 0 0 -1570498630.5178833 1429594001.2297583 0 1429594001.2297583 -658884433.17388248 0 0 0 0 -3920500519.6473999 2213587014.2171564 0 2213587014.2171564 -898226310.87296152 0 0 0 0 -5874479.3828869537 -3417984.2267002948 0 -3417984.2267002948 -848432.1670030572 0 0 0 0 -4003293814.9061432 534680376.38058829 0 534680376.38058829 258368298.67211771 0 0 0 0 -2000477113.1457977 611436952.09493423 0 611436952.09493423 85051165.748524189 0 0 0 0 -1995994481.5702667 527929793.61502194 0 527929793.61502194 178667118.17110753 0 0 0 0 -3746120385.178833 -80174308.957639694 0 -80174308.957639694 372538555.92715764 0 0 0 0 -3837217960.2450447 76540705.817754865 0 76540705.817754865 727168353.64148331 0 0 0 0 -3336285.671168047 -423233.49633590505 0 -423233.49633590505 -2400694.8877416579 0 0 0 0 -5815607375.4579697 544985134.30682349 0 544985134.30682349 777645625.20905209 0 0 0 0 -1602816.171188395 9540.16653200984 0 9540.16653200984 -1608126.8580368236 0 0 0 0 -3453153717.405129 -195996331.43846434 0 -195996331.43846434 -369856312.66081733 0 0 0 0 -3548964289.7622223 188747391.63121086 0 188747391.63121086 -230291614.98701876 0 0 0 0 -3028217179.2158632 970152507.57982028 0 970152507.57982028 -1661126486.5755899 0 0 0 0 -4094551678.9154854 -23937381.82858336 0 -23937381.82858336 164657104.71480808 0 0 0 0 -3661003478.3345566 -244146897.28376713 0 -244146897.28376713 145128843.72469005 0 0 0 0 -3665272250.2137947 -25631478.529277712 0 -25631478.529277712 151807339.08574355 0 0 0 0 -3648988665.8998642 -57997671.546995267 0 -57997671.546995267 10087649.838956371 0 0 0 0 -3932175497.1552658 174618023.91038045 0 174618023.91038045 34282952.212358072 0 0 0 0 -3701904535.6974792 -32881042.790332541 0 -32881042.790332541 2944501.3840899244 0 0 0 0 -3500993506.5618382 70303542.857712775 0 70303542.857712775 81280949.21065402 0 0 0 0 -2761885982.6784973 284674968.75595015 0 284674968.75595015 -89316877.465917304 0 0 0 0 -3316296030.1465454 81376338.890995249 0 81376338.890995249 -105223920.57126278 0 0 0 0 -3311047.2404311495 -402519.20313509926 0 -402519.20313509926 -979961.59459686419 0 0 0 0 -2029694397.1316833 184615167.63236082 0 184615167.63236082 -315161605.31080937 0 0 0 0 -1482090.8637340656 -705663.63936141133 0 -705663.63936141133 -189803.69052662957 0 0 0 0 -1787011691.2706604 617473625.33157969 0 617473625.33157969 22191237.095690727 0 0 0 0 -2311771011.1596527 470811498.59123397 0 470811498.59123397 103954227.62976217 0 0 0 0 -1910647462.8365631 62273656.579210758 0 62273656.579210758 -203796916.14178669 0 0 0 0 -1650861225.2338867 68986253.02081418 0 68986253.02081418 -159106847.77416158 0 0 0 0 -2485604239.1018753 27332050.003500521 0 27332050.003500521 -122917765.36376625 0 0 0 0 -2118974931.8690529 306194379.44841605 0 306194379.44841605 216823384.6428647 0 0 0 0 -2454595.0252360636 -842634.68314401805 0 -842634.68314401805 -702223.59014737967 0 0 0 0 -1563983.119925041 -148397.88992194459 0 -148397.88992194459 -189985.93086233898 0 0 0 0 -3249126239.3980179 124394146.37847015 0 124394146.37847015 170197205.91718316 0 0 0 0 -2885280867.7466507 -105401937.3914707 0 -105401937.3914707 153505490.31902814 0 0 0 0 -3277739128.6233826 -190866262.12621233 0 -190866262.12621233 -178880340.93984008 0 0 0 0 -2778788040.7352753 362246726.62513411 0 362246726.62513411 202962009.99905956 0 0 0 0 -2479603333.8405914 141821878.0211755 0 141821878.0211755 -226939113.16724944 0 0 0 0 -1943361158.9644775 290083824.93598294 0 290083824.93598294 -231795528.88214654 0 0 0 0 -1301025997.865448 -298781441.49335051 0 -298781441.49335051 -796166516.83706141 0 0 0 0 -1347715230.3523712 -344052977.84222466 0 -344052977.84222466 -623466673.04161406 0 0 0 0 -2291696654.9079132 -694633537.27825224 0 -694633537.27825224 -689283195.55635023 0 0 0 0 -479405400.40880203 -605397215.18199205 0 -605397215.18199205 -1153029561.2129302 0 0 0 0 -454542476.19792175 -612303515.77998853 0 -612303515.77998853 -1559349560.8645048 0 0 0 0 -169802241.34815788 -837584208.94884503 0 -837584208.94884503 -1382400517.4115572 0 0 0 0 -842220853.33822632 -45687311.835712671 0 -45687311.835712671 -1206574305.20276 0 0 0 0 -236630042.60295105 254497300.28637403 0 254497300.28637403 -565079771.42166388 0 0 0 0 -392734662.12661743 -610895902.70527506 0 -610895902.70527506 -511042556.67050576 0 0 0 0 -788075809.89352417 16896217.137416005 0 16896217.137416005 231030109.68366951 0 0 0 0 -1615174130.209198 204502099.34173894 0 204502099.34173894 348772747.2417317 0 0 0 0 -717165266.28135681 -131178776.89709711 0 -131178776.89709711 59113852.948365808 0 0 0 0 -1740764585.5013504 442381900.25670815 0 442381900.25670815 43572151.559669971 0 0 0 0 -1082977802.8628349 -153036812.73010862 0 -153036812.73010862 106260417.84271216 0 0 0 0 -662124598.07767487 554632070.74737597 0 554632070.74737597 -280923511.15055776 0 0 0 0 -3056095.7813564986 -3110393.6185841593 0 -3110393.6185841593 1206085.236879383 0 0 0 0 -58899223.072814941 252503898.64239037 0 252503898.64239037 -474094409.83345842 0 0 0 0 159608145.79066467 130925657.43551356 0 130925657.43551356 -273450592.72813463 0 0 0 0 -3844079.302840801 -992352.43945200741 0 -992352.43945200741 2671431.533868378 0 0 0 0 -176545453.97161865 -204726354.53353179 0 -204726354.53353179 -80301640.466217518 0 0 0 0 -269890818.92974854 -69199148.778618813 0 -69199148.778618813 -275265148.87780291 0 0 0 0 -663451342.6711731 -578850773.43071342 0 -578850773.43071342 -405351244.3739866 0 0 0 0 -353421579.9696846 -389686421.42503071 0 -389686421.42503071 -461288068.92269111 0 0 0 0 -311005237.1578064 -64496139.89206934 0 -64496139.89206934 183392457.99632311 0 0 0 0 -12026860.955757767 -5178162.9080546089 0 -5178162.9080546089 4118994.604206657 0 0 0 0 -127057556.35534668 129374742.70709038 0 129374742.70709038 191771342.82911068 0 0 0 0 -55060282.989471436 -207964683.07920074 0 -207964683.07920074 -282504323.23226452 0 0 0 0 -263182182.75058746 -257522028.16658783 0 -257522028.16658783 -133301223.94975948 0 0 0 0 -123354591.02444458 -351081233.95069885 0 -351081233.95069885 -238532986.08857918 0 0 0 0 96858072.122421265 -92258089.561580658 0 -92258089.561580658 -133351071.43262291 0 0 0 0 126200376.73629761 -263345373.29010582 0 -263345373.29010582 311457627.01856995 0 0 0 0 -649269.48587352037 526937.04566984437 0 526937.04566984437 688759.1230943501 0 0 0 0 -239518141.15289307 -275853895.80499554 0 -275853895.80499554 -175772324.33645403 0 0 0 0 -172394985.73718262 -398466776.92657328 0 -398466776.92657328 -304858317.67012215 0 0 0 0 -281421302.38781738 -393834157.12133789 0 -393834157.12133789 -200843770.42619419 0 0 0 0 -306374452.96185303 -357230030.13864458 0 -357230030.13864458 -254531813.6829648 0 0 0 0 -236329032.41931152 -341619577.89679813 0 -341619577.89679813 -344876015.51667833 0 0 0 0 -318802467.2687664 -526014670.13933408 0 -526014670.13933408 -465895060.58564615 0 0 0 0 -383413521.70666504 -240415697.22185075 0 -240415697.22185075 -234307766.33647418 0 0 0 0 -299065502.87301636 -428927726.198668 0 -428927726.198668 -596601798.86945415 0 0 0 0 -562473382.99351501 -508394371.62517059 0 -508394371.62517059 -617861944.58880293 0 0 0 0 -344664201.05908966 -469464256.88053292 0 -469464256.88053292 -1077697217.3829184 0 0 0 0 -722497712.6293335 -1172069957.1730747 0 -1172069957.1730747 -1352569391.0218401 0 0 0 0 -1329324340.7127228 -653449534.73190236 0 -653449534.73190236 -392721990.7857852 0 0 0 0 -548417392.72939301 -425968664.81235218 0 -425968664.81235218 -661924826.15916491 0 0 0 0 -654023608.55059814 -275636539.52009368 0 -275636539.52009368 -241348875.8618277 0 0 0 0 -1917344579.035965 -82706721.008319378 0 -82706721.008319378 -568612495.19101191 0 0 0 0 -196485252.22146606 -998111455.10394764 0 -998111455.10394764 -2069683939.2852526 0 0 0 0 -2436691.2321369573 -1681893.2345399447 0 -1681893.2345399447 1544406.8687892742 0 0 0 0 197732823.97943115 143963169.74079657 0 143963169.74079657 -743547013.3244946 0 0 0 0 143024591.37218475 -761350934.01953101 0 -761350934.01953101 -1938589047.5603476 0 0 0 0 -4626626.5836227015 -151369.33856646437 0 -151369.33856646437 96621.872418771964 0 0 0 0 562998870.59263611 -21035486.544429779 0 -21035486.544429779 -324293783.83436394 0 0 0 0 -1312674172.9184723 231969878.54719162 0 231969878.54719162 -240098765.26574945 0 0 0 0 -1054428278.2414093 -1463818299.2140176 0 -1463818299.2140176 -1188165689.7882872 0 0 0 0 -753612477.36579895 -907214987.24534369 0 -907214987.24534369 -276178226.01603317 0 0 0 0 -9674494.284474209 3404691.2564914776 0 3404691.2564914776 -317728.92123580677 0 0 0 0 171766874.20478821 121939628.77477646 0 121939628.77477646 -331648684.64959288 0 0 0 0 -717050806.88821411 224041575.05485559 0 224041575.05485559 1138173122.0293188 0 0 0 0 -34650093.429742813 146819935.63719112 0 146819935.63719112 -20352784.660045624 0 0 0 0 -128770464.15446186 -384155399.06013399 0 -384155399.06013399 100098983.77762699 0 0 0 0 -313103984.40418243 -512981292.18393087 0 -512981292.18393087 -760462704.8622818 0 0 0 0 -1152669469.3866882 -14334252.143507004 0 -14334252.143507004 54242180.604432821 0 0 0 0 -471426766.36465073 175158403.62093687 0 175158403.62093687 1022435024.68256 0 0 0 0 -300256383.36456299 465038329.405339 0 465038329.405339 -792519051.12202144 0 0 0 0 432723330.25646973 366169741.8177762 0 366169741.8177762 -787147329.33335876 0 0 0 0 -2666373528.5128632 734538794.68430519 0 734538794.68430519 -53848123.865074158 0 0 0 0 -2024044679.0404358 -463589182.18232822 0 -463589182.18232822 199427285.80928278 0 0 0 0 -4890009.1254675388 1401655.3959704461 0 1401655.3959704461 -45169.201415576506 0 0 0 0 -500264552.17851639 1176336319.209744 0 1176336319.209744 -477895165.79106998 0 0 0 0 -2594845102.0931702 127967696.12725067 0 127967696.12725067 -317741194.60284424 0 0 0 0 -2064549172.4446182 -411305298.93748522 0 -411305298.93748522 4265848.3810138702 0 0 0 0 -2097071229.6516266 -128210010.9007535 0 -128210010.9007535 -1062209809.2643564 0 0 0 0 -1721461230.3849945 -601241202.38051987 0 -601241202.38051987 -1304266249.0467229 0 0 0 0 -2361180672.6829376 -1095982656.2445652 0 -1095982656.2445652 -1250897993.7313423 0 0 0 0 -1575361093.579895 -924588682.09233928 0 -924588682.09233928 -632902199.22011387 0 0 0 0 -1657704420.9893799 -338907552.06203222 0 -338907552.06203222 -895089947.20226669 0 0 0 0 -991423044.80924988 -1154654897.5652392 0 -1154654897.5652392 -57552636.177598953 0 0 0 0 279210850.77809143 -841917544.95961761 0 -841917544.95961761 -988319905.2859087 0 0 0 0 -910845575.14345169 -698217153.11824167 0 -698217153.11824167 -713682778.92581654 0 0 0 0 -473402431.55686951 -1018517028.0940933 0 -1018517028.0940933 -1044239753.0284009 0 0 0 0 -318962678.68435669 -883605373.92451072 0 -883605373.92451072 -1395258872.6549201 0 0 0 0 -997104768.07208252 -690795850.1383059 0 -690795850.1383059 -1164395996.1567628 0 0 0 0 -1457325455.832901 -930614911.78518271 0 -930614911.78518271 -845297216.222013 0 0 0 0 -1550366278.9772339 -647537534.24803305 0 -647537534.24803305 -924138544.12579346 0 0 0 0 -2353396563.9431319 -1062075566.0611635 0 -1062075566.0611635 -781567579.70218468 0 0 0 0 -885264770.59663773 -862636760.42572427 0 -862636760.42572427 -1198452304.5106764 0 0 0 0 -1918474651.672142 57495156.753193021 0 57495156.753193021 -653386485.88178754 0 0 0 0 -1299986.2229058687 -159402.30407464877 0 -159402.30407464877 -503990.91217391659 0 0 0 0 -3279999076.3482361 -513335426.39789885 0 -513335426.39789885 -220303398.00879526 0 0 0 0 -2595726933.7261734 -352449863.64351326 0 -352449863.64351326 -834434392.82117343 0 0 0 0 -2348538221.402216 -897082343.85775733 0 -897082343.85775733 -1162086844.0572467 0 0 0 0 -2895765859.4710617 -65054754.124490201 0 -65054754.124490201 -214586370.16672686 0 0 0 0 -2521828231.857605 -197117316.3993178 0 -197117316.3993178 -768427737.93566811 0 0 0 0 -2662388529.8285942 -884033432.78685117 0 -884033432.78685117 -689187253.09488702 0 0 0 0 -2794040132.4458466 -532767440.09135664 0 -532767440.09135664 -992457075.59135413 0 0 0 0 -2687352119.9265137 -304016953.77555311 0 -304016953.77555311 -735200015.55696297 0 0 0 0 -2681902027.4984894 -748976855.75343144 0 -748976855.75343144 -1621188050.720279 0 0 0 0 -2760223663.4110756 -496637383.66470629 0 -496637383.66470629 -889772019.61017275 0 0 0 0 -3270052749.8264771 231502434.75673962 0 231502434.75673962 -1665414715.3571453 0 0 0 0 -3821452062.008728 -495859202.94604683 0 -495859202.94604683 -1023949031.7004708 0 0 0 0 -1047340.6677831113 404437.86215337738 0 404437.86215337738 -2590539.2949839067 0 0 0 0 -2443297215.3852739 1506064588.5280499 0 1506064588.5280499 -1604711493.1037178 0 0 0 0 -2849090558.1207504 -1101562395.8309302 0 -1101562395.8309302 -859209181.05127835 0 0 0 0 -1558649157.7982635 670529139.89113021 0 670529139.89113021 -1100700586.1603565 0 0 0 0 -2400083576.8000488 -1024494141.0288763 0 -1024494141.0288763 983705854.01806068 0 0 0 0 -1775002763.7439117 -600601912.15606153 0 -600601912.15606153 -134160856.36274821 0 0 0 0 -2868498278.6532745 -978678321.82283497 0 -978678321.82283497 -215034146.86303213 0 0 0 0 -2730226389.0854874 -961470636.5223738 0 -961470636.5223738 -716554378.86807585 0 0 0 0 -2876242508.2575254 -1259407803.6813693 0 -1259407803.6813693 -59478425.695468299 0 0 0 0 -2935546586.4538803 -1019166878.9479736 0 -1019166878.9479736 -87291327.470697016 0 0 0 0 -4095035453.0878229 -469853503.72067797 0 -469853503.72067797 125033109.89920634 0 0 0 0 -3492309628.4790344 -948845192.32614183 0 -948845192.32614183 -205808389.70098257 0 0 0 0 -3017540461.9055939 -337584773.18101543 0 -337584773.18101543 -492628937.23506856 0 0 0 0 94126800.300018311 -84648054.305239916 0 -84648054.305239916 67386199.946544647 0 0 0 0 -1336728.5316161662 -3038631.0019804258 0 -3038631.0019804258 938731.13362455717 0 0 0 0 -27584438.414146751 1492059.6095333393 0 1492059.6095333393 4633381.457317098 0 0 0 0 -189038161.31161499 -14176328.850107431 0 -14176328.850107431 60790019.87952435 0 0 0 0 -483360.77615356445 -94030151.743708611 0 -94030151.743708611 218139185.92042589 0 0 0 0 103204755.02843475 -201613498.99722862 0 -201613498.99722862 88463890.34057188 0 0 0 0 103535388.91886902 -134557994.08268738 0 -134557994.08268738 -131750772.98474503 0 0 0 0 102960136.8730278 -120817450.26189089 0 -120817450.26189089 -21369028.942046165 0 0 0 0 4467524.9015655518 -47566438.45242548 0 -47566438.45242548 89400850.741280556 0 0 0 0 -11268405.996790782 -9418471.9069490135 0 -9418471.9069490135 3401143.4307039864 0 0 0 0 -8132320.2119064331 -30938567.502525926 0 -30938567.502525926 -1752672.2467894554 0 0 0 0 1329680.0332641602 -59496114.193014622 0 -59496114.193014622 -288828.33815610409 0 0 0 0 -65996205.74671936 -35788755.864669323 0 -35788755.864669323 91751436.501665831 0 0 0 0 11708793.502563477 -48585759.991256714 0 -48585759.991256714 -45360771.122767925 0 0 0 0 -12281411.194122314 -20366079.531119227 0 -20366079.531119227 -40067044.706849098 0 0 0 0 -33437993.27432251 -22300850.580333471 0 -22300850.580333471 -14470619.224853754 0 0 0 0 -897186.65673828125 -41309811.024881542 0 -41309811.024881542 -16708912.78533411 0 0 0 0 52501.500854492188 -41838521.731086612 0 -41838521.731086612 -22916761.367845058 0 0 0 0 -185311853.08282471 -22799136.562555671 0 -22799136.562555671 112880178.44419599 0 0 0 0 -91908594.43951416 -101746894.51157725 0 -101746894.51157725 -59136693.051888525 0 0 0 0 -60555979.941986084 40683995.165706873 0 40683995.165706873 -130467112.66435087 0 0 0 0 -252084492.43891907 85169943.839114189 0 85169943.839114189 53861750.183739185 0 0 0 0 -161198330.99667358 -9389113.5035951138 0 -9389113.5035951138 150308353.73822141 0 0 0 0 -212965513.26916504 13563558.689080954 0 13563558.689080954 150691804.64047 0 0 0 0 21261742.387237549 -77288019.286091924 0 -77288019.286091924 41789905.824113369 0 0 0 0 35604982.243652344 -7876858.0102391243 0 -7876858.0102391243 -8488224.4278964996 0 0 0 0 -28159321.342163086 -29723728.60851717 0 -29723728.60851717 -3668044.7093286514 0 0 0 0 -26523918.092895508 -21624117.335463762 0 -21624117.335463762 -15464965.133042932 0 0 0 0 -148952942.51568604 14207201.859391928 0 14207201.859391928 72052469.598232746 0 0 0 0 -180130553.71142578 -43203681.785000801 0 -43203681.785000801 244594750.74942303 0 0 0 0 -83041965.64220047 -53312850.939618737 0 -53312850.939618737 122269455.04382133 0 0 0 0 -80064851.843212128 -77250759.95139958 0 -77250759.95139958 113873150.63471508 0 0 0 0 59272758.690246582 -193313492.19919205 0 -193313492.19919205 208220864.53604794 0 0 0 0 -232541354.5814209 -32266992.377577782 0 -32266992.377577782 415374093.1087153 0 0 0 0 -214380912.32807541 51574518.846829966 0 51574518.846829966 199727451.93690348 0 0 0 0 -112669194.07717896 -192371934.67353237 0 -192371934.67353237 624232614.37035728 0 0 0 0 -222413079.86878967 14195521.653113008 0 14195521.653113008 169835744.81830454 0 0 0 0 -217553039.69137573 39149911.586841941 0 39149911.586841941 179467366.8004055 0 0 0 0 -229925637.40524292 70173495.976089716 0 70173495.976089716 138377757.58975387 0 0 0 0 -130632115.18739319 194929716.75605941 0 194929716.75605941 -263904990.5110997 0 0 0 0 -128723743.13731384 141007694.08703279 0 141007694.08703279 -13037857.391028881 0 0 0 0 -239520972.14087296 237535146.38793045 0 237535146.38793045 75078780.726522446 0 0 0 0 -132201134.98815918 -13361542.751593769 0 -13361542.751593769 -265361269.43251276 0 0 0 0 1320929.2686839104 -563468626.31911695 0 -563468626.31911695 -110965012.369133 0 0 0 0 60285529.467163086 434256031.78369451 0 434256031.78369451 310743515.64382625 0 0 0 0 -4218682.9709264487 -559315.39806044102 0 -559315.39806044102 1593046.9324092469 0 0 0 0 242179083.35728455 -273386350.79640949 0 -273386350.79640949 263749550.97988081 0 0 0 0 234467290.51078796 172192623.03491545 0 172192623.03491545 140628780.25586951 0 0 0 0 -343479337.84673119 -365717716.99925637 0 -365717716.99925637 -269705204.01768088 0 0 0 0 -277951030.51750183 85247913.665195584 0 85247913.665195584 644139393.56731391 0 0 0 0 -449870585.10693359 -184410349.16971827 0 -184410349.16971827 -399428215.28940129 0 0 0 0 -782779225.44647598 -778969999.05765581 0 -778969999.05765581 -251721089.30334473 0 0 0 0 -343603694.15652466 -597253698.74183583 0 -597253698.74183583 -991760938.93591249 0 0 0 0 -397011297.73552895 -892262199.79270875 0 -892262199.79270875 -468236757.19904232 0 0 0 0 -2379761.8221151829 -1985746.4116683584 0 -1985746.4116683584 1992445.1300210429 0 0 0 0 -126368195.71659851 -859248015.81585968 0 -859248015.81585968 -1144102471.9596002 0 0 0 0 -490771660.84775543 -360833673.38053125 0 -360833673.38053125 43537924.410088181 0 0 0 0 -104351894.6532135 -49727208.255276144 0 -49727208.255276144 48980928.564669132 0 0 0 0 -528942585.56118011 -599782302.88823867 0 -599782302.88823867 -399804142.82101333 0 0 0 0 -225146639.09770203 -454014644.15004349 0 -454014644.15004349 -751945379.875453 0 0 0 0 -316825597.44085693 -543270811.71993852 0 -543270811.71993852 -467381778.5704971 0 0 0 0 -139978129.7379837 -276227358.16966963 0 -276227358.16966963 -381651108.03407669 0 0 0 0 -295600400.04463196 -475287691.36374819 0 -475287691.36374819 -479264346.41903996 0 0 0 0 -312876537.35072327 -528717887.78995848 0 -528717887.78995848 -466728132.15268755 0 0 0 0 -281358574.43359375 -481799349.46262336 0 -481799349.46262336 -578115387.15447354 0 0 0 0 -346993345.34454346 -670750164.53271294 0 -670750164.53271294 -711769701.6283865 0 0 0 0 -298439840.90594482 -521792020.4750495 0 -521792020.4750495 -773499976.56497824 0 0 0 0 -4260598.6003539488 -3248226.1295998581 0 -3248226.1295998581 3123965.2260502372 0 0 0 0 -428990693.91601562 -700888254.27997744 0 -700888254.27997744 -707515020.52526367 0 0 0 0 -353360074.44961548 -633369688.07254839 0 -633369688.07254839 -787863071.82531571 0 0 0 0 -446633418.89869308 -344564972.26757652 0 -344564972.26757652 -860985463.92014825 0 0 0 0 -429623953.2432251 -504321032.93452597 0 -504321032.93452597 -682960114.71719742 0 0 0 0 -14189716.404635221 577727.07396416925 0 577727.07396416925 805346.32664739992 0 0 0 0 139721254.36090088 386219530.721838 0 386219530.721838 118184844.59966612 0 0 0 0 -22347552.086814754 1507863.5819140864 0 1507863.5819140864 2153864.4441982964 0 0 0 0 -349781604.76643372 -30787995.659754753 0 -30787995.659754753 109318682.27935791 0 0 0 0 28707977.118103027 -543689678.45756865 0 -543689678.45756865 -784056750.52952528 0 0 0 0 348822395.55439758 519983316.5060761 0 519983316.5060761 -303210077.39711094 0 0 0 0 -936409808.96278381 25772167.471989155 0 25772167.471989155 813789009.34148383 0 0 0 0 156073787.3299942 -222380811.94782853 0 -222380811.94782853 -458474841.57826042 0 0 0 0 -45765971.434028625 291037611.31816602 0 291037611.31816602 -420611928.92378139 0 0 0 0 -702811536.76284599 131609934.87355542 0 131609934.87355542 66660475.48706913 0 0 0 0 -505826886.96849442 -385772330.43289918 0 -385772330.43289918 -63738670.905534744 0 0 0 0 -2565934.4739570916 1220272.446548447 0 1220272.446548447 -396832.98212015675 0 0 0 0 -297354975.14134216 -185460529.79133892 0 -185460529.79133892 58139791.807752609 0 0 0 0 -27144879.828140259 -35514772.991932869 0 -35514772.991932869 107192286.83251762 0 0 0 0 -377640846.25953674 -9778466.2447953224 0 -9778466.2447953224 334764622.14915466 0 0 0 0 30203484.743185043 754366519.84817386 0 754366519.84817386 449543369.53731537 0 0 0 0 -6110770.4332122803 -21021862.894616365 0 -21021862.894616365 5355996.8991274834 0 0 0 0 238527650.23406982 203136095.36490154 0 203136095.36490154 -13608413.796635151 0 0 0 0 303481018.87026978 147148462.93579149 0 147148462.93579149 -450804637.2768954 0 0 0 0 -93025719.68806839 -132548087.97982192 0 -132548087.97982192 20681568.757827759 0 0 0 0 -158831816.89302063 -199147966.18672657 0 -199147966.18672657 24256093.395805836 0 0 0 0 -192796953.54269409 -71757752.513445854 0 -71757752.513445854 552500593.63679075 0 0 0 0 -7459489.2252379358 3107272.442484268 0 3107272.442484268 -566963.4498450025 0 0 0 0 -164273222.83370972 -187176694.73077488 0 -187176694.73077488 74886780.463907242 0 0 0 0 -169237458.49052811 -167431557.17723656 0 -167431557.17723656 2155389.8005695343 0 0 0 0 -57390379.733421326 -209023558.7194829 0 -209023558.7194829 -224739934.24385166 0 0 0 0 -10032759.52411636 3199237.0912475362 0 3199237.0912475362 -832797.0140411749 0 0 0 0 -99075798.922973633 -139252544.61019611 0 -139252544.61019611 -245355825.3867054 0 0 0 0 -82821794.645080566 -265958825.87350559 0 -265958825.87350559 -62359534.148819447 0 0 0 0 -734059.00266655535 -741221.75203823019 0 -741221.75203823019 175153.4300558744 0 0 0 0 -1105521.3114318848 -1070204.3883309364 0 -1070204.3883309364 -53502821.124533653 0 0 0 0 -86154432.316864014 -140711577.80708218 0 -140711577.80708218 -32981834.266758442 0 0 0 0 -152607662.99851227 32535847.814714789 0 32535847.814714789 41554643.391468048 0 0 0 0 -98551371.188537598 64112319.941040039 0 64112319.941040039 96786275.239947796 0 0 0 0 -16406816.496298015 4310221.7313350476 0 4310221.7313350476 -451837.2059643562 0 0 0 0 -15455161.452484131 10383202.453817368 0 10383202.453817368 15623170.494755745 0 0 0 0 -56514822.506698608 9689037.1609840393 0 9689037.1609840393 107727280.21171427 0 0 0 0 -22300754.278252173 4960235.9454970239 0 4960235.9454970239 397597.94903556677 0 0 0 0 -18749668.461776733 -2575088.9039473534 0 -2575088.9039473534 33360734.344251633 0 0 0 0 -17027137.482620239 2916658.8011088371 0 2916658.8011088371 6572447.3760280609 0 0 0 0 -16432023.550159454 2613761.9602766037 0 2613761.9602766037 1934206.0830287933 0 0 0 0 -6919689.6756439209 547960.39865875244 0 547960.39865875244 -2832252.8608121872 0 0 0 0 -15311766.312606812 109163.0284318924 0 109163.0284318924 1520134.060792923 0 0 0 0 -16407189.454101562 -1471208.515007019 0 -1471208.515007019 446641.97449874878 0 0 0 0 3180808.8258171082 14995229.460839272 0 14995229.460839272 -10103457.392691612 0 0 0 0 -6787985.5968322754 -6589359.1734666824 0 -6589359.1734666824 -22694250.298521519 0 0 0 0 -1852601.467182368 -2389404.4618101567 0 -2389404.4618101567 371509.63765375223 0 0 0 0 -56184130.216803551 287057122.71035314 0 287057122.71035314 215405326.74899197 0 0 0 0 98395642.886100769 69652182.846953869 0 69652182.846953869 64369655.763208389 0 0 0 0 -13794611.394989014 -5392586.4823732376 0 -5392586.4823732376 -7520333.2200427055 0 0 0 0 -4398052.1550827697 -6578268.1068456676 0 -6578268.1068456676 1928581.0312583598 0 0 0 0 -18490890.22253418 -4477095.0115747452 0 -4477095.0115747452 -250376.13852310181 0 0 0 0 92266700.190086365 -1324441.956246376 0 -1324441.956246376 -34838523.311169624 0 0 0 0 141812425.77178955 -25786698.381225586 0 -25786698.381225586 -68425294.58044529 0 0 0 0 141794046.78041077 -42834360.710916996 0 -42834360.710916996 -189729516.03272057 0 0 0 0 132244610.06544113 61798743.200161219 0 61798743.200161219 -91470179.125735283 0 0 0 0 117645263.86384583 44971625.630404949 0 44971625.630404949 -61333659.55759716 0 0 0 0 -81683017.286178589 9507535.7058018446 0 9507535.7058018446 122516621.06462795 0 0 0 0 -22741064.823599808 378049.57836577855 0 378049.57836577855 4819392.8942380929 0 0 0 0 -71726075.128082275 13901374.869494483 0 13901374.869494483 -2448630.3317106366 0 0 0 0 -5587818.2756784186 1002606.8789469078 0 1002606.8789469078 -22687.857382020098 0 0 0 0 18737443.44442749 -79375682.619895101 0 -79375682.619895101 69039980.306729972 0 0 0 0 -12999819.793624159 -9420141.7006898597 0 -9420141.7006898597 3432594.8776983172 0 0 0 0 -71432132.727203369 5745586.1080692858 0 5745586.1080692858 44788208.553433366 0 0 0 0 -24068269.741376609 2873381.4137796499 0 2873381.4137796499 822392.93519715779 0 0 0 0 -26480282.900007248 6598067.3162972862 0 6598067.3162972862 5220833.2233631089 0 0 0 0 -19258145.76134491 -2804948.634557724 0 -2804948.634557724 2072688.3445854187 0 0 0 0 -42818758.114929199 -4944950.7437152863 0 -4944950.7437152863 3599235.615442276 0 0 0 0 -18895028.052749634 212825.20939445496 0 212825.20939445496 1062491.026529789 0 0 0 0 -2923753.2970864587 37472.003417756408 0 37472.003417756408 89950.818379717879 0 0 0 0 -1081718.4179067761 -24097.626401279122 0 -24097.626401279122 824168.56729532778 0 0 0 0 -19403799.194391571 -1818651.0021918677 0 -1818651.0021918677 5255168.9335225802 0 0 0 0 -12968267.288070679 -2959326.70936203 0 -2959326.70936203 5755882.2104496956 0 0 0 0 126849759.05662155 41630420.484769136 0 41630420.484769136 -19434383.215025902 0 0 0 0 -36729285.581793286 6214205.0289861187 0 6214205.0289861187 3983722.9683615435 0 0 0 0 18439859.24949646 -35325310.641531348 0 -35325310.641531348 -7147472.2929127663 0 0 0 0 -36211450.484924316 3719606.1735954285 0 3719606.1735954285 14914234.557527065 0 0 0 0 -9067971.6065368652 7010728.6870098114 0 7010728.6870098114 -2201617.9324321747 0 0 0 0 -28592022.40113353 3772915.2847496802 0 3772915.2847496802 2756406.2777300486 0 0 0 0 -37241077.738616943 3456132.9892940521 0 3456132.9892940521 -15358371.866622925 0 0 0 0 -18368812.586715698 -440208.02343273163 0 -440208.02343273163 6340051.0764923096 0 0 0 0 -43247435.816101074 17016901.855501175 0 17016901.855501175 23054994.979042053 0 0 0 0 -33660698.238433838 -14601211.406663895 0 -14601211.406663895 35810074.680567026 0 0 0 0 -17949825.830207407 2293107.080125615 0 2293107.080125615 4297823.6337624518 0 0 0 0 -36194792.040277481 -8483149.6572957039 0 -8483149.6572957039 24685634.879312515 0 0 0 0 6934541.2503242493 48740763.180922031 0 48740763.180922031 24516280.267305374 0 0 0 0 -27876452.952812195 -18117013.876072884 0 -18117013.876072884 18578670.274003029 0 0 0 0 -45921662.577835083 -23817784.231598377 0 -23817784.231598377 58203783.119207382 0 0 0 0 -16383467.148593903 -15914255.98739481 0 -15914255.98739481 14823360.187277317 0 0 0 0 -12906166.353134155 -62031201.778364062 0 -62031201.778364062 162385496.18208218 0 0 0 0 2032772.6989593506 218671036.65678746 0 218671036.65678746 253786962.20226145 0 0 0 0 -18854622.464633942 136423134.67718384 0 136423134.67718384 -67939797.818061948 0 0 0 0 -58609260.887062073 110315337.8160584 0 110315337.8160584 53434272.894776344 0 0 0 0 -14755643.330387115 112989277.28583139 0 112989277.28583139 -91585426.673452675 0 0 0 0 351201035.30344772 232938071.62902302 0 232938071.62902302 -190941120.85853362 0 0 0 0 -19381035.662994385 62017910.507996321 0 62017910.507996321 -171929724.23457119 0 0 0 0 -189471809.4138031 54407927.567369461 0 54407927.567369461 -67638583.537009239 0 0 0 0 -24624265.50491333 126376939.51925766 0 126376939.51925766 -94952575.996925116 0 0 0 0 -64407318.220592499 67572480.008919954 0 67572480.008919954 -165247034.95929718 0 0 0 0 -103984641.64422417 104106504.31706405 0 104106504.31706405 -59127366.576589584 0 0 0 0 -69229537.382141113 57541166.067887306 0 57541166.067887306 -78917984.44681251 0 0 0 0 -201476115.13281989 181936639.04099709 0 181936639.04099709 -114778756.9560504 0 0 0 0 -98468376.429115295 33832604.829441071 0 33832604.829441071 -11812763.590770721 0 0 0 0 -68577014.030008316 89158750.98647058 0 89158750.98647058 -140460061.87592888 0 0 0 0 -63300044.028747559 22959419.06165123 0 22959419.06165123 -46739290.634872913 0 0 0 0 -73791458.406803131 9993011.9447956085 0 9993011.9447956085 18270653.04300499 0 0 0 0 -50308842.124214172 -19737375.641889572 0 -19737375.641889572 32696382.159412384 0 0 0 0 -28021475.895808935 -20216880.617317528 0 -20216880.617317528 9364997.1366729736 0 0 0 0 -29132986.80871582 9356932.5175161362 0 9356932.5175161362 -24797574.498353958 0 0 0 0 -35949386.575195312 -32191461.02385807 0 -32191461.02385807 47583882.319571495 0 0 0 0 -5756914.3725175858 49809703.015465856 0 49809703.015465856 -34061911.826141357 0 0 0 0 4259872.2396392822 21522629.686420918 0 21522629.686420918 -108257300.00714397 0 0 0 0 -61240270.876533508 177461857.04021573 0 177461857.04021573 -243946138.88140392 0 0 0 0 -269902862.82039642 244051800.74422956 0 244051800.74422956 -176305784.46686053 0 0 0 0 -106392269.42465973 50117888.786107063 0 50117888.786107063 -28893905.539342642 0 0 0 0 1372502.5228347778 187248966.94325066 0 187248966.94325066 -359012258.36116314 0 0 0 0 -104440757.60562134 201730435.09852171 0 201730435.09852171 -217481724.82259035 0 0 0 0 -351522823.11903763 371277056.3339172 0 371277056.3339172 -102545105.02264881 0 0 0 0 -324550288.88526917 413299308.27005303 0 413299308.27005303 -389575912.71708351 0 0 0 0 -136442360.91945267 309330313.68732333 0 309330313.68732333 -423712231.7365675 0 0 0 0 -393707876.6966629 645312368.68992591 0 645312368.68992591 -544830297.18761325 0 0 0 0 -154179715.00818634 182779815.75345278 0 182779815.75345278 494692746.37545919 0 0 0 0 -1776901.9514689669 1522504.6402272135 0 1522504.6402272135 1961996.3097583209 0 0 0 0 -231570850.86235428 -43110000.776311398 0 -43110000.776311398 594301372.86562037 0 0 0 0 -160000187.39245033 249042455.39021623 0 249042455.39021623 -241321670.91077709 0 0 0 0 -171082991.39944458 144825806.18517339 0 144825806.18517339 -79751815.855104327 0 0 0 0 -274364865.1545105 355970387.45707536 0 355970387.45707536 -75176137.465517089 0 0 0 0 -322483028.1489563 234997458.34792018 0 234997458.34792018 52349887.605328798 0 0 0 0 -320892496.97000885 116377472.69173849 0 116377472.69173849 -147378890.63399339 0 0 0 0 -85224797.120105743 317213539.31858301 0 317213539.31858301 -624078510.53264475 0 0 0 0 -639598873.82307434 -41334919.610915184 0 -41334919.610915184 -149674083.91047239 0 0 0 0 -5922582.485162396 -610273.46775953122 0 -610273.46775953122 724150.2242837837 0 0 0 0 -839124424.03003311 -375173010.27707231 0 -375173010.27707231 581010280.05649948 0 0 0 0 -144826439.51343155 391422803.96808916 0 391422803.96808916 -152286874.8012538 0 0 0 0 172198649.46722412 -23259450.733894348 0 -23259450.733894348 -121215711.48490477 0 0 0 0 -288115700.7792244 -439426553.76961565 0 -439426553.76961565 235526823.15005255 0 0 0 0 -7039719.8323946185 -199693.18209833978 0 -199693.18209833978 641946.65451548388 0 0 0 0 -266081300.99156189 98439764.399108171 0 98439764.399108171 887801276.03187883 0 0 0 0 636252284.09580231 95308289.145519733 0 95308289.145519733 -750191127.54350841 0 0 0 0 -2331057.7383598052 584717.07516464917 0 584717.07516464917 318189.21625322627 0 0 0 0 -330124634.79225349 476194894.74720639 0 476194894.74720639 157017993.23918009 0 0 0 0 -26618078.05191803 202959281.41709518 0 202959281.41709518 199118943.92831898 0 0 0 0 -5016773.9128801003 -724029.79440355161 0 -724029.79440355161 472263.09752241964 0 0 0 0 -74399266.113342285 27781347.768467426 0 27781347.768467426 329727851.36229658 0 0 0 0 21746938.627151489 126177526.77515841 0 126177526.77515841 -74658006.102529526 0 0 0 0 -3733569.5336418152 232971870.85878849 0 232971870.85878849 -49389595.834148407 0 0 0 0 35905856.20652771 7283828.3101267815 0 7283828.3101267815 -210425554.70750141 0 0 0 0 -457310.39706490561 697767.53118201345 0 697767.53118201345 -618982.98603777401 0 0 0 0 -410074553.00115204 -44844473.920106411 0 -44844473.920106411 17312031.691306114 0 0 0 0 -11884209.523551941 21473970.950912744 0 21473970.950912744 -5920497.9410972595 0 0 0 0 21843467.696361542 44685570.53242588 0 44685570.53242588 -40422593.283418655 0 0 0 0 2815046.9708461761 29309588.072428226 0 29309588.072428226 -1771118.2420959473 0 0 0 0 149543938.49469805 -365405810.62477618 0 -365405810.62477618 -184327386.02813053 0 0 0 0 -2800616.0517818518 -8856.6338612735271 0 -8856.6338612735271 467312.14949848503 0 0 0 0 90693518.9842453 7098677.2714338303 0 7098677.2714338303 -156907355.22755337 0 0 0 0 -378132529.50499725 -309281327.77666664 0 -309281327.77666664 494688198.41304541 0 0 0 0 -176731746.84416199 -170014862.97726846 0 -170014862.97726846 154320871.87941742 0 0 0 0 -384489737.31746674 76275546.750528812 0 76275546.750528812 -71932555.662680864 0 0 0 0 -236654051.31800842 -314765290.90710926 0 -314765290.90710926 -173927376.85789537 0 0 0 0 -456238607.69224548 529407907.88164186 0 529407907.88164186 288168335.82146358 0 0 0 0 -498379590.61014676 -293608000.05236965 0 -293608000.05236965 243069585.38590431 0 0 0 0 183684189.30695343 -267559715.49008417 0 -267559715.49008417 -423701177.81334805 0 0 0 0 287122349.71176147 467312086.81349754 0 467312086.81349754 -476389113.0642271 0 0 0 0 339793675.49411011 237616933.88520336 0 237616933.88520336 50630105.392942905 0 0 0 0 819476258.51486206 807473194.71550751 0 807473194.71550751 86763344.272982955 0 0 0 0 -156428782.7153511 -255230370.6807785 0 -255230370.6807785 -420311074.1096983 0 0 0 0 727742687.32647705 1005856778.8564072 0 1005856778.8564072 339172436.08478117 0 0 0 0 138494.03042095527 538291.28634674102 0 538291.28634674102 -1333558.1105538178 0 0 0 0 -2294751.1131759994 -206544.69025626034 0 -206544.69025626034 1432565.2633418487 0 0 0 0 -22404397.937763214 -481228670.43034458 0 -481228670.43034458 86097976.870154381 0 0 0 0 -983903283.07912827 -377680074.50238299 0 -377680074.50238299 78631150.53064537 0 0 0 0 -878852453.92017937 -418715395.47772956 0 -418715395.47772956 -82271141.284754276 0 0 0 0 468935.73554630205 239372.18472522497 0 239372.18472522497 -1365371.1606835974 0 0 0 0 993563258.59762764 378606781.45992327 0 378606781.45992327 -124427767.10873842 0 0 0 0 304119698.45578766 517091741.53009701 0 517091741.53009701 688548557.60834885 0 0 0 0 386323920.05134583 460802535.55260229 0 460802535.55260229 -81818704.410076141 0 0 0 0 -38922375.004852295 203513961.98408532 0 203513961.98408532 -156110867.00338221 0 0 0 0 -238945098.99016762 63889623.282249331 0 63889623.282249331 -154255488.2447319 0 0 0 0 50186675.168376923 99565190.412625045 0 99565190.412625045 -165387256.72399497 0 0 0 0 8635266.7417879105 197286999.41328675 0 197286999.41328675 -164983379.49977851 0 0 0 0 79635989.327136993 186451666.64901638 0 186451666.64901638 -190583516.46400118 0 0 0 0 49994379.759059906 -4918980.3636703491 0 -4918980.3636703491 -153227050.92706203 0 0 0 0 -272909177.82897186 252208145.62849736 0 252208145.62849736 -280945589.29993129 0 0 0 0 -285731231.34482574 107504957.38570428 0 107504957.38570428 -133952182.3856926 0 0 0 0 -643241832.52906752 -96483016.933153212 0 -96483016.933153212 -150914174.5710516 0 0 0 0 -631052351.11169434 463448259.96304107 0 463448259.96304107 -60167331.040570736 0 0 0 0 -4089510952.5460978 -2376665039.6088595 0 -2376665039.6088595 173307762.63483059 0 0 0 0 -5304527.6532051712 -2689340.6477194028 0 -2689340.6477194028 -1168772.4414060493 0 0 0 0 -1603431303.3664017 1517847386.5932493 0 1517847386.5932493 -1276973086.5318038 0 0 0 0 -920933732.45856249 -1250125444.6014717 0 -1250125444.6014717 -298190721.29076433 0 0 0 0 -892105757.60353851 -2834117214.660131 0 -2834117214.660131 -3673391602.0309868 0 0 0 0 -2869273440.3953171 -1177595950.6512399 0 -1177595950.6512399 47323341.409338117 0 0 0 0 -2788128104.5174046 -1535883697.4703488 0 -1535883697.4703488 11270017.805398136 0 0 0 0 396193007.41030121 -691235380.82140636 0 -691235380.82140636 -812532674.75527692 0 0 0 0 -705304.02537324652 -63909.938493084162 0 -63909.938493084162 -1706087.823010942 0 0 0 0 -2202516533.3562965 -1318402227.7914705 0 -1318402227.7914705 -113267397.66196202 0 0 0 0 -734899095.94858551 -793303320.24408388 0 -793303320.24408388 -147436103.69547701 0 0 0 0 -1271777.3399484046 -186022.91681003943 0 -186022.91681003943 -4552928.5775325829 0 0 0 0 -1295508844.0786514 -379700046.30259323 0 -379700046.30259323 -349384641.23837566 0 0 0 0 -1165036312.9079514 -325777733.24675703 0 -325777733.24675703 -368244331.95460892 0 0 0 0 -608252648.96897888 -361132925.24678516 0 -361132925.24678516 -449877785.49289656 0 0 0 0 -121132646.67507935 -265193732.4221735 0 -265193732.4221735 -366048101.11830807 0 0 0 0 -329833346.54730225 -591210479.15981627 0 -591210479.15981627 356257456.21963882 0 0 0 0 -658990413.05192566 -288040035.50682211 0 -288040035.50682211 83260614.305258751 0 0 0 0 -669949231.42605686 -908247266.66821361 0 -908247266.66821361 160357792.68492508 0 0 0 0 115207520.57336426 -1128188925.2198048 0 -1128188925.2198048 -1197625725.2311697 0 0 0 0 -2271401985.0881844 -1557315066.6685057 0 -1557315066.6685057 -114199922.39293432 0 0 0 0 -456658439.20555115 -1191256022.2730441 0 -1191256022.2730441 -487532830.22333765 0 0 0 0 -15194001.277199 -3449297.228794463 0 -3449297.228794463 165024.08452184612 0 0 0 0 -514703673.88851929 240727820.01093388 0 240727820.01093388 192381920.33424008 0 0 0 0 309044212.79466248 82315177.743546009 0 82315177.743546009 -375864823.52314949 0 0 0 0 463920488.42871094 656972739.3305217 0 656972739.3305217 -517931920.15269965 0 0 0 0 489771549.67501211 -341002744.00309074 0 -341002744.00309074 -154252485.17299211 0 0 0 0 -435560139.40100098 -289199010.6089673 0 -289199010.6089673 1669377247.4679646 0 0 0 0 -20450260.348988444 -2775389.734327984 0 -2775389.734327984 2316644.410321482 0 0 0 0 -51565925.113952637 -242089495.63928354 0 -242089495.63928354 271222064.49662268 0 0 0 0 322612127.55889893 -515650094.14313698 0 -515650094.14313698 1289416090.2372661 0 0 0 0 338205949.12060547 76883886.136554718 0 76883886.136554718 1832664992.1423111 0 0 0 0 -142203514.71420288 -523846550.25377274 0 -523846550.25377274 1293062338.5131588 0 0 0 0 -333852135.73495483 -223846660.84354115 0 -223846660.84354115 1037958901.0056038 0 0 0 0 169045295.89375305 -200547885.32109976 0 -200547885.32109976 477809919.6416893 0 0 0 0 488861460.39212036 -258686863.0325346 0 -258686863.0325346 938405532.40474319 0 0 0 0 -330186445.48544312 -505142507.4346447 0 -505142507.4346447 26207398.060642719 0 0 0 0 -292163381.78462982 239281199.84749699 0 239281199.84749699 1357385449.9770985 0 0 0 0 -218120984.44406128 -217544518.81779003 0 -217544518.81779003 1552394923.124403 0 0 0 0 -11925393.127944112 -6658069.8339115717 0 -6658069.8339115717 -234800.18858563912 0 0 0 0 -149553062.10003662 -121248217.62436342 0 -121248217.62436342 977634596.54858017 0 0 0 0 -115930800.88458252 127940378.97189617 0 127940378.97189617 893818116.16076541 0 0 0 0 -150468290.45343018 -56411973.931427956 0 -56411973.931427956 971053090.00035286 0 0 0 0 228704775.65420532 -85696297.697143555 0 -85696297.697143555 465747750.68090343 0 0 0 0 119717370.05999756 -468867531.43515873 0 -468867531.43515873 838695406.66695786 0 0 0 0 258355776.93761063 183236312.59025669 0 183236312.59025669 841661405.92962265 0 0 0 0 221252258.77709961 -91602726.534026146 0 -91602726.534026146 1132385201.1167879 0 0 0 0 172558486.27670288 157551673.19605541 0 157551673.19605541 1041098589.7797766 0 0 0 0 104274584.28588867 -127787680.73723602 0 -127787680.73723602 1473678267.0157089 0 0 0 0 475066046.16986084 -472579137.74029541 0 -472579137.74029541 1086557441.9815693 0 0 0 0 1011437376.4424438 25096118.901729584 0 25096118.901729584 1416253546.3185863 0 0 0 0 528271828.63848877 293813557.18675232 0 293813557.18675232 1602642996.8197861 0 0 0 0 447199985.32104492 -613612870.02376556 0 -613612870.02376556 2109518789.8469715 0 0 0 0 559373850.64950562 293419425.46775246 0 293419425.46775246 2646201667.1123352 0 0 0 0 658795888.71057129 210074927.47134399 0 210074927.47134399 1548250274.0280361 0 0 0 0 -943321.13303042203 -145208.33103654534 0 -145208.33103654534 760091.24558542576 0 0 0 0 509619958.75024414 -887522458.59262276 0 -887522458.59262276 3286789843.2559471 0 0 0 0 -168288384.39407349 64448287.704515934 0 64448287.704515934 1461272885.4806519 0 0 0 0 -44936710.869415283 -401960883.41504669 0 -401960883.41504669 1325274619.8496604 0 0 0 0 -246875822.15649414 -123652430.09204197 0 -123652430.09204197 1273022678.1071143 0 0 0 0 283444692.43675232 73754433.007958412 0 73754433.007958412 835816889.06314099 0 0 0 0 187108536.59925842 -362887113.79068255 0 -362887113.79068255 1064795454.7690217 0 0 0 0 65352735.837188721 73662640.303574324 0 73662640.303574324 301635392.86798859 0 0 0 0 41069295.828765869 -134491036.27517891 0 -134491036.27517891 459886949.26396275 0 0 0 0 68889281.286834717 -150016084.76438522 0 -150016084.76438522 847718378.69686127 0 0 0 0 -251920933.89569092 -131270668.0468359 0 -131270668.0468359 865124340.15380716 0 0 0 0 -379330110.37043381 -168409360.02587974 0 -168409360.02587974 473574631.01185703 0 0 0 0 -298607155.41056633 313089549.69605398 0 313089549.69605398 296141402.86546707 0 0 0 0 62231971.982376099 -131050470.61387205 0 -131050470.61387205 -196387590.83169556 0 0 0 0 -429300757.58990479 -85499675.112015724 0 -85499675.112015724 -189972683.93335795 0 0 0 0 85944312.324401855 -458739203.02409077 0 -458739203.02409077 -197749430.47692204 0 0 0 0 -168194672.32722473 -133815553.62014866 0 -133815553.62014866 506360184.95953012 0 0 0 0 -369265234.55693054 -704158643.09290171 0 -704158643.09290171 -395125684.34785044 0 0 0 0 -660648725.63141346 -69832763.910044909 0 -69832763.910044909 -701002347.67016602 0 0 0 0 -780890584.36698914 141659671.29289341 0 141659671.29289341 124922999.43841314 0 0 0 0 -568510428.13534546 174896412.38585615 0 174896412.38585615 -496714938.92693138 0 0 0 0 -238933489.10170746 -331044224.19850302 0 -331044224.19850302 -563650641.35189915 0 0 0 0 -762349466.89482117 -567683437.26378846 0 -567683437.26378846 -235309127.14627647 0 0 0 0 -600976799.47935295 488500289.67735487 0 488500289.67735487 -488266993.550488 0 0 0 0 -1566812.6421985477 1013338.4340307955 0 1013338.4340307955 1334653.1042591394 0 0 0 0 -177010378.51551437 520706961.70338392 0 520706961.70338392 -1628775610.5190525 0 0 0 0 -3282023.8020333201 1427736.3479352419 0 1427736.3479352419 -603933.63143043965 0 0 0 0 -59620969.656843185 429042850.25411892 0 429042850.25411892 -1309839258.2892723 0 0 0 0 -488966073.04035187 825006360.5013895 0 825006360.5013895 -494908571.2467289 0 0 0 0 -147511659.89414215 504879173.37820649 0 504879173.37820649 -265099871.3491137 0 0 0 0 -2938424.0905232653 2279731.2463957574 0 2279731.2463957574 2915826.3194278493 0 0 0 0 80636657.470092773 46940844.854837418 0 46940844.854837418 -371537367.800529 0 0 0 0 -337265459.39605713 19950180.085990071 0 19950180.085990071 301365642.08339882 0 0 0 0 -16815191.046596527 137359798.49580264 0 137359798.49580264 343781279.44695282 0 0 0 0 -28123899.019042969 -135497705.41157103 0 -135497705.41157103 715047302.41620827 0 0 0 0 -159880815.32817841 39275652.199704468 0 39275652.199704468 961521054.21374559 0 0 0 0 33705779.595916748 183453182.99008536 0 183453182.99008536 1035067342.1557964 0 0 0 0 -50342127.115760803 -64705407.623537898 0 -64705407.623537898 167908216.62336922 0 0 0 0 14010074.169082642 220544302.9655537 0 220544302.9655537 505169052.54052496 0 0 0 0 42389399.32460022 -289319863.87889934 0 -289319863.87889934 886359503.40237916 0 0 0 0 -1857895.1832069568 -172257.90905432729 0 -172257.90905432729 200910.04441996897 0 0 0 0 272186870.65917969 69164379.210469246 0 69164379.210469246 -38094836.061836243 0 0 0 0 -300386747.9695282 242511753.53893185 0 242511753.53893185 -118659589.2171092 0 0 0 0 -244689791.17738342 -106851702.81235158 0 -106851702.81235158 1291301479.5588195 0 0 0 0 -11094024.402768187 -2306740.4965063371 0 -2306740.4965063371 597155.42892000685 0 0 0 0 -1148277700.1040344 -194417036.37046814 0 -194417036.37046814 -24232394.246778369 0 0 0 0 -760490192.80106354 19347695.544183731 0 19347695.544183731 123345203.22705078 0 0 0 0 -373717012.36639786 -814395644.46738553 0 -814395644.46738553 -248217007.76059341 0 0 0 0 -170898736.78517151 -53450818.327959061 0 -53450818.327959061 105968112.2368865 0 0 0 0 -78260877.3371315 -11443860.786128998 0 -11443860.786128998 67021163.6019907 0 0 0 0 -259509198.13643646 79614404.016582489 0 79614404.016582489 94493143.96128273 0 0 0 0 -51450390.369262695 124211443.51255226 0 124211443.51255226 -69723712.463803291 0 0 0 0 6233534.2697296143 18228561.348908901 0 18228561.348908901 83278657.269817352 0 0 0 0 -9988062.3066978455 143756290.67312264 0 143756290.67312264 71570490.980081558 0 0 0 0 -72649717.134960175 83930914.690145016 0 83930914.690145016 25334604.731113434 0 0 0 0 -19123181.005722046 44687489.493284225 0 44687489.493284225 29375388.147597313 0 0 0 0 -78139311.07043457 71664792.872422218 0 71664792.872422218 93886746.786587358 0 0 0 0 -44725357.828037262 22535403.896739006 0 22535403.896739006 16409482.78468895 0 0 0 0 -11883140.835502625 21641921.323429108 0 21641921.323429108 6026465.5477027893 0 0 0 0 -31877092.507415771 -11184404.55014801 0 -11184404.55014801 63071563.865461051 0 0 0 0 -14565717.847566605 -2279103.0522036692 0 -2279103.0522036692 9509989.5273812115 0 0 0 0 -5755278.3818697277 -1069922.4112796914 0 -1069922.4112796914 7143584.2707689796 0 0 0 0 -120644283.43758774 11999818.279014349 0 11999818.279014349 64456855.983587265 0 0 0 0 -14299774.740707397 -4496584.6108165085 0 -4496584.6108165085 25185137.322100997 0 0 0 0 -8758147.601732254 3515804.2596518472 0 3515804.2596518472 21406264.08245489 0 0 0 0 -6392429.6160354614 2307087.1763220578 0 2307087.1763220578 3409035.0026821792 0 0 0 0 -13961121.151576996 4523072.0856295228 0 4523072.0856295228 4722787.3961937129 0 0 0 0 -5537919.0962140486 168950.91017339751 0 168950.91017339751 2901605.7460889891 0 0 0 0 83565100.736881256 48172010.132833987 0 48172010.132833987 -16662196.313750565 0 0 0 0 49344306.440414429 -39422663.140326083 0 -39422663.140326083 14232845.386998981 0 0 0 0 4195906.1855125427 -258977480.89008236 0 -258977480.89008236 -19446788.724845886 0 0 0 0 -6234278.1835553385 -2049499.5414807312 0 -2049499.5414807312 5765352.7263301369 0 0 0 0 79009336.968040466 -64245779.216540337 0 -64245779.216540337 24457852.290082932 0 0 0 0 -1679025.3722629547 37785.549343008548 0 37785.549343008548 1556326.9343844401 0 0 0 0 428631216.8001709 169143344.58612442 0 169143344.58612442 80690087.637566566 0 0 0 0 462200498.77001953 83332094.372167587 0 83332094.372167587 -12290500.272798061 0 0 0 0 452487099.83703613 -123936915.47210693 0 -123936915.47210693 -76233013.098892212 0 0 0 0 -153758007.5141449 -418136741.77768421 0 -418136741.77768421 -70742968.633304596 0 0 0 0 340335064.22915649 -458552465.33406067 0 -458552465.33406067 -511452171.00613117 0 0 0 0 706078593.01806641 -78044238.863782883 0 -78044238.863782883 -361319720.00954247 0 0 0 0 -12184474.552902659 -1301113.8067773674 0 -1301113.8067773674 4818406.7661700388 0 0 0 0 -9144905.7401123047 -891655.10466980934 0 -891655.10466980934 17679658.489948273 0 0 0 0 88897695.461769104 -46053056.416648909 0 -46053056.416648909 -6438498.9196903408 0 0 0 0 81987674.597257614 -6027207.3929598238 0 -6027207.3929598238 47148906.297241181 0 0 0 0 12268239.337844849 -44410327.353142589 0 -44410327.353142589 -80286041.748334095 0 0 0 0 -145553433.15670776 28231849.696734637 0 28231849.696734637 -93918766.435539052 0 0 0 0 -143605200.97850037 9089867.7718022168 0 9089867.7718022168 -28034674.718003586 0 0 0 0 27821367.043289185 7245750.9373922646 0 7245750.9373922646 -42027859.067734912 0 0 0 0 58063314.407165527 -52635175.124034032 0 -52635175.124034032 -34040706.581700355 0 0 0 0 35845384.894920349 9647779.2381447107 0 9647779.2381447107 105116224.38944983 0 0 0 0 -72041742.363098145 -68425310.544362426 0 -68425310.544362426 221978273.81289715 0 0 0 0 3545075.9854660034 -40451833.924941942 0 -40451833.924941942 74563587.767611206 0 0 0 0 69132049.776382446 -139146555.52224141 0 -139146555.52224141 -35953682.547492504 0 0 0 0 -145775602.77378845 24764564.327995852 0 24764564.327995852 -41804914.37471652 0 0 0 0 -1236514606.8688202 510450427.52971178 0 510450427.52971178 48088428.255013674 0 0 0 0 -248969178.94122314 73165657.583178431 0 73165657.583178431 -167976275.32091901 0 0 0 0 -977632712.36250591 -439646667.74681723 0 -439646667.74681723 323425.07860189676 0 0 0 0 -386101064.22180176 2337665.1179358866 0 2337665.1179358866 -19941294.613022596 0 0 0 0 -326156638.59536743 18638239.243504211 0 18638239.243504211 -43037353.931641921 0 0 0 0 -264150127.76937866 -69373174.36708504 0 -69373174.36708504 -63665694.515401572 0 0 0 0 -739961175.97527313 -16090570.18531093 0 -16090570.18531093 33766529.330732644 0 0 0 0 -386803918.61102295 -101519683.71992506 0 -101519683.71992506 -50894103.685610026 0 0 0 0 -295081698.64398956 -79393533.853560776 0 -79393533.853560776 16861227.596103728 0 0 0 0 -152294604.41056061 -36408677.963352337 0 -36408677.963352337 -48369700.511079609 0 0 0 0 38832768.678421021 -34218217.68824847 0 -34218217.68824847 -53847908.015112147 0 0 0 0 -151731083.51764554 2386057.3925828394 0 2386057.3925828394 -15950536.176473051 0 0 0 0 12641123.648612976 -15007356.47003074 0 -15007356.47003074 -65101184.452892631 0 0 0 0 2799553.6196632385 90676661.300562352 0 90676661.300562352 35336938.275512382 0 0 0 0 -1919099.0800384358 -1385.9823990911245 0 -1385.9823990911245 492537.83423419041 0 0 0 0 1567542.87292099 52544098.029863901 0 52544098.029863901 181134733.27496907 0 0 0 0 3414803.2245178223 3834285.9828726649 0 3834285.9828726649 20689679.836615577 0 0 0 0 -523374.6809450686 9977.770759254694 0 9977.770759254694 72576.020065562261 0 0 0 0 -56580023.386268616 12944723.293978184 0 12944723.293978184 70820956.441498756 0 0 0 0 -129218665.67192078 39028234.385118395 0 39028234.385118395 68161883.336953178 0 0 0 0 -29482926.458745003 -44320225.7432708 0 -44320225.7432708 -128026941.97440839 0 0 0 0 -658852076.10717773 -37905606.282614127 0 -37905606.282614127 -47013329.39138785 0 0 0 0 -161524844.81025791 -216979851.42948586 0 -216979851.42948586 -43978214.932763912 0 0 0 0 123574267.81558609 51619828.395266831 0 51619828.395266831 74893496.428751498 0 0 0 0 236962542.62810516 -966358511.7730068 0 -966358511.7730068 -83468560.433723271 0 0 0 0 -3928803.8004589137 -788200.42532847449 0 -788200.42532847449 250890.1985611846 0 0 0 0 -1061033046.7642117 -1105958644.0176942 0 -1105958644.0176942 -17796986.071665525 0 0 0 0 -4064977332.5390663 411172736.32039398 0 411172736.32039398 469015482.67695403 0 0 0 0 -361148859.18734741 247214476.78837365 0 247214476.78837365 473497794.23660266 0 0 0 0 -4088104117.571003 -386254837.89312077 0 -386254837.89312077 938375823.06182587 0 0 0 0 -2322397.6987465285 423927.31966133043 0 423927.31966133043 217290.06947347129 0 0 0 0 -211281363.01866913 -304657240.50326061 0 -304657240.50326061 -109756830.84982562 0 0 0 0 -288816727.86637342 -202686237.94985324 0 -202686237.94985324 -227956459.94221386 0 0 0 0 -1149581.9861761779 703878.19771404751 0 703878.19771404751 -606731.81579394534 0 0 0 0 -556048709.43952179 -384768532.59798491 0 -384768532.59798491 -121822546.29830086 0 0 0 0 259863419.65327072 806692739.86181986 0 806692739.86181986 457249308.19526112 0 0 0 0 330776431.16807747 501669870.57620597 0 501669870.57620597 -1014873526.5405443 0 0 0 0 -4090399263.5015869 780953267.3260175 0 780953267.3260175 451402653.83981466 0 0 0 0 -1792207508.149147 -396464856.13249528 0 -396464856.13249528 839727273.42855239 0 0 0 0 750129825.84666061 -169007610.06971836 0 -169007610.06971836 -282874153.10409439 0 0 0 0 -3971462.8176414724 -524096.0981208561 0 -524096.0981208561 -677712.66284084204 0 0 0 0 649069116.42150879 -192333881.71360183 0 -192333881.71360183 442891230.52259254 0 0 0 0 -792349621.95047379 258264737.53246021 0 258264737.53246021 120225617.82225919 0 0 0 0 -557986528.53417206 290175207.45750052 0 290175207.45750052 124257529.93975455 0 0 0 0 -280504.876167465 -548371.78674649075 0 -548371.78674649075 -1071414.4917227919 0 0 0 0 -561745316.12294388 291736119.5935449 0 291736119.5935449 124041127.95760193 0 0 0 0 -321836194.16077995 392963307.36182237 0 392963307.36182237 -264833162.3367396 0 0 0 0 -293537131.21099472 -414948145.87889743 0 -414948145.87889743 22737214.793308556 0 0 0 0 -596648.75205956772 -481772.12756723538 0 -481772.12756723538 -944037.12339700933 0 0 0 0 -4075261701.3552666 -956073484.6319375 0 -956073484.6319375 388980374.85454786 0 0 0 0 -1039492764.0945206 645154279.0407635 0 645154279.0407635 -144525078.21195838 0 0 0 0 -4085834473.2401223 -682193777.02940381 0 -682193777.02940381 237598735.57345837 0 0 0 0 -4091882547.9589419 1177484375.9630637 0 1177484375.9630637 -229275153.61267117 0 0 0 0 -1002505273.7895045 -193543804.07176691 0 -193543804.07176691 103798123.25619596 0 0 0 0 -5930063.2317374274 -2547639.6376473391 0 -2547639.6376473391 -392130.70410575368 0 0 0 0 141784307.95912445 -90762864.621549532 0 -90762864.621549532 232047447.52829999 0 0 0 0 134087558.30325699 -474604849.4687174 0 -474604849.4687174 561816455.95324266 0 0 0 0 -92598225.721260071 -52861002.658829987 0 -52861002.658829987 511196914.60266864 0 0 0 0 21913757.353485107 -132277507.81307356 0 -132277507.81307356 229338899.99260539 0 0 0 0 31547669.238212585 -190088492.74005377 0 -190088492.74005377 355599470.86417973 0 0 0 0 -5757988.6485695168 -2364728.0697970288 0 -2364728.0697970288 85799.689100684802 0 0 0 0 17821069.916225433 93487244.115746796 0 93487244.115746796 -71655441.497345209 0 0 0 0 10818178.74578476 -160747949.96008563 0 -160747949.96008563 26812449.361958385 0 0 0 0 -644645098.53587341 171408687.13867736 0 171408687.13867736 -8473891.2501343489 0 0 0 0 -90431356.454883575 -79859971.497794271 0 -79859971.497794271 -68649648.908388376 0 0 0 0 -723328179.38463211 -221218197.88399959 0 -221218197.88399959 -69316590.345119715 0 0 0 0 12097762.67483902 28708102.52396524 0 28708102.52396524 -23053725.37334609 0 0 0 0 81344908.046072006 -13445105.474735975 0 -13445105.474735975 -60697353.048877001 0 0 0 0 -16238971.328727722 -59319734.882865131 0 -59319734.882865131 208107934.17556059 0 0 0 0 -5330830.3368532658 -1298968.8212109795 0 -1298968.8212109795 1125160.2507506451 0 0 0 0 9759480.6560935974 -87375187.720055401 0 -87375187.720055401 140687059.75632691 0 0 0 0 49750045.908882141 -97827257.162259132 0 -97827257.162259132 216033356.99660346 0 0 0 0 -63613.596850544214 -110045.28316884185 0 -110045.28316884185 527645.33646889532 0 0 0 0 36484710.953796864 -165195398.25175959 0 -165195398.25175959 414635996.49682862 0 0 0 0 7101967.1198196411 -56859959.728050701 0 -56859959.728050701 -72590838.395952299 0 0 0 0 -16582287.888748169 -13408621.330764452 0 -13408621.330764452 43631900.206139803 0 0 0 0 -16683901.140262604 -15251508.495569086 0 -15251508.495569086 10299960.964862674 0 0 0 0 -96673.576550453901 -491321.84451661934 0 -491321.84451661934 1652756.5713613008 0 0 0 0 -5297835.4368438721 -14118088.491973566 0 -14118088.491973566 -2985491.3770073578 0 0 0 0 -4932959.1344985962 -147113078.9651024 0 -147113078.9651024 291791020.27737164 0 0 0 0 -855328.35526275635 -4389961.9418698289 0 -4389961.9418698289 9789341.3979001679 0 0 0 0 136973547.23135376 -66623574.488607049 0 -66623574.488607049 38512857.545637444 0 0 0 0 -151356.21366467327 -1467935.5440733901 0 -1467935.5440733901 3353416.2505886597 0 0 0 0 780277.25293731689 -4799625.8515816508 0 -4799625.8515816508 9749356.6821775995 0 0 0 0 -1132157.5013885498 -5140798.5643818974 0 -5140798.5643818974 9879553.6321356148 0 0 0 0 -11640786.631622314 13700798.696966171 0 13700798.696966171 2524742.8387503624 0 0 0 0 -749783.21457290649 -4168236.7102502994 0 -4168236.7102502994 10046773.993691504 0 0 0 0 -5633601.866872143 393708.90032668971 0 393708.90032668971 8143607.9870964056 0 0 0 0 -11631381.756995678 13842378.022087455 0 13842378.022087455 -3552654.3887729645 0 0 0 0 22640119.568473816 -10346313.936383724 0 -10346313.936383724 1020705.9631595612 0 0 0 0 -71204886.488388062 62941661.008401394 0 62941661.008401394 -475066182.82319069 0 0 0 0 -5888013.1552818045 -564938.4772057645 0 -564938.4772057645 7845204.2105527204 0 0 0 0 -101760652.86017132 60874793.150607646 0 60874793.150607646 264985123.18911791 0 0 0 0 -1533099.2878554314 372081.99249833263 0 372081.99249833263 1910488.8479941105 0 0 0 0 -49758187.765451908 -145366693.11863625 0 -145366693.11863625 211838437.78376675 0 0 0 0 252770858.2249856 103390628.24760397 0 103390628.24760397 208026331.48704529 0 0 0 0 59467139.167793036 126309617.5798538 0 126309617.5798538 244116423.01980305 0 0 0 0 6375358.981294632 -187948474.30105323 0 -187948474.30105323 544760534.98559666 0 0 0 0 314295774.29649353 -288078802.60728884 0 -288078802.60728884 281813225.28923738 0 0 0 0 47448279.45959115 -241600277.64586905 0 -241600277.64586905 291909756.0231123 0 0 0 0 1907466.3686485291 -157232898.59472513 0 -157232898.59472513 306750800.48520851 0 0 0 0 -38551975.796104431 -63777302.937030554 0 -63777302.937030554 312115241.79896492 0 0 0 0 26995601.91112709 -96708465.957696348 0 -96708465.957696348 290570325.01376343 0 0 0 0 -17266631.598571777 111838775.79518962 0 111838775.79518962 211755491.28363156 0 0 0 0 -1307988.3488533534 -643439.23180714995 0 -643439.23180714995 756929.84728922928 0 0 0 0 232691920.9759903 -244295521.32236946 0 -244295521.32236946 109623067.67072487 0 0 0 0 -39676182.821975708 22102749.19045949 0 22102749.19045949 442635640.96309817 0 0 0 0 27508706.324386597 105498739.30344439 0 105498739.30344439 -78255883.303615093 0 0 0 0 -8081377.8306655884 14111583.593273163 0 14111583.593273163 42635591.256162643 0 0 0 0 -30043258.703201294 54013108.31978178 0 54013108.31978178 101753196.3032341 0 0 0 0 -5060592.737449646 -30090968.687133551 0 -30090968.687133551 -2550600.8425531387 0 0 0 0 -13824275.319057465 -167021.43090724945 0 -167021.43090724945 7324409.2039642334 0 0 0 0 -5574515.3292334024 -1462560.5448718145 0 -1462560.5448718145 3245391.7285776702 0 0 0 0 -12042160.457132641 -3818585.4594356371 0 -3818585.4594356371 4899738.6797838006 0 0 0 0 -12129242.080257416 3101224.006526947 0 3101224.006526947 2750664.3234100342 0 0 0 0 20624101.303590775 -39691725.136916041 0 -39691725.136916041 -114391458.56652832 0 0 0 0 22398871.31010437 -24553384.759019852 0 -24553384.759019852 4350173.4560903311 0 0 0 0 -17723577.32936573 1373453.1879783869 0 1373453.1879783869 12650090.445721626 0 0 0 0 -17069228.012712479 87405.525726318359 0 87405.525726318359 12820519.630329132 0 0 0 0 -10826469.544359557 3228214.675892794 0 3228214.675892794 5317744.3590761814 0 0 0 0 -31971248.323383331 -254625216.71372581 0 -254625216.71372581 140248939.37708402 0 0 0 0 -337668084.82136536 199600381.74063957 0 199600381.74063957 120822933.97803414 0 0 0 0 79693068.919482231 4461620.0929109193 0 4461620.0929109193 -4585211.1340515167 0 0 0 0 -10996777.192175865 -3926134.1584846973 0 -3926134.1584846973 8716863.8637871742 0 0 0 0 -8670711.586894989 -1559910.6713141203 0 -1559910.6713141203 2831344.6770935059 0 0 0 0 -12981115.47405982 1735414.2817230546 0 1735414.2817230546 4826358.9307260439 0 0 0 0 -81361751.91116333 -56245761.580525503 0 -56245761.580525503 192898379.62739158 0 0 0 0 38342508.099498272 153196301.46691319 0 153196301.46691319 -154708295.90469614 0 0 0 0 -168319180.10968018 291261448.18279564 0 291261448.18279564 -106311459.33078359 0 0 0 0 -12013745.610723695 -4926657.9498850703 0 -4926657.9498850703 -248052.07098378101 0 0 0 0 -137908903.21059227 129649138.95279688 0 129649138.95279688 -68044474.235620663 0 0 0 0 -375216753.49606037 171929353.83946362 0 171929353.83946362 -75576370.371109962 0 0 0 0 -3553849.056957345 110895.11165388045 0 110895.11165388045 1242298.6835829874 0 0 0 0 -15487792.854388237 -689154.05922043324 0 -689154.05922043324 17929168.881968498 0 0 0 0 -12540119.633453369 -6074510.486058712 0 -6074510.486058712 22460198.125461817 0 0 0 0 -13103297.544555886 -1426561.7744623479 0 -1426561.7744623479 4342172.1812515995 0 0 0 0 -12852067.043582916 144325.38188815117 0 144325.38188815117 7122689.830868721 0 0 0 0 -17576796.672290802 -5845983.455561161 0 -5845983.455561161 12983762.941210747 0 0 0 0 10415686.901847839 40041551.636008859 0 40041551.636008859 38497767.609455168 0 0 0 0 -7273251.0078610219 126247.7067385409 0 126247.7067385409 3983198.8606674923 0 0 0 0 -16817307.017463684 17565554.887149096 0 17565554.887149096 6251484.4752430916 0 0 0 0 -16966349.653674841 19954539.526142821 0 19954539.526142821 47380941.350359917 0 0 0 0 49535051.483211517 59942774.820840359 0 59942774.820840359 -59097358.051414572 0 0 0 0 95636259.669342041 174008132.91201639 0 174008132.91201639 119245345.43254471 0 0 0 0 419798371.20186043 -192176964.11490172 0 -192176964.11490172 -287980026.45345497 0 0 0 0 -98527930.321025372 28331345.05678951 0 28331345.05678951 -531564029.43469501 0 0 0 0 -10415333.360817131 -4304777.699104893 0 -4304777.699104893 -1216497.7598256522 0 0 0 0 -12485858.284137726 -1327459.6253881454 0 -1327459.6253881454 183546693.85056937 0 0 0 0 -62269910.726771355 204948344.18605 0 204948344.18605 -255042741.89827675 0 0 0 0 -144484960.57421362 176766282.91960958 0 176766282.91960958 -173925043.34437096 0 0 0 0 -73341285.548789024 281467009.44018215 0 281467009.44018215 -119133685.0105539 0 0 0 0 10198304.60390377 194558988.80021119 0 194558988.80021119 -172578559.6997802 0 0 0 0 -7252018.4386984762 -1624678.975994525 0 -1624678.975994525 170259.86001642171 0 0 0 0 -160154792.4391644 -3106218.1261416078 0 -3106218.1261416078 557190451.03074074 0 0 0 0 -283963166.73715401 436836625.03790843 0 436836625.03790843 -183100771.58287668 0 0 0 0 -774445403.34619904 -1127298614.9125643 0 -1127298614.9125643 -76416195.613319114 0 0 0 0 -4096008350.0210681 1138825336.1389956 0 1138825336.1389956 625800097.75983405 0 0 0 0 -3020397433.2739391 1672928819.4478326 0 1672928819.4478326 -336834453.23636907 0 0 0 0 -3773583.493525336 -594744.18056077766 0 -594744.18056077766 96162.499139909618 0 0 0 0 -5595000803.1229057 -34169790.630307987 0 -34169790.630307987 -218526208.49087876 0 0 0 0 -4095690840.7155914 -252459054.19253841 0 -252459054.19253841 -946180970.32368422 0 0 0 0 -4077077154.445652 -64970018.10603369 0 -64970018.10603369 433010935.77796173 0 0 0 0 -1207549073.0709496 225987565.82594055 0 225987565.82594055 89226414.945851803 0 0 0 0 -1201091074.5067463 265819942.87439939 0 265819942.87439939 -132446988.14734912 0 0 0 0 -1176511674.4490356 -640098613.61122561 0 -640098613.61122561 352149627.32531929 0 0 0 0 -8167406.7390311975 -3099200.9217814179 0 -3099200.9217814179 -1452079.9569311317 0 0 0 0 -4087940642.7501688 1760440768.3113954 0 1760440768.3113954 -452783796.87317091 0 0 0 0 -26008834.757606506 7181615.3599271774 0 7181615.3599271774 -31021032.297029018 0 0 0 0 -75675988.894330978 -9161514.7709970474 0 -9161514.7709970474 -5349122.8495445251 0 0 0 0 -27189595.92203927 -27159008.520392716 0 -27159008.520392716 -3603375.2078208923 0 0 0 0 -1070269.9986425936 -2340923.7868194077 0 -2340923.7868194077 4568235.7063082047 0 0 0 0 13175098.098266602 2608530.354932785 0 2608530.354932785 -7495179.221316576 0 0 0 0 -16492604.552467346 16277161.400035858 0 16277161.400035858 76026333.092926025 0 0 0 0 -53700287.378318787 2891115.6014156342 0 2891115.6014156342 120025851.06143951 0 0 0 0 -13022178.912200928 -26714188.751213074 0 -26714188.751213074 -17085008.164482117 0 0 0 0 -43068517.043701172 -51798513.794773102 0 -51798513.794773102 65506152.939620972 0 0 0 0 -173287.54567904025 1293336.6446740236 0 1293336.6446740236 -37125.380699349102 0 0 0 0 -16149895.139883518 121008849.21256292 0 121008849.21256292 -63299218.785163879 0 0 0 0 -409986956.73913765 85232839.193554401 0 85232839.193554401 111620283.01157379 0 0 0 0 -280168909.74526978 164263880.39400578 0 164263880.39400578 -2661685.1665973663 0 0 0 0 -254453705.17432022 -78949112.248854637 0 -78949112.248854637 26334607.338129044 0 0 0 0 -407700727.76794815 54934820.040367126 0 54934820.040367126 113724419.52274257 0 0 0 0 -628888400.09840727 228370761.26545805 0 228370761.26545805 -17304619.19568634 0 0 0 0 -219556588.88040733 135164756.30178118 0 135164756.30178118 2363791.7898159027 0 0 0 0 -691438349.19046783 -140195717.45358163 0 -140195717.45358163 17784229.452264786 0 0 0 0 351802697.14836502 64012726.106735706 0 64012726.106735706 306235370.08764267 0 0 0 0 477647788.67822647 594593064.89018345 0 594593064.89018345 508646434.63754177 0 0 0 0 -500393.1706165839 -311370.85945906304 0 -311370.85945906304 1151594.9386925958 0 0 0 0 -169209030.48513603 6868366.6463212967 0 6868366.6463212967 -5108910.0198497772 0 0 0 0 344993528.70717621 -40449317.413683712 0 -40449317.413683712 67536522.985349655 0 0 0 0 -175852854.87558746 73937611.018099785 0 73937611.018099785 378734098.47085166 0 0 0 0 -208427709.12319374 -89515558.116337478 0 -89515558.116337478 92504777.666544914 0 0 0 0 -713433313.94536591 -113328831.64148855 0 -113328831.64148855 174777410.43346453 0 0 0 0 158457898.26915741 183012807.84509182 0 183012807.84509182 -537402364.99820709 0 0 0 0 7822001.8750305176 192649585.35344458 0 192649585.35344458 362472500.32735491 0 0 0 0 -4137943.4064054117 2764801.868727345 0 2764801.868727345 1313056.50364538 0 0 0 0 -64371076.59425354 8649385.9724025726 0 8649385.9724025726 4629093.5574035645 0 0 0 0 -66080169.996086121 11014179.681497574 0 11014179.681497574 10714453.352357864 0 0 0 0 -68421195.922412872 13029991.495049477 0 13029991.495049477 9750218.2035369873 0 0 0 0 -387698222.59169388 265723843.68213105 0 265723843.68213105 -113705865.57495213 0 0 0 0 -1497167.6173037514 -498480.03815910616 0 -498480.03815910616 647986.58158079023 0 0 0 0 -4464381.3322330602 -378585.86029597046 0 -378585.86029597046 2631048.5200111321 0 0 0 0 -62294394.950805664 15193284.540391922 0 15193284.540391922 6584707.6001431942 0 0 0 0 -54319784.576610565 -11619903.479368687 0 -11619903.479368687 7396716.5091192722 0 0 0 0 -726853.55658642575 2827517.2593634883 0 2827517.2593634883 4486547.2640697714 0 0 0 0 -131214952.41436005 -200163287.05602074 0 -200163287.05602074 -260867298.12853003 0 0 0 0 -209569832.10675049 -79452801.237118721 0 -79452801.237118721 -41197000.987472057 0 0 0 0 702665.60997390747 -44747703.320482731 0 -44747703.320482731 -77944132.908420563 0 0 0 0 -243610212.89519501 90632457.679529667 0 90632457.679529667 127841380.9834342 0 0 0 0 -388063128.78283691 -7881059.5670862198 0 -7881059.5670862198 255880745.51613808 0 0 0 0 -164407310.38883209 184496993.8651576 0 184496993.8651576 241675141.83855247 0 0 0 0 -249603694.0171051 174809659.0372448 0 174809659.0372448 445395053.90968323 0 0 0 0 155631.61625657789 1076372.0436449684 0 1076372.0436449684 1356583.6029413762 0 0 0 0 62594509.975837708 -288845989.87996292 0 -288845989.87996292 343728449.72252524 0 0 0 0 197210854.52033615 -551395189.25876451 0 -551395189.25876451 561633298.91033173 0 0 0 0 678202780.26094818 542283724.65902519 0 542283724.65902519 17327511.214761257 0 0 0 0 -1133252774.5780029 -20188230.038895607 0 -20188230.038895607 206842250.54660034 0 0 0 0 -191107831.47133636 111021493.13478947 0 111021493.13478947 179888936.01946867 0 0 0 0 -3034785.8493156433 326451020.95739722 0 326451020.95739722 388159510.36270994 0 0 0 0 -224741242.10105896 81038741.577483177 0 81038741.577483177 457093215.42347717 0 0 0 0 -2248606.9583098888 -5655388.7277696095 0 -5655388.7277696095 8633446.8220507801 0 0 0 0 -371114925.95417404 103925993.51130104 0 103925993.51130104 410388469.89828491 0 0 0 0 -5008328.3902192488 1607158.5772433002 0 1607158.5772433002 4187712.7289469726 0 0 0 0 -30710700.757698059 -10680784.785385132 0 -10680784.785385132 6758376.8698501587 0 0 0 0 -19543042.760848999 -17510616.670454025 0 -17510616.670454025 35003402.882835388 0 0 0 0 -3042558.6267729811 -3387435.6386224432 0 -3387435.6386224432 5690555.0681821797 0 0 0 0 -187115172.92948532 41134948.586360335 0 41134948.586360335 320829962.62269115 0 0 0 0 -185573982.61470795 -12432451.329996109 0 -12432451.329996109 234921780.66879368 0 0 0 0 -2284770.1696357727 878669.03637123108 0 878669.03637123108 4898533.2024612427 0 0 0 0 4238822.8330917358 77069.411611557007 0 77069.411611557007 8168994.0706214905 0 0 0 0 -1644568.7929542847 -982009.24212686857 0 -982009.24212686857 5627183.1851502396 0 0 0 0 -3165713.012840271 -8549352.0044136047 0 -8549352.0044136047 15259690.449237823 0 0 0 0 -4434925.7461671308 -2628874.8461516146 0 -2628874.8461516146 5265466.875816213 0 0 0 0 -11147688.159645081 -9808570.2859764099 0 -9808570.2859764099 12008274.551307678 0 0 0 0 -28763339.580005646 16576947.925113678 0 16576947.925113678 11925229.733650208 0 0 0 0 -360341977.28929901 -81189398.963470936 0 -81189398.963470936 813330999.27135468 0 0 0 0 -265363493.92922211 62614469.265861511 0 62614469.265861511 127022611.63527513 0 0 0 0 106591376.20143509 -139128912.24911475 0 -139128912.24911475 180227036.93369865 0 0 0 0 115591586.6098938 -198136762.42344475 0 -198136762.42344475 -461066982.52322865 0 0 0 0 109238890.07728577 -376574457.60506916 0 -376574457.60506916 161907968.85156012 0 0 0 0 318124264.05186462 528932811.34364891 0 528932811.34364891 172187053.26881641 0 0 0 0 -713199878.83028412 -50277864.925014496 0 -50277864.925014496 245329266.30833626 0 0 0 0 -119603373.24394226 145606916.52966595 0 145606916.52966595 -1014917991.5437107 0 0 0 0 -420148.7086648196 58874.820411288179 0 58874.820411288179 612541.87246283307 0 0 0 0 -8504628.006729126 535560885.7124157 0 535560885.7124157 172222856.31229737 0 0 0 0 1215950943.3142548 -218381181.99514771 0 -218381181.99514771 258862149.43307495 0 0 0 0 -269988374.44551086 -121755826.26415873 0 -121755826.26415873 1264771741.1354427 0 0 0 0 -278131314.64279938 -26870586.592970371 0 -26870586.592970371 349560747.47424698 0 0 0 0 -64645109.537902832 -174950707.01993847 0 -174950707.01993847 -454402510.89217091 0 0 0 0 -1929681.1741236523 4858239.6786675183 0 4858239.6786675183 8107105.7095988747 0 0 0 0 4319686.6729736328 6226916.9357891083 0 6226916.9357891083 16149691.532924652 0 0 0 0 4529906.1761016846 14244408.684903145 0 14244408.684903145 14861789.603685856 0 0 0 0 -14361781.485061646 357234.07112312317 0 357234.07112312317 39984853.329524994 0 0 0 0 -10380653.516955795 -5679242.9792410322 0 -5679242.9792410322 13029633.814888973 0 0 0 0 4459334.0936965942 16337931.761581898 0 16337931.761581898 4376751.0660800934 0 0 0 0 4344926.326385498 5675404.6557805538 0 5675404.6557805538 6907397.076997757 0 0 0 0 -128795310.75944519 -35907439.011323452 0 -35907439.011323452 48963023.299049616 0 0 0 0 -13114240.966041565 21958179.451241493 0 21958179.451241493 -2158089.9877700806 0 0 0 0 -461367.39474285394 262906.59252429474 0 262906.59252429474 2462942.5863586026 0 0 0 0 -88247392.740760803 36507470.541230202 0 36507470.541230202 24396926.247735023 0 0 0 0 -23237514.174560547 157737.65817213058 0 157737.65817213058 43015297.211116791 0 0 0 0 -17050856.863718748 -4704709.1623695977 0 -4704709.1623695977 7185041.874837989 0 0 0 0 -30380964.380844116 -27149129.420396805 0 -27149129.420396805 40979262.838952541 0 0 0 0 -63081710.228523254 -31764084.391349792 0 -31764084.391349792 40867077.731920242 0 0 0 0 -17269979.399362087 2095306.2520539761 0 2095306.2520539761 11222593.50346756 0 0 0 0 -59233316.483047485 28249337.177075386 0 28249337.177075386 49845723.340114355 0 0 0 0 -16228764.66960144 7025562.1442785263 0 7025562.1442785263 27355534.449636698 0 0 0 0 -8009044.0363372779 -3236224.535762839 0 -3236224.535762839 9299827.1155055128 0 0 0 0 -7230875.7117023468 -6266940.7204961777 0 -6266940.7204961777 14190106.165851593 0 0 0 0 -15166224.522464087 945997.66565540247 0 945997.66565540247 8487451.4162602928 0 0 0 0 -3345205.1801223755 25989581.145447731 0 25989581.145447731 22433015.558393478 0 0 0 0 -2035555.7878798265 -1567366.4171136767 0 -1567366.4171136767 1610077.4440879743 0 0 0 0 -6580599.3735625017 -2913694.8402085174 0 -2913694.8402085174 8779496.7608572058 0 0 0 0 -7990921.0429253578 -3293848.8472466469 0 -3293848.8472466469 6027907.4122619629 0 0 0 0 -11414583.918956757 618857.0821890831 0 618857.0821890831 7089127.2875137329 0 0 0 0 -16047683.580410957 579032.52064466476 0 579032.52064466476 10749088.89244175 0 0 0 0 -6243973.9541110992 4842190.6660013199 0 4842190.6660013199 22094541.535028934 0 0 0 0 -24863841.446623243 -4661714.8906474141 0 -4661714.8906474141 10840908.140801892 0 0 0 0 -690165.77126193419 -603965.35172545677 0 -603965.35172545677 2519354.0809638053 0 0 0 0 2695653.3919124603 -12891128.372145653 0 -12891128.372145653 16303101.963424683 0 0 0 0 4194268.4057846069 -11774749.616482735 0 -11774749.616482735 12756327.546684265 0 0 0 0 -485450.56153106689 -6870919.630689621 0 -6870919.630689621 14186270.710494995 0 0 0 0 -4172267.676071167 -9949826.1159229279 0 -9949826.1159229279 13837120.290016174 0 0 0 0 -3009610.8882904053 -8360712.5242099762 0 -8360712.5242099762 14438260.902679443 0 0 0 0 -4932729.3100204468 -6723389.7245826721 0 -6723389.7245826721 11009354.168579102 0 0 0 0 -11291118.808296204 -4900670.3053283691 0 -4900670.3053283691 13274915.337059021 0 0 0 0 -1174004.3846206665 -12132994.314800262 0 -12132994.314800262 12705476.838912964 0 0 0 0 4975599.2877998352 -11667687.749752045 0 -11667687.749752045 7893342.9420967102 0 0 0 0 1975281.2921905518 -9455588.0495204926 0 -9455588.0495204926 12665933.165145874 0 0 0 0 2515025.4062004089 -18646364.111103058 0 -18646364.111103058 -876853.03528785706 0 0 0 0 6589334.0161895752 -8431822.3623752594 0 -8431822.3623752594 12050264.580535889 0 0 0 0 -81942387.109825134 -19500306.173992157 0 -19500306.173992157 21675570.074932098 0 0 0 0 -260432.1393272467 -157515.58985797176 0 -157515.58985797176 787680.04731578752 0 0 0 0 -42830435.612388611 43183463.30318737 0 43183463.30318737 -12574044.735908508 0 0 0 0 -30798359.373748779 26031137.618526459 0 26031137.618526459 6265670.4056396484 0 0 0 0 -33148283.704158783 23241064.90681982 0 23241064.90681982 16845788.298732758 0 0 0 0 -34869580.179828644 18482338.103919983 0 18482338.103919983 23656176.302143097 0 0 0 0 -20599705.363702774 7497217.4059033394 0 7497217.4059033394 18532382.79656601 0 0 0 0 38222017.904424667 1486076.8613667488 0 1486076.8613667488 -4945798.4058532715 0 0 0 0 -1863133.3925624229 2278206.249919368 0 2278206.249919368 1092588.8724288801 0 0 0 0 -555777.43638924975 -327388.03829200007 0 -327388.03829200007 1566605.4524170235 0 0 0 0 753996991.86377716 -226262909.04361343 0 -226262909.04361343 65224634.103157043 0 0 0 0 4253146.9005680084 46157196.160332203 0 46157196.160332203 -9337036.7230491638 0 0 0 0 -76309208.744300842 16024647.021911621 0 16024647.021911621 23510561.562714577 0 0 0 0 -459344647.87872124 51599513.727541924 0 51599513.727541924 71184464.204685211 0 0 0 0 -227772084.20523071 -132347352.01107788 0 -132347352.01107788 -129665699.74117661 0 0 0 0 58726854.863677979 -198292612.22644234 0 -198292612.22644234 -14062335.991573334 0 0 0 0 -891114726.72184753 -54751735.660627365 0 -54751735.660627365 457365052.64785767 0 0 0 0 -203445111.15915108 79651032.789299965 0 79651032.789299965 67554440.600852966 0 0 0 0 -236039681.01604652 46529724.72811985 0 46529724.72811985 55296463.034339905 0 0 0 0 -301055558.73643112 63571863.660455704 0 63571863.660455704 93778466.504234314 0 0 0 0 -201675475.8703289 62454451.16546011 0 62454451.16546011 20103042.054523468 0 0 0 0 15455868.406410217 -32096029.626466274 0 -32096029.626466274 -28386734.334308624 0 0 0 0 -178441571.83256531 8555431.9174537659 0 8555431.9174537659 70961955.285040319 0 0 0 0 -1007900.1416702792 31893.197123237886 0 31893.197123237886 4168381.0832461324 0 0 0 0 -16462099.141223907 37043670.183392525 0 37043670.183392525 -3178135.3446311951 0 0 0 0 -273496951.26460266 95314083.396785736 0 95314083.396785736 16614358.421482287 0 0 0 0 -263693850.58146286 60810951.325246811 0 60810951.325246811 16521949.52866745 0 0 0 0 -344778564.94866562 78121834.891120911 0 78121834.891120911 24765540.276126862 0 0 0 0 -383744334.05479622 50236581.09397316 0 50236581.09397316 16209874.345314026 0 0 0 0 -458626252.92544365 35166205.625753403 0 35166205.625753403 35339876.768024445 0 0 0 0 -352057631.79252017 -564952.16684508324 0 -564952.16684508324 36084837.26259613 0 0 0 0 -319756325.02670097 18073577.536691666 0 18073577.536691666 46712335.409725189 0 0 0 0 -275009900.196455 7832457.1492214203 0 7832457.1492214203 35098274.134426117 0 0 0 0 -292688103.14805222 43174474.314641953 0 43174474.314641953 38728323.018966675 0 0 0 0 -281626619.7183075 68411593.805513382 0 68411593.805513382 50094461.745897293 0 0 0 0 -423176519.17334747 -121379558.06841278 0 -121379558.06841278 -9598130.790517807 0 0 0 0 -266035732.35530281 -65997769.959699631 0 -65997769.959699631 7085307.2634220123 0 0 0 0 -337528278.89433956 -44725312.438715458 0 -44725312.438715458 27573800.435203552 0 0 0 0 -217217739.7270546 -78311879.764328003 0 -78311879.764328003 15081408.867334366 0 0 0 0 -270855702.93259716 -83075848.300602436 0 -83075848.300602436 17580239.721107483 0 0 0 0 -244213091.64418793 -82805240.008037567 0 -82805240.008037567 47058868.338588238 0 0 0 0 -237840916.22946167 -89893783.350363255 0 -89893783.350363255 31904538.110469818 0 0 0 0 -221788028.05087852 -42975003.409793854 0 -42975003.409793854 23998151.359480381 0 0 0 0 -268629277.84803391 -492994.86005878448 0 -492994.86005878448 5559065.8701896667 0 0 0 0 -58915312.641941071 25491891.222112656 0 25491891.222112656 -12584516.431652069 0 0 0 0 -420014045.0735302 -72147843.665842056 0 -72147843.665842056 46448124.101737976 0 0 0 0 -181728966.02583647 -183088188.13823652 0 -183088188.13823652 40249524.717735291 0 0 0 0 -313081052.3726635 168958865.67493343 0 168958865.67493343 -32383798.267318726 0 0 0 0 -296568354.64604139 89145772.15548408 0 89145772.15548408 22681086.75056839 0 0 0 0 -188649774.33079147 1942855.7528419495 0 1942855.7528419495 -4144870.502497673 0 0 0 0 -198076247.77335358 93475733.747663498 0 93475733.747663498 17108355.948181152 0 0 0 0 -109045730.02609634 70682724.99225235 0 70682724.99225235 -116514018.7764883 0 0 0 0 -314695409.34316349 -53036960.110046864 0 -53036960.110046864 21558249.583694458 0 0 0 0 -95760478.599262238 58629722.439581871 0 58629722.439581871 53515517.894920349 0 0 0 0 20986050.505260468 -156121581.79083633 0 -156121581.79083633 129937016.11314631 0 0 0 0 -159235981.10416031 -23527619.91300106 0 -23527619.91300106 41617972.262199402 0 0 0 0 -16377846.527053833 46116755.875749588 0 46116755.875749588 71858813.770647049 0 0 0 0 -2197031.5492484923 -100744.41397162434 0 -100744.41397162434 1496377.5992082097 0 0 0 0 116406349.36751127 -236089732.83562446 0 -236089732.83562446 42530342.480882645 0 0 0 0 -489501043.52477646 275027857.81591892 0 275027857.81591892 -91878240.278220177 0 0 0 0 -4324801.5158117823 -395725.43970838422 0 -395725.43970838422 2696710.1501381742 0 0 0 0 -193260343.46930647 9382493.1707865 0 9382493.1707865 52820921.20671463 0 0 0 0 -357884545.83486938 112051676.34814835 0 112051676.34814835 48462315.413600922 0 0 0 0 -214785486.04106522 129419363.43223667 0 129419363.43223667 -17656166.986828804 0 0 0 0 -325406512.96643639 139923046.12887764 0 139923046.12887764 28555115.985752106 0 0 0 0 -247548468.2384243 23963726.302256584 0 23963726.302256584 -60755168.406360626 0 0 0 0 -132957701.33827972 125957428.75926065 0 125957428.75926065 16003884.188798189 0 0 0 0 -77156032.279985428 -78497009.269787312 0 -78497009.269787312 212892160.11119366 0 0 0 0 -4449746.6187169347 -493787.74456187757 0 -493787.74456187757 2650936.8835277427 0 0 0 0 -155021272.36587429 -49899838.017361879 0 -49899838.017361879 108859495.19660759 0 0 0 0 1729695.1138072014 18267698.917891026 0 18267698.917891026 -29059437.796836853 0 0 0 0 44125949.29127121 -76638211.948913574 0 -76638211.948913574 7645130.5418985784 0 0 0 0 606960.99279805226 1148866.8604756289 0 1148866.8604756289 -2044724.5357399415 0 0 0 0 -9221998.7530059814 18710395.482559204 0 18710395.482559204 -6684965.6067962646 0 0 0 0 -23228867.930217743 -8288781.444912672 0 -8288781.444912672 -4188290.1248912811 0 0 0 0 -14994174.806520946 -3484993.7051735711 0 -3484993.7051735711 -8152659.6677037887 0 0 0 0 -24811096.339294434 -5604194.6597499847 0 -5604194.6597499847 -5940217.9794082642 0 0 0 0 -22891576.07452786 -11815550.193963196 0 -11815550.193963196 -1536221.7879123688 0 0 0 0 -17962408.365610123 4334284.4384536743 0 4334284.4384536743 -27796586.338821411 0 0 0 0 -16208719.006581271 -6584903.1143440008 0 -6584903.1143440008 -7971172.8102187235 0 0 0 0 183784.561415334 -510186.93919055536 0 -510186.93919055536 -637479.65067554265 0 0 0 0 35692146.408712387 1879911.6614665985 0 1879911.6614665985 -33021386.032054424 0 0 0 0 -22405201.683784485 -5757034.6657118797 0 -5757034.6657118797 169350.44006061554 0 0 0 0 -4322873.088353157 29689367.226992607 0 29689367.226992607 11328735.324350357 0 0 0 0 -36128551.449100494 -19660982.871275425 0 -19660982.871275425 -5533221.4620287418 0 0 0 0 -6430345.9990651701 -5124881.7332015149 0 -5124881.7332015149 -1823994.025455921 0 0 0 0 -3704745.7602996486 -4929713.275822063 0 -4929713.275822063 -4208052.1628428167 0 0 0 0 -53048865.860300064 -32718967.146927834 0 -32718967.146927834 28897285.488147736 0 0 0 0 -65484639.93066597 866778.74969291687 0 866778.74969291687 -24324143.681895018 0 0 0 0 -241639796.33934498 4700423.4724445343 0 4700423.4724445343 25976262.802690506 0 0 0 0 -188454029.29335022 58697120.927889824 0 58697120.927889824 3676403.8771085739 0 0 0 0 -114255086.70639133 -40172209.214296341 0 -40172209.214296341 2499436.1476535797 0 0 0 0 -20507033.097967148 1342611.0776233673 0 1342611.0776233673 -73300784.495126724 0 0 0 0 -179641733.14936101 11760460.71260035 0 11760460.71260035 3610135.2624168396 0 0 0 0 -527079160.305336 39613222.379493713 0 39613222.379493713 32666787.510605097 0 0 0 0 -197675717.99536514 -90336876.679593086 0 -90336876.679593086 -141883893.47519684 0 0 0 0 -32900437.045175552 -8796540.048330307 0 -8796540.048330307 -109693661.19308472 0 0 0 0 -31769125.498235703 15802973.152954102 0 15802973.152954102 39575912.590026855 0 0 0 0 -19893069.677553177 9714443.7508583069 0 9714443.7508583069 10641327.322362185 0 0 0 0 91378897.807969093 -25105916.403468132 0 -25105916.403468132 -70983556.678354263 0 0 0 0 -22828948.705536366 -1508546.5144948959 0 -1508546.5144948959 -2010074.425868988 0 0 0 0 -7366885.327802131 -630869.34735749825 0 -630869.34735749825 -7425286.0101725701 0 0 0 0 -22988375.548580408 -487065.1025763154 0 -487065.1025763154 517862.90526008606 0 0 0 0 -18205513.016602516 973549.6585187912 0 973549.6585187912 -1213299.835082531 0 0 0 0 -230036.99984048586 -615337.02621163428 0 -615337.02621163428 69387.432371158036 0 0 0 0 -7300440.4018411636 6409167.6903524399 0 6409167.6903524399 -6059204.3773994446 0 0 0 0 -12348657.256848045 4041040.5589002594 0 4041040.5589002594 -3821813.7776527405 0 0 0 0 82458598.829297543 28377852.769593239 0 28377852.769593239 -68118523.861722946 0 0 0 0 -9474742.0485925358 3405610.9798344057 0 3405610.9798344057 -9618790.6286226865 0 0 0 0 -28488561.060848236 34056586.633431435 0 34056586.633431435 -39015955.16708374 0 0 0 0 -20029268.263241529 10913670.862132549 0 10913670.862132549 13490260.729549408 0 0 0 0 -13300386.219167709 71068362.353200912 0 71068362.353200912 9460355.4099049568 0 0 0 0 1037480402.6079613 -12961431.536724284 0 -12961431.536724284 1154950593.5957375 0 0 0 0 -1607114.5639730501 1275939.7088931706 0 1275939.7088931706 213510.62052663509 0 0 0 0 -214740544.6427002 -310665086.24580383 0 -310665086.24580383 1031374060.84937 0 0 0 0 1123151.6517950296 600498366.5552094 0 600498366.5552094 510147907.79205704 0 0 0 0 -7035723.6396063231 10013921.229191354 0 10013921.229191354 -11121683.305855127 0 0 0 0 55366983.997840881 -81435787.795711994 0 -81435787.795711994 299277997.63102722 0 0 0 0 -256223103.65585518 91270837.991725922 0 91270837.991725922 -111317997.12487745 0 0 0 0 -144730473.6784668 -5889745.5033798218 0 -5889745.5033798218 -30319308.934085846 0 0 0 0 -132146379.80375671 46338817.473287582 0 46338817.473287582 -6733432.8861141205 0 0 0 0 -163707525.02637863 44310692.214538574 0 44310692.214538574 -14989182.652245522 0 0 0 0 -131943832.49791718 3136496.257270813 0 3136496.257270813 6285116.8367118835 0 0 0 0 -277257789.57756615 -40545887.171405792 0 -40545887.171405792 37958488.70281601 0 0 0 0 -186040082.79842758 -27972534.179290771 0 -27972534.179290771 39274619.362883568 0 0 0 0 -134721865.61740971 -39160292.745077133 0 -39160292.745077133 2044755.2175254822 0 0 0 0 -5887875.2819261551 6626540.8883647919 0 6626540.8883647919 -23253441.215950012 0 0 0 0 -102409981.32836223 -2608603.3601884842 0 -2608603.3601884842 722180.15879440308 0 0 0 0 -10317884.56314363 13315899.563561337 0 13315899.563561337 -15631545.925682217 0 0 0 0 1235689836.8017349 1326249442.8261766 0 1326249442.8261766 173060627.28879738 0 0 0 0 -142598857.80174637 -91263366.307769775 0 -91263366.307769775 -61178129.152425766 0 0 0 0 -1989349795.5042648 -246405428.9516325 0 -246405428.9516325 741513664.66175818 0 0 0 0 91151178.978279114 382448385.0974412 0 382448385.0974412 886139351.15023041 0 0 0 0 443048932.91210938 -185481190.13426685 0 -185481190.13426685 858160473.08389091 0 0 0 0 -635683019.79444504 -108989205.63445401 0 -108989205.63445401 995445486.40837479 0 0 0 0 651514744.40214729 433331765.20136285 0 433331765.20136285 712542388.58310127 0 0 0 0 -16905520.694221478 14897512.022277977 0 14897512.022277977 -15072325.802045871 0 0 0 0 -1422852957.2339935 1190674430.9169455 0 1190674430.9169455 1497648636.0105615 0 0 0 0 -328508930.52741241 1457502979.7899446 0 1457502979.7899446 1301781110.2428055 0 0 0 0 1147980358.8291819 169550448.03925458 0 169550448.03925458 -813247105.88541412 0 0 0 0 -17576800.27425766 -435333500.68938494 0 -435333500.68938494 -1049834730.2473354 0 0 0 0 -167358334.57920456 -225515181.14556265 0 -225515181.14556265 26111230.385921478 0 0 0 0 303085289.19445038 -153322974.74303532 0 -153322974.74303532 29290196.037045479 0 0 0 0 -438229771.12142563 -619050082.61619711 0 -619050082.61619711 690293440.9066391 0 0 0 0 -33131731.652450562 -247855554.28018188 0 -247855554.28018188 63994847.12496376 0 0 0 0 -53012075.907463074 -355120756.18766236 0 -355120756.18766236 642084198.9046402 0 0 0 0 1715601.8478889465 -176110735.61794972 0 -176110735.61794972 211157566.27459717 0 0 0 0 126918353.633358 -249345620.40741491 0 -249345620.40741491 60498540.053491592 0 0 0 0 207816067.72917175 -366068980.07568026 0 -366068980.07568026 -358851297.2851162 0 0 0 0 84684860.577514648 -159597799.67651272 0 -159597799.67651272 -72864930.957046032 0 0 0 0 -27818751.554420471 -158752928.27572727 0 -158752928.27572727 105083519.6722641 0 0 0 0 -15685283.294494629 -130095921.47034836 0 -130095921.47034836 58635948.609006882 0 0 0 0 -114426492.47390747 -54325531.425066948 0 -54325531.425066948 -20486932.764028549 0 0 0 0 -97790211.227355957 -22471940.091416836 0 -22471940.091416836 39938305.63109684 0 0 0 0 -252337303.89631653 71759406.534840107 0 71759406.534840107 25426919.89774704 0 0 0 0 -2516644.3321438339 789757.02866552398 0 789757.02866552398 284938.76106001623 0 0 0 0 39311282.054550171 -155550005.12311172 0 -155550005.12311172 137034870.20537186 0 0 0 0 -7396907.6279373169 -192492405.82921028 0 -192492405.82921028 111510617.4175725 0 0 0 0 24685490.647483826 -171538163.24109364 0 -171538163.24109364 63430013.08864975 0 0 0 0 -413807748.15113068 -125700002.88230228 0 -125700002.88230228 -93589476.98846817 0 0 0 0 20560998.44226265 -72136521.402554512 0 -72136521.402554512 131181493.98674393 0 0 0 0 -335911469.63078308 349445859.79564953 0 349445859.79564953 194028337.86441946 0 0 0 0 -12209348.844906045 -4742624.5598652586 0 -4742624.5598652586 6091229.5525171254 0 0 0 0 -68650144.856689453 26086612.510024071 0 26086612.510024071 -44920950.846838951 0 0 0 0 -9088837.8054088876 -947074.86543569621 0 -947074.86543569621 3220315.8500680709 0 0 0 0 -147428481.17741394 -59480398.649217606 0 -59480398.649217606 -32496419.840776443 0 0 0 0 -389119067.8067627 -113880077.89046764 0 -113880077.89046764 55398142.793235779 0 0 0 0 52752260.657897949 79890101.719618797 0 79890101.719618797 -54554576.422214508 0 0 0 0 -139688463.02392387 8605943.9284694195 0 8605943.9284694195 12270041.119318008 0 0 0 0 -45361116.446918488 -26765237.670657158 0 -26765237.670657158 19503349.220342636 0 0 0 0 -9192842.7271262389 402235.1606549453 0 402235.1606549453 3496978.2418616293 0 0 0 0 26015357.757205963 -15989370.229026318 0 -15989370.229026318 -2903980.6458454132 0 0 0 0 -100068960.36548615 12418070.962161064 0 12418070.962161064 9590825.5602273941 0 0 0 0 -10104148.200980902 2821004.9508629702 0 2821004.9508629702 2588641.5242656525 0 0 0 0 -20408695.668212891 21325945.310705185 0 21325945.310705185 26058490.289731979 0 0 0 0 -14135311.092758179 -20572264.375718594 0 -20572264.375718594 -687748.36344909668 0 0 0 0 -7565075.239384532 10033962.757172585 0 10033962.757172585 -1490730.526058197 0 0 0 0 -13523051.383254314 9607949.6002297401 0 9607949.6002297401 -6041385.9896311397 0 0 0 0 -52394498.92149353 44681939.297161102 0 44681939.297161102 4562793.5963167548 0 0 0 0 -88045883.458015442 41284962.810105801 0 41284962.810105801 5728833.8361127377 0 0 0 0 56818813.505996704 -342545825.08598709 0 -342545825.08598709 348497567.19184303 0 0 0 0 -2499995.0498022186 -357162.06595326029 0 -357162.06595326029 918359.65101784049 0 0 0 0 11236683.798088074 79253697.012840986 0 79253697.012840986 8343618.2413396835 0 0 0 0 -181854395.61680603 -300731661.6229353 0 -300731661.6229353 787474252.98971009 0 0 0 0 -6073062.99584198 141771680.22486973 0 141771680.22486973 327955808.81877375 0 0 0 0 -12561560.257858276 37750395.252394676 0 37750395.252394676 147777093.6968708 0 0 0 0 -31265283.904769897 -60233373.326597214 0 -60233373.326597214 301900752.41297722 0 0 0 0 51321678.772369385 31883432.780385971 0 31883432.780385971 26834974.198791504 0 0 0 0 -9432023.5675106049 32301030.252621412 0 32301030.252621412 36265169.129312515 0 0 0 0 -226919194.95591354 -43672571.690148354 0 -43672571.690148354 -30434707.778967619 0 0 0 0 -302984191.22288704 -237542774.66214895 0 -237542774.66214895 -161093442.24017715 0 0 0 0 -476961156.56028366 -213416724.34464836 0 -213416724.34464836 -67207458.855659008 0 0 0 0 -299908498.19562912 -244688759.11655045 0 -244688759.11655045 -153540903.19452667 0 0 0 0 -312544651.95101166 -67966443.980796814 0 -67966443.980796814 18889072.549875259 0 0 0 0 -41378843.987216949 46836166.978304863 0 46836166.978304863 63628543.337136269 0 0 0 0 -38344415.420608521 -33992980.446954966 0 -33992980.446954966 27798431.070674896 0 0 0 0 -950072.65998791903 -327286.29233437427 0 -327286.29233437427 752429.73124966957 0 0 0 0 -239019794.66849899 -252873743.17690277 0 -252873743.17690277 -179752779.04116058 0 0 0 0 -411787274.70865822 -369056843.49267006 0 -369056843.49267006 -250163214.43319511 0 0 0 0 1825048.2309646606 -8410940.0561962128 0 -8410940.0561962128 43026461.079214096 0 0 0 0 29517968.274770737 -24985614.353883743 0 -24985614.353883743 7437774.5154418945 0 0 0 0 -2309795.833645083 -713394.7508613714 0 -713394.7508613714 2012058.965517987 0 0 0 0 -5278490.8066498572 -3227577.1554932389 0 -3227577.1554932389 3336274.8391847583 0 0 0 0 4319295.1848449707 -46048751.261940002 0 -46048751.261940002 -5638486.5666637421 0 0 0 0 2591615.7164421082 23010594.483074188 0 23010594.483074188 592902.63533365726 0 0 0 0 67890437.001208544 2593165.8600181937 0 2593165.8600181937 -39984369.350517273 0 0 0 0 -1828134.6509017944 -3500403.3911657333 0 -3500403.3911657333 23279220.818344116 0 0 0 0 -72597676.578351974 -17574857.979750156 0 -17574857.979750156 -34089457.044166565 0 0 0 0 -34749905.89025116 42430540.54295063 0 42430540.54295063 -37924547.320137024 0 0 0 0 -37142716.578163147 -29160521.805590153 0 -29160521.805590153 -26516691.738044739 0 0 0 0 -64762975.848203659 14808490.71016407 0 14808490.71016407 -83345841.923700333 0 0 0 0 -192882893.1580658 -674575.61570262909 0 -674575.61570262909 -11458709.918706894 0 0 0 0 -174986725.95252037 -56277253.756998539 0 -56277253.756998539 -222317188.30522156 0 0 0 0 -225635396.07178497 -167384884.46013451 0 -167384884.46013451 -93990683.316949844 0 0 0 0 -109852550.78001785 30322241.747273445 0 30322241.747273445 8785246.0280942917 0 0 0 0 -235346163.24767303 5334911.3447132111 0 5334911.3447132111 37423098.735622406 0 0 0 0 -178059192.63238907 -35778374.376283646 0 -35778374.376283646 17810639.472556114 0 0 0 0 -160825450.93804169 110227496.90341377 0 110227496.90341377 -420925808.22816086 0 0 0 0 -597837996.03762436 -217844749.36919594 0 -217844749.36919594 -68010903.016782761 0 0 0 0 -800807536.56938171 -361051824.72582626 0 -361051824.72582626 56727215.544010162 0 0 0 0 -281854985.80252457 -330826655.8041954 0 -330826655.8041954 -505143229.81079102 0 0 0 0 -110255449.93069077 -16297545.63019371 0 -16297545.63019371 -4423430.4623918533 0 0 0 0 -2566510.1480308734 290899.00847232342 0 290899.00847232342 1647965.1869737171 0 0 0 0 -210845078.10707092 -93084399.716081619 0 -93084399.716081619 4762201.9010772705 0 0 0 0 -135287024.10572052 -69814439.746692657 0 -69814439.746692657 -41521342.233547211 0 0 0 0 -137818167.69882107 -15077464.896080941 0 -15077464.896080941 32496738.265426636 0 0 0 0 -145955146.70118713 -51427695.73651886 0 -51427695.73651886 1166864.7517528534 0 0 0 0 -110406345.08717728 -22393833.107077599 0 -22393833.107077599 28273572.680118561 0 0 0 0 -50657633.512142181 -13295470.576636314 0 -13295470.576636314 921663.75116443634 0 0 0 0 -54342251.594083071 30958629.77757591 0 30958629.77757591 45806547.554304123 0 0 0 0 -27942901.018451691 56405486.633662224 0 56405486.633662224 46721045.509839535 0 0 0 0 -23473159.42287603 7503447.6677643452 0 7503447.6677643452 7888662.292729185 0 0 0 0 -31221961.802463531 -11216006.197796822 0 -11216006.197796822 13700574.107223511 0 0 0 0 -27727761.497803286 7963301.8578626905 0 7963301.8578626905 10375939.543197472 0 0 0 0 29131968.901821136 66765162.546514511 0 66765162.546514511 13505440.921473503 0 0 0 0 -72915638.210321426 -4931281.8451342583 0 -4931281.8451342583 7723349.2308778763 0 0 0 0 -61228324.747581482 -22817432.484481573 0 -22817432.484481573 -1080387.4979372025 0 0 0 0 -46594130.749197006 -6927913.3815975189 0 -6927913.3815975189 8175752.0492343903 0 0 0 0 -59628283.559185028 -25678534.148293018 0 -25678534.148293018 3916269.2665119171 0 0 0 0 -87021408.44131279 -20976398.535593987 0 -20976398.535593987 22774804.223735809 0 0 0 0 -76922454.483428955 -50654743.963749766 0 -50654743.963749766 -32136321.907615662 0 0 0 0 -445686.62489725277 -2843299.2922046017 0 -2843299.2922046017 -82373.702978087473 0 0 0 0 -106644337.61792755 -58967691.622829437 0 -58967691.622829437 -21509205.948661804 0 0 0 0 -8610962.5936325304 -1815146.8486145958 0 -1815146.8486145958 485814.87785860989 0 0 0 0 -110425905.08448505 -57786700.155976772 0 -57786700.155976772 -3241941.1074085236 0 0 0 0 -12681513.626499176 -31472672.814931393 0 -31472672.814931393 49209473.589810371 0 0 0 0 -53695047.732246399 -38278604.062626839 0 -38278604.062626839 -72338713.837330818 0 0 0 0 -101303816.60050964 -19555419.143997908 0 -19555419.143997908 45633599.176689148 0 0 0 0 -77428960.731800079 -33322320.672290802 0 -33322320.672290802 -16542812.342025757 0 0 0 0 -23436140.956019454 6503435.3268371467 0 6503435.3268371467 7785817.8319499195 0 0 0 0 -55261175.110710144 16640422.542263031 0 16640422.542263031 27736252.309484482 0 0 0 0 20228514.04323101 68257139.916122913 0 68257139.916122913 23071006.531648636 0 0 0 0 -190794968.506464 21726974.968523979 0 21726974.968523979 64011471.129751205 0 0 0 0 48902123.567081451 -8487005.9854364395 0 -8487005.9854364395 -12044474.631849289 0 0 0 0 -97924226.922843933 -32746207.020627975 0 -32746207.020627975 8535721.1255375147 0 0 0 0 -66592058.479892731 -16910227.411222935 0 -16910227.411222935 6639224.6268730164 0 0 0 0 -4488130.687477204 351925.1436634236 0 351925.1436634236 497873.69289768813 0 0 0 0 -18213433.411376834 2289392.1879316568 0 2289392.1879316568 23226255.8996315 0 0 0 0 -16432890.466024399 8676725.4009952545 0 8676725.4009952545 2104891.8245477676 0 0 0 0 -12206819.374959946 -4859134.2324838638 0 -4859134.2324838638 25052523.716528893 0 0 0 0 -21754102.264566898 10739125.066538811 0 10739125.066538811 18161700.283423424 0 0 0 0 -9094992.4806623459 3994570.254778862 0 3994570.254778862 1987837.2748470306 0 0 0 0 -15610833.757665405 5680238.245791778 0 5680238.245791778 314201.93160294043 0 0 0 0 -16466900.639801202 5190722.8448808482 0 5190722.8448808482 -1181061.9402382877 0 0 0 0 -18799451.010014534 12368115.824456692 0 12368115.824456692 -2424581.3385374546 0 0 0 0 -10868584.954590797 5490100.1476914883 0 5490100.1476914883 -2482461.08070755 0 0 0 0 -9862785.3849573135 2051519.0667200089 0 2051519.0667200089 -7799496.3267173767 0 0 0 0 -22679391.680535283 2244788.9409771143 0 2244788.9409771143 1879844.0003958407 0 0 0 0 -13838305.342454258 3137866.4000219479 0 3137866.4000219479 -388859.05732106511 0 0 0 0 -8395859.4148217514 1371957.0935221883 0 1371957.0935221883 -1209899.2295375457 0 0 0 0 -17406373.290442348 2070097.7096434832 0 2070097.7096434832 -14864350.809297562 0 0 0 0 -5076493.9970283508 -772183.31925392151 0 -772183.31925392151 -158350.40741539001 0 0 0 0 21232627.402153015 39392357.112706184 0 39392357.112706184 -9573924.7211921215 0 0 0 0 -38027294.160358429 8680490.9596123695 0 8680490.9596123695 17747090.966532707 0 0 0 0 -84366691.89251709 47925320.88470459 0 47925320.88470459 17240820.504155397 0 0 0 0 -14682556.203389499 -17389953.991238941 0 -17389953.991238941 -1557645.8015440623 0 0 0 0 -119452904.32289505 -10867054.798472881 0 -10867054.798472881 6050345.2348222733 0 0 0 0 -93381904.654174805 -19377888.311327934 0 -19377888.311327934 -24865831.711605668 0 0 0 0 -46747702.99029541 -12047898.161819458 0 -12047898.161819458 -5291212.331758976 0 0 0 0 -92213184.519218445 4990178.6663718224 0 4990178.6663718224 14290442.863532066 0 0 0 0 -44997362.63873291 40628372.978292465 0 40628372.978292465 13616363.233070016 0 0 0 0 -21509482.798985869 4157500.2627652464 0 4157500.2627652464 -409289.35619699582 0 0 0 0 -65371899.599042892 2962629.2676696777 0 2962629.2676696777 4610629.9896192551 0 0 0 0 -2416885.9608222246 -10209612.289661407 0 -10209612.289661407 37780643.918274879 0 0 0 0 102338972.38249207 105811753.69653702 0 105811753.69653702 -63021776.443458557 0 0 0 0 -41681845.076927185 4704800.1686916351 0 4704800.1686916351 4011532.1347475052 0 0 0 0 -32991036.490532082 1841466.8803838254 0 1841466.8803838254 5023630.3238016106 0 0 0 0 -97296430.763801575 -20410870.298812151 0 -20410870.298812151 3649048.4431762695 0 0 0 0 -17476124.441537131 -15870458.487453613 0 -15870458.487453613 -1070533.0105617428 0 0 0 0 -19876783.590402752 10705426.02787672 0 10705426.02787672 4273340.857137653 0 0 0 0 -21347638.706970215 13020399.777137756 0 13020399.777137756 7055569.7446727753 0 0 0 0 -42457122.672370285 13284319.631468762 0 13284319.631468762 7092071.6568392571 0 0 0 0 -17359721.357670806 1972920.2943240069 0 1972920.2943240069 3206920.1714204559 0 0 0 0 -41029823.243095398 4849982.5365872383 0 4849982.5365872383 5238769.6446971893 0 0 0 0 -35983782.724330902 6858611.5558006763 0 6858611.5558006763 -1045418.5861554146 0 0 0 0 -41692111.084434509 4789833.2831027508 0 4789833.2831027508 3900379.1276221275 0 0 0 0 -11485301.961358095 -3437057.1062467732 0 -3437057.1062467732 883634.99453390762 0 0 0 0 -40774879.05049324 4592102.379997015 0 4592102.379997015 373144.44164085388 0 0 0 0 -22458979.591905594 -2438813.1473801136 0 -2438813.1473801136 -301410.9989233017 0 0 0 0 -27592448.596622467 182821.59664082527 0 182821.59664082527 6925413.7365288734 0 0 0 0 -21974769.86567995 -3016141.8719907245 0 -3016141.8719907245 1691281.3500850704 0 0 0 0 -19859046.618434906 -3778529.3386445045 0 -3778529.3386445045 38643532.946772575 0 0 0 0 -158623831.55078125 51459957.935775757 0 51459957.935775757 23708352.251737595 0 0 0 0 -29147139.882896423 -6912298.7955160141 0 -6912298.7955160141 3867483.490717411 0 0 0 0 -22682309.531144328 -3176431.4171593292 0 -3176431.4171593292 1357352.2145545408 0 0 0 0 -23662287.303977013 -10653964.05145216 0 -10653964.05145216 -1289390.2219781876 0 0 0 0 -34558975.182794571 -7687080.8986961842 0 -7687080.8986961842 -304148.64191007614 0 0 0 0 -76162666.331243515 -30570352.869965553 0 -30570352.869965553 10467140.941510201 0 0 0 0 -2355679.3741969075 -4916294.3323789928 0 -4916294.3323789928 -1570294.0273190034 0 0 0 0 -33824766.377849579 -14490291.005086184 0 -14490291.005086184 -9793322.1427936554 0 0 0 0 -14408384.621528625 -4821421.4238228798 0 -4821421.4238228798 -719782.87477684021 0 0 0 0 -7754958.491440773 -7642360.5796024799 0 -7642360.5796024799 -1379047.8513631821 0 0 0 0 -122278294.13117599 21835058.409736872 0 21835058.409736872 247349332.94304657 0 0 0 0 -27510064.848720551 -67885436.262065887 0 -67885436.262065887 -17366900.83276391 0 0 0 0 -73221738.638881683 -46580251.327227592 0 -46580251.327227592 -26278602.698302746 0 0 0 0 -37406254.788686275 -665971.39018303156 0 -665971.39018303156 4186864.4437990189 0 0 0 0 -67777479.742649078 -1116228.3748743534 0 -1116228.3748743534 6434868.5568447113 0 0 0 0 -7699147.8801699039 -3021370.3593339883 0 -3021370.3593339883 -728053.33255192265 0 0 0 0 13857307.458927155 33944817.468554258 0 33944817.468554258 27483354.180625916 0 0 0 0 -52812782.354980469 -4720599.9540100098 0 -4720599.9540100098 -4179755.1236152649 0 0 0 0 -46179513.2703228 10011885.864967585 0 10011885.864967585 8117819.7258825302 0 0 0 0 -12811903.382592214 2976669.5848330865 0 2976669.5848330865 4051605.7639261084 0 0 0 0 -52925916.838256836 -663685.08997809887 0 -663685.08997809887 -1418200.1868755817 0 0 0 0 150628547.27202797 -627562143.62316823 0 -627562143.62316823 -874287548.83928299 0 0 0 0 -56464953.433898926 -1436604.0337014198 0 -1436604.0337014198 4030195.8383960724 0 0 0 0 -57569645.352201462 2587061.2826746702 0 2587061.2826746702 -3562151.8854780197 0 0 0 0 -539944704.38427734 -912601859.81139946 0 -912601859.81139946 511197652.17777586 0 0 0 0 -46613965.294498444 -114198421.70049858 0 -114198421.70049858 -673854541.40694141 0 0 0 0 -8250571.013786721 -3630566.4447843786 0 -3630566.4447843786 -1088607.3716790599 0 0 0 0 -46120962.990528107 152416109.30420947 0 152416109.30420947 -72336277.973298073 0 0 0 0 -61787620.976291656 -6234005.7215027809 0 -6234005.7215027809 6735484.2899965048 0 0 0 0 -57650511.359512329 -4535402.4891855717 0 -4535402.4891855717 -4914263.0356127322 0 0 0 0 -56872083.3568573 -1472121.2607514858 0 -1472121.2607514858 6972684.5531005859 0 0 0 0 -60781815.710212708 -4393625.1529600024 0 -4393625.1529600024 6487776.9019600898 0 0 0 0 297550155.31483078 281691809.3319006 0 281691809.3319006 54896725.727313995 0 0 0 0 -18287829.396978173 510129.16869632341 0 510129.16869632341 7786907.8118318729 0 0 0 0 -51945860.25725174 -191379.86026620865 0 -191379.86026620865 2438842.0716617703 0 0 0 0 -63141724.979672432 11561850.792905599 0 11561850.792905599 -7697160.2781879902 0 0 0 0 -129468319.47354889 284255287.13860369 0 284255287.13860369 -8027988.3749504089 0 0 0 0 -279516415.48356628 327480919.19520092 0 327480919.19520092 132111959.45766956 0 0 0 0 -61297675.946199417 -3458994.2564914823 0 -3458994.2564914823 12968827.45103538 0 0 0 0 -71899936.001808167 -7798263.67525208 0 -7798263.67525208 8478940.5733158588 0 0 0 0 -56483679.561599731 2731553.8028721809 0 2731553.8028721809 13057060.986159114 0 0 0 0 -108408819.68063354 1314071.2883725166 0 1314071.2883725166 46337573.094965994 0 0 0 0 -19493211.962985992 64039147.863040924 0 64039147.863040924 -58240237.776864529 0 0 0 0 -34369289.599960327 -5867985.9291436672 0 -5867985.9291436672 15619655.446326494 0 0 0 0 -263596961.71252441 44123531.684382692 0 44123531.684382692 60356166.411725283 0 0 0 0 -82433640.573539734 -187126681.82324255 0 -187126681.82324255 60492687.821692228 0 0 0 0 -376790668.43284607 -249212324.78179836 0 -249212324.78179836 169420776.32697582 0 0 0 0 -438452161.52161026 72123950.35456121 0 72123950.35456121 72218249.557326317 0 0 0 0 -805276.34013136476 -6662.1386123253033 0 -6662.1386123253033 -311138.28442273359 0 0 0 0 -28416464.294288635 29424421.09758985 0 29424421.09758985 -8863931.3247818947 0 0 0 0 -7067983.4836829696 -4178858.5518172868 0 -4178858.5518172868 2774513.944699164 0 0 0 0 -5744732.688128233 -10577541.635638848 0 -10577541.635638848 2909833.8759393692 0 0 0 0 -5007421.9783315659 -4024052.2390674353 0 -4024052.2390674353 -1495895.1735348701 0 0 0 0 -5627739.6280156374 -7875977.0242940485 0 -7875977.0242940485 -3818707.8928937912 0 0 0 0 -1468933.4427773245 -5064174.1438446222 0 -5064174.1438446222 -756049.93485785043 0 0 0 0 -97508789.71077919 43645098.995856404 0 43645098.995856404 -39917821.178453445 0 0 0 0 -20879751.569393158 -85620183.6620121 0 -85620183.6620121 -368573885.92486954 0 0 0 0 218304.17679966614 -712256.41985102929 0 -712256.41985102929 -584081.17152657988 0 0 0 0 -230144832.49209976 44611902.88048923 0 44611902.88048923 -31997923.598582268 0 0 0 0 -11725265.343018532 3122524.7832396142 0 3122524.7832396142 5666686.9754975457 0 0 0 0 -23313450.255760193 3098427.3948640823 0 3098427.3948640823 -28895059.926740646 0 0 0 0 -10560415.377021028 1693786.1441511228 0 1693786.1441511228 5864356.3324677246 0 0 0 0 -78154315.898986816 69047207.114378929 0 69047207.114378929 48001478.583773613 0 0 0 0 -27136609.36498642 -7643462.5941359997 0 -7643462.5941359997 30373113.731851101 0 0 0 0 -27219543.514793418 4490755.9579018131 0 4490755.9579018131 9196165.8276517373 0 0 0 0 96882720.851259232 61236550.158504963 0 61236550.158504963 -29894000.589466095 0 0 0 0 122880662.04683685 -70026980.741230011 0 -70026980.741230011 40514394.920646191 0 0 0 0 132784497.9224205 162690891.62227058 0 162690891.62227058 -174307812.99143028 0 0 0 0 -338651432.63329315 104221810.83112812 0 104221810.83112812 5656983.8872060776 0 0 0 0 -18687321.641307831 -90504010.112196922 0 -90504010.112196922 84364456.274594307 0 0 0 0 -437466564.15164375 -97751654.534440517 0 -97751654.534440517 205714313.19831514 0 0 0 0 -5590192.7994443532 -976845.08939910075 0 -976845.08939910075 944956.04744465789 0 0 0 0 8306268.3865528107 129478604.08184433 0 129478604.08184433 -52876659.604909897 0 0 0 0 26627279.351270676 94882304.512279034 0 94882304.512279034 -13999340.359254837 0 0 0 0 -39721834.606250763 78132533.655997276 0 78132533.655997276 -8602643.8238868713 0 0 0 0 -339304986.70929337 -170088692.70744514 0 -170088692.70744514 -50888057.622869253 0 0 0 0 -2081485.8763173521 -470562.15551065002 0 -470562.15551065002 -362905.09012475191 0 0 0 0 -26506235.20300293 21671707.029340744 0 21671707.029340744 126907422.06099892 0 0 0 0 -123285469.90255737 141303382.62070084 0 141303382.62070084 99597946.516504765 0 0 0 0 -137034315.28834724 191149953.26904917 0 191149953.26904917 19475828.931008339 0 0 0 0 -53983753.791103363 223164500.10188055 0 223164500.10188055 -127104979.67402315 0 0 0 0 -168243658.61421204 -373051501.63251686 0 -373051501.63251686 -249696609.59306717 0 0 0 0 -210361936.46760559 -316733990.59513283 0 -316733990.59513283 -160202572.21808243 0 0 0 0 -1709516.9887877591 -784278.52820872306 0 -784278.52820872306 -85219.866720025893 0 0 0 0 -1059778756.3999939 108240992.94252396 0 108240992.94252396 1232909331.9457569 0 0 0 0 -337866574.51438522 -413043431.89404297 0 -413043431.89404297 -198346052.35854244 0 0 0 0 -57879297.045471191 164308907.03740072 0 164308907.03740072 -138008940.10407829 0 0 0 0 4945034.7606296539 39590820.306516647 0 39590820.306516647 109312638.86166382 0 0 0 0 -59607691.61277771 -247647106.83257866 0 -247647106.83257866 -196378607.99389839 0 0 0 0 -402104035.33684921 99314637.260679245 0 99314637.260679245 182299925.38884163 0 0 0 0 -291159523.60075951 -228173287.79995441 0 -228173287.79995441 13914352.078952789 0 0 0 0 -164384030.9275589 -87007887.372438431 0 -87007887.372438431 170431158.14759827 0 0 0 0 -118140325.94593477 143940839.10195729 0 143940839.10195729 -7881179.8169784546 0 0 0 0 -80575011.190895081 -314727687.63765526 0 -314727687.63765526 -251067227.80026436 0 0 0 0 -715009.18042799272 -537465.15191455325 0 -537465.15191455325 -777086.67795100668 0 0 0 0 19996915.388473511 -39694441.090373993 0 -39694441.090373993 -286288839.45397949 0 0 0 0 -17375843.664428711 73415984.76634407 0 73415984.76634407 -222740031.69104004 0 0 0 0 -14612673.56798172 -49185999.306082249 0 -49185999.306082249 -40920665.382892609 0 0 0 0 -40727107.657554626 -93314153.776174545 0 -93314153.776174545 -41755282.35622406 0 0 0 0 -29717256.359256744 -250875529.73286629 0 -250875529.73286629 63735697.160163879 0 0 0 0 -23230820.80280304 -153359493.77778387 0 -153359493.77778387 39904955.799606323 0 0 0 0 12127488.128623962 -27143712.629582405 0 -27143712.629582405 -25915480.584074497 0 0 0 0 -1679087.9615325928 -59214589.777086258 0 -59214589.777086258 29071533.137525558 0 0 0 0 -51461537.437614441 -35799027.396389008 0 -35799027.396389008 184452516.83908081 0 0 0 0 9850747.242401123 -9183325.985200882 0 -9183325.985200882 66437606.578142166 0 0 0 0 3794880.4418697357 -17353944.296348095 0 -17353944.296348095 -28792761.68157959 0 0 0 0 14655906.541824341 7079947.585521698 0 7079947.585521698 -78018949.266972065 0 0 0 0 -47649453.527673721 24286588.279235005 0 24286588.279235005 -33123621.918976784 0 0 0 0 -7116713.65574646 -14527144.414142609 0 -14527144.414142609 -21246729.002697945 0 0 0 0 -15698607.525806427 -5535649.2533745766 0 -5535649.2533745766 -28688454.082365036 0 0 0 0 -60761411.378570557 116617103.30346537 0 116617103.30346537 45513120.959730625 0 0 0 0 2963107.1570968628 -42870068.698209226 0 -42870068.698209226 7666285.3834486008 0 0 0 0 -32283426.881109238 -112659840.69902468 0 -112659840.69902468 51248587.51788044 0 0 0 0 13111257.797363281 -33670400.223953247 0 -33670400.223953247 -38297145.462043762 0 0 0 0 -49916493.046491221 -12196937.187235113 0 -12196937.187235113 2833776.5894427099 0 0 0 0 -11744274.030323304 -14108989.504388807 0 -14108989.504388807 1024802.2279494882 0 0 0 0 -91330306.389778137 -172364919.66366005 0 -172364919.66366005 246312675.35780811 0 0 0 0 37149434.097709656 -195144678.63120651 0 -195144678.63120651 83246878.040412903 0 0 0 0 -43348987.234680176 -33604768.489145756 0 -33604768.489145756 58608067.327743053 0 0 0 0 -20028168.873623751 -13467515.751038808 0 -13467515.751038808 -1822833.4433424156 0 0 0 0 -23194248.866439819 -39555267.61075449 0 -39555267.61075449 20890825.196822166 0 0 0 0 -9441682.455947876 -14526477.547185898 0 -14526477.547185898 2824416.3481181264 0 0 0 0 -27051634.424607947 -21772358.696961086 0 -21772358.696961086 -1741926.3465747861 0 0 0 0 -214251624.87438774 9170676.949054718 0 9170676.949054718 471691982.19152069 0 0 0 0 -5071025.8090820312 -18098036.687607646 0 -18098036.687607646 16199472.088972569 0 0 0 0 -32848726.703221492 -6114452.0318744257 0 -6114452.0318744257 1548775.0300975121 0 0 0 0 83602903.417266846 -1934719.3280830383 0 -1934719.3280830383 182776707.39549828 0 0 0 0 -34256512.568458557 -55020246.987604141 0 -55020246.987604141 227899302.72298336 0 0 0 0 -7791235.4130356908 -20345707.390909724 0 -20345707.390909724 -3593264.8461516909 0 0 0 0 -3256901.8907012939 -9230140.5843362808 0 -9230140.5843362808 2665019.5258005857 0 0 0 0 -15823681.207855225 -12976993.582186401 0 -12976993.582186401 4244854.719107151 0 0 0 0 -9450674.0000358596 -7905200.7611448476 0 -7905200.7611448476 -1063298.0282045181 0 0 0 0 -26097356.538859919 -13971671.252033673 0 -13971671.252033673 1993647.3929983429 0 0 0 0 -55243415.863664389 107876933.40281016 0 107876933.40281016 191358113.8515625 0 0 0 0 -10968196.069038391 -10065811.084451914 0 -10065811.084451914 -374444.0237300396 0 0 0 0 -9276267.3325805664 -7987339.6880950332 0 -7987339.6880950332 -2368347.1509611607 0 0 0 0 -15955251.712684631 -7629164.3468233347 0 -7629164.3468233347 -1331839.877833128 0 0 0 0 -13423838.899761956 -13218540.131674312 0 -13218540.131674312 -1985952.297764045 0 0 0 0 -11242692.082366943 -51220658.912299633 0 -51220658.912299633 10732127.921976566 0 0 0 0 -20474178.295589447 -29168242.016643167 0 -29168242.016643167 2710374.0152254105 0 0 0 0 -14376487.427612305 -31979292.405746937 0 -31979292.405746937 21305053.058868408 0 0 0 0 22080477.315048218 -59403035.374670744 0 -59403035.374670744 -188984.46233463287 0 0 0 0 -45033071.975159645 -20643053.496301264 0 -20643053.496301264 6753655.3664522171 0 0 0 0 -48557456.329864502 -53642155.963485241 0 -53642155.963485241 10991293.708091736 0 0 0 0 -51810437.161224365 -49895123.531543732 0 -49895123.531543732 1279805.0622544289 0 0 0 0 -124060274.22492981 810931.07011222839 0 810931.07011222839 33545864.732236862 0 0 0 0 -136962789.68203735 -23009035.303180218 0 -23009035.303180218 19354107.614525795 0 0 0 0 -95007659.12802124 -9099562.1447901726 0 -9099562.1447901726 13287003.509948134 0 0 0 0 -73507413.472625732 26807893.529238701 0 26807893.529238701 10557316.106245995 0 0 0 0 -15258559.385001816 -3568425.412907741 0 -3568425.412907741 3714209.1978665898 0 0 0 0 -18542272.893694527 -2905060.8403821271 0 -2905060.8403821271 1713117.4757999214 0 0 0 0 -15056359.084724426 -3526605.4620522261 0 -3526605.4620522261 3163219.5473869145 0 0 0 0 -27635561.864730835 -3765871.9394378662 0 -3765871.9394378662 -1626503.0783004761 0 0 0 0 -9915412.0692331791 -47492720.037072718 0 -47492720.037072718 -8424964.9641399384 0 0 0 0 -12115770.283099256 -8668447.3483867906 0 -8668447.3483867906 1795837.2542797476 0 0 0 0 -50940877.979682922 -2891719.8744444847 0 -2891719.8744444847 -847316.63156569004 0 0 0 0 1452906.6837793514 -3065242.9179700175 0 -3065242.9179700175 -1103163.3876893872 0 0 0 0 -21156706.769347131 -36133655.470532268 0 -36133655.470532268 13677874.650803328 0 0 0 0 -2714124.4732458778 -442938.71524034534 0 -442938.71524034534 1001254.6301236781 0 0 0 0 -19721047.455161214 24175948.230871908 0 24175948.230871908 -10717771.860347748 0 0 0 0 -22387722.416919708 15836897.245720148 0 15836897.245720148 -18850403.961983919 0 0 0 0 -48589072.468406677 30981845.776556492 0 30981845.776556492 33725277.540701866 0 0 0 0 -71119865.655475616 7261379.3219307661 0 7261379.3219307661 5113273.5601348877 0 0 0 0 -26480230.613627434 -4168704.6848706976 0 -4168704.6848706976 5353503.6978821754 0 0 0 0 -5981990.0634123851 1356481.8372913785 0 1356481.8372913785 3758280.9651924307 0 0 0 0 -28510407.317501068 -18922030.32951057 0 -18922030.32951057 -29162330.368767858 0 0 0 0 47569515.747257233 -57886076.927289724 0 -57886076.927289724 -46105357.101704597 0 0 0 0 -13362033.863314217 -4141094.2915519234 0 -4141094.2915519234 541505.7340444742 0 0 0 0 -19004550.342502594 -4580542.4191868305 0 -4580542.4191868305 -21516297.50808084 0 0 0 0 -17675938.186748862 -5705135.6343353465 0 -5705135.6343353465 1790645.8719202536 0 0 0 0 -53517309.775966644 -16451273.564951897 0 -16451273.564951897 16492179.319836259 0 0 0 0 9668380.2726135254 -19518669.369423628 0 -19518669.369423628 -18850866.618618071 0 0 0 0 -1785206.5208543651 -4048050.31930093 0 -4048050.31930093 1022327.47326116 0 0 0 0 -22784618.502791066 -5243852.7299176175 0 -5243852.7299176175 638949.94339434756 0 0 0 0 -14567326.822698727 -3723972.4827709757 0 -3723972.4827709757 657710.70939244493 0 0 0 0 -23768176.580474854 -4872991.3575617671 0 -4872991.3575617671 1652518.7440917492 0 0 0 0 -20355120.402191162 -9730188.9462485313 0 -9730188.9462485313 2729384.3997186422 0 0 0 0 -20401734.795684814 -2727359.7460438013 0 -2727359.7460438013 1466997.8686807752 0 0 0 0 -16724755.52355957 -4502656.9788060784 0 -4502656.9788060784 -1093364.6564767361 0 0 0 0 -18766823.272627607 -2605992.237332914 0 -2605992.237332914 1864533.4542460707 0 0 0 0 -19228103.952003479 -5797618.133631289 0 -5797618.133631289 -339475.20595812798 0 0 0 0 -16247402.378410339 -4597877.8589099646 0 -4597877.8589099646 -2580391.2914001942 0 0 0 0 -12523731.871512812 -3623955.3697745427 0 -3623955.3697745427 -1056568.9823936103 0 0 0 0 -31999724.619334221 -4597282.9704003446 0 -4597282.9704003446 2653894.9308886528 0 0 0 0 -15881026.986086391 -4395563.5482507236 0 -4395563.5482507236 -1510817.5296828635 0 0 0 0 -22868290.276596069 610293.49718761444 0 610293.49718761444 801784.37480711937 0 0 0 0 -28322299.84844923 -12933030.34096843 0 -12933030.34096843 -6363782.1643314362 0 0 0 0 -18479749.719470289 -272064.71857647598 0 -272064.71857647598 4309515.5073727733 0 0 0 0 -32388686.4526999 -6652831.2431813255 0 -6652831.2431813255 1328421.6707930565 0 0 0 0 -27460859.736618042 -6141005.3391070366 0 -6141005.3391070366 -297572.98753643036 0 0 0 0 -25941937.200088501 -7140574.715947628 0 -7140574.715947628 338627.47204518318 0 0 0 0 -24700756.617759705 -4821472.2544353008 0 -4821472.2544353008 -1366651.166742444 0 0 0 0 -21664708.780330658 -8491632.0960549116 0 -8491632.0960549116 -376697.4319190979 0 0 0 0 -24665189.47555542 -6021343.6887390614 0 -6021343.6887390614 2358384.8081223965 0 0 0 0 -32529979.661613464 4216639.5078470707 0 4216639.5078470707 2357366.5986716151 0 0 0 0 -22820574.712478638 -7854570.6827979088 0 -7854570.6827979088 -715855.97369813919 0 0 0 0 -20409275.819868796 -3753404.6900995485 0 -3753404.6900995485 108131.10559123848 0 0 0 0 -30623726.518096924 -387976.44619643688 0 -387976.44619643688 -1453571.1422195435 0 0 0 0 -15252630.56145926 -8630880.9398503527 0 -8630880.9398503527 3979369.8602734022 0 0 0 0 4978369.12555933 -5382183.2053548284 0 -5382183.2053548284 -1410656.0387297478 0 0 0 0 -8328074.0554695129 -46003648.886814594 0 -46003648.886814594 22319428.666472435 0 0 0 0 29116113.544029236 -11041769.269869804 0 -11041769.269869804 -4827723.1539747119 0 0 0 0 740977.78269577026 -31893827.361806631 0 -31893827.361806631 -4150716.9972467422 0 0 0 0 -2011103.6689796448 -18061284.742095947 0 -18061284.742095947 24463911.344528198 0 0 0 0 32174670.406888962 -8446376.6489377022 0 -8446376.6489377022 7676875.3622674942 0 0 0 0 -4947780.4095502263 -795858.38994701952 0 -795858.38994701952 320411.80498442613 0 0 0 0 -14861956.565536395 -7918887.2850910313 0 -7918887.2850910313 -1579604.6663495717 0 0 0 0 -117547655.49967003 6033336.5741035938 0 6033336.5741035938 -4483113.8540048599 0 0 0 0 6046658.0317687988 8690355.550839901 0 8690355.550839901 10819305.057229996 0 0 0 0 63409244.964298248 -29718543.133794546 0 -29718543.133794546 -24927961.404370785 0 0 0 0 537583.91715471819 -13884457.040706046 0 -13884457.040706046 574840.25618037675 0 0 0 0 -6584496.4427740723 -8260141.144583391 0 -8260141.144583391 571543.346927098 0 0 0 0 -97394776.463668823 71623176.52921772 0 71623176.52921772 100760206.83830261 0 0 0 0 25168955.276409149 -23667174.357702732 0 -23667174.357702732 -29174429.181311101 0 0 0 0 -16722826.578151226 31737386.192726612 0 31737386.192726612 -8593873.0980653763 0 0 0 0 -6694038.54322052 -136883919.83411062 0 -136883919.83411062 -161110131.93126678 0 0 0 0 -20017819.051235199 -28101070.246338367 0 -28101070.246338367 -3758037.4780578613 0 0 0 0 33222975.011447906 -45484213.532124996 0 -45484213.532124996 -23844094.222213268 0 0 0 0 1033469.7037811279 -14559790.551303864 0 -14559790.551303864 -19924814.503181756 0 0 0 0 -6980322.2661305666 -17240001.79769811 0 -17240001.79769811 4262859.3230965137 0 0 0 0 1586895.7412399165 -858110.64868931007 0 -858110.64868931007 -281274.91906424146 0 0 0 0 -37461208.413866043 12536122.009349823 0 12536122.009349823 -4216108.7088534832 0 0 0 0 -12989552.512222238 -8581329.4094682969 0 -8581329.4094682969 -333311.30073787039 0 0 0 0 -20834766.619247437 -61277547.605399549 0 -61277547.605399549 -107635812.98062408 0 0 0 0 -6396042.9693455696 -28468783.431998502 0 -28468783.431998502 -40496655.527266502 0 0 0 0 -11386830.23216629 -16252440.237448514 0 -16252440.237448514 -18465788.973785758 0 0 0 0 -29162073.598220825 -44599648.105850697 0 -44599648.105850697 -32987875.835834742 0 0 0 0 -68011196.372387171 -43388634.450394213 0 -43388634.450394213 2242611.6199455261 0 0 0 0 -65722143.114923716 -61308972.968357176 0 -61308972.968357176 2476576.4905643463 0 0 0 0 -128749657.92671204 -74422904.680578947 0 -74422904.680578947 17219457.007843971 0 0 0 0 -38385627.752544403 -30315609.629687309 0 -30315609.629687309 7953692.2654948235 0 0 0 0 -87561213.960193634 -33626401.279944897 0 -33626401.279944897 18940854.069394588 0 0 0 0 -34093756.861400604 -38651146.845582962 0 -38651146.845582962 15727992.899405479 0 0 0 0 -78218.520080566406 -20462063.871855259 0 -20462063.871855259 3932092.5134906769 0 0 0 0 -98399076.795665741 37326045.309218884 0 37326045.309218884 -547843.85432267189 0 0 0 0 -85462202.163357735 -40724438.104272366 0 -40724438.104272366 42606957.396397591 0 0 0 0 -142742898.69446182 -29000162.618430614 0 -29000162.618430614 60187528.155322075 0 0 0 0 -143890689.32727814 -38191870.845899582 0 -38191870.845899582 47674950.897395134 0 0 0 0 -138828865.95619774 -56020645.223792791 0 -56020645.223792791 65991764.22608757 0 0 0 0 -129203230.42769623 -58860416.621233463 0 -58860416.621233463 54205207.758319855 0 0 0 0 -137562918.20579147 -22188959.179568768 0 -22188959.179568768 95530632.142787933 0 0 0 0 -36124608.838169098 -4684712.9804778099 0 -4684712.9804778099 53164057.130149841 0 0 0 0 -38659147.427142084 57637921.298811764 0 57637921.298811764 52618362.079009056 0 0 0 0 -353025022.50218582 -52784250.132378101 0 -52784250.132378101 123116593.92249823 0 0 0 0 -186590521.05679226 -52960472.250952363 0 -52960472.250952363 76751663.989784241 0 0 0 0 -143282848.10636997 56772733.58488977 0 56772733.58488977 172058476.82116508 0 0 0 0 -143367509.90823364 -66281416.482952118 0 -66281416.482952118 47939340.97662884 0 0 0 0 -141399325.23321533 -61562752.253571987 0 -61562752.253571987 56943372.539934158 0 0 0 0 -22671150.168689728 82290758.545035839 0 82290758.545035839 22173268.968590736 0 0 0 0 -5951587.663848877 57069131.943086147 0 57069131.943086147 36713525.608417511 0 0 0 0 -25153544.305122375 77121880.497042656 0 77121880.497042656 69455013.725482941 0 0 0 0 254934787.9299736 191709339.9051137 0 191709339.9051137 61343697.854869843 0 0 0 0 -5110921.0916292733 119462.60605261661 0 119462.60605261661 1763453.9429853857 0 0 0 0 237094802.26953125 -127351984.79341853 0 -127351984.79341853 -325086244.61570096 0 0 0 0 -167129954.33524704 201174190.55656672 0 201174190.55656672 273717715.35273123 0 0 0 0 -479790581.58689117 -1297331.0445036888 0 -1297331.0445036888 239686741.41586691 0 0 0 0 -240643572.94480896 -288867692.9840253 0 -288867692.9840253 -265804383.82868251 0 0 0 0 -234199041.75226212 -118677797.28057432 0 -118677797.28057432 -146135783.06622791 0 0 0 0 -112301322.79796219 -109042456.76585221 0 -109042456.76585221 -46430480.430645704 0 0 0 0 -184220066.01180649 -89379803.273552656 0 -89379803.273552656 47468674.145065911 0 0 0 0 -171336159.63457108 -80366641.403889656 0 -80366641.403889656 34431685.10649395 0 0 0 0 -335267697.16146088 -151781494.73082995 0 -151781494.73082995 10981646.302075148 0 0 0 0 -325722109.72079086 -181225154.50731221 0 -181225154.50731221 -138086973.19251576 0 0 0 0 -448272145.65668869 6138610.4299796224 0 6138610.4299796224 -126882574.47122896 0 0 0 0 -112941756.98380661 -139909492.49378836 0 -139909492.49378836 -132369277.65211487 0 0 0 0 -81247868.432384491 -84009572.855884314 0 -84009572.855884314 -45139306.983703002 0 0 0 0 -177863480.55542755 350003902.45037508 0 350003902.45037508 -337097986.42989528 0 0 0 0 -58823458.114974976 -110604605.90203166 0 -110604605.90203166 -239216669.65015191 0 0 0 0 -2078985.2556203976 853708.63596277731 0 853708.63596277731 705970.39471881988 0 0 0 0 -421788400.06641316 595832493.37320733 0 595832493.37320733 609108709.0917449 0 0 0 0 -218298367.11279297 23176568.11844635 0 23176568.11844635 30347142.592241764 0 0 0 0 -2100986.7875158768 -2412552.4735399038 0 -2412552.4735399038 742613.98347748397 0 0 0 0 -70242160.299512863 57018586.907740593 0 57018586.907740593 -127710868.76124477 0 0 0 0 -228047217.31064892 43200182.315079212 0 43200182.315079212 11321574.360823154 0 0 0 0 -88658045.178779602 78964465.027030706 0 78964465.027030706 -13135742.845806122 0 0 0 0 32389837.936229706 -94445453.269129798 0 -94445453.269129798 -194495985.4041698 0 0 0 0 -269441175.79296875 -82797127.407938957 0 -82797127.407938957 -170649843.28015423 0 0 0 0 -1184225.6390253352 -1376599.2441378757 0 -1376599.2441378757 288542.14946447097 0 0 0 0 -423373916.09391403 -112684662.55998117 0 -112684662.55998117 -40476064.790397167 0 0 0 0 -283382961.06308746 -188110561.96548307 0 -188110561.96548307 -1095304409.5737548 0 0 0 0 -250928764.90895081 -6350192.1522903442 0 -6350192.1522903442 25090759.87963438 0 0 0 0 -179888330.35102844 60381123.776146889 0 60381123.776146889 -88347521.839845657 0 0 0 0 -108500666.6078949 102875577.56217909 0 102875577.56217909 -69984659.262460709 0 0 0 0 -140919330.60996056 -49068013.016604185 0 -49068013.016604185 -180257104.5690012 0 0 0 0 -180535367.70249557 106033027.42034388 0 106033027.42034388 -297772053.7634182 0 0 0 0 -469046768.35869694 254354023.84715891 0 254354023.84715891 -166684169.76723957 0 0 0 0 -184992442.44927597 84300634.19845295 0 84300634.19845295 -73650560.0454216 0 0 0 0 -142700850.57093334 153363349.96899986 0 153363349.96899986 -98943552.600169182 0 0 0 0 -103561457.5515995 42295956.11203289 0 42295956.11203289 -127942732.76302242 0 0 0 0 -97632519.892452478 195132932.17276576 0 195132932.17276576 23165715.935182571 0 0 0 0 -265793985.09783077 91843609.824728847 0 91843609.824728847 -3421275.9290518761 0 0 0 0 -1237063.03048837 -1355381.4081641305 0 -1355381.4081641305 736061.24561917968 0 0 0 0 -236438230.18834209 195587264.97771692 0 195587264.97771692 -25401230.602995872 0 0 0 0 -166239548.04751205 76421926.112278938 0 76421926.112278938 -92140621.824099541 0 0 0 0 -161833471.39213753 -1435358.1971688271 0 -1435358.1971688271 -30244333.461483479 0 0 0 0 -136448958.27358007 26857623.329201937 0 26857623.329201937 -6008159.9199094772 0 0 0 0 -145730977.11354876 15900630.268003702 0 15900630.268003702 -2466286.609910965 0 0 0 0 -14333390.831175804 -8437313.5688934326 0 -8437313.5688934326 -31497132.20909977 0 0 0 0 -16251197.69279635 -19716321.391262233 0 -19716321.391262233 380298.8654088974 0 0 0 0 14946122.391423225 14760989.793386459 0 14760989.793386459 -21644301.15688324 0 0 0 0 -14747513.168113708 -6189979.0798649788 0 -6189979.0798649788 -4992400.3001785278 0 0 0 0 -4411688.9199159835 -6075066.5261629457 0 -6075066.5261629457 -1231909.8693334968 0 0 0 0 -17167714.594345093 -5955988.9483993053 0 -5955988.9483993053 701136.0892906189 0 0 0 0 22869700.785363197 -16745296.763616323 0 -16745296.763616323 -10379708.045423269 0 0 0 0 -6540353.7754112054 -1507317.5915996272 0 -1507317.5915996272 1640194.7694385834 0 0 0 0 -24980418.756893158 -33593926.423714638 0 -33593926.423714638 30804690.127146006 0 0 0 0 -17432523.292953491 -680214.81353807449 0 -680214.81353807449 1922129.6346817017 0 0 0 0 -16192213.893953323 -1709531.6246864796 0 -1709531.6246864796 -1818655.6132850647 0 0 0 0 -18912780.707456589 -8789531.0385656357 0 -8789531.0385656357 -3648183.6116123199 0 0 0 0 103562.82025702298 -201230.60922279279 0 -201230.60922279279 -82415.166479273234 0 0 0 0 -7899589.2552610245 -3275839.8031551633 0 -3275839.8031551633 2345550.3676243867 0 0 0 0 -7829244.4493574128 -5702992.4759176923 0 -5702992.4759176923 1999384.0290732833 0 0 0 0 -12876537.442697525 -4816149.9191024303 0 -4816149.9191024303 5637127.628333807 0 0 0 0 -2354757.3011798859 402285.04698491096 0 402285.04698491096 7783347.3025610447 0 0 0 0 3540498.2101154327 119917.17291170359 0 119917.17291170359 -2768943.5485430658 0 0 0 0 5220965.0200614929 -4777506.148085773 0 -4777506.148085773 -24738079.811239734 0 0 0 0 -25872566.042617798 -11566960.797764093 0 -11566960.797764093 10185435.768167138 0 0 0 0 -5098625.8855609354 821842.79898612946 0 821842.79898612946 1508201.639563472 0 0 0 0 15741251.077613831 30886997.894399941 0 30886997.894399941 -46714817.72074914 0 0 0 0 -120274105.08030105 11904171.653504163 0 11904171.653504163 43348849.503492355 0 0 0 0 -1737612.9645328522 7743555.3355488777 0 7743555.3355488777 -15990119.118130863 0 0 0 0 
</DataArray>
<DataArray type="Float64" Name="cross_section_updated" format="ascii">
1 1 0.050158702391767007 1 1 1 1 0.050159233258209264 1 1 1 1 1 1 1 1 1 1 1 1 0.049669126250086272 1 1 1 1 0.049668703150739305 1 1 1 1 1 1 1 0.049100854233827686 1 1 1 1 1 1 1 1 0.04759569685475773 1 1 1 1 1 1 1 1 1 1 1 0.046907188625605785 0.049789887301061021 1 1 1 1 1 1 1 1 0.048323228786520608 1 1 1 1 1 1 1 1 1 1 1 1 1 1 1 1 1 1 1 1 1 1 0.048817933799514671 1 1 1 1 1 1 1 1 1 1 1 0.047860479699782923 1 1 1 0.049075625908709508 1 1 1 1 1 1 1 1 1 1 1 1 1 1 1 1 1 1 1 1 1 1 1 1 1 1 1 1 1 1 1 1 1 1 1 1 1 1 1 1 1 1 1 1 1 0.050123689561810396 1 0.05083593526397541 1 1 1 1 1 1 1 1 1 1 1 1 1 1 1 1 1 1 1 1 1 1 1 1 1 1 0.04421823480385953 1 1 0.049214214749544974 1 0.049302082074148705 1 1 1 1 1 1 1 1 1 1 1 1 1 1 0.055804404128452854 1 0.04585592165376623 1 1 1 1 1 1 1 0.044168439290694486 1 0.052591251307130528 1 1 1 1 1 1 0.050330333720047006 1 1 0.044007928884322221 1 1 1 1 1 1 0.047975879985144021 0.034093309234301539 1 1 0.050319289142871065 1 0.039238627914177343 1 0.049574320470334693 0.04278060981478133 1 1 1 0.037110565627343106 1 1 1 1 1 1 1 1 1 1 1 1 1 0.034343707432021996 1 1 1 1 1 1 1 0.034991001245200534 1 1 1 1 1 1 1 0.036577053711832147 1 1 1 1 0.049088297086656713 1 1 1 1 1 1 0.050291254768882833 1 1 1 0.047541925702491036 1 1 1 1 1 1 1 0.046533545858494521 1 1 1 1 1 1 0.052458482594647568 1 1 1 1 1 1 0.045092131865466935 1 1 1 1 1 1 1 0.051570798267746888 1 1 1 1 1 1 1 1 1 1 1 1 1 1 1 1 1 1 1 1 1 0.054827280514540049 0.050224014794328378 1 1 1 1 1 0.025158642336806005 1 1 1 1 1 1 1 0.049230768470451769 1 0.025986095621955016 1 1 1 0.042597232743186275 1 1 1 0.047933406390533922 1 0.050028599361396052 1 1 1 1 1 1 1 0.031334873676754652 1 1 1 1 1 1 1 0.039732724702797262 1 1 1 0.049982611318275867 1 1 1 1 1 1 1 1 1 1 1 1 1 1 1 1 1 1 1 1 1 1 1 1 1 1 1 1 1 1 1 1 0.031262804261861218 1 1 1 1 1 1 1 1 1 1 1 1 1 1 1 1 1 1 1 1 1 1 1 1 1 1 1 1 1 1 1 1 0.051589361479331491 1 1 1 1 1 1 1 1 1 1 1 1 1 1 1 1 1 1 1 1 0.049871055640098048 1 1 1 1 1 1 1 0.048397891371088353 1 1 1 1 1 0.045850170343194253 1 1 0.049616686414329592 1 0.034028867634934894 1 1 1 1 0.030347427023684738 1 1 0.027435862343417786 1 1 1 1 1 1 0.049734038863098254 1 1 1 1 1 1 1 1 1 1 1 1 1 1 1 1 1 1 1 0.036124602935171314 1 1 1 1 1 1 1 1 1 1 1 0.051628003301340403 0.028654675969776854 1 1 1 1 1 1 1 1 1 1 1 1 1 1 1 1 1 1 1 1 1 0.048187201084640897 1 0.049189618142662185 0.043899736282383771 1 1 0.048080368596113227 1 1 1 1 1 1 1 1 1 1 1 1 1 0.039127027106506951 1 1 1 1 1 1 1 0.044825116260669123 0.044760691024883774 1 1 1 1 1 1 1 1 0.047550060008348431 0.053727260300263743 1 1 1 0.043087900344437588 1 1 1 1 1 1 1 1 1 1 1 1 1 1 1 1 1 1 1 1 1 1 1 1 1 1 1 1 1 1 1 1 1 1 1 0.047377677325145431 1 1 0.048717341530562161 1 1 1 1 0.048368762897751494 1 1 1 0.044690540158758577 1 1 1 0.047897610006508808 1 1 0.046786610448306704 1 1 1 1 1 1 1 1 1 1 1 1 1 1 1 1 1 1 1 1 1 0.045047470944266088 1 1 1 0.043705001884175122 1 1 1 1 1 0.047046853102583414 1 1 1 1 1 1 0.04690341556187496 1 1 1 1 1 1 1 1 1 1 1 1 1 1 1 1 1 1 0.048251185688692536 1 1 1 1 1 1 1 1 1 1 1 1 1 1 1 1 1 1 1 1 1 0.049651421367189336 1 1 1 1 1 1 1 1 1 1 1 1 1 1 1 0.051331148935139181 1 1 1 1 1 1 1 1 1 1 1 1 1 1 1 1 1 1 0.049356977606319213 1 1 1 1 1 1 1 0.04932191961252072 1 1 1 1 1 1 1 1 1 1 1 1 1 1 1 1 1 1 1 1 1 0.04976020811171597 1 1 1 1 1 1 1 1 1 0.049447815283420175 1 1 1 1 1 1 1 1 0.032438263058746003 1 1 1 1 1 1 1 1 1 1 1 1 1 1 1 1 1 1 1 0.058942468030071624 1 1 1 1 1 0.03455698425189304 1 1 1 0.049955026472181807 1 1 1 1 1 1 0.049646935576666412 1 1 1 1 1 1 1 1 1 1 0.05121069142725837 1 1 1 1 1 1 1 1 1 1 1 1 0.034520435315370697 1 0.053869067128774803 1 1 1 1 1 1 1 0.059544482751579489 1 0.037478699793846409 1 1 1 1 1 1 1 1 1 1 1 1 1 1 1 1 1 1 1 1 1 1 1 1 1 1 1 1 1 1 1 1 1 1 1 1 1 1 1 1 1 1 1 1 1 0.039878170376829891 0.049718105788770284 1 1 0.050946277895803839 1 1 1 1 1 1 1 1 1 1 1 1 1 1 1 1 0.052718792520387366 1 1 1 1 0.051206030316315418 1 1 0.050001290567307906 1 1 1 1 1 1 0.052003863281243054 1 0.052455889639881473 1 1 0.050230438090896903 1 1 1 1 1 1 1 1 1 1 0.038798601052891915 1 1 1 1 1 0.051381445978733793 0.049654202387812651 1 1 1 1 0.047412518954831728 1 1 0.046843775645431476 1 0.039685389346402207 1 1 1 1 1 0.041718609843527377 1 1 0.049902310626184151 1 1 1 1 1 1 1 1 1 1 1 1 0.049774860245830839 1 1 1 1 1 1 1 1 1 1 1 1 1 1 1 0.045147266725566265 1 0.049996114060502986 1 0.046709420964329937 0.051994603631228202 1 0.042184764479330464 1 1 0.049993755095048033 1 1 1 1 1 1 0.030329682354630339 1 0.050062370268071033 1 1 0.032550825735859032 1 1 1 0.051734100494600109 1 1 0.049993301205813585 1 1 1 1 1 0.039921806020092751 1 1 0.041624657461851761 1 1 1 1 1 0.049953850156570764 1 0.049106132887207554 1 1 0.050430164147793249 1 1 0.035795263279293596 1 1 1 1 1 1 1 1 0.036186370139182931 1 1 1 1 1 1 1 1 1 1 0.036899196020275499 1 1 1 1 0.049301055440406819 1 1 0.047551995291448643 1 1 1 1 1 0.055108807735345454 1 1 1 1 1 0.050013097849864595 1 0.049836729522091353 1 1 1 1 1 1 0.050180836880300707 1 1 1 1 1 1 1 1 0.049423272595861843 0.047442713395908567 0.037848343399654642 1 1 1 1 0.0485412752049472 1 0.044942702365946753 1 1 1 0.055700366027003657 0.049996009115986555 1 1 1 0.050927889216603545 1 1 1 0.052142375209418723 1 0.047975180855819484 1 0.048656522980893874 0.055690655433416641 1 0.049983546486147126 1 1 1 1 0.047209735721490467 1 1 1 0.04991826242795968 1 0.036946837185627877 1 0.041816346100638377 1 1 1 1 1 1 1 0.050039889867769728 1 1 1 1 0.044255019430080623 1 1 1 1 1 1 1 1 0.049991337865038621 1 0.050123760607383078 0.049700003017061761 1 1 1 0.042035441732207343 1 1 1 1 0.040996088954019405 0.049672826399194576 1 1 0.046126326172951697 0.048733815797489609 1 1 1 1 1 0.049556325313545167 1 1 1 1 1 1 1 1 0.048149740545904485 1 0.045181677100463946 1 1 1 1 1 1 1 1 1 1 1 1 1 1 1 1 1 0.048781080524986642 1 1 1 1 1 1 1 1 1 1 1 1 1 1 1 1 1 1 1 1 1 1 1 1 1 0.04989950927927999 1 0.047478815142769047 1 1 1 1 1 0.05002113360923803 0.049974117811801888 1 1 1 1 0.053871767408429298 0.041900607603938544 1 0.042501125385760945 1 1 0.04300585940210036 1 1 0.042509747172128319 1 1 1 1 0.049656864361676413 0.036520654755548609 1 1 1 1 1 1 1 1 0.047652564919656193 1 1 0.044422159200905351 1 1 1 0.044229898825417772 1 1 0.047212783376587089 1 1 1 1 1 1 0.050152525711325918 1 1 1 1 1 1 0.042704547474576485 1 1 1 1 1 0.050439651727006589 1 1 0.049568545793553957 0.040559283338412355 1 1 0.051118570340525991 1 1 0.049984325510450567 1 1 1 1 1 1 1 1 1 1 1 1 0.039262838207127906 1 0.051001463901254235 1 1 0.050726628481639724 1 1 1 1 1 1 0.050066003743554216 1 1 1 0.04917543604822449 0.040648537950854213 0.050002990687263889 1 1 1 0.053067761932734658 0.047707697860770039 1 0.049592961113153519 0.045635000394743719 1 1 0.048640211346313557 1 1 0.04881711609730624 1 0.047679729303014215 1 0.048877874037990439 1 1 1 0.05166720731821741 0.049352372883707064 1 1 0.051464706528790594 0.04814922395838811 0.048765543474211206 0.049596347050596762 1 1 1 0.048492317052328718 0.05102850283872986 1 1 0.049265061623946116 0.045161510198051653 0.051025572689822447 1 0.047101114628723198 0.050603073391182203 1 1 0.051627822270853538 1 0.050483561898588034 0.048765033997423164 1 0.051039268648431911 1 1 0.046772046959974153 1 0.044743745277943045 0.047506508762885744 1 1 1 1 0.049008672989524119 0.040764764219027597 1 1 0.050049076477525246 1 1 1 0.049860469668922214 1 1 1 1 1 1 1 1 1 1 1 1 1 1 1 1 1 1 1 1 1 1 1 1 1 1 1 1 1 1 1 1 1 1 1 1 1 1 1 1 1 1 1 1 1 1 1 1 1 1 1 1 1 1 1 1 1 1 0.042540229148040072 1 0.047570388148328445 1 1 1 1 1 1 1 1 1 1 1 1 1 1 0.043051417208200063 1 1 1 1 1 1 1 1 1 1 0.047560799558902668 1 1 1 1 1 1 1 1 1 1 1 1 1 1 1 1 1 1 1 1 1 1 1 1 1 1 1 1 1 1 1 1 1 1 1 1 1 1 1 1 1 1 1 1 1 1 0.049972061048067777 1 1 1 0.049977398257392343 1 0.049791141307476257 1 1 1 1 1 0.049466770649632306 1 0.053670159449803016 1 1 1 1 1 1 1 1 1 1 1 1 1 1 1 1 1 1 1 1 1 1 1 1 1 0.051264380150904454 1 1 1 1 1 1 0.038283765191994466 1 0.046360520698904839 1 1 1 0.036554043359699466 1 1 0.029075174274229551 1 1 1 1 1 1 1 1 1 1 1 1 1 1 1 1 1 1 1 1 1 1 1 1 1 1 1 1 1 1 1 1 1 1 1 1 1 0.052263685863256117 1 0.045327898927632317 1 1 1 1 1 1 1 1 1 1 0.050578699704856615 1 1 1 1 1 1 1 1 1 1 1 1 1 1 1 1 1 0.035610104707309784 1 1 1 0.050041457421989781 0.023874864047600596 1 0.019769865190564298 1 1 1 1 1 1 1 1 0.049463354980736514 1 1 1 1 0.04730980528620353 1 1 1 1 1 1 1 0.049501854736534401 1 1 0.041005987894041772 1 0.02637922269647356 1 1 0.050725047733212354 1 1 0.031592205441520693 0.050044840451420498 1 1 1 1 1 1 1 1 1 1 1 1 1 1 1 0.019733574235320992 1 0.032129134611179486 1 1 1 0.049712827108688837 1 0.045894599272664933 1 1 1 1 1 1 1 1 1 1 1 1 0.048461352047697456 1 0.051700607840152665 1 1 1 1 1 1 1 1 0.045750398935013599 1 1 0.04466329360721346 1 1 1 0.052960844154697179 0.050745433652449851 1 1 1 1 1 1 1 1 1 1 1 1 1 1 1 1 1 1 1 1 1 0.047511598179354339 1 1 1 1 1 0.050035509527781734 1 0.047986378223849074 1 1 1 1 0.047145457438193608 1 1 0.050857254815445452 1 1 1 1 1 0.051651762619063457 1 1 1 1 0.049358472867725892 1 1 1 1 1 1 1 0.046438775853794335 1 1 1 0.043219285016598399 1 1 1 1 1 1 1 1 1 1 1 0.043054937168588485 1 1 1 1 1 1 1 1 0.048219501733861199 1 1 1 1 1 1 0.04546858583265434 1 1 1 1 1 1 0.044487599453651057 1 1 1 1 1 1 1 1 1 1 1 0.049955553949804936 1 1 1 0.050229720615601277 1 1 1 0.049391457978382083 1 0.050016976529815488 1 1 1 1 1 1 0.047238515354857916 1 1 1 1 1 1 1 1 1 1 1 1 1 1 1 0.049339102860397534 1 1 1 1 1 0.051650528719310314 1 1 1 1 1 1 1 1 0.050420113270910769 1 1 1 1 1 1 1 1 1 1 1 1 1 1 1 1 0.04960040874790525 1 1 1 1 0.04992197859327608 1 1 1 1 1 1 1 1 1 1 1 1 1 1 1 1 1 1 1 1 1 1 1 1 1 1 0.038600566018054741 1 1 1 0.049987650418537158 1 0.044633211217680074 1 1 1 1 0.045591606232261425 1 0.049816140723371545 1 1 1 1 1 0.049953566742274101 1 1 1 1 1 1 1 1 1 0.039293112616159385 1 1 1 1 1 1 1 1 1 1 1 1 1 1 1 1 1 1 1 1 1 1 1 1 0.049013938754649461 0.050953623510017698 1 1 1 1 1 0.050611341379492296 1 1 1 0.049902216853673229 1 1 1 0.048888626816994941 1 1 0.049881329152147318 1 0.050218772502015632 1 1 1 1 0.049206896435368727 1 1 1 1 0.048834097078050448 0.049874247626239286 1 1 1 1 1 1 1 1 1 1 1 1 0.049552034606053307 1 1 1 1 0.049963575283796691 1 1 1 1 1 0.050814170181919485 1 1 0.050294349523894048 1 1 1 1 1 1 1 1 1 1 1 1 1 1 1 1 0.050148263806375402 1 1 0.049797660194247972 1 1 1 0.049740635225037001 1 1 1 1 1 1 1 1 1 1 1 0.049942975030789045 1 1 1 1 1 1 1 1 1 1 1 1 1 1 1 1 0.049919171477320355 1 1 0.053350553316339797 1 0.055470714894156933 1 1 0.038078148352435622 1 0.049743955691161704 1 0.037914068802154033 1 1 1 1 1 1 1 1 1 1 1 1 1 0.037951418550006957 1 0.051772726745072259 0.0484194813363771 1 1 0.036119797179567377 0.049366752979900196 1 1 0.050002402640002712 0.047199531097283781 1 1 1 0.031726863362250994 1 0.041062926727895029 1 1 0.050444705427829868 1 1 1 1 0.049016723254469999 0.038495595892619625 1 0.056224756491212273 1 1 0.044548988769181751 0.050026122432183774 1 1 0.048337922420358274 1 1 1 0.045466283887202134 1 1 1 0.050971838795405677 0.056226229821708419 0.04695935871847913 1 1 0.052018887778574149 1 0.070514957354894103 0.050072035717894793 1 1 1 1 1 1 1 1 1 1 1 0.050914201694751283 0.05170371645938826 1 0.055683465563679473 1 0.039847996996562621 1 0.045531502102680178 1 1 1 0.049707322757713529 1 1 1 1 1 0.050595125879961039 1 1 1 1 1 1 1 1 1 1 1 1 1 1 1 1 1 1 1 1 1 1 1 1 0.049781343220186715 1 1 1 1 1 1 1 1 1 1 1 1 1 1 1 1 1 1 0.019433844190676737 1 1 1 1 1 1 1 1 1 1 1 0.051025662439447304 1 1 1 1 1 0.019127783253707328 1 1 1 1 1 1 1 1 1 1 1 1 1 1 0.047557106133567083 1 1 1 1 1 1 1 1 1 1 1 1 1 1 0.044310477417637363 1 0.040443576147976938 1 1 1 1 0.043488778464486656 1 1 1 1 1 1 1 1 1 1 1 1 0.04089745790021998 1 0.050061555181441286 1 1 1 1 0.050202296919937564 1 1 1 1 1 1 1 0.031893794587959087 1 1 1 1 1 1 1 0.049983479191047356 1 1 1 0.043146467405397772 1 0.049993183153976987 1 1 1 1 1 1 1 1 1 0.047441826443055328 1 1 1 1 1 1 1 1 1 1 1 1 1 1 1 1 1 1 1 1 1 1 1 1 1 1 1 1 1 1 1 1 1 1 1 1 1 1 1 1 1 1 1 0.049261267922704119 1 1 0.040736763930139953 1 1 1 1 1 1 1 1 1 1 0.049753049736337082 1 1 1 1 1 0.052191022045868007 1 1 0.046902418604629112 1 1 1 1 1 1 0.041417443053734841 1 1 1 1 0.049975636382729997 1 1 0.045880710082670119 1 0.045407712710324545 1 1 1 1 1 1 1 1 1 1 1 0.046927888816967661 1 0.044585237832738905 1 1 1 1 0.04890816178402041 1 1 1 1 1 1 1 1 1 1 1 1 1 1 1 1 1 1 1 1 1 0.040684976707221265 1 1 1 1 0.046181096248792505 1 1 1 1 1 1 1 0.048055097804122669 1 1 1 1 1 0.038375662829143467 1 1 1 0.055051955372113159 1 1 1 0.042772261668178886 1 1 0.047473712498287399 1 1 1 0.053201305760446981 1 1 0.051069920291652186 1 1 1 1 1 1 1 1 1 1 1 1 1 1 1 1 1 1 1 1 1 1 1 1 1 1 1 1 1 1 1 0.049207949129552273 1 1 1 1 1 1 1 1 1 1 1 0.05026741856314848 1 1 1 1 1 1 1 1 1 1 1 1 1 1 1 0.050715092543305723 0.051468539821902012 1 1 1 0.047800861430447941 1 1 1 1 0.05019076029056474 1 1 0.047753342453226627 1 1 1 1 1 1 1 1 1 1 1 1 1 0.047312612967032847 0.048780749994264253 1 1 1 1 1 1 1 1 1 1 1 0.042173697455618504 1 1 0.047972883153168291 1 1 1 1 1 1 1 1 1 1 1 1 1 1 1 1 1 1 1 0.04582750748798306 1 1 1 0.050007724759820335 1 1 1 1 1 0.049949062850582329 1 1 1 1 1 1 1 1 1 1 1 1 1 1 1 1 1 1 1 1 0.049655258417725855 1 1 0.049487744382817125 1 1 1 1 1 1 1 1 1 1 1 1 1 1 1 1 1 1 1 0.049551551186899266 1 1 1 1 1 1 1 1 1 1 1 1 1 1 1 1 1 1 1 1 1 1 1 1 1 1 1 1 1 1 1 1 0.050346433832308218 1 1 1 1 1 1 0.064826544152386312 1 1 1 1 1 0.058993616452497871 1 1 1 1 0.054126071550671243 1 1 1 1 1 1 1 1 1 1 1 1 1 1 1 1 1 1 1 1 1 1 0.051404649303897286 1 1 1 1 1 1 1 0.050305029087015667 1 1 0.050123736134376554 1 1 0.049924878969990552 1 1 1 1 1 1 0.05003708168942219 1 1 1 1 1 1 1 1 1 1 0.052498433679497962 1 0.043538528783125176 1 1 1 1 1 1 1 1 0.049997169721313003 1 1 0.049712849558029494 1 1 1 0.048338466377949696 1 1 1 0.04780027403690594 1 1 1 0.049999989191960602 0.05000801858875091 1 1 0.047447418337296238 1 1 0.046976855708717388 1 1 0.049994016749957557 1 1 1 1 1 1 1 1 1 0.049994026109353912 1 1 1 0.04650596335877797 1 1 1 0.046037576186494053 1 1 1 0.049994091394674416 1 0.049980192133286874 1 1 0.043544394390910707 1 1 1 1 1 1 1 1 0.049617979893269687 1 1 0.050054124934871942 1 1 1 1 1 1 1 1 1 1 1 1 1 0.04795319626506131 1 0.050005972861666033 1 1 1 0.047198507404047289 0.049707618427658917 1 0.048504325618717994 1 1 1 1 0.050018025326023743 1 0.050379619158401681 1 1 1 1 1 1 1 1 1 0.050144796249405828 1 1 1 1 1 1 1 1 1 1 1 1 1 1 1 1 1 1 1 1 1 1 1 1 1 1 1 1 0.050040681214505466 1 1 1 1 1 1 0.050048136860069391 1 1 1 1 1 1 0.050031818035881928 1 1 1 1 1 1 0.050004985264832026 1 1 1 0.049952657187066693 1 1 1 0.049898780087391334 1 1 0.036668154826220226 1 1 1 1 1 1 0.041956077680921897 1 1 1 0.038616271236936561 0.049973570726569702 1 1 1 1 1 1 1 1 1 1 1 1 1 1 1 1 1 0.049980780929216602 1 1 1 1 1 1 1 0.049990127325350825 1 1 1 1 1 0.038238362519157749 1 1 1 1 1 0.049999781195373377 1 1 0.048401754502390815 1 1 1 1 0.04998731594054958 1 1 1 1 1 1 0.056323107108826279 1 0.034843775545071495 1 0.057042589626721381 0.038740428382490963 1 0.049995624049573556 1 1 1 0.050004130887611672 1 1 1 1 1 0.050025479162229186 1 1 1 0.049993709487563778 1 1 1 1 0.049981846669525487 0.048790736723577866 0.049310346878610571 1 1 1 1 0.049154769339544421 0.039994810495721254 1 0.038265274900355556 1 1 1 1 1 1 0.049995139057555635 1 0.048355374169457094 1 1 0.048686016788092028 1 1 1 0.04999454504814542 1 1 0.036677841028953759 1 1 1 1 1 1 1 1 1 1 1 1 0.049905173115095097 1 1 1 1 0.044111110897005999 1 1 1 1 0.043911518535388813 1 1 1 1 1 1 1 1 1 0.04969796668835566 0.042408024922446295 0.050885294179716739 1 1 1 0.050003225814382851 0.049879949159815168 1 1 0.048618601943603942 1 0.043638330473447923 1 1 1 1 1 1 1 0.048209807530301137 1 1 1 1 1 1 1 1 1 1 1 1 1 1 1 1 0.049910318779368051 1 1 1 1 1 1 1 1 1 0.049726042311019375 1 1 0.044559204549284831 1 0.047332159258082936 1 0.049862549202335238 1 1 0.046010206757653979 1 1 1 0.049999589410532959 0.05220159564334273 1 1 0.049417724546831854 1 1 1 0.047016103229677461 1 1 1 1 0.049783891874302988 1 1 1 1 1 1 1 1 1 1 1 0.046994104398405588 0.049989140941350901 1 1 1 1 1 1 1 1 1 1 1 1 1 1 1 1 1 1 1 1 1 1 1 1 1 1 1 1 1 1 1 1 0.049991657923824942 1 1 1 1 1 1 1 1 1 1 1 1 1 1 1 1 1 1 1 0.050443676245791082 1 1 1 1 1 1 0.049989258680315257 0.045322396531389843 1 1 0.046936640725727591 0.049205630098732474 1 1 1 0.050027316384159727 1 1 1 1 1 1 1 1 1 1 1 1 1 1 1 1 1 1 1 1 1 1 1 0.049640445180196377 1 0.045912346776110037 1 0.049877406993504556 1 1 1 1 1 1 0.039278170158606435 1 0.048773201692607862 0.050998349145924243 1 1 0.043148230582459896 1 1 1 1 1 1 0.049825516013851726 0.044499209880844076 1 1 0.040149696554956517 0.050252266674088206 1 1 0.04034302738067435 0.049943514893099339 1 1 1 1 1 1 1 1 0.037682440033358577 1 1 1 1 1 0.04247455285101976 1 1 0.043659427452374472 1 1 1 0.050002493924742417 1 1 1 1 1 1 1 1 1 1 1 1 1 1 1 1 1 1 1 1 1 1 1 1 1 1 1 1 1 1 1 1 1 1 0.049576747585011877 1 1 0.026424982009414538 1 0.055141529234658107 0.035118183017401335 1 1 1 1 1 1 1 1 1 0.054604272204176352 1 1 1 1 1 0.054108941697089102 1 1 1 1 1 1 1 0.050142111342906706 1 1 1 1 1 1 1 1 0.050496770832886603 1 1 1 1 1 0.050956881258208638 1 1 1 1 1 1 1 1 1 1 1 1 1 1 1 1 1 1 1 1 1 1 1 1 1 1 1 1 1 1 0.050397277552656813 0.049814468092324135 1 1 1 1 1 1 1 0.050049303644699394 1 1 1 0.051279628685230609 1 0.049401355055712165 1 1 1 1 1 1 1 1 1 1 1 1 1 1 1 1 1 1 1 1 1 0.049461100694688578 1 1 1 1 1 1 0.051529921653447053 1 1 1 1 1 1 1 0.022023711516738702 1 1 0.049849826203256439 1 1 1 1 1 1 0.051419228707694845 1 1 1 0.021063299944192815 1 1 0.020300741601234663 0.049992265859277227 1 1 1 1 1 1 1 1 1 1 1 1 1 1 1 1 1 1 1 1 1 1 1 1 1 1 1 1 0.050021304089019496 1 1 1 1 1 1 1 1 1 1 1 1 1 1 1 1 1 1 1 0.024444654489832102 1 1 1 0.023459798895600723 0.049572151972751805 1 1 1 1 1 0.04984786603407771 1 1 1 0.04899261738012689 1 1 1 1 1 0.048740410496879973 1 1 1 1 1 1 1 1 1 1 1 1 1 1 1 1 1 1 1 1 1 0.046133779702228053 1 1 1 1 1 1 0.040468989200260187 1 1 1 1 1 1 1 1 1 1 1 1 0.047823671750160959 1 1 1 1 0.048900390440312434 1 0.047830041149402959 1 1 1 1 1 1 1 1 1 1 1 1 1 0.037105104097018581 1 1 1 1 1 0.034848944618142835 1 1 1 1 1 1 0.04890263187612523 1 1 1 1 1 1 1 1 1 1 1 1 0.049908289313033219 1 1 0.049789292859785617 1 1 0.049211369051645845 1 1 0.049735758419837246 1 1 1 1 1 1 1 1 1 1 0.053105369600203504 1 1 1 1 1 1 1 1 0.050050163630890682 1 1 1 0.049957794264250066 1 1 1 0.039807264151448342 1 1 0.049465752917653566 1 1 1 0.050810666778625314 1 1 1 1 1 0.049038355615625508 1 0.049999359158762295 1 1 1 1 0.050057328907234737 0.052137981085353148 1 1 1 0.031964435915615291 1 1 1 1 0.049838613161600293 1 1 1 1 1 1 1 1 1 1 1 1 1 1 1 0.049886805727973084 1 1 0.050775085170779652 0.050776773319190192 1 1 1 1 0.04908461793825325 1 1 1 1 1 1 0.050163776808373674 1 1 1 1 1 1 0.050054407652415006 1 1 1 1 1 1 1 1 0.048974676680087093 1 1 1 1 1 1 1 1 1 1 0.050475100626290383 1 1 0.036133363419994853 1 1 0.035268170954520867 1 1 1 1 1 0.049344118681693347 0.049938713483108424 1 1 0.049995953036950945 0.05143690713352498 1 0.050602745293958716 1 0.045230327159177873 1 0.04445768990231886 0.048715411410755999 1 1 0.047854074195009866 1 0.050509182450832114 1 0.04753607137676976 1 0.041976835371823798 1 0.050711246403958958 1 1 0.049990258206342224 1 0.050013969849416341 1 0.048642822936650225 1 1 1 1 1 1 0.051965460819792884 1 1 1 0.050001581911133151 1 1 1 1 1 1 1 1 1 0.047527046080351437 1 1 0.052372178485883769 1 0.049983731261376903 1 0.047561988195993249 1 1 1 0.11460234505697975 0.048392338974489912 1 1 1 1 1 1 1 1 1 1 1 0.049498746911763494 1 1 1 1 1 0.048515374051027717 1 1 1 1 1 1 1 1 1 1 1 1 1 1 1 1 1 0.049594505754924037 1 1 1 1 1 1 0.035433232671630281 1 1 1 0.034925999029915861 1 1 0.049947410386642063 1 1 1 0.042789691011142453 1 0.044784488995578089 0.04970361120694728 1 1 1 1 1 1 1 1 1 0.043202921058692952 1 1 1 1 1 1 1 0.05001412038617039 1 0.048958081112705304 1 0.049652322150169743 1 1 1 1 1 1 1 1 1 1 1 1 1 1 1 1 1 1 1 1 1 1 1 1 1 1 1 1 1 1 1 1 1 1 1 1 1 0.040650890034439349 1 1 0.039743069773955579 0.042708133018446781 1 1 1 1 0.041611189532057856 1 1 1 1 1 0.044350589088575802 1 1 0.04999647995265144 0.04607855316192784 1 1 1 1 1 1 0.046152670129649062 1 0.049933589436873912 1 1 0.038249500257687433 0.045051992140452413 1 0.051794374073904532 1 1 1 0.049754124967382352 1 1 1 1 0.049670184535868189 1 1 1 0.03791593738954499 1 1 0.045959949320780381 0.049957109422138872 1 1 1 0.041835851710328539 1 1 1 1 0.049997967207088517 1 1 0.037163352647824034 1 1 1 0.052842173502993334 1 1 0.036904508062254412 1 1 1 0.053077070495761797 1 0.050429943932249699 1 1 0.048893856199308805 1 1 0.035453731240269307 0.049995212817900092 1 1 0.041648535109126077 1 0.050007719633062608 0.043741668201590797 1 1 1 1 0.047263735449218219 1 1 1 1 0.049328396283458503 1 1 1 1 1 1 1 1 1 1 1 1 0.039952662969015437 1 1 1 1 0.050004237610405761 1 0.055541174061089368 1 1 1 1 1 0.045210041523803118 0.04997183708456502 0.049938282129083668 1 1 1 1 1 1 1 1 0.044462590505833566 1 1 1 1 1 1 0.046777056706022807 1 1 1 1 0.044504676595380092 1 1 1 1 1 1 1 1 1 1 1 1 1 1 1 1 1 1 0.047872615669444299 1 0.051454423035042419 1 1 0.046458168670429761 0.052017320258614629 1 0.049519347503926628 1 1 0.04995967307591561 1 0.050493356400279375 1 0.050661709774368326 1 0.048863499810324951 1 1 1 1 0.049595639844791949 1 1 1 0.048623552357901625 1 1 1 1 1 1 1 1 1 1 1 1 1 1 1 1 1 1 1 1 1 1 1 1 1 0.049998370877838663 1 1 1 1 1 0.024224803552498002 1 1 1 1 1 1 1 1 1 1 1 0.050120219260164717 1 1 1 1 1 0.049877364845474934 1 1 0.049421532473896482 0.025052942914878688 1 1 1 0.037075204553017639 1 1 0.046730124162450294 0.037781430817343767 1 0.0404076059881621 1 1 1 1 1 1 1 1 1 1 1 1 1 1 1 1 0.049502151233847332 1 1 1 1 0.050674816352791432 1 1 1 1 1 1 1 1 0.038335170018297907 0.039225107946335103 1 1 0.049746147157710092 1 1 1 1 1 1 1 1 1 0.041139439102373783 0.052808561486856649 1 1 0.048583047358441454 1 1 1 0.04783749652210266 1 1 1 1 1 1 1 1 1 1 1 1 1 1 1 1 1 1 1 1 1 1 1 1 1 1 0.049747669131689334 1 1 1 1 1 1 1 1 1 1 1 1 1 1 1 1 1 1 1 1 0.045621380078182332 1 1 1 0.048118379788519912 0.049983270417099435 1 1 1 0.043239612027171172 1 1 0.049814068289433661 1 1 1 1 1 0.047829001603945653 1 0.050644635066932786 1 1 1 1 1 1 1 1 0.04947914270380889 1 1 1 0.045446008971317321 1 1 0.048993076602467184 1 0.048530767307875172 1 1 1 0.048737250173355132 1 1 1 0.046189238159998175 1 1 1 1 1 1 1 1 1 1 1 1 1 1 1 1 1 0.043909382212138637 1 1 1 1 1 1 1 1 1 0.050060440231147849 1 1 1 1 1 1 1 1 0.042426073390346479 1 1 1 1 1 1 1 1 1 1 1 1 1 0.0500242191598411 1 1 1 0.049822691074502989 1 1 1 1 1 1 1 1 1 1 1 1 1 1 1 1 1 1 1 0.050169074438143016 1 1 1 0.048899890918014728 1 0.050038794052148165 1 1 1 0.045220891231413443 1 1 1 0.050010594873590275 0.05121667325907002 1 1 1 1 1 1 1 1 1 1 1 1 1 1 1 1 1 1 1 1 1 1 0.050099869410669809 1 1 1 1 0.050206760855209649 1 1 1 1 0.050106891444539843 1 1 1 1 1 1 1 0.052126829766587987 1 1 1 1 0.051358161614230693 1 1 1 1 1 1 0.050479646003608117 1 1 1 1 1 1 0.049896871832381215 1 1 1 0.049859934213154551 1 1 1 1 1 1 1 1 1 0.049504105861489116 1 1 1 1 1 1 0.048576789161234785 1 1 1 1 1 1 1 1 1 1 1 0.049999245835874381 1 1 0.046484533238625447 1 1 1 1 1 0.049659882423484944 1 1 0.048152267283607567 1 1 1 1 1 1 1 0.040228470107220277 0.05220035977757341 1 1 1 1 0.052119988984667395 1 1 1 1 1 1 0.049996468370594349 1 1 1 1 1 1 1 1 1 1 0.047832993576099457 1 1 1 1 1 1 1 1 1 1 1 1 0.048985056933553942 1 0.050187784203234678 1 1 1 0.047724929828202992 1 1 0.047376676228650175 1 1 1 1 0.047146058545891129 1 1 1 1 1 0.047237394088080878 1 1 1 1 1 1 1 1 0.04718936596227296 1 1 1 1 0.050245908923775819 1 1 1 1 1 1 1 0.050078520612509371 1 1 1 1 1 1 1 1 1 1 0.050173466148048761 1 1 1 0.05025469417492999 1 0.049812926546811215 1 1 1 1 1 1 0.048377109390003475 1 0.04936462154105363 1 0.049958435426124589 1 1 1 1 0.049178576933926493 1 1 1 1 1 1 1 1 1 1 1 1 1 1 0.050603408930367716 1 0.032855705426768599 1 1 1 1 1 1 1 0.049819352591795443 1 1 1 1 1 1 1 1 1 1 1 1 1 0.034982608076739641 1 1 1 1 0.037520748425550768 1 1 1 1 1 1 1 1 1 1 1 1 1 1 1 1 1 1 1 1 1 1 1 1 0.049874888843827722 1 1 1 1 0.053729429753373879 1 1 1 0.049010121679925966 1 1 0.049973837752335659 1 1 0.046239766739574965 1 1 1 1 1 1 1 1 1 1 1 1 1 1 1 0.049350828619867136 1 1 0.049438369756735441 1 1 1 1 1 1 1 0.048017547623806479 1 1 1 1 1 0.044782895149088148 1 1 1 0.043750900764686775 1 1 1 0.043911052611013822 1 1 1 1 1 1 1 0.052283643358380698 1 1 1 0.046491494771275961 1 0.05110401180802876 0.048102189448577193 1 1 1 1 1 0.048959588864343845 1 1 1 1 1 1 1 1 1 1 0.052532572824452332 1 1 1 1 1 1 1 1 1 1 1 1 1 1 1 1 1 1 1 1 1 1 1 1 1 1 1 1 1 1 1 1 1 1 1 1 1 0.046171078274102273 1 1 1 1 1 1 1 1 1 1 1 1 1 1 1 1 0.04221244188031454 1 1 1 1 1 1 1 1 1 0.046178125921324649 1 1 1 1 1 1 1 0.04597267514073957 1 1 1 1 1 1 1 1 1 1 1 1 1 1 1 1 1 1 1 1 1 0.049871496802320357 1 1 1 1 1 1 1 1 1 1 1 1 1 1 1 1 1 0.04997723025618607 1 1 1 1 1 1 1 1 1 1 1 1 1 1 1 1 1 1 1 1 1 1 1 1 1 1 1 1 1 1 1 1 1 1 1 1 1 1 1 1 1 1 1 1 1 1 0.049365381074970571 1 1 1 1 1 1 1 1 1 1 1 1 1 0.049994333131355831 1 0.050006469191490641 1 1 1 1 1 0.050416824030172502 1 1 1 1 1 0.049781332670946574 0.049563688226329491 1 1 1 1 1 1 1 1 1 1 1 1 1 1 1 1 1 0.049732359065684559 0.049582283063197931 1 1 1 1 1 1 0.049731020571213827 1 0.049625171167907434 1 1 1 1 1 1 1 1 1 0.049915991257205666 1 1 1 1 1 1 1 1 1 1 1 1 1 1 1 1 1 1 1 0.049901789530443427 1 1 1 1 1 0.049728856680904716 1 0.049464349735874644 1 1 1 1 1 1 1 0.049478123576803645 1 1 1 0.049735493054969937 1 1 1 0.048294646865713414 1 1 0.042029399878771662 1 1 1 0.053149296219052476 1 1 0.051510403658260782 1 0.048932278884160831 1 0.053290064641191744 1 1 0.050911470933780789 1 1 1 1 1 1 1 1 1 1 1 1 1 1 1 1 1 1 1 1 1 0.049917994693136875 1 0.048668448582448759 1 1 1 1 1 1 1 0.048786212490603068 1 1 1 1 1 1 1 1 1 1 1 1 1 1 1 1 1 1 1 0.049777928906291423 1 1 1 0.04997298031706271 1 1 1 1 1 1 1 1 1 1 0.050410485560855381 1 1 1 1 0.050587314922225041 1 1 0.049902988344442123 1 1 1 1 1 0.050527542274382609 1 1 1 1 0.049897171354210353 1 0.050628683694590594 1 1 0.048306132349713073 1 1 1 1 1 1 1 0.047973655874456886 1 1 0.050163951490175281 1 0.047843748176285485 1 1 1 1 1 1 1 1 1 1 1 1 1 1 1 1 1 1 0.049860193644793369 1 1 1 1 1 1 1 0.050109111635682588 1 1 1 1 0.048706357881359429 1 1 1 1 1 1 1 1 1 0.049930008027379416 1 1 1 1 0.050037023006163021 1 1 1 1 1 1 1 1 1 1 1 1 0.049258179194998274 1 1 1 1 1 1 1 1 1 0.043768562009532538 1 1 1 1 1 1 1 1 1 1 1 1 0.044872781395839542 1 1 0.047878591834383269 1 1 1 1 1 1 1 1 1 0.049437845506924913 0.032064859405803933 0.041224462548247541 1 1 1 0.049997455082832098 1 1 1 1 1 1 0.041422578717148259 1 1 1 0.05040346475764982 0.050027009556231669 1 1 1 1 1 1 1 1 1 1 1 1 0.043272520797611756 1 1 1 0.049810512274389318 0.043145483041527287 1 1 1 1 1 0.03456254463071344 1 1 1 1 0.042034295861301876 1 1 1 1 0.050002381195070264 1 1 1 1 1 0.043263673849602204 0.040929666969616037 0.04854868028737877 1 1 1 0.043507392909469471 0.042081099776727943 1 1 1 1 1 1 1 1 1 0.044671268189759472 0.049968349134711522 1 1 1 0.049692098983571839 0.050134696324062492 1 1 1 1 1 1 1 1 1 1 1 1 1 1 1 1 1 0.044840879677906557 1 0.045419113548004347 1 1 1 1 0.042535089373189415 1 1 1 1 1 1 1 0.044108658878817757 1 1 1 1 1 1 1 0.04632620506911455 1 1 0.040872833860210817 1 0.043770925060908433 0.046752080710832977 1 1 1 0.045560022433216094 0.050005722517190571 1 1 1 0.050006689030467413 0.049950818138576727 1 1 1 1 1 1 1 1 1 1 0.050007522984309133 1 1 1 1 1 1 1 0.048956587209779176 1 1 1 1 0.045749273898937362 1 1 1 1 1 1 0.040277836045902085 1 1 1 1 0.049812955883555082 1 0.041707832288678089 1 1 1 1 1 1 1 1 1 1 1 1 1 1 0.039577624472884321 1 1 1 1 1 1 1 0.040050991402801064 1 1 1 1 0.049987057038766491 1 1 1 0.046529366085493816 1 1 1 1 1 1 1 1 1 1 1 1 1 1 1 1 1 1 1 1 1 1 0.047546696994223286 1 0.049066152941129301 1 1 0.049140965778403468 1 1 1 0.047623978974515029 1 1 0.046877806066653843 1 1 1 1 1 1 1 1 1 1 1 1 1 1 1 1 1 1 1 1 0.046949134639528711 0.050194414914911362 0.049527017704641109 1 1 1 1 1 1 1 1 1 1 1 1 1 0.046990257977368652 1 1 1 0.052932488830016625 1 1 0.039687408194023957 1 1 1 1 0.043743242600517179 1 1 0.048827877729661941 0.049730193524745989 1 1 1 1 0.049092243089745718 1 1 0.050781359307986496 1 0.050218163666628166 1 1 1 1 1 1 1 1 1 1 1 1 0.053223052755908717 1 1 1 1 1 1 1 0.047888490388536105 1 0.049931119825858128 1 1 1 1 0.04942875078143124 1 1 1 1 1 1 1 1 1 1 1 1 1 1 1 1 1 1 1 1 1 1 1 0.047026584713834786 1 1 1 0.049966335911708668 1 0.050309929669503352 1 1 1 0.027557163617499027 1 1 1 1 1 0.050026353022496854 1 1 0.058524097729619265 1 1 1 1 1 1 1 1 0.04976261656653197 1 1 1 1 1 0.048887019608215301 1 1 1 1 1 1 1 1 1 1 1 1 1 1 0.049578251071303307 1 1 1 1 0.049461805196138409 1 1 1 1 1 1 1 1 1 1 1 1 0.049455813996642006 1 1 1 1 0.049816185321492845 1 1 1 1 1 1 1 1 1 1 1 1 1 0.048817818091898779 1 1 0.050515570561940497 1 1 1 0.049879062441696861 1 1 1 1 1 1 1 1 1 1 1 1 1 0.051613639654947002 0.042445711677679562 1 0.046481424736273029 0.048132978097633797 1 1 1 0.05051670696936135 0.031512330847322315 1 0.04452748988639213 1 0.048942463367269838 1 0.040784394174614901 1 1 1 0.053114280043827386 1 0.050088086781347553 1 1 1 1 0.043496536598497393 1 1 1 1 1 1 0.04819091473506102 1 1 1 1 1 0.027550791608231436 1 1 0.049970137170152258 1 1 0.049747572472582977 1 1 0.050083214850653104 1 1 1 1 1 0.044616562400677996 1 0.047655964733666074 1 1 1 1 1 1 1 1 1 1 1 1 1 0.048565873641655918 1 1 0.049620720548713734 1 1 1 1 1 1 1 1 1 0.042677892199527383 1 1 1 1 1 1 1 1 1 0.021146155535879594 1 1 0.047769700038956989 1 0.02698954097790093 1 1 1 1 1 1 1 0.051025449036173155 1 1 1 1 1 1 1 0.016426532326347887 1 0.05835992310720902 1 1 0.054650613462321439 1 1 1 0.049540190076816551 1 1 1 1 0.048743472379613711 1 1 1 1 1 0.049999601133064703 1 1 1 1 1 1 1 1 1 1 1 1 1 1 1 1 1 1 1 1 1 0.049401238003085719 1 1 0.049361160034409074 1 1 1 0.048313341947811075 1 1 1 1 0.049776107352816207 1 1 1 1 1 1 1 1 1 1 1 1 1 1 1 1 1 1 1 1 1 1 1 0.048944193999788735 1 1 1 1 1 1 0.046981841462687357 1 1 1 1 1 1 1 1 1 1 1 1 1 0.050027050127593592 1 0.030973034793879872 1 1 0.051656184974291933 1 1 1 1 0.012133130505518432 0.047652997051296643 1 0.051156880809612608 1 0.036649029230310284 1 1 1 1 1 0.0051960775304280005 1 1 0.031528515290658747 0.038894137238242352 1 1 1 1 1 0.048724230456974667 1 1 0.049997813763380167 1 1 1 1 1 1 1 1 0.036077365374807033 0.045828808529011063 1 1 1 0.037730671925801242 1 0.049980866816813276 1 1 1 1 1 0.050864399335043074 1 0.041476000069257321 1 1 1 1 1 0.050655006030222272 0.049935860023965002 1 1 1 1 0.050009828292587342 1 1 1 1 0.050265924387158878 1 1 1 1 1 1 1 1 1 1 1 1 1 1 1 1 1 0.050796390193996795 1 1 0.050302358046134268 1 1 1 0.04956424716282995 1 1 1 1 1 1 1 1 1 1 1 1 1 1 1 1 1 1 1 0.047665568608885205 1 1 1 1 1 1 1 1 1 1 1 1 1 1 0.047251388938711059 0.049895765396747442 1 1 1 0.04971924643723151 1 1 1 1 1 0.04921598031687776 1 1 1 1 1 1 1 1 1 1 1 0.049235362143058639 1 1 0.049671114980228678 1 1 1 1 1 1 1 1 1 1 0.044499989097240948 1 1 1 0.042852866392579791 1 0.047564670975696818 1 0.05004928357310081 1 1 1 0.04999449251870694 0.050906680700038412 1 0.043657876619508609 1 1 0.051614713502180248 1 1 0.04908519792842319 0.043817141187588171 1 1 1 0.041553852237901888 1 1 0.054000355885202134 1 0.043336098855453094 1 1 1 0.053112007521209884 1 1 0.051566411171677901 0.048255686234614015 1 0.047919224547305739 1 1 0.049582865626781464 1 0.050394199377407044 1 1 1 1 1 1 1 1 1 0.050065609107465832 1 1 1 1 1 0.048536442120984839 1 1 1 1 1 1 1 1 1 1 0.048708322603742596 1 1 1 1 0.048616502527326466 0.048375472275139816 1 1 0.027135725570782289 1 0.028097631848363839 1 1 1 1 1 0.010052524257263142 1 1 0.052077549389045782 1 0.050031720743020203 1 1 1 1 1 1 1 0.054049678736639233 1 1 1 1 1 1 1 1 1 0.028820796485831614 1 0.050051463148175393 1 0.049930995602636488 1 0.040597378604585413 1 1 1 1 0.04985306851274808 1 1 1 1 1 0.049513743264785998 0.052201021340256927 1 1 1 1 1 1 0.050372334773989898 1 1 1 1 1 0.045315794945288423 1 1 1 1 0.026396646291873126 1 1 0.044382742833466882 1 0.042751355138643296 1 1 1 0.055275214786941793 1 0.021499196631391031 1 1 0.033137566350253583 0.050003283230717739 0.027849548324605004 1 1 1 1 1 1 0.05000301202369576 0.055391221533864506 0.051096542392229355 1 1 1 1 0.043469635493095737 1 0.047116209680767462 1 0.039310031719815321 1 1 1 1 1 1 0.048603300368486847 1 1 1 1 1 1 1 1 1 1 1 1 1 1 1 1 1 1 1 1 1 1 1 1 1 1 1 1 1 1 1 1 1 1 1 1 1 1 1 1 1 1 1 1 1 1 1 1 1 0.049027040410377871 1 1 1 0.047788669867996188 0.050060396699615504 1 1 1 1 1 1 1 1 1 1 1 1 1 1 1 1 1 1 1 0.037407149596600249 1 1 1 1 1 1 1 0.04693633164760571 1 1 0.036427107970151501 1 1 0.046177456873861544 1 1 0.048427119855363784 1 0.031080282336289046 1 1 0.029680033202258722 1 1 1 0.049936310000339906 1 0.039730499042115196 1 0.037935175099010898 0.028540587484033812 1 1 1 0.029561879335595592 0.050020133138839455 1 1 0.028434107484545897 1 1 0.032637422846429655 1 1 1 1 1 1 1 1 1 1 1 1 0.027193594208718776 1 1 1 1 0.024403944652668812 1 1 1 1 0.027917906906374978 1 1 1 1 1 1 1 1 1 0.049598375412071807 1 0.050002446917961373 1 1 1 1 0.047973654732941913 1 1 1 0.04501001597061402 1 1 1 1 1 1 0.040182091396228102 1 1 0.049974986832446361 1 1 1 0.047682353017656512 1 1 1 1 1 1 1 0.048963675481089444 1 1 1 1 1 0.050004392374849126 1 1 1 1 1 1 1 1 1 1 1 1 1 1 1 0.050320619736967748 1 1 1 1 1 0.048177459273921266 1 1 0.047088200618400293 1 0.050880658922655364 1 1 1 1 0.049846231328267827 0.049800038194885231 1 1 0.049560690168370718 1 1 1 1 1 1 1 1 1 1 1 0.050111058852999581 1 0.049331994111950071 1 1 1 1 1 0.049795711190035834 1 1 1 0.050522615457450952 1 1 1 0.050739331621704145 1 1 1 1 1 1 1 1 1 1 1 1 1 0.048333555303375561 1 1 1 1 1 1 1 0.036683287648034441 1 0.052829002039682105 1 1 1 1 1 1 1 0.050057331036599838 0.012287385349065712 1 1 1 1 1 1 1 1 1 0.046530967768561839 1 1 1 1 1 1 0.038709281648675126 0.034396842599796286 0.051229987542646196 1 0.025540776456671879 1 1 1 1 1 1 0.023724194307853868 1 0.049280614985143953 1 0.050666302616863723 1 0.033903394757721542 1 1 1 1 1 1 0.034824366179384933 1 1 0.049795018670546809 1 1 1 1 0.050156341469015646 1 1 1 1 1 1 1 1 1 1 1 1 1 1 1 1 1 1 1 1 1 0.046474061131213454 1 0.048861132935875531 1 1 1 1 1 1 1 1 1 1 1 1 1 1 1 1 1 1 1 1 1 1 1 1 1 1 1 1 1 1 1 1 1 1 1 1 1 1 1 1 1 1 1 1 1 1 1 1 1 1 1 1 1 1 1 1 1 1 0.049340643962174413 1 1 1 1 1 1 1 1 1 1 1 1 1 1 1 1 1 1 1 1 1 1 1 0.049773719227669037 1 1 1 0.047027360830148551 1 0.050054299308955517 1 1 1 1 1 1 1 1 1 1 1 1 1 1 1 1 1 1 1 1 1 1 1 1 1 1 1 1 1 1 1 1 1 1 1 1 1 1 1 0.04739047232351682 1 0.050579865966756919 1 1 1 1 1 1 1 1 1 1 1 1 1 1 1 1 1 1 1 1 1 1 1 1 1 0.048716766149337024 1 1 1 1 1 1 1 1 1 1 1 1 1 1 1 1 1 1 1 1 1 1 1 1 1 1 1 1 1 1 1 1 1 1 1 1 1 1 1 1 1 1 1 1 1 1 1 1 1 1 1 1 1 1 1 1 1 1 1 1 1 1 1 1 1 1 1 1 1 0.031882899271523837 1 1 1 1 1 1 1 0.036021936496247055 1 1 0.050093794553610432 1 1 1 1 1 1 1 1 1 1 1 1 1 1 1 1 1 1 1 1 0.047372475497983943 1 1 1 1 1 1 1 1 1 1 1 1 1 1 1 1 1 1 1 1 1 1 1 1 1 1 1 1 1 1 1 1 0.045892170308478558 1 1 1 1 0.049238992334030139 1 0.039524443006255676 1 1 1 1 1 1 0.049568111917196692 1 1 0.048917958751169666 1 1 0.049070249570010452 0.046830745319370273 1 0.049929447483770401 1 1 1 0.049019175956354258 1 1 1 1 1 1 1 1 1 1 1 1 1 1 1 0.048209578639872366 1 1 1 1 1 1 1 1 0.047409326693112618 1 1 1 1 1 1 1 1 1 1 1 1 1 1 1 1 1 1 1 1 1 1 1 1 1 1 1 1 1 1 1 1 1 1 1 1 0.043996718997595802 1 1 1 1 1 1 1 0.043707681825790622 1 1 0.051725009684084791 1 0.043075193326256166 1 1 1 1 1 1 1 1 1 1 1 0.050000840067610096 0.049979008417092741 1 1 0.050769665219762221 1 1 0.04959628150817047 0.049795670644301515 1 1 1 1 0.049249172006496429 1 0.051018736096295703 1 1 0.049263399495320832 1 0.049848236649928955 0.050498181754208449 1 0.046563091596964409 1 0.05219866971442394 1 1 1 1 1 1 1 0.050041048142695284 1 0.049937522537758211 1 1 1 1 1 0.049871856316240235 1 1 1 0.046078765677807262 1 1 0.050375997909246586 1 0.041895290230847052 1 0.042883126391123766 0.051352428340077597 1 1 0.049311537919834961 1 1 1 1 1 1 0.049429920223768339 1 1 1 1 1 1 1 1 0.043066429780713331 0.050072333538893725 1 1 1 0.047406751921327782 1 1 1 1 0.051961350544467662 0.046758388863290902 1 0.047885893085733808 1 1 1 0.049235919883726963 1 1 1 1 1 1 1 1 1 1 1 1 1 1 1 1 0.050307771959558878 1 1 1 1 1 1 0.047861626099782562 1 0.046925453520996974 1 1 1 0.047996956732736094 0.046836666574276715 1 1 0.050008931748317144 1 0.050006525356640248 1 1 1 1 1 1 1 1 1 1 1 1 0.04999902206656872 0.050002119261837653 1 1 1 1 1 0.046460035281957107 1 1 1 1 1 1 1 0.04958671178149162 1 1 1 0.050000175000676932 1 0.044348230274628017 1 1 0.050077633825302663 1 1 1 1 1 1 1 1 1 0.050083336235517251 1 1 0.049983605007529852 1 1 1 1 1 1 1 1 1 1 1 0.046903019003392631 1 1 1 1 1 1 1 1 1 1 1 1 1 1 1 1 1 1 1 1 1 1 0.049967679768222147 1 1 1 1 1 1 1 1 1 1 1 0.050057214610058777 1 1 1 1 0.050328114683316598 1 1 1 1 1 1 1 1 1 1 1 0.049800176512609158 1 1 1 1 1 0.049382891178395935 1 0.050082872530206789 1 1 1 1 1 1 1 1 1 0.050262039354256931 1 1 0.050023965724076316 1 1 0.044134785319824121 1 1 1 1 0.050274572612615996 1 1 1 1 1 1 1 1 1 1 1 1 1 1 1 1 1 1 1 1 1 0.044833101252009455 1 1 0.048422784599626179 1 0.047331497563595143 1 1 1 1 1 1 1 1 1 0.048519393739965014 1 1 0.049181078468989593 0.05005669487923687 0.049158074491125699 1 1 1 0.050021433397359774 1 1 1 1 1 1 0.050483855798807611 0.049999831920751726 1 0.04725430716190334 1 1 0.047808901407220938 1 1 0.050010706028182333 1 1 1 1 0.049495543360164096 1 1 1 1 0.046415448565053981 1 1 1 1 1 1 1 1 1 1 1 0.050099763249561252 1 1 0.049972427852663599 1 0.047936042024535434 0.049990247143580101 1 1 0.049998571636109365 0.048896671802521906 0.047947937727010101 1 1 1 1 1 1 1 1 1 1 0.050208573184902752 1 1 1 1 1 1 1 1 1 0.053454428919001859 1 1 1 1 1 0.051111964514090995 1 1 1 1 1 1 1 1 1 1 0.049571458327528475 1 1 1 1 1 1 1 1 1 1 1 1 1 1 1 1 1 1 1 1 1 1 1 1 0.044047475955861871 0.050754622645864118 1 1 1 1 1 1 1 1 0.047495836463935695 1 1 1 1 1 1 1 1 1 1 1 1 1 1 1 1 0.048602682963589827 1 1 1 1 0.03954020915130925 1 1 1 0.053155094116429727 0.049948868631261314 1 1 1 1 1 1 0.049948415661309933 1 0.051118996288949031 1 1 1 0.050385382826819342 1 1 1 1 1 1 1 1 0.048038015414860379 1 0.038187486289266173 0.055284071257126734 1 1 1 1 1 1 1 1 1 1 1 1 0.047485140945305516 1 1 0.051982304033072302 1 0.048974320420541811 1 1 1 1 1 1 1 1 1 1 1 1 1 1 1 1 1 1 1 1 1 1 1 0.048507697970456259 1 1 1 1 1 0.048931279474708871 1 1 1 1 1 1 1 1 1 1 0.05076440867325021 1 1 1 0.050289446090414684 1 1 1 1 1 1 1 1 1 1 1 0.0499748273636305 0.048814855368914542 1 1 1 1 1 0.048718035727423635 1 1 1 0.048835450505245771 1 1 1 1 1 1 1 1 1 1 0.049207026423548655 1 1 1 1 1 1 1 0.049993184847630864 0.048372796919731828 1 0.049743307494164418 1 1 1 1 0.049559172888447141 1 1 1 1 1 0.048685145777949954 1 1 1 1 1 1 1 1 1 1 0.049999130769459728 1 1 1 1 1 1 1 1 1 1 0.049062721779493161 1 1 1 1 1 1 1 0.049721807605059551 1 1 1 1 1 1 1 1 1 1 1 1 1 1 1 1 1 1 1 1 0.049253216392693352 1 1 1 0.048017284008448208 1 1 1 1 1 1 1 1 1 1 1 1 1 0.047186951631460375 1 0.05382117084017126 0.050752139814859321 1 0.050617193657579489 0.048441263840656605 1 1 1 1 1 0.050102423756947602 1 1 1 1 1 1 1 0.050916763990150181 1 1 0.050513970924128612 1 1 0.040728008960002726 1 1 0.046809624573173836 1 1 0.049974020490037373 0.052217635295920113 0.046704247024753474 0.04777897503585548 1 1 0.051666130067349617 0.050707300485547585 1 1 0.044784153738212235 1 1 0.04842630878667728 1 1 1 1 0.05049800487350832 0.047491983236283515 0.049572375591892676 0.04948332267782922 1 1 1 0.05017308416231471 1 0.049776171134817873 1 0.047417632445940494 1 0.049149461034287918 0.046424740050203618 1 1 1 1 1 1 1 0.051125501148822271 1 1 0.049057239462474124 1 0.050089356394997536 1 1 0.051934659645404085 0.047744732240205583 1 1 1 1 1 1 1 1 1 1 1 1 1 1 1 1 1 0.051297304315525635 1 1 1 1 1 1 1 1 1 1 1 1 1 1 1 1 1 0.051720728119246585 1 1 1 1 1 1 1 1 1 1 1 1 1 1 0.040752216322159723 0.047984536147620702 1 1 1 1 0.049998230359631593 1 0.037803260190283725 1 1 1 0.051260852525276346 0.048782272795695469 1 0.050237489886787765 1 1 1 1 1 1 1 1 1 1 1 1 1 1 1 1 1 1 1 0.033736398200197512 1 0.049938065232920131 1 1 1 1 0.050476651588083531 1 1 1 1 1 1 1 1 1 1 1 1 1 1 1 1 1 1 1 1 0.050459051885313744 1 1 1 1 1 1 1 1 1 1 1 1 1 1 0.049143991200572543 1 1 1 1 1 1 1 1 1 1 1 1 1 1 1 1 1 1 1 1 1 1 1 1 1 1 1 1 1 1 1 1 1 1 1 1 1 1 1 1 1 1 1 1 1 1 1 1 1 1 1 1 1 1 1 1 1 1 1 1 1 1 0.049083881773078368 1 1 1 0.04772288341154704 1 1 0.048875609763724015 1 1 1 1 1 1 1 1 1 1 1 0.048847273647823035 1 1 1 1 0.049587914226325178 1 1 1 1 1 1 1 1 1 1 1 1 1 1 1 1 1 1 1 1 1 1 1 1 1 1 1 1 1 0.04999910795114311 1 1 1 1 0.049999111904280677 1 1 1 1 1 1 1 1 1 1 0.049916827575368521 1 1 0.049774853380755851 1 1 1 1 1 1 1 1 1 1 1 1 0.050135345250868157 1 1 1 1 1 1 1 1 0.049677692943446698 1 1 1 1 1 1 1 1 1 1 0.049301916543316164 1 0.049835247346283529 1 1 1 0.048698158457089219 1 1 1 0.050409909293673165 1 0.047701011389817631 1 0.048810760711475984 0.050020527322370209 1 1 1 1 1 0.048004186624530806 1 1 1 1 1 1 1 1 1 1 1 1 1 1 1 1 1 1 1 1 1 1 1 0.049966505700130392 1 1 0.049374169662105671 1 1 1 0.049866111457530962 1 0.049609259033460515 1 1 1 1 1 1 1 1 1 1 1 1 0.049962698960267969 1 1 1 1 1 1 1 1 1 1 1 1 1 1 1 1 1 1 1 0.047488561114838505 1 1 1 1 1 1 1 1 1 1 1 1 1 1 1 1 1 1 1 1 1 1 1 1 1 1 1 0.049680917254737826 1 1 1 1 1 1 1 1 1 1 1 1 1 1 1 1 1 1 0.047967223405148821 1 1 1 0.048956893105632462 1 1 1 0.050037485354624267 0.049996641782740305 1 1 1 1 1 0.050247646081611808 1 1 1 1 1 1 1 0.051350204504016769 0.050802222061322275 1 1 1 0.050003097904243309 1 0.050033920056035193 1 1 1 1 1 1 0.038959675806260717 0.045792675670967273 1 1 0.049821579248220449 0.051649085160505606 1 1 1 1 1 1 1 1 1 1 0.049994610501863421 1 1 1 1 1 1 0.050019064567600649 1 1 1 1 1 1 1 1 1 1 1 1 1 1 1 1 1 0.050001519757992163 1 1 1 1 0.045880671017501977 1 1 0.05000882553463163 1 1 1 1 1 1 1 1 1 1 1 0.051450670946990157 1 0.050390138886959215 1 0.050975970926328967 1 1 1 1 1 1 1 1 1 1 1 1 1 1 1 1 1 1 1 0.049483648094316636 1 1 0.048408282586560672 1 1 1 0.050046886450630171 1 1 0.050164149967463378 1 1 1 1 0.048075118112440626 1 1 1 1 1 1 1 0.046972096764502411 1 1 1 1 1 1 1 1 1 1 1 1 1 1 1 1 1 1 1 1 1 1 1 1 1 1 1 1 1 0.047907691515624684 1 1 1 1 1 1 1 1 1 1 1 1 1 1 1 1 1 1 1 1 1 1 1 1 1 1 1 1 1 1 1 1 1 1 1 1 1 0.051128330831308903 0.043393756208469463 0.045305976283089432 1 1 0.05012962637038517 1 1 1 0.048779981302226404 1 0.050134675944227818 1 1 1 1 1 0.049181796749037443 1 1 1 1 1 1 1 0.048979357343564581 1 1 1 1 1 1 1 1 1 1 1 1 1 1 0.032772839109035092 1 1 1 0.049636941344764617 1 0.049244072145684284 1 1 1 1 1 1 1 1 0.032331956352151588 1 1 1 1 1 1 1 0.050000298383414701 1 0.049955367147725721 1 0.051494267322503937 1 1 1 1 1 1 1 1 0.04411586243529439 1 1 0.050467005752793691 0.047875820328705201 0.047060906456021692 1 0.039090998945379318 1 0.056910606420077323 1 1 1 1 1 1 1 1 1 1 1 1 1 1 1 1 1 1 1 1 1 0.047410739715575086 1 1 0.036190745575950103 0.054083845441902048 1 1 1 0.050096664095536543 1 1 1 1 1 1 1 0.045829117113245887 1 0.048755436350936342 1 1 1 1 0.050419000020066496 1 1 0.030766907292469725 1 1 1 1 1 1 1 0.023396761248984883 1 1 0.022602745574555085 1 1 1 0.022909629993252811 1 1 1 1 1 1 1 1 1 0.049103069556284615 1 1 1 1 1 1 0.053185740122890804 1 1 0.048597073863759527 1 1 1 1 0.051600926411806296 1 1 1 1 1 1 0.032675282740761195 0.039837069063580172 0.051167533349010759 1 1 1 0.050023920173629444 1 0.049997564725971173 1 0.038881294915402785 1 1 1 1 1 1 0.051709547235379905 1 1 1 0.02471915287834716 1 1 1 0.042404902066555492 1 1 1 1 1 1 1 1 1 1 1 1 0.04985656378843166 1 1 1 0.049969106721567055 1 1 1 1 1 0.049588838821869687 0.050955109669860714 1 1 0.047553456259071057 1 0.047361677254236165 0.050608124609957561 0.050987530589704955 1 1 1 0.050290382216231534 1 1 1 1 1 0.045283809368111314 1 1 1 1 1 1 1 1 1 1 1 1 0.049524644146637764 1 1 1 1 1 1 0.042157235110281209 1 1 0.040944625143060492 1 1 0.049998806450267365 1 1 1 1 1 0.048199479099054601 1 1 0.030021369484526737 1 0.04944031618779763 1 0.049551061888104042 1 1 1 1 1 1 0.04907570603474181 1 1 1 1 0.049841843379288889 1 1 1 1 1 1 1 1 1 1 0.049640666443972012 1 1 1 1 1 0.049972278039005155 1 1 1 1 1 1 1 1 1 1 1 1 1 1 1 0.049718776354325991 1 1 1 1 1 0.049125828675835932 1 0.0502843884503483 1 1 1 1 1 0.049376126649763638 1 1 1 1 1 0.049913448828096556 1 1 1 1 1 0.050098684820422429 1 1 1 1 1 1 1 1 1 1 0.049305921566850625 1 0.049994377528640131 1 0.042972991012336439 1 1 0.043805338886744503 1 1 1 1 1 1 1 1 0.055229724377854984 1 0.043371790954444649 1 1 1 1 1 1 1 1 1 1 0.046351928560353473 1 1 1 1 1 1 1 1 1 1 0.050141092210151575 1 1 1 0.038882079480634678 1 0.047152047602758998 0.04751901510777614 1 1 1 0.04874723558175606 1 1 1 0.048847104983107972 0.050011061257571085 1 1 1 1 1 1 1 1 1 1 0.049904568056114595 0.05001391041407259 1 1 1 1 1 0.049960148267656469 1 1 1 1 1 1 1 1 1 1 0.049709300834080691 1 0.049261297586289797 0.049582165441247585 0.049393327516102196 1 1 1 1 1 1 1 1 0.049785794661198333 1 1 1 1 1 1 1 1 1 1 1 1 1 1 1 1 1 1 1 1 1 1 1 1 1 1 1 1 1 0.04992981091074896 1 1 1 1 0.049951082500659591 1 1 1 1 1 1 1 1 0.049684745517140944 1 1 1 1 1 1 1 1 0.049978562339225145 1 1 1 1 1 1 1 1 1 1 1 1 1 1 1 1 1 1 1 1 1 1 1 1 1 1 0.050877205387321239 1 1 1 1 1 1 0.052668882664176228 1 0.049288734588580435 1 1 0.049294069153706883 1 1 1 0.048684900160169652 1 0.042309913131139 1 1 1 0.049928861728550308 1 1 1 0.042150469758436206 1 1 1 1 1 1 0.047509581169871307 1 1 1 1 1 1 1 1 1 1 1 1 1 1 1 1 1 1 1 1 1 1 1 1 1 1 1 0.047101664043684759 1 0.043457206454878092 1 1 1 1 0.046355542411193329 1 1 1 1 1 1 1 1 1 1 1 1 1 0.049410749000517833 1 1 0.049095494517658815 1 1 0.049826420680138581 1 1 1 1 1 0.049500553810116664 1 1 1 1 1 1 1 1 0.037915369308717251 1 0.041533967189865142 1 1 1 1 1 0.049767167566647487 0.056499987493262009 1 1 0.052817138411988686 1 1 1 0.034717441491734773 1 1 1 1 1 1 1 0.051857243178299928 1 1 1 1 1 1 1 1 1 1 1 1 1 1 1 1 0.043965747900552438 1 1 1 1 1 0.048099520062237937 1 0.048723599232204803 1 1 1 1 1 1 1 1 1 1 1 1 0.049226789426676 1 0.049720623151422838 1 1 1 1 1 1 0.049287108722549329 0.049850868596642867 1 1 1 1 1 1 1 1 1 1 1 1 1 1 1 1 1 1 1 1 1 0.0491123176317107 1 1 0.05223201075728072 1 1 1 1 1 0.043543400913710603 1 1 1 1 1 1 0.05002588265207436 1 1 1 1 1 1 1 1 1 1 1 1 1 1 1 1 0.049851780097726311 1 1 0.046542734982105295 1 1 1 1 0.041482075650230661 1 1 1 1 1 1 1 1 1 1 1 0.045881789287009464 1 1 1 1 1 1 1 1 1 1 1 1 1 1 1 1 1 1 1 0.049566485571126487 1 1 1 1 1 1 1 1 1 1 1 1 0.047865777826957681 1 1 1 1 1 1 1 1 1 1 1 1 1 0.050009082880508426 0.028749024324333031 1 1 1 1 1 1 0.049843146282401517 1 1 1 1 1 1 1 1 1 1 1 1 1 1 1 1 1 1 1 1 1 1 1 1 1 1 1 1 1 1 1 1 1 1 1 0.05098027653325872 1 1 1 1 1 1 1 1 0.050163074243627585 1 1 1 1 1 1 1 1 1 1 1 1 0.050014854341353873 1 1 1 1 0.039074902407721226 1 0.032630035860596984 1 1 1 1 1 1 1 1 0.047533170948856542 1 1 1 1 1 1 1 1 1 1 0.043133457312077753 1 1 1 0.041384783675746398 1 1 0.049882559834833112 1 1 1 1 0.036186466123771827 1 1 0.031495396523081899 1 1 1 1 1 1 1 1 0.049962817710901421 1 1 1 0.050474134320885912 1 1 1 1 1 1 1 0.034343366716792618 1 0.050089497337426882 1 0.049826830487252727 1 0.050509622083250806 0.028576654239791222 1 1 1 0.05001159839391392 0.049983088724025682 0.046680318221785651 1 1 0.053514147681980317 1 1 1 0.027039791422443886 1 1 1 1 0.053176521987604163 1 1 1 1 1 1 1 1 1 1 1 1 1 1 1 1 1 1 1 1 1 1 1 1 1 1 1 1 1 1 1 1 1 1 1 1 1 1 0.050325403475561303 1 1 1 1 1 1 1 1 0.045581107937257614 1 1 1 1 0.044474827735092697 1 1 0.048304814731241721 1 1 0.046141204792114456 1 1 1 1 0.049018145068033633 1 1 1 1 1 0.04806096438833795 1 1 1 1 1 1 1 1 1 1 1 1 1 0.048936293535103453 0.049294621391666273 1 1 1 0.049234674303672697 1 1 1 1 1 1 1 1 1 1 1 1 1 1 0.045295990362681879 1 1 1 1 1 1 0.048704349576533856 1 1 0.046570127403491535 1 1 1 1 1 1 1 1 1 1 0.037442011043260635 1 1 1 1 1 0.033507076412844825 1 1 1 1 1 1 1 1 1 1 0.039331634668903742 1 1 1 1 1 1 1 1 1 1 1 1 1 1 1 0.050134881248239546 1 1 1 1 1 1 1 1 1 1 1 1 1 1 1 1 1 1 1 1 1 1 1 0.049989716170263862 1 0.047068997225844275 1 1 1 0.050315119645825163 1 1 1 1 1 1 1 1 1 0.04862106124319477 1 1 1 0.040880317614510608 1 1 1 1 1 1 1 1 1 1 1 1 1 1 1 1 0.052143784046545287 1 1 1 1 1 0.049575934007804641 1 1 1 0.050552273723152213 1 0.050210659957879065 1 1 1 1 1 1 0.049253660482024141 1 1 1 1 1 1 1 1 1 1 1 1 1 1 1 1 1 1 1 1 1 1 1 1 1 1 1 0.049650077417929886 1 1 0.049866550074726644 1 1 1 1 1 1 1 0.047775702896114401 1 1 1 1 0.04871991784976161 1 1 0.048724197241738584 1 1 1 1 1 1 0.047131690800276682 1 1 1 0.04899908622058638 1 1 1 0.04899438246472132 1 1 1 1 1 0.045289105377939391 1 1 1 1 1 0.045681325342298393 1 1 1 1 1 1 1 1 0.047085302285531837 1 1 0.049935226361877944 1 1 1 1 0.04984859324100134 1 1 1 1 0.049762103990980619 1 1 1 1 0.053781003686952086 1 1 1 0.052877524008363694 1 0.050151952821978305 1 1 1 1 1 1 1 1 1 1 0.050542620652859187 1 1 1 1 1 1 1 0.051369248997796352 0.043572447417981282 1 1 1 1 1 0.046757890443299768 1 1 1 1 1 0.044352125110051481 1 1 1 0.039391914401576217 1 1 0.049654535745334204 1 1 0.049967047749299269 1 1 1 0.048413087386274645 1 1 1 1 1 1 0.040585255264556697 1 1 1 1 1 0.044064001361183422 1 1 1 1 1 0.04703206480662396 1 1 1 1 1 1 0.042709052184288977 1 1 1 1 0.053856195657291828 1 1 1 1 1 0.049400183971634079 1 1 1 1 1 1 1 1 1 1 0.05069945336936621 1 1 1 1 1 1 1 0.047195185185785235 1 1 1 1 0.048740532624295341 0.046469626713147902 1 1 0.054434878098608669 1 1 1 1 1 1 1 0.051577775173746378 1 1 1 1 1 1 1 0.058153840696298122 1 0.045845085121359014 1 1 0.049193220452222047 1 1 1 1 0.049479926763680834 1 0.053522333914121124 1 1 1 1 1 1 1 1 1 1 0.049915006615938146 1 1 1 1 1 0.053842953925414778 1 1 1 0.058255372946856343 1 1 1 1 0.049666424423979845 1 1 0.041544037774986831 1 1 1 1 1 0.053706786153637442 1 0.049593869060557558 1 0.050018588403844579 0.048048430997905761 1 1 1 1 0.05240991120174969 0.049681022442714676 1 1 1 1 1 1 1 1 1 1 1 1 1 0.049895443194969254 1 1 1 1 1 1 0.047825671484466953 0.050872244604494833 1 1 1 1 1 1 1 1 1 1 1 1 1 0.052831550482853096 1 1 1 1 1 1 1 1 1 1 1 1 1 1 1 1 1 1 1 1 1 1 1 1 1 1 1 1 1 1 1 1 1 0.049443739152952117 1 1 0.048664439960458661 1 1 1 1 1 1 1 0.048515322199172838 1 1 1 0.050056254961542361 1 1 0.038796756281709949 1 1 1 0.043616698054784152 0.049998125316912875 1 1 1 1 0.051151168770326202 0.046617779117215381 1 1 1 1 1 1 1 1 1 1 1 1 1 1 0.044101477270106361 1 1 0.049999352593760947 1 1 1 0.042395409013464863 1 1 1 1 0.05018041260981744 1 1 0.034907917007055075 1 1 1 1 1 1 1 1 1 1 1 0.029213632056929298 1 1 1 1 1 1 1 0.02546887650510276 1 1 1 1 1 1 1 1 1 1 1 1 1 1 1 1 1 1 0.049994029721264696 1 1 1 1 1 1 0.054554067211116497 1 0.049413109389082659 1 1 1 1 1 0.051604327830233603 1 1 0.05042028342720524 1 1 1 0.034512912696970474 1 1 1 0.050632564113242219 1 1 1 1 1 1 1 1 1 1 1 1 1 1 0.049741593878937188 1 1 1 1 0.049349031888472693 0.052460830753429298 1 1 1 1 1 1 1 1 1 1 1 1 1 1 1 1 1 1 1 0.05054208026188442 1 1 1 1 1 1 1 1 0.040552388648181968 1 0.04004513566251456 1 1 1 1 1 1 1 0.049987223193297389 1 0.048090691969959812 1 1 1 1 1 0.041291465628487629 1 1 1 1 1 1 0.04984373709528532 1 1 1 1 1 0.049846529301335776 0.048474724913948754 1 1 1 0.045856930051518356 0.0471736428130081 0.045001421389173318 1 1 1 1 1 0.047788374151361397 1 1 1 1 1 0.037715024350244965 1 1 1 1 0.036919790565021239 1 0.048255920276223212 0.031996024209299229 1 0.024749802756073858 0.052634516925845969 1 1 1 0.050523742662547319 1 1 1 0.034240198767626108 1 1 1 0.033523842548746852 1 1 1 0.0519433026252554 1 1 1 1 1 1 1 1 0.049269045705545925 1 1 1 0.053364049524448315 1 1 1 1 1 1 0.048952932772392904 1 1 1 1 1 1 0.056183123221784051 1 1 1 1 1 1 1 1 1 1 1 1 1 1 0.049662862307991308 1 0.044385350940721255 1 1 1 0.052703896606928112 1 1 0.049349280056330165 1 0.043868504870180694 1 0.046915822744985868 1 1 0.042337500485980908 1 1 1 1 1 1 0.045666100506175526 1 1 1 1 0.049379669720447619 1 1 1 1 1 1 0.048394282505169313 1 1 1 1 1 1 1 1 1 1 0.049022340519690524 1 1 1 1 1 1 1 1 1 1 1 1 1 1 1 1 1 1 1 0.008350095644538558 0.045607487867288243 1 1 1 0.036653534096694945 1 1 0.023320070575654085 1 1 0.041359575030405632 1 1 0.050447556534579198 1 1 0.040589248511828775 0.034685156273753057 1 1 1 1 0.037843346024933652 1 1 1 1 1 1 1 1 1 1 1 0.037414196404814103 0.047250098327912132 1 1 1 0.038685666132893412 1 0.049951397356355079 1 0.049971044072924756 1 1 1 1 1 0.049944418018281464 1 1 0.050216596118832661 1 0.034900727753074436 1 1 0.049968521446263174 0.050194161274586341 0.050301116283708709 1 1 1 1 0.05133666687276027 1 1 0.048949746096359728 1 0.048574961663484795 1 1 0.046470641903274983 1 1 1 1 1 1 1 1 0.050052972297398628 1 0.050883602169897305 0.047315311542880469 1 1 1 1 1 0.04998676838205502 0.048677750126529896 1 1 1 0.039443699196419102 0.040889845813467968 1 1 1 1 1 1 1 1 0.04996753225096022 1 0.049661174296845287 1 1 1 1 1 1 1 1 1 1 1 1 1 1 1 1 1 1 1 1 1 1 1 1 1 1 1 1 1 0.051098969811252878 1 1 1 1 1 1 1 1 1 1 1 1 1 1 1 0.048805340064417467 1 1 0.049063604368950409 1 1 1 1 1 0.049372850223441234 1 1 1 1 1 1 1 1 1 1 1 1 1 0.049690754145509178 1 1 1 1 1 1 1 1 1 0.048969834204638484 1 1 0.044630980973376796 1 1 1 1 0.049997339992424075 0.051833060498469682 0.042583242429099888 1 1 1 1 1 0.046579338895090146 1 1 1 
</DataArray>
</CellData>
</Piece>
</UnstructuredGrid>
</VTKFile>
