<?xml version="1.0"?>
<VTKFile type="UnstructuredGrid" version="0.1" byte_order="LittleEndian">
<UnstructuredGrid>
<Piece NumberOfPoints="29934" NumberOfCells="10516">
<Points>
<DataArray type="Float64" NumberOfComponents="3" format="ascii">
-0.5 -0.5 0 -0.46762736676955269 -0.47409617252917879 0 -0.43560460907974868 -0.50000000000000056 0 -0.5 -0.5 0 -0.46762736676955269 -0.47409617252917879 0 -0.49999999999999961 -0.44826748862051452 0 -0.46762736676955269 -0.47409617252917879 0 -0.43772196989477707 -0.47257531725526558 0 -0.43560460907974868 -0.50000000000000056 0 -0.46762736676955269 -0.47409617252917879 0 -0.43772196989477707 -0.47257531725526558 0 -0.45377708318226001 -0.4596327964651245 0 -0.43772196989477707 -0.47257531725526558 0 -0.43983933070980669 -0.44515063451053072 0 -0.45377708318226001 -0.4596327964651245 0 -0.43772196989477707 -0.47257531725526558 0 -0.43983933070980669 -0.44515063451053072 0 -0.46762736676955269 -0.47409617252917879 0 -0.45377708318226001 -0.4596327964651245 0 -0.46991966535490309 -0.44670906156552259 0 -0.43983933070980669 -0.44515063451053072 0 -0.46991966535490309 -0.44670906156552259 0 -0.43983933070980669 -0.44515063451053072 0 -0.45377708318226001 -0.4596327964651245 0 -0.46991966535490309 -0.44670906156552259 0 -0.43983933070980669 -0.44515063451053072 0 -0.46991966535490309 -0.44670906156552259 0 -0.45684144257326009 -0.43007718344363638 0 -0.46762736676955269 -0.47409617252917879 0 -0.46991966535490309 -0.44670906156552259 0 -0.49999999999999961 -0.44826748862051452 0 -0.46991966535490309 -0.44670906156552259 0 -0.49999999999999961 -0.44826748862051452 0 -0.46991966535490309 -0.44670906156552259 0 -0.49999999999999961 -0.44826748862051452 0 -0.48625309581259402 -0.43464866171576733 0 -0.5 -0.42476393632784593 0 -0.48625309581259402 -0.43464866171576733 0 -0.47509271789547319 -0.41885416034918632 0 -0.49999999999999961 -0.44826748862051452 0 -0.5 -0.42476393632784593 0 -0.48625309581259402 -0.43464866171576733 0 -0.5 -0.42476393632784593 0 -0.47509271789547319 -0.41885416034918632 0 -0.5 -0.40126038403517739 0 -0.46991966535490309 -0.44670906156552259 0 -0.48625309581259402 -0.43464866171576733 0 -0.47509271789547319 -0.41885416034918632 0 -0.5 -0.37775683174250879 0 -0.5 -0.40126038403517739 0 -0.48264375600015208 -0.37810847329754932 0 -0.5 -0.40126038403517739 0 -0.47437189542094338 -0.39359097651992597 0 -0.48264375600015208 -0.37810847329754932 0 -0.47509271789547319 -0.41885416034918632 0 -0.5 -0.40126038403517739 0 -0.47437189542094338 -0.39359097651992597 0 -0.47509271789547319 -0.41885416034918632 0 -0.47437189542094338 -0.39359097651992597 0 -0.45913213784758039 -0.4046238603719049 0 -0.47437189542094338 -0.39359097651992597 0 -0.48264375600015208 -0.37810847329754932 0 -0.46232592600273609 -0.3813298561100994 0 -0.47437189542094338 -0.39359097651992597 0 -0.46232592600273609 -0.3813298561100994 0 -0.45913213784758039 -0.4046238603719049 0 -0.46232592600273609 -0.3813298561100994 0 -0.45913213784758039 -0.4046238603719049 0 -0.44412567168299771 -0.38963268004040857 0 -0.44412567168299771 -0.38963268004040857 0 -0.44198250119640148 -0.41739165727546951 0 -0.44412567168299771 -0.38963268004040857 0 -0.44198250119640148 -0.41739165727546951 0 -0.43218985944351013 -0.40342574304108619 0 -0.45913213784758039 -0.4046238603719049 0 -0.44412567168299771 -0.38963268004040857 0 -0.44198250119640148 -0.41739165727546951 0 -0.44412567168299771 -0.38963268004040857 0 -0.44626884216959378 -0.36187370280534759 0 -0.46232592600273609 -0.3813298561100994 0 -0.44412567168299771 -0.38963268004040857 0 -0.44626884216959378 -0.36187370280534759 0 -0.44412567168299771 -0.38963268004040857 0 -0.43791474735390912 -0.38332244439929392 0 -0.44626884216959378 -0.36187370280534759 0 -0.46991966535490309 -0.44670906156552259 0 -0.47509271789547319 -0.41885416034918632 0 -0.45684144257326009 -0.43007718344363638 0 -0.47509271789547319 -0.41885416034918632 0 -0.45913213784758039 -0.4046238603719049 0 -0.45684144257326009 -0.43007718344363638 0 -0.45913213784758039 -0.4046238603719049 0 -0.45684144257326009 -0.43007718344363638 0 -0.44198250119640148 -0.41739165727546951 0 -0.43983933070980669 -0.44515063451053072 0 -0.45684144257326009 -0.43007718344363638 0 -0.44198250119640148 -0.41739165727546951 0 -0.43983933070980669 -0.44515063451053072 0 -0.44198250119640148 -0.41739165727546951 0 -0.43983933070980669 -0.44515063451053072 0 -0.44198250119640148 -0.41739165727546951 0 -0.42702082230643101 -0.42877332507398619 0 -0.44198250119640148 -0.41739165727546951 0 -0.42702082230643101 -0.42877332507398619 0 -0.42662463509224258 -0.41514759188608569 0 -0.44198250119640148 -0.41739165727546951 0 -0.42662463509224258 -0.41514759188608569 0 -0.43218985944351013 -0.40342574304108619 0 -0.42662463509224258 -0.41514759188608569 0 -0.43218985944351013 -0.40342574304108619 0 -0.41902822484986341 -0.40383216776077019 0 -0.41056900679878189 -0.42194665790661928 0 -0.41902822484986341 -0.40383216776077019 0 -0.40532883761082872 -0.40142899444776797 0 -0.42662463509224258 -0.41514759188608569 0 -0.41056900679878189 -0.42194665790661928 0 -0.41902822484986341 -0.40383216776077019 0 -0.41056900679878189 -0.42194665790661928 0 -0.39727600112878991 -0.44294547804694051 0 -0.41855766591929838 -0.44404805627873573 0 -0.42702082230643101 -0.42877332507398619 0 -0.42662463509224258 -0.41514759188608569 0 -0.41056900679878189 -0.42194665790661928 0 -0.42702082230643101 -0.42877332507398619 0 -0.41056900679878189 -0.42194665790661928 0 -0.41855766591929838 -0.44404805627873573 0 -0.42742859016246981 -0.37678441008047658 0 -0.42918826439604529 -0.3911246182426969 0 -0.41343349607248392 -0.39041141666690432 0 -0.43791474735390912 -0.38332244439929392 0 -0.42742859016246981 -0.37678441008047658 0 -0.42918826439604529 -0.3911246182426969 0 -0.44412567168299771 -0.38963268004040857 0 -0.43791474735390912 -0.38332244439929392 0 -0.42918826439604529 -0.3911246182426969 0 -0.44412567168299771 -0.38963268004040857 0 -0.42918826439604529 -0.3911246182426969 0 -0.43218985944351013 -0.40342574304108619 0 -0.42918826439604529 -0.3911246182426969 0 -0.43218985944351013 -0.40342574304108619 0 -0.41902822484986341 -0.40383216776077019 0 -0.42918826439604529 -0.3911246182426969 0 -0.41902822484986341 -0.40383216776077019 0 -0.41343349607248392 -0.39041141666690432 0 -0.41902822484986341 -0.40383216776077019 0 -0.41343349607248392 -0.39041141666690432 0 -0.40532883761082872 -0.40142899444776797 0 -0.42742859016246981 -0.37678441008047658 0 -0.40468887922437252 -0.37724770059752027 0 -0.42742859016246981 -0.37678441008047658 0 -0.41343349607248392 -0.39041141666690432 0 -0.40468887922437252 -0.37724770059752027 0 -0.40468887922437252 -0.37724770059752027 0 -0.38194916828627518 -0.37771099111456408 0 -0.40468887922437252 -0.37724770059752027 0 -0.39493818019132387 -0.39205060887219378 0 -0.38194916828627518 -0.37771099111456408 0 -0.41343349607248392 -0.39041141666690432 0 -0.40468887922437252 -0.37724770059752027 0 -0.39493818019132387 -0.39205060887219378 0 -0.39493818019132387 -0.39205060887219378 0 -0.40532883761082872 -0.40142899444776797 0 -0.39277456519772042 -0.4099560525308672 0 -0.41343349607248392 -0.39041141666690432 0 -0.39493818019132387 -0.39205060887219378 0 -0.40532883761082872 -0.40142899444776797 0 -0.39493818019132387 -0.39205060887219378 0 -0.37598509500569272 -0.39823253503515998 0 -0.39277456519772042 -0.4099560525308672 0 -0.39493818019132387 -0.39205060887219378 0 -0.37598509500569272 -0.39823253503515998 0 -0.38194916828627518 -0.37771099111456408 0 -0.37598509500569272 -0.39823253503515998 0 -0.38194916828627518 -0.37771099111456408 0 -0.36794806572274641 -0.38789943445554981 0 -0.41056900679878189 -0.42194665790661928 0 -0.39030060063932043 -0.42731579243036771 0 -0.39727600112878991 -0.44294547804694051 0 -0.41056900679878189 -0.42194665790661928 0 -0.40532883761082872 -0.40142899444776797 0 -0.39277456519772042 -0.4099560525308672 0 -0.41056900679878189 -0.42194665790661928 0 -0.39277456519772042 -0.4099560525308672 0 -0.39030060063932043 -0.42731579243036771 0 -0.39277456519772042 -0.4099560525308672 0 -0.39030060063932043 -0.42731579243036771 0 -0.37488909373302781 -0.41988787385226561 0 -0.37598509500569272 -0.39823253503515998 0 -0.39277456519772042 -0.4099560525308672 0 -0.37488909373302781 -0.41988787385226561 0 -0.39030060063932043 -0.42731579243036771 0 -0.3759943363382815 -0.44184289981514541 0 -0.39727600112878991 -0.44294547804694051 0 -0.39030060063932043 -0.42731579243036771 0 -0.3759943363382815 -0.44184289981514541 0 -0.37488909373302781 -0.41988787385226561 0 -0.3759943363382815 -0.44184289981514541 0 -0.39727600112878991 -0.44294547804694051 0 -0.3759943363382815 -0.44184289981514541 0 -0.39727600112878991 -0.44294547804694051 0 -0.38920447147529519 -0.46172994394109163 0 -0.39727600112878991 -0.44294547804694051 0 -0.40597569155464153 -0.45637079042433382 0 -0.38920447147529519 -0.46172994394109163 0 -0.40597569155464153 -0.45637079042433382 0 -0.38920447147529519 -0.46172994394109163 0 -0.4135995120771444 -0.47043496429189152 0 -0.3759943363382815 -0.44184289981514541 0 -0.38920447147529519 -0.46172994394109163 0 -0.37310865864376852 -0.45653282154445002 0 -0.38920447147529519 -0.46172994394109163 0 -0.37427480159930482 -0.46751936413266731 0 -0.37310865864376852 -0.45653282154445002 0 -0.38920447147529519 -0.46172994394109163 0 -0.38007567615417798 -0.47700737555269518 0 -0.39219890587423079 -0.48177022503521377 0 -0.38920447147529519 -0.46172994394109163 0 -0.38007567615417798 -0.47700737555269518 0 -0.37427480159930482 -0.46751936413266731 0 -0.38007567615417798 -0.47700737555269518 0 -0.39219890587423079 -0.48177022503521377 0 -0.37266329855325669 -0.48748192881742952 0 -0.38054789694558239 -0.5 0 -0.39219890587423079 -0.48177022503521377 0 -0.37266329855325669 -0.48748192881742952 0 -0.39219890587423079 -0.48177022503521377 0 -0.37266329855325669 -0.48748192881742952 0 -0.38054789694558239 -0.5 0 -0.39219890587423079 -0.48177022503521377 0 -0.40807625301266559 -0.5 0 -0.38920447147529519 -0.46172994394109163 0 -0.39219890587423079 -0.48177022503521377 0 -0.4135995120771444 -0.47043496429189152 0 -0.39219890587423079 -0.48177022503521377 0 -0.4135995120771444 -0.47043496429189152 0 -0.42184043104620728 -0.48727294814781918 0 -0.39219890587423079 -0.48177022503521377 0 -0.42184043104620728 -0.48727294814781918 0 -0.40807625301266559 -0.5 0 -0.42184043104620728 -0.48727294814781918 0 -0.40807625301266559 -0.5 0 -0.43560460907974868 -0.50000000000000056 0 -0.43772196989477707 -0.47257531725526558 0 -0.43560460907974868 -0.50000000000000056 0 -0.43772196989477707 -0.47257531725526558 0 -0.42184043104620728 -0.48727294814781918 0 -0.43560460907974868 -0.50000000000000056 0 -0.43772196989477707 -0.47257531725526558 0 -0.4135995120771444 -0.47043496429189152 0 -0.42184043104620728 -0.48727294814781918 0 -0.43772196989477707 -0.47257531725526558 0 -0.43983933070980669 -0.44515063451053072 0 -0.42576502276806111 -0.45788901729483128 0 -0.43772196989477707 -0.47257531725526558 0 -0.4135995120771444 -0.47043496429189152 0 -0.42576502276806111 -0.45788901729483128 0 -0.43983933070980669 -0.44515063451053072 0 -0.42576502276806111 -0.45788901729483128 0 -0.41855766591929838 -0.44404805627873573 0 -0.43983933070980669 -0.44515063451053072 0 -0.42702082230643101 -0.42877332507398619 0 -0.41855766591929838 -0.44404805627873573 0 -0.43983933070980669 -0.44515063451053072 0 -0.41855766591929838 -0.44404805627873573 0 -0.40597569155464153 -0.45637079042433382 0 -0.42576502276806111 -0.45788901729483128 0 -0.41855766591929838 -0.44404805627873573 0 -0.39727600112878991 -0.44294547804694051 0 -0.41855766591929838 -0.44404805627873573 0 -0.39727600112878991 -0.44294547804694051 0 -0.40597569155464153 -0.45637079042433382 0 -0.41855766591929838 -0.44404805627873573 0 -0.40597569155464153 -0.45637079042433382 0 -0.4135995120771444 -0.47043496429189152 0 -0.42576502276806111 -0.45788901729483128 0 -0.45462712384395731 -0.25361476952217549 0 -0.43193696180114138 -0.26239194143137751 0 -0.43534344162737859 -0.24047631527095989 0 -0.45253755342536639 -0.28067950284296861 0 -0.45462712384395731 -0.25361476952217549 0 -0.43193696180114138 -0.26239194143137751 0 -0.45253755342536639 -0.28067950284296861 0 -0.43007187623913462 -0.28321138058685241 0 -0.43193696180114138 -0.26239194143137751 0 -0.45253755342536639 -0.28067950284296861 0 -0.45462712384395731 -0.25361476952217549 0 -0.45253755342536639 -0.28067950284296861 0 -0.46894235272216578 -0.26490046219189928 0 -0.47290563571084188 -0.27763288487760102 0 -0.45253755342536639 -0.28067950284296861 0 -0.45462712384395731 -0.25361476952217549 0 -0.46894235272216578 -0.26490046219189928 0 -0.45462712384395731 -0.25361476952217549 0 -0.46894235272216578 -0.26490046219189928 0 -0.47835834713127418 -0.24540240771098509 0 -0.46894235272216578 -0.26490046219189928 0 -0.48317427297311188 -0.26799484265998752 0 -0.47835834713127418 -0.24540240771098509 0 -0.50000000000000089 -0.2642547792205876 0 -0.48317427297311188 -0.26799484265998752 0 -0.47835834713127418 -0.24540240771098509 0 -0.50000000000000089 -0.2642547792205876 0 -0.47835834713127418 -0.24540240771098509 0 -0.50000000000000089 -0.2642547792205876 0 -0.49295224504147628 -0.27473077950044222 0 -0.48317427297311188 -0.26799484265998752 0 -0.50000000000000089 -0.2642547792205876 0 -0.49295224504147628 -0.27473077950044222 0 -0.50000000000000067 -0.28221430152839228 0 -0.49295224504147628 -0.27473077950044222 0 -0.50000000000000067 -0.28221430152839228 0 -0.49371030253098858 -0.28144126851717882 0 -0.49295224504147628 -0.27473077950044222 0 -0.48538206319343552 -0.28115610139215891 0 -0.49371030253098858 -0.28144126851717882 0 -0.49295224504147628 -0.27473077950044222 0 -0.48538206319343552 -0.28115610139215891 0 -0.48317427297311188 -0.26799484265998752 0 -0.48538206319343552 -0.28115610139215891 0 -0.48317427297311188 -0.26799484265998752 0 -0.47290563571084188 -0.27763288487760102 0 -0.46894235272216578 -0.26490046219189928 0 -0.48317427297311188 -0.26799484265998752 0 -0.47290563571084188 -0.27763288487760102 0 -0.48538206319343552 -0.28115610139215891 0 -0.47290563571084188 -0.27763288487760102 0 -0.47109253045449428 -0.29035816410203502 0 -0.48538206319343552 -0.28115610139215891 0 -0.47109253045449428 -0.29035816410203502 0 -0.48782200501787748 -0.29335706137385043 0 -0.48538206319343552 -0.28115610139215891 0 -0.49139083793147709 -0.28512692703917369 0 -0.48782200501787748 -0.29335706137385043 0 -0.48782200501787748 -0.29335706137385043 0 -0.49847159547866338 -0.28512832062128951 0 -0.48957028302047589 -0.30209934765823121 0 -0.48538206319343552 -0.28115610139215891 0 -0.48782200501787748 -0.29335706137385043 0 -0.49847159547866338 -0.28512832062128951 0 -0.48957028302047589 -0.30209934765823121 0 -0.48538206319343552 -0.28115610139215891 0 -0.49139083793147709 -0.28512692703917369 0 -0.49371030253098858 -0.28144126851717882 0 -0.50000000000000044 -0.28394735083494432 0 -0.49847159547866338 -0.28512832062128951 0 -0.5 -0.30738266037324291 0 -0.48782200501787748 -0.29335706137385043 0 -0.49847159547866338 -0.28512832062128951 0 -0.49139083793147709 -0.28512692703917369 0 -0.48782200501787748 -0.29335706137385043 0 -0.49847159547866338 -0.28512832062128951 0 -0.50000000000000044 -0.28394735083494432 0 -0.49847159547866338 -0.28512832062128951 0 -0.49847159547866338 -0.28512832062128951 0 -0.50000000000000067 -0.28221430152839228 0 -0.50000000000000044 -0.28394735083494432 0 -0.49847159547866338 -0.28512832062128951 0 -0.50000000000000067 -0.28221430152839228 0 -0.49847159547866338 -0.28512832062128951 0 -0.50000000000000067 -0.28221430152839228 0 -0.49371030253098858 -0.28144126851717882 0 -0.49139083793147709 -0.28512692703917369 0 -0.49847159547866338 -0.28512832062128951 0 -0.49371030253098858 -0.28144126851717882 0 -0.49847159547866338 -0.28512832062128951 0 -0.5 -0.30738266037324291 0 -0.48957028302047589 -0.30209934765823121 0 -0.48782200501787748 -0.29335706137385043 0 -0.48957028302047589 -0.30209934765823121 0 -0.48162704183627469 -0.30564918228004501 0 -0.48782200501787748 -0.29335706137385043 0 -0.48957028302047589 -0.30209934765823121 0 -0.48957028302047589 -0.30209934765823121 0 -0.48146960534982441 -0.31754390377419778 0 -0.48782200501787748 -0.29335706137385043 0 -0.46977322335036498 -0.30730301974552587 0 -0.48782200501787748 -0.29335706137385043 0 -0.48162704183627469 -0.30564918228004501 0 -0.46977322335036498 -0.30730301974552587 0 -0.48957028302047589 -0.30209934765823121 0 -0.48162704183627469 -0.30564918228004501 0 -0.48146960534982441 -0.31754390377419778 0 -0.47109253045449428 -0.29035816410203502 0 -0.48782200501787748 -0.29335706137385043 0 -0.46977322335036498 -0.30730301974552587 0 -0.48162704183627469 -0.30564918228004501 0 -0.46977322335036498 -0.30730301974552587 0 -0.48146960534982441 -0.31754390377419778 0 -0.47109253045449428 -0.29035816410203502 0 -0.46977322335036498 -0.30730301974552587 0 -0.46096282255925031 -0.29652123071357278 0 -0.46977322335036498 -0.30730301974552587 0 -0.46096282255925031 -0.29652123071357278 0 -0.45044798300677558 -0.30774423616376162 0 -0.46977322335036498 -0.30730301974552587 0 -0.45044798300677558 -0.30774423616376162 0 -0.45172444168285297 -0.32124897811720232 0 -0.45253755342536639 -0.28067950284296861 0 -0.46096282255925031 -0.29652123071357278 0 -0.45044798300677558 -0.30774423616376162 0 -0.45253755342536639 -0.28067950284296861 0 -0.47109253045449428 -0.29035816410203502 0 -0.46096282255925031 -0.29652123071357278 0 -0.45253755342536639 -0.28067950284296861 0 -0.47290563571084188 -0.27763288487760102 0 -0.47109253045449428 -0.29035816410203502 0 -0.45253755342536639 -0.28067950284296861 0 -0.45044798300677558 -0.30774423616376162 0 -0.45253755342536639 -0.28067950284296861 0 -0.43722289379486279 -0.29900432221361373 0 -0.43007187623913462 -0.28321138058685241 0 -0.45253755342536639 -0.28067950284296861 0 -0.45044798300677558 -0.30774423616376162 0 -0.43722289379486279 -0.29900432221361373 0 -0.45044798300677558 -0.30774423616376162 0 -0.43846014752285439 -0.31291573011853863 0 -0.43722289379486279 -0.29900432221361373 0 -0.45044798300677558 -0.30774423616376162 0 -0.44835841258818482 -0.33480896948455457 0 -0.45044798300677558 -0.30774423616376162 0 -0.45172444168285297 -0.32124897811720232 0 -0.44835841258818482 -0.33480896948455457 0 -0.45044798300677558 -0.30774423616376162 0 -0.43846014752285439 -0.31291573011853863 0 -0.44470045775542749 -0.32636555832019198 0 -0.45044798300677558 -0.30774423616376162 0 -0.44470045775542749 -0.32636555832019198 0 -0.44835841258818482 -0.33480896948455457 0 -0.43846014752285439 -0.31291573011853863 0 -0.44470045775542749 -0.32636555832019198 0 -0.43160087037746492 -0.32079554726749349 0 -0.44835841258818482 -0.33480896948455457 0 -0.43370168970333328 -0.35119207997395052 0 -0.4319620785306067 -0.34252641260057459 0 -0.44470045775542749 -0.32636555832019198 0 -0.44835841258818482 -0.33480896948455457 0 -0.43746893959405508 -0.33524328474539539 0 -0.44835841258818482 -0.33480896948455457 0 -0.4319620785306067 -0.34252641260057459 0 -0.43746893959405508 -0.33524328474539539 0 -0.45172444168285297 -0.32124897811720232 0 -0.44835841258818482 -0.33480896948455457 0 -0.46044855845169758 -0.33131985269495212 0 -0.44835841258818482 -0.33480896948455457 0 -0.46044855845169758 -0.33131985269495212 0 -0.4617215826786773 -0.34568488418603088 0 -0.46044855845169758 -0.33131985269495212 0 -0.47336892767917138 -0.33298845989016351 0 -0.4617215826786773 -0.34568488418603088 0 -0.46044855845169758 -0.33131985269495212 0 -0.46706942762960119 -0.32186797179680932 0 -0.47336892767917138 -0.33298845989016351 0 -0.46977322335036498 -0.30730301974552587 0 -0.45172444168285297 -0.32124897811720232 0 -0.46706942762960119 -0.32186797179680932 0 -0.46977322335036498 -0.30730301974552587 0 -0.45172444168285297 -0.32124897811720232 0 -0.45172444168285297 -0.32124897811720232 0 -0.46044855845169758 -0.33131985269495212 0 -0.46706942762960119 -0.32186797179680932 0 -0.46977322335036498 -0.30730301974552587 0 -0.46706942762960119 -0.32186797179680932 0 -0.48146960534982441 -0.31754390377419778 0 -0.48146960534982441 -0.31754390377419778 0 -0.49478514151023772 -0.32817631355403593 0 -0.47336892767917138 -0.33298845989016351 0 -0.46706942762960119 -0.32186797179680932 0 -0.48146960534982441 -0.31754390377419778 0 -0.47336892767917138 -0.33298845989016351 0 -0.48146960534982441 -0.31754390377419778 0 -0.47336892767917138 -0.33298845989016351 0 -0.48957028302047589 -0.30209934765823121 0 -0.48146960534982441 -0.31754390377419778 0 -0.49478514151023772 -0.32817631355403593 0 -0.5 -0.30738266037324291 0 -0.48957028302047589 -0.30209934765823121 0 -0.49478514151023772 -0.32817631355403593 0 -0.5 -0.30738266037324291 0 -0.49478514151023772 -0.32817631355403593 0 -0.5 -0.33081796991154172 0 -0.48957028302047589 -0.30209934765823121 0 -0.49478514151023772 -0.32817631355403593 0 -0.49478514151023772 -0.32817631355403593 0 -0.47336892767917138 -0.33298845989016351 0 -0.48544344367290942 -0.34517506568458001 0 -0.49478514151023772 -0.32817631355403593 0 -0.48544344367290942 -0.34517506568458001 0 -0.50000000000000044 -0.35425327944984031 0 -0.49478514151023772 -0.32817631355403593 0 -0.50000000000000044 -0.35425327944984031 0 -0.49478514151023772 -0.32817631355403593 0 -0.5 -0.33081796991154172 0 -0.50000000000000044 -0.35425327944984031 0 -0.47336892767917138 -0.33298845989016351 0 -0.47426424023603109 -0.35027086433491839 0 -0.4617215826786773 -0.34568488418603088 0 -0.47336892767917138 -0.33298845989016351 0 -0.47426424023603109 -0.35027086433491839 0 -0.48544344367290942 -0.34517506568458001 0 -0.47426424023603109 -0.35027086433491839 0 -0.48841059223073141 -0.36207190937526279 0 -0.4673397172001626 -0.36197280609030519 0 -0.47426424023603109 -0.35027086433491839 0 -0.48544344367290942 -0.34517506568458001 0 -0.48841059223073141 -0.36207190937526279 0 -0.48544344367290942 -0.34517506568458001 0 -0.50000000000000044 -0.35425327944984031 0 -0.48841059223073141 -0.36207190937526279 0 -0.5 -0.37775683174250879 0 -0.50000000000000044 -0.35425327944984031 0 -0.48841059223073141 -0.36207190937526279 0 -0.5 -0.37775683174250879 0 -0.48264375600015208 -0.37810847329754932 0 -0.48841059223073141 -0.36207190937526279 0 -0.48264375600015208 -0.37810847329754932 0 -0.48841059223073141 -0.36207190937526279 0 -0.4673397172001626 -0.36197280609030519 0 -0.48841059223073141 -0.36207190937526279 0 -0.4673397172001626 -0.36197280609030519 0 -0.48264375600015208 -0.37810847329754932 0 -0.46232592600273609 -0.3813298561100994 0 -0.4673397172001626 -0.36197280609030519 0 -0.4673397172001626 -0.36197280609030519 0 -0.44626884216959378 -0.36187370280534759 0 -0.46232592600273609 -0.3813298561100994 0 -0.4673397172001626 -0.36197280609030519 0 -0.44626884216959378 -0.36187370280534759 0 -0.47426424023603109 -0.35027086433491839 0 -0.4673397172001626 -0.36197280609030519 0 -0.4617215826786773 -0.34568488418603088 0 -0.4673397172001626 -0.36197280609030519 0 -0.4617215826786773 -0.34568488418603088 0 -0.44626884216959378 -0.36187370280534759 0 -0.44835841258818482 -0.33480896948455457 0 -0.44626884216959378 -0.36187370280534759 0 -0.44835841258818482 -0.33480896948455457 0 -0.44626884216959378 -0.36187370280534759 0 -0.43370168970333328 -0.35119207997395052 0 -0.44835841258818482 -0.33480896948455457 0 -0.4617215826786773 -0.34568488418603088 0 -0.44626884216959378 -0.36187370280534759 0 -0.43791474735390912 -0.38332244439929392 0 -0.41770612233537169 -0.3617393628997318 0 -0.44626884216959378 -0.36187370280534759 0 -0.41770612233537169 -0.3617393628997318 0 -0.43791474735390912 -0.38332244439929392 0 -0.42742859016246981 -0.37678441008047658 0 -0.41770612233537169 -0.3617393628997318 0 -0.43791474735390912 -0.38332244439929392 0 -0.44626884216959378 -0.36187370280534759 0 -0.41770612233537169 -0.3617393628997318 0 -0.44626884216959378 -0.36187370280534759 0 -0.43370168970333328 -0.35119207997395052 0 -0.41770612233537169 -0.3617393628997318 0 -0.43370168970333328 -0.35119207997395052 0 -0.41815663964893668 -0.34859307763639891 0 -0.41770612233537169 -0.3617393628997318 0 -0.43370168970333328 -0.35119207997395052 0 -0.41815663964893668 -0.34859307763639891 0 -0.4319620785306067 -0.34252641260057459 0 -0.41770612233537169 -0.3617393628997318 0 -0.40197462921503258 -0.36166537249148822 0 -0.40500916124857461 -0.34817883883232759 0 -0.41815663964893668 -0.34859307763639891 0 -0.40500916124857461 -0.34817883883232759 0 -0.42485480950200161 -0.33727219857626062 0 -0.41815663964893668 -0.34859307763639891 0 -0.41770612233537169 -0.3617393628997318 0 -0.40500916124857461 -0.34817883883232759 0 -0.41770612233537169 -0.3617393628997318 0 -0.40500916124857461 -0.34817883883232759 0 -0.42742859016246981 -0.37678441008047658 0 -0.40468887922437252 -0.37724770059752027 0 -0.41770612233537169 -0.3617393628997318 0 -0.41770612233537169 -0.3617393628997318 0 -0.40197462921503258 -0.36166537249148822 0 -0.40468887922437252 -0.37724770059752027 0 -0.41770612233537169 -0.3617393628997318 0 -0.40197462921503258 -0.36166537249148822 0 -0.40197462921503258 -0.36166537249148822 0 -0.38624313609469341 -0.36159138208324682 0 -0.40468887922437252 -0.37724770059752027 0 -0.38194916828627518 -0.37771099111456408 0 -0.38624313609469341 -0.36159138208324682 0 -0.40468887922437252 -0.37724770059752027 0 -0.40197462921503258 -0.36166537249148822 0 -0.38624313609469341 -0.36159138208324682 0 -0.40197462921503258 -0.36166537249148822 0 -0.38624313609469341 -0.36159138208324682 0 -0.39903616067961822 -0.35598827356021262 0 -0.38194916828627518 -0.37771099111456408 0 -0.38624313609469341 -0.36159138208324682 0 -0.36045921166592071 -0.37288426483861847 0 -0.38624313609469341 -0.36159138208324682 0 -0.38065164182393091 -0.36156508343882499 0 -0.36045921166592071 -0.37288426483861847 0 -0.38624313609469341 -0.36159138208324682 0 -0.38065164182393091 -0.36156508343882499 0 -0.39903616067961822 -0.35598827356021262 0 -0.38624313609469341 -0.36159138208324682 0 -0.38065164182393091 -0.36156508343882499 0 -0.38065164182393091 -0.36156508343882499 0 -0.38309395679338121 -0.34819032032250952 0 -0.40500916124857461 -0.34817883883232759 0 -0.38309395679338121 -0.34819032032250952 0 -0.37409302773807718 -0.33685317060424669 0 -0.36940070244839862 -0.35157087958641953 0 -0.38065164182393091 -0.36156508343882499 0 -0.37680448164090752 -0.35604321335415662 0 -0.36976846171362449 -0.36047886139672591 0 -0.38065164182393091 -0.36156508343882499 0 -0.37680448164090752 -0.35604321335415662 0 -0.38309395679338121 -0.34819032032250952 0 -0.37680448164090752 -0.35604321335415662 0 -0.38309395679338121 -0.34819032032250952 0 -0.36940070244839862 -0.35157087958641953 0 -0.38065164182393091 -0.36156508343882499 0 -0.39903616067961822 -0.35598827356021262 0 -0.40500916124857461 -0.34817883883232759 0 -0.38309395679338121 -0.34819032032250952 0 -0.40500916124857461 -0.34817883883232759 0 -0.39260472586039907 -0.33493073611908258 0 -0.38065164182393091 -0.36156508343882499 0 -0.40500916124857461 -0.34817883883232759 0 -0.38624313609469341 -0.36159138208324682 0 -0.39903616067961822 -0.35598827356021262 0 -0.40197462921503258 -0.36166537249148822 0 -0.39903616067961822 -0.35598827356021262 0 -0.40500916124857461 -0.34817883883232759 0 -0.39260472586039907 -0.33493073611908258 0 -0.419481026829647 -0.33213964005239321 0 -0.40500916124857461 -0.34817883883232759 0 -0.39260472586039907 -0.33493073611908258 0 -0.40500916124857461 -0.34817883883232759 0 -0.39260472586039907 -0.33493073611908258 0 -0.419481026829647 -0.33213964005239321 0 -0.39260472586039907 -0.33493073611908258 0 -0.37409302773807718 -0.33685317060424669 0 -0.38309395679338121 -0.34819032032250952 0 -0.39260472586039907 -0.33493073611908258 0 -0.37409302773807718 -0.33685317060424669 0 -0.39260472586039907 -0.33493073611908258 0 -0.3793630942468702 -0.32078849665252951 0 -0.37409302773807718 -0.33685317060424669 0 -0.39260472586039907 -0.33493073611908258 0 -0.3793630942468702 -0.32078849665252951 0 -0.39195290163037078 -0.31996453082138271 0 -0.39260472586039907 -0.33493073611908258 0 -0.3793630942468702 -0.32078849665252951 0 -0.3793630942468702 -0.32078849665252951 0 -0.39195290163037078 -0.31996453082138271 0 -0.39367097997620842 -0.30790623422665131 0 -0.39260472586039907 -0.33493073611908258 0 -0.39195290163037078 -0.31996453082138271 0 -0.40482628951040578 -0.31660172100658268 0 -0.39260472586039907 -0.33493073611908258 0 -0.40482628951040578 -0.31660172100658268 0 -0.40914352357005862 -0.32609976007668462 0 -0.39195290163037078 -0.31996453082138271 0 -0.40482628951040578 -0.31660172100658268 0 -0.39367097997620842 -0.30790623422665131 0 -0.40482628951040578 -0.31660172100658268 0 -0.41966205207978269 -0.32072694312867939 0 -0.41609994148604579 -0.3089116191166682 0 -0.41966205207978269 -0.32072694312867939 0 -0.42790829728903151 -0.31098495287319228 0 -0.41609994148604579 -0.3089116191166682 0 -0.41966205207978269 -0.32072694312867939 0 -0.40914352357005862 -0.32609976007668462 0 -0.419481026829647 -0.33213964005239321 0 -0.40482628951040578 -0.31660172100658268 0 -0.41966205207978269 -0.32072694312867939 0 -0.40914352357005862 -0.32609976007668462 0 -0.40500916124857461 -0.34817883883232759 0 -0.42485480950200161 -0.33727219857626062 0 -0.40500916124857461 -0.34817883883232759 0 -0.419481026829647 -0.33213964005239321 0 -0.42485480950200161 -0.33727219857626062 0 -0.39260472586039907 -0.33493073611908258 0 -0.40914352357005862 -0.32609976007668462 0 -0.419481026829647 -0.33213964005239321 0 -0.419481026829647 -0.33213964005239321 0 -0.42485480950200161 -0.33727219857626062 0 -0.42805984330886471 -0.32745997746900368 0 -0.44470045775542749 -0.32636555832019198 0 -0.42485480950200161 -0.33727219857626062 0 -0.43746893959405508 -0.33524328474539539 0 -0.44470045775542749 -0.32636555832019198 0 -0.42485480950200161 -0.33727219857626062 0 -0.42805984330886471 -0.32745997746900368 0 -0.44470045775542749 -0.32636555832019198 0 -0.42485480950200161 -0.33727219857626062 0 -0.41815663964893668 -0.34859307763639891 0 -0.42485480950200161 -0.33727219857626062 0 -0.4319620785306067 -0.34252641260057459 0 -0.42485480950200161 -0.33727219857626062 0 -0.4319620785306067 -0.34252641260057459 0 -0.43746893959405508 -0.33524328474539539 0 -0.44470045775542749 -0.32636555832019198 0 -0.43160087037746492 -0.32079554726749349 0 -0.42805984330886471 -0.32745997746900368 0 -0.43846014752285439 -0.31291573011853863 0 -0.43160087037746492 -0.32079554726749349 0 -0.42790829728903151 -0.31098495287319228 0 -0.41966205207978269 -0.32072694312867939 0 -0.43160087037746492 -0.32079554726749349 0 -0.42790829728903151 -0.31098495287319228 0 -0.41966205207978269 -0.32072694312867939 0 -0.43160087037746492 -0.32079554726749349 0 -0.42805984330886471 -0.32745997746900368 0 -0.41966205207978269 -0.32072694312867939 0 -0.419481026829647 -0.33213964005239321 0 -0.42805984330886471 -0.32745997746900368 0 -0.42270877929522749 -0.29814111275426958 0 -0.42790829728903151 -0.31098495287319228 0 -0.43722289379486279 -0.29900432221361373 0 -0.42270877929522749 -0.29814111275426958 0 -0.42790829728903151 -0.31098495287319228 0 -0.41609994148604579 -0.3089116191166682 0 -0.43846014752285439 -0.31291573011853863 0 -0.42790829728903151 -0.31098495287319228 0 -0.43722289379486279 -0.29900432221361373 0 -0.42270877929522749 -0.29814111275426958 0 -0.43722289379486279 -0.29900432221361373 0 -0.43007187623913462 -0.28321138058685241 0 -0.42270877929522749 -0.29814111275426958 0 -0.43007187623913462 -0.28321138058685241 0 -0.41520226856227499 -0.286615204890588 0 -0.41520226856227499 -0.286615204890588 0 -0.40686085602212763 -0.29928155378366489 0 -0.40139305265833741 -0.28073041008758781 0 -0.42270877929522749 -0.29814111275426958 0 -0.41520226856227499 -0.286615204890588 0 -0.40686085602212763 -0.29928155378366489 0 -0.42270877929522749 -0.29814111275426958 0 -0.40686085602212763 -0.29928155378366489 0 -0.41609994148604579 -0.3089116191166682 0 -0.40482628951040578 -0.31660172100658268 0 -0.40686085602212763 -0.29928155378366489 0 -0.41609994148604579 -0.3089116191166682 0 -0.40482628951040578 -0.31660172100658268 0 -0.40686085602212763 -0.29928155378366489 0 -0.39367097997620842 -0.30790623422665131 0 -0.40686085602212763 -0.29928155378366489 0 -0.39367097997620842 -0.30790623422665131 0 -0.39564092306455101 -0.29349650365164193 0 -0.39367097997620842 -0.30790623422665131 0 -0.38338181538292532 -0.29730459944410631 0 -0.39564092306455101 -0.29349650365164193 0 -0.3793630942468702 -0.32078849665252951 0 -0.39367097997620842 -0.30790623422665131 0 -0.38338181538292532 -0.29730459944410631 0 -0.3793630942468702 -0.32078849665252951 0 -0.38338181538292532 -0.29730459944410631 0 -0.36957666524677207 -0.3081180742335311 0 -0.38338181538292532 -0.29730459944410631 0 -0.39564092306455101 -0.29349650365164193 0 -0.38613848606343798 -0.27859917209195267 0 -0.38338181538292532 -0.29730459944410631 0 -0.38613848606343798 -0.27859917209195267 0 -0.37045229634498528 -0.27843053984746069 0 -0.39564092306455101 -0.29349650365164193 0 -0.40139305265833741 -0.28073041008758781 0 -0.38613848606343798 -0.27859917209195267 0 -0.40686085602212763 -0.29928155378366489 0 -0.39564092306455101 -0.29349650365164193 0 -0.40139305265833741 -0.28073041008758781 0 -0.40139305265833741 -0.28073041008758781 0 -0.38613848606343798 -0.27859917209195267 0 -0.3936967805223085 -0.26231697603154452 0 -0.40139305265833741 -0.28073041008758781 0 -0.3936967805223085 -0.26231697603154452 0 -0.40924335478419149 -0.26343195862580282 0 -0.38613848606343798 -0.27859917209195267 0 -0.37559939495059241 -0.25759382415502369 0 -0.37045229634498528 -0.27843053984746069 0 -0.38613848606343798 -0.27859917209195267 0 -0.37559939495059241 -0.25759382415502369 0 -0.3936967805223085 -0.26231697603154452 0 -0.37559939495059241 -0.25759382415502369 0 -0.3936967805223085 -0.26231697603154452 0 -0.39148266415987848 -0.24724731724582799 0 -0.3936967805223085 -0.26231697603154452 0 -0.40924335478419149 -0.26343195862580282 0 -0.4060172103153033 -0.2466409140486745 0 -0.3936967805223085 -0.26231697603154452 0 -0.4060172103153033 -0.2466409140486745 0 -0.39148266415987848 -0.24724731724582799 0 -0.40924335478419149 -0.26343195862580282 0 -0.42066567285705447 -0.24747213920793271 0 -0.4060172103153033 -0.2466409140486745 0 -0.40924335478419149 -0.26343195862580282 0 -0.43193696180114138 -0.26239194143137751 0 -0.42066567285705447 -0.24747213920793271 0 -0.40139305265833741 -0.28073041008758781 0 -0.40924335478419149 -0.26343195862580282 0 -0.42062767774514181 -0.27267698937420282 0 -0.40924335478419149 -0.26343195862580282 0 -0.42062767774514181 -0.27267698937420282 0 -0.43193696180114138 -0.26239194143137751 0 -0.41520226856227499 -0.286615204890588 0 -0.40139305265833741 -0.28073041008758781 0 -0.42062767774514181 -0.27267698937420282 0 -0.43007187623913462 -0.28321138058685241 0 -0.42062767774514181 -0.27267698937420282 0 -0.43193696180114138 -0.26239194143137751 0 -0.43007187623913462 -0.28321138058685241 0 -0.41520226856227499 -0.286615204890588 0 -0.42062767774514181 -0.27267698937420282 0 -0.43193696180114138 -0.26239194143137751 0 -0.43534344162737859 -0.24047631527095989 0 -0.42066567285705447 -0.24747213920793271 0 -0.32469646731104851 -0.26129928047468121 0 -0.31382319645809431 -0.25537883115472171 0 -0.328202492380054 -0.24702697275665519 0 -0.32469646731104851 -0.26129928047468121 0 -0.31382319645809431 -0.25537883115472171 0 -0.31691249014711381 -0.26761334401921538 0 -0.31691249014711381 -0.26761334401921538 0 -0.32636936396155469 -0.2734419554959519 0 -0.3145639343146851 -0.28384861204504341 0 -0.32636936396155469 -0.2734419554959519 0 -0.3145639343146851 -0.28384861204504341 0 -0.32469646731104851 -0.26129928047468121 0 -0.31691249014711381 -0.26761334401921538 0 -0.32636936396155469 -0.2734419554959519 0 -0.32636936396155469 -0.2734419554959519 0 -0.3381747936084249 -0.26303529894686117 0 -0.32636936396155469 -0.2734419554959519 0 -0.3381747936084249 -0.26303529894686117 0 -0.32863094035026852 -0.28684108062397751 0 -0.32469646731104851 -0.26129928047468121 0 -0.32636936396155469 -0.2734419554959519 0 -0.3381747936084249 -0.26303529894686117 0 -0.3381747936084249 -0.26303529894686117 0 -0.32863094035026852 -0.28684108062397751 0 -0.34283830894515172 -0.27708735094451009 0 -0.3381747936084249 -0.26303529894686117 0 -0.32863094035026852 -0.28684108062397751 0 -0.3381747936084249 -0.26303529894686117 0 -0.34531969915818922 -0.24521335040884201 0 -0.32469646731104851 -0.26129928047468121 0 -0.3381747936084249 -0.26303529894686117 0 -0.328202492380054 -0.24702697275665519 0 -0.3381747936084249 -0.26303529894686117 0 -0.34531969915818922 -0.24521335040884201 0 -0.328202492380054 -0.24702697275665519 0 -0.36198061697463252 -0.25210628865026241 0 -0.35672506682219768 -0.26679529837497379 0 -0.35704918331323882 -0.2463972521237382 0 -0.3381747936084249 -0.26303529894686117 0 -0.35704918331323882 -0.2463972521237382 0 -0.3381747936084249 -0.26303529894686117 0 -0.35672506682219768 -0.26679529837497379 0 -0.35704918331323882 -0.2463972521237382 0 -0.3381747936084249 -0.26303529894686117 0 -0.35704918331323882 -0.2463972521237382 0 -0.34531969915818922 -0.24521335040884201 0 -0.35672506682219768 -0.26679529837497379 0 -0.35704918331323882 -0.2463972521237382 0 -0.36198061697463252 -0.25210628865026241 0 -0.35672506682219768 -0.26679529837497379 0 -0.37559939495059241 -0.25759382415502369 0 -0.36198061697463252 -0.25210628865026241 0 -0.35672506682219768 -0.26679529837497379 0 -0.37045229634498528 -0.27843053984746069 0 -0.35672506682219768 -0.26679529837497379 0 -0.35634382108671869 -0.2907887339464556 0 -0.37559939495059241 -0.25759382415502369 0 -0.37045229634498528 -0.27843053984746069 0 -0.35672506682219768 -0.26679529837497379 0 -0.35672506682219768 -0.26679529837497379 0 -0.35634382108671869 -0.2907887339464556 0 -0.35672506682219768 -0.26679529837497379 0 -0.34782243499971333 -0.29167772583222767 0 -0.34283830894515172 -0.27708735094451009 0 -0.3381747936084249 -0.26303529894686117 0 -0.35672506682219768 -0.26679529837497379 0 -0.34283830894515172 -0.27708735094451009 0 -0.35672506682219768 -0.26679529837497379 0 -0.34782243499971333 -0.29167772583222767 0 -0.35672506682219768 -0.26679529837497379 0 -0.35634382108671869 -0.2907887339464556 0 -0.34782243499971333 -0.29167772583222767 0 -0.38338181538292532 -0.29730459944410631 0 -0.37045229634498528 -0.27843053984746069 0 -0.35634382108671869 -0.2907887339464556 0 -0.38338181538292532 -0.29730459944410631 0 -0.35634382108671869 -0.2907887339464556 0 -0.36957666524677207 -0.3081180742335311 0 -0.35634382108671869 -0.2907887339464556 0 -0.36957666524677207 -0.3081180742335311 0 -0.35596257535123788 -0.31478216951793708 0 -0.35634382108671869 -0.2907887339464556 0 -0.35596257535123788 -0.31478216951793708 0 -0.35634382108671869 -0.2907887339464556 0 -0.34782243499971333 -0.29167772583222767 0 -0.35596257535123788 -0.31478216951793708 0 -0.34782243499971333 -0.29167772583222767 0 -0.33891980317723069 -0.31656015328948212 0 -0.35596257535123788 -0.31478216951793708 0 -0.34782243499971333 -0.29167772583222767 0 -0.33361506640483102 -0.30143145551169509 0 -0.33891980317723069 -0.31656015328948212 0 -0.34782243499971333 -0.29167772583222767 0 -0.33891980317723069 -0.31656015328948212 0 -0.33361506640483102 -0.30143145551169509 0 -0.31908708709211142 -0.31064686230109329 0 -0.33891980317723069 -0.31656015328948212 0 -0.34782243499971333 -0.29167772583222767 0 -0.33361506640483102 -0.30143145551169509 0 -0.32863094035026852 -0.28684108062397751 0 -0.34283830894515172 -0.27708735094451009 0 -0.34782243499971333 -0.29167772583222767 0 -0.32863094035026852 -0.28684108062397751 0 -0.32863094035026852 -0.28684108062397751 0 -0.3145639343146851 -0.28384861204504341 0 -0.30922739227757789 -0.29536371661931282 0 -0.32636936396155469 -0.2734419554959519 0 -0.32863094035026852 -0.28684108062397751 0 -0.3145639343146851 -0.28384861204504341 0 -0.33361506640483102 -0.30143145551169509 0 -0.32863094035026852 -0.28684108062397751 0 -0.31908708709211142 -0.31064686230109329 0 -0.32863094035026852 -0.28684108062397751 0 -0.31908708709211142 -0.31064686230109329 0 -0.32863094035026852 -0.28684108062397751 0 -0.31908708709211142 -0.31064686230109329 0 -0.30922739227757789 -0.29536371661931282 0 -0.31908708709211142 -0.31064686230109329 0 -0.32328108118025278 -0.3276684626083195 0 -0.30954323383395338 -0.33445264397820879 0 -0.31908708709211142 -0.31064686230109329 0 -0.30954323383395338 -0.33445264397820879 0 -0.31908708709211142 -0.31064686230109329 0 -0.32328108118025278 -0.3276684626083195 0 -0.33891980317723069 -0.31656015328948212 0 -0.32328108118025278 -0.3276684626083195 0 -0.31984903266371612 -0.34278868037607652 0 -0.30954323383395338 -0.33445264397820879 0 -0.31984903266371612 -0.34278868037607652 0 -0.3070719954881424 -0.34381328538016998 0 -0.31984903266371612 -0.34278868037607652 0 -0.30954323383395338 -0.33445264397820879 0 -0.31984903266371612 -0.34278868037607652 0 -0.3055244578539994 -0.34466809001270682 0 -0.31984903266371612 -0.34278868037607652 0 -0.33001717135475173 -0.34144258074673772 0 -0.32328108118025278 -0.3276684626083195 0 -0.31984903266371612 -0.34278868037607652 0 -0.33001717135475173 -0.34144258074673772 0 -0.33001717135475173 -0.34144258074673772 0 -0.33891980317723069 -0.31656015328948212 0 -0.33001717135475173 -0.34144258074673772 0 -0.35029869855848877 -0.33932671450958768 0 -0.33001717135475173 -0.34144258074673772 0 -0.35029869855848877 -0.33932671450958768 0 -0.34207596480696922 -0.34881473103841432 0 -0.33001717135475173 -0.34144258074673772 0 -0.3397155789189803 -0.33354010544749929 0 -0.33891980317723069 -0.31656015328948212 0 -0.32328108118025278 -0.3276684626083195 0 -0.33001717135475173 -0.34144258074673772 0 -0.33891980317723069 -0.31656015328948212 0 -0.33001717135475173 -0.34144258074673772 0 -0.3397155789189803 -0.33354010544749929 0 -0.35029869855848877 -0.33932671450958768 0 -0.3397155789189803 -0.33354010544749929 0 -0.33891980317723069 -0.31656015328948212 0 -0.34848664413771779 -0.32569231542779742 0 -0.35596257535123788 -0.31478216951793708 0 -0.35558132961575611 -0.33877560508941879 0 -0.33891980317723069 -0.31656015328948212 0 -0.35596257535123788 -0.31478216951793708 0 -0.34848664413771779 -0.32569231542779742 0 -0.35596257535123788 -0.31478216951793708 0 -0.34848664413771779 -0.32569231542779742 0 -0.35558132961575611 -0.33877560508941879 0 -0.3793630942468702 -0.32078849665252951 0 -0.36957666524677207 -0.3081180742335311 0 -0.36691533843974278 -0.32386350321953272 0 -0.35596257535123788 -0.31478216951793708 0 -0.36691533843974278 -0.32386350321953272 0 -0.35558132961575611 -0.33877560508941879 0 -0.3793630942468702 -0.32078849665252951 0 -0.36691533843974278 -0.32386350321953272 0 -0.37409302773807718 -0.33685317060424669 0 -0.36957666524677207 -0.3081180742335311 0 -0.35596257535123788 -0.31478216951793708 0 -0.36691533843974278 -0.32386350321953272 0 -0.36691533843974278 -0.32386350321953272 0 -0.37409302773807718 -0.33685317060424669 0 -0.35558132961575611 -0.33877560508941879 0 -0.37409302773807718 -0.33685317060424669 0 -0.35558132961575611 -0.33877560508941879 0 -0.37409302773807718 -0.33685317060424669 0 -0.35558132961575611 -0.33877560508941879 0 -0.36132399924571967 -0.34906722561270209 0 -0.35558132961575611 -0.33877560508941879 0 -0.35029869855848877 -0.33932671450958768 0 -0.3397155789189803 -0.33354010544749929 0 -0.34848664413771779 -0.32569231542779742 0 -0.34765433670401852 -0.33341498641516681 0 -0.3397155789189803 -0.33354010544749929 0 -0.34765433670401852 -0.33341498641516681 0 -0.35029869855848877 -0.33932671450958768 0 -0.34848664413771779 -0.32569231542779742 0 -0.35558132961575611 -0.33877560508941879 0 -0.34765433670401852 -0.33341498641516681 0 -0.35558132961575611 -0.33877560508941879 0 -0.34765433670401852 -0.33341498641516681 0 -0.35029869855848877 -0.33932671450958768 0 -0.35558132961575611 -0.33877560508941879 0 -0.35029869855848877 -0.33932671450958768 0 -0.34207596480696922 -0.34881473103841432 0 -0.35558132961575611 -0.33877560508941879 0 -0.35532313878605642 -0.35502466563236817 0 -0.34207596480696922 -0.34881473103841432 0 -0.35558132961575611 -0.33877560508941879 0 -0.35532313878605642 -0.35502466563236817 0 -0.36132399924571967 -0.34906722561270209 0 -0.35558132961575611 -0.33877560508941879 0 -0.35532313878605642 -0.35502466563236817 0 -0.35532313878605642 -0.35502466563236817 0 -0.3412131928366286 -0.36006947730924671 0 -0.34207596480696922 -0.34881473103841432 0 -0.35532313878605642 -0.35502466563236817 0 -0.36132399924571967 -0.34906722561270209 0 -0.36366024534045222 -0.35609027356304662 0 -0.35532313878605642 -0.35502466563236817 0 -0.36366024534045222 -0.35609027356304662 0 -0.36248492450846181 -0.36430973558701668 0 -0.36132399924571967 -0.34906722561270209 0 -0.36366024534045222 -0.35609027356304662 0 -0.36940070244839862 -0.35157087958641953 0 -0.37680448164090752 -0.35604321335415662 0 -0.36940070244839862 -0.35157087958641953 0 -0.36976846171362449 -0.36047886139672591 0 -0.36366024534045222 -0.35609027356304662 0 -0.36940070244839862 -0.35157087958641953 0 -0.36976846171362449 -0.36047886139672591 0 -0.37409302773807718 -0.33685317060424669 0 -0.36132399924571967 -0.34906722561270209 0 -0.36940070244839862 -0.35157087958641953 0 -0.38065164182393091 -0.36156508343882499 0 -0.36976846171362449 -0.36047886139672591 0 -0.36045921166592071 -0.37288426483861847 0 -0.38065164182393091 -0.36156508343882499 0 -0.36045921166592071 -0.37288426483861847 0 -0.38624313609469341 -0.36159138208324682 0 -0.36045921166592071 -0.37288426483861847 0 -0.36976846171362449 -0.36047886139672591 0 -0.36248492450846181 -0.36430973558701668 0 -0.36045921166592071 -0.37288426483861847 0 -0.36366024534045222 -0.35609027356304662 0 -0.36976846171362449 -0.36047886139672591 0 -0.36248492450846181 -0.36430973558701668 0 -0.36248492450846181 -0.36430973558701668 0 -0.36045921166592071 -0.37288426483861847 0 -0.36045921166592071 -0.37288426483861847 0 -0.35826046215167379 -0.37385847705995462 0 -0.359913224415497 -0.37519534445042468 0 -0.36045921166592071 -0.37288426483861847 0 -0.359913224415497 -0.37519534445042468 0 -0.35826046215167379 -0.37385847705995462 0 -0.3550649479563539 -0.37127372617531751 0 -0.35499516928943592 -0.3756651981138408 0 -0.35826046215167379 -0.37385847705995462 0 -0.359913224415497 -0.37519534445042468 0 -0.36045921166592071 -0.37288426483861847 0 -0.35826046215167379 -0.37385847705995462 0 -0.35532313878605642 -0.35502466563236817 0 -0.3550649479563539 -0.37127372617531751 0 -0.3412131928366286 -0.36006947730924671 0 -0.36248492450846181 -0.36430973558701668 0 -0.36045921166592071 -0.37288426483861847 0 -0.3550649479563539 -0.37127372617531751 0 -0.36045921166592071 -0.37288426483861847 0 -0.35826046215167379 -0.37385847705995462 0 -0.3550649479563539 -0.37127372617531751 0 -0.35532313878605642 -0.35502466563236817 0 -0.3550649479563539 -0.37127372617531751 0 -0.35532313878605642 -0.35502466563236817 0 -0.36248492450846181 -0.36430973558701668 0 -0.3550649479563539 -0.37127372617531751 0 -0.35826046215167379 -0.37385847705995462 0 -0.35499516928943592 -0.3756651981138408 0 -0.35826046215167379 -0.37385847705995462 0 -0.3550649479563539 -0.37127372617531751 0 -0.3550649479563539 -0.37127372617531751 0 -0.35499516928943592 -0.3756651981138408 0 -0.3550649479563539 -0.37127372617531751 0 -0.3412131928366286 -0.36006947730924671 0 -0.3550649479563539 -0.37127372617531751 0 -0.34301726708398139 -0.37152460107981161 0 -0.3412131928366286 -0.36006947730924671 0 -0.3550649479563539 -0.37127372617531751 0 -0.34301726708398139 -0.37152460107981161 0 -0.34785275774215357 -0.37840565885741051 0 -0.33298481585286238 -0.36926714917661779 0 -0.3412131928366286 -0.36006947730924671 0 -0.32736143771690529 -0.34886522844317319 0 -0.34301726708398139 -0.37152460107981161 0 -0.33298481585286238 -0.36926714917661779 0 -0.33797062103190628 -0.37860699388046448 0 -0.34301726708398139 -0.37152460107981161 0 -0.33298481585286238 -0.36926714917661779 0 -0.3412131928366286 -0.36006947730924671 0 -0.3412131928366286 -0.36006947730924671 0 -0.34207596480696922 -0.34881473103841432 0 -0.32736143771690529 -0.34886522844317319 0 -0.33001717135475173 -0.34144258074673772 0 -0.34207596480696922 -0.34881473103841432 0 -0.32736143771690529 -0.34886522844317319 0 -0.33001717135475173 -0.34144258074673772 0 -0.32736143771690529 -0.34886522844317319 0 -0.3412131928366286 -0.36006947730924671 0 -0.32736143771690529 -0.34886522844317319 0 -0.32736143771690529 -0.34886522844317319 0 -0.31598506613768951 -0.35583638489618891 0 -0.31919093816007349 -0.37170138145570347 0 -0.31984903266371612 -0.34278868037607652 0 -0.33001717135475173 -0.34144258074673772 0 -0.32736143771690529 -0.34886522844317319 0 -0.31984903266371612 -0.34278868037607652 0 -0.32736143771690529 -0.34886522844317319 0 -0.31598506613768951 -0.35583638489618891 0 -0.31984903266371612 -0.34278868037607652 0 -0.32736143771690529 -0.34886522844317319 0 -0.31984903266371612 -0.34278868037607652 0 -0.31598506613768951 -0.35583638489618891 0 -0.30667905391454442 -0.35266106116154949 0 -0.31598506613768951 -0.35583638489618891 0 -0.31919093816007349 -0.37170138145570347 0 -0.30684486823320789 -0.36316557304444202 0 -0.32736143771690529 -0.34886522844317319 0 -0.31919093816007349 -0.37170138145570347 0 -0.33298481585286238 -0.36926714917661779 0 -0.32736143771690529 -0.34886522844317319 0 -0.31919093816007349 -0.37170138145570347 0 -0.31919093816007349 -0.37170138145570347 0 -0.30684486823320789 -0.36316557304444202 0 -0.30324630136946479 -0.37543300802477558 0 -0.30684486823320789 -0.36316557304444202 0 -0.2957495177922182 -0.35817972744009058 0 -0.2925887299631979 -0.36843304642831443 0 -0.30684486823320789 -0.36316557304444202 0 -0.2925887299631979 -0.36843304642831443 0 -0.30324630136946479 -0.37543300802477558 0 -0.31598506613768951 -0.35583638489618891 0 -0.30684486823320789 -0.36316557304444202 0 -0.30667905391454442 -0.35266106116154949 0 -0.31984903266371612 -0.34278868037607652 0 -0.30667905391454442 -0.35266106116154949 0 -0.3055244578539994 -0.34466809001270682 0 -0.31984903266371612 -0.34278868037607652 0 -0.3055244578539994 -0.34466809001270682 0 -0.3070719954881424 -0.34381328538016998 0 -0.3055244578539994 -0.34466809001270682 0 -0.29214519604090128 -0.34642347290654879 0 -0.30667905391454442 -0.35266106116154949 0 -0.3055244578539994 -0.34466809001270682 0 -0.29214519604090128 -0.34642347290654879 0 -0.30667905391454442 -0.35266106116154949 0 -0.2957495177922182 -0.35817972744009058 0 -0.29214519604090128 -0.34642347290654879 0 -0.30684486823320789 -0.36316557304444202 0 -0.30667905391454442 -0.35266106116154949 0 -0.2957495177922182 -0.35817972744009058 0 -0.2957495177922182 -0.35817972744009058 0 -0.29214519604090128 -0.34642347290654879 0 -0.28048974080923961 -0.36021548365959821 0 -0.2957495177922182 -0.35817972744009058 0 -0.2925887299631979 -0.36843304642831443 0 -0.28048974080923961 -0.36021548365959821 0 -0.2925887299631979 -0.36843304642831443 0 -0.28080488171343909 -0.37323183786172071 0 -0.28782930685319991 -0.3824520109968681 0 -0.2925887299631979 -0.36843304642831443 0 -0.28080488171343909 -0.37323183786172071 0 -0.28048974080923961 -0.36021548365959821 0 -0.28048974080923961 -0.36021548365959821 0 -0.26747550121908192 -0.37327398573877102 0 -0.264441359418086 -0.3500582654370174 0 -0.28080488171343909 -0.37323183786172071 0 -0.28048974080923961 -0.36021548365959821 0 -0.26747550121908192 -0.37327398573877102 0 -0.26747550121908192 -0.37327398573877102 0 -0.264441359418086 -0.3500582654370174 0 -0.26747550121908192 -0.37327398573877102 0 -0.25554226852600281 -0.36435994656900111 0 -0.264441359418086 -0.3500582654370174 0 -0.25554226852600281 -0.36435994656900111 0 -0.25240873419082382 -0.38056695435806998 0 -0.24347343772631699 -0.37146223776518111 0 -0.25554226852600281 -0.36435994656900111 0 -0.25954721898889782 -0.35070038534688242 0 -0.2453369214912712 -0.33698757391685719 0 -0.25554226852600281 -0.36435994656900111 0 -0.2453369214912712 -0.33698757391685719 0 -0.25554226852600281 -0.36435994656900111 0 -0.264441359418086 -0.3500582654370174 0 -0.25954721898889782 -0.35070038534688242 0 -0.264441359418086 -0.3500582654370174 0 -0.25954721898889782 -0.35070038534688242 0 -0.264441359418086 -0.3500582654370174 0 -0.25954721898889782 -0.35070038534688242 0 -0.25747995589395278 -0.34093522817456118 0 -0.29214519604090128 -0.34642347290654879 0 -0.264441359418086 -0.3500582654370174 0 -0.27831379426780078 -0.33638815821971668 0 -0.29214519604090128 -0.34642347290654879 0 -0.264441359418086 -0.3500582654370174 0 -0.29214519604090128 -0.34642347290654879 0 -0.28048974080923961 -0.36021548365959821 0 -0.264441359418086 -0.3500582654370174 0 -0.27831379426780078 -0.33638815821971668 0 -0.26163843948154181 -0.32861173803554211 0 -0.27487334249701612 -0.3226255461781844 0 -0.264441359418086 -0.3500582654370174 0 -0.27831379426780078 -0.33638815821971668 0 -0.26163843948154181 -0.32861173803554211 0 -0.264441359418086 -0.3500582654370174 0 -0.26163843948154181 -0.32861173803554211 0 -0.25747995589395278 -0.34093522817456118 0 -0.26163843948154181 -0.32861173803554211 0 -0.25747995589395278 -0.34093522817456118 0 -0.2453369214912712 -0.33698757391685719 0 -0.264441359418086 -0.3500582654370174 0 -0.26163843948154181 -0.32861173803554211 0 -0.25954721898889782 -0.35070038534688242 0 -0.25747995589395278 -0.34093522817456118 0 -0.2453369214912712 -0.33698757391685719 0 -0.26163843948154181 -0.32861173803554211 0 -0.25883551954499762 -0.30716521063406682 0 -0.2446258083714575 -0.31755415448893948 0 -0.26163843948154181 -0.32861173803554211 0 -0.2453369214912712 -0.33698757391685719 0 -0.2446258083714575 -0.31755415448893948 0 -0.26163843948154181 -0.32861173803554211 0 -0.25883551954499762 -0.30716521063406682 0 -0.26163843948154181 -0.32861173803554211 0 -0.27487334249701612 -0.3226255461781844 0 -0.25883551954499762 -0.30716521063406682 0 -0.27487334249701612 -0.3226255461781844 0 -0.28219973902745932 -0.30955964423906068 0 -0.25883551954499762 -0.30716521063406682 0 -0.27487334249701612 -0.3226255461781844 0 -0.29443433549257991 -0.32223153151659018 0 -0.28219973902745932 -0.30955964423906068 0 -0.29443433549257991 -0.32223153151659018 0 -0.302883982158208 -0.31015749513086399 0 -0.28219973902745932 -0.30955964423906068 0 -0.27831379426780078 -0.33638815821971668 0 -0.27487334249701612 -0.3226255461781844 0 -0.29443433549257991 -0.32223153151659018 0 -0.27831379426780078 -0.33638815821971668 0 -0.29443433549257991 -0.32223153151659018 0 -0.29739723007443453 -0.33542831573555182 0 -0.29214519604090128 -0.34642347290654879 0 -0.27831379426780078 -0.33638815821971668 0 -0.29739723007443453 -0.33542831573555182 0 -0.29443433549257991 -0.32223153151659018 0 -0.30954323383395338 -0.33445264397820879 0 -0.29443433549257991 -0.32223153151659018 0 -0.29739723007443453 -0.33542831573555182 0 -0.30954323383395338 -0.33445264397820879 0 -0.3055244578539994 -0.34466809001270682 0 -0.29739723007443453 -0.33542831573555182 0 -0.30954323383395338 -0.33445264397820879 0 -0.3055244578539994 -0.34466809001270682 0 -0.29214519604090128 -0.34642347290654879 0 -0.29739723007443453 -0.33542831573555182 0 -0.3055244578539994 -0.34466809001270682 0 -0.30954323383395338 -0.33445264397820879 0 -0.31984903266371612 -0.34278868037607652 0 -0.3070719954881424 -0.34381328538016998 0 -0.30954323383395338 -0.33445264397820879 0 -0.3055244578539994 -0.34466809001270682 0 -0.3070719954881424 -0.34381328538016998 0 -0.30954323383395338 -0.33445264397820879 0 -0.29443433549257991 -0.32223153151659018 0 -0.30954323383395338 -0.33445264397820879 0 -0.302883982158208 -0.31015749513086399 0 -0.31908708709211142 -0.31064686230109329 0 -0.30954323383395338 -0.33445264397820879 0 -0.302883982158208 -0.31015749513086399 0 -0.302883982158208 -0.31015749513086399 0 -0.30922739227757789 -0.29536371661931282 0 -0.29120846633987418 -0.2971144232039889 0 -0.31908708709211142 -0.31064686230109329 0 -0.302883982158208 -0.31015749513086399 0 -0.30922739227757789 -0.29536371661931282 0 -0.29830936211306419 -0.28406790551382582 0 -0.30922739227757789 -0.29536371661931282 0 -0.29120846633987418 -0.2971144232039889 0 -0.3145639343146851 -0.28384861204504341 0 -0.29830936211306419 -0.28406790551382582 0 -0.30922739227757789 -0.29536371661931282 0 -0.29830936211306419 -0.28406790551382582 0 -0.29120846633987418 -0.2971144232039889 0 -0.28122417050616638 -0.28561591701616329 0 -0.302883982158208 -0.31015749513086399 0 -0.28219973902745932 -0.30955964423906068 0 -0.29120846633987418 -0.2971144232039889 0 -0.28219973902745932 -0.30955964423906068 0 -0.29120846633987418 -0.2971144232039889 0 -0.27040320629919368 -0.29750596628574771 0 -0.28219973902745932 -0.30955964423906068 0 -0.27040320629919368 -0.29750596628574771 0 -0.25883551954499762 -0.30716521063406682 0 -0.27040320629919368 -0.29750596628574771 0 -0.25883551954499762 -0.30716521063406682 0 -0.24637317120339941 -0.29184799557545432 0 -0.27040320629919368 -0.29750596628574771 0 -0.26515871169400562 -0.28333387620224898 0 -0.24637317120339941 -0.29184799557545432 0 -0.26515871169400562 -0.28333387620224898 0 -0.24861229565321749 -0.26914929626367412 0 -0.24637317120339941 -0.29184799557545432 0 -0.27040320629919368 -0.29750596628574771 0 -0.26515871169400562 -0.28333387620224898 0 -0.28122417050616638 -0.28561591701616329 0 -0.29120846633987418 -0.2971144232039889 0 -0.27040320629919368 -0.29750596628574771 0 -0.28122417050616638 -0.28561591701616329 0 -0.28122417050616638 -0.28561591701616329 0 -0.2721349846924942 -0.26508470386610522 0 -0.2902427995735361 -0.27204399240944921 0 -0.26515871169400562 -0.28333387620224898 0 -0.28122417050616638 -0.28561591701616329 0 -0.2721349846924942 -0.26508470386610522 0 -0.26515871169400562 -0.28333387620224898 0 -0.24861229565321749 -0.26914929626367412 0 -0.26515871169400562 -0.28333387620224898 0 -0.2721349846924942 -0.26508470386610522 0 -0.24861229565321749 -0.26914929626367412 0 -0.25723245459539951 -0.25549634606515792 0 -0.24861229565321749 -0.26914929626367412 0 -0.24420758384304819 -0.24842821958125019 0 -0.25723245459539951 -0.25549634606515792 0 -0.2721349846924942 -0.26508470386610522 0 -0.24861229565321749 -0.26914929626367412 0 -0.25723245459539951 -0.25549634606515792 0 -0.2721349846924942 -0.26508470386610522 0 -0.26800758892227822 -0.2459884927220134 0 -0.2721349846924942 -0.26508470386610522 0 -0.27989972723655071 -0.24951081827475999 0 -0.26800758892227822 -0.2459884927220134 0 -0.2721349846924942 -0.26508470386610522 0 -0.28514751686342821 -0.258956940663783 0 -0.27989972723655071 -0.24951081827475999 0 -0.28514751686342821 -0.258956940663783 0 -0.29199662451381508 -0.24395190857152521 0 -0.27989972723655071 -0.24951081827475999 0 -0.2721349846924942 -0.26508470386610522 0 -0.28514751686342821 -0.258956940663783 0 -0.2902427995735361 -0.27204399240944921 0 -0.28514751686342821 -0.258956940663783 0 -0.2989969812672415 -0.25685767029938761 0 -0.29199662451381508 -0.24395190857152521 0 -0.28514751686342821 -0.258956940663783 0 -0.2902427995735361 -0.27204399240944921 0 -0.2989969812672415 -0.25685767029938761 0 -0.29830936211306419 -0.28406790551382582 0 -0.28122417050616638 -0.28561591701616329 0 -0.2902427995735361 -0.27204399240944921 0 -0.2902427995735361 -0.27204399240944921 0 -0.30588532811350388 -0.26993705797347939 0 -0.2989969812672415 -0.25685767029938761 0 -0.3145639343146851 -0.28384861204504341 0 -0.29830936211306419 -0.28406790551382582 0 -0.30588532811350388 -0.26993705797347939 0 -0.29830936211306419 -0.28406790551382582 0 -0.2902427995735361 -0.27204399240944921 0 -0.30588532811350388 -0.26993705797347939 0 -0.31691249014711381 -0.26761334401921538 0 -0.3145639343146851 -0.28384861204504341 0 -0.30588532811350388 -0.26993705797347939 0 -0.31382319645809431 -0.25537883115472171 0 -0.31691249014711381 -0.26761334401921538 0 -0.30588532811350388 -0.26993705797347939 0 -0.31382319645809431 -0.25537883115472171 0 -0.30588532811350388 -0.26993705797347939 0 -0.2989969812672415 -0.25685767029938761 0 -0.31382319645809431 -0.25537883115472171 0 -0.2989969812672415 -0.25685767029938761 0 -0.30688642208107159 -0.2408772910233668 0 -0.33252098208028658 -0.46369133821388597 0 -0.35371799632172279 -0.45604319178702563 0 -0.33252098208028658 -0.46369133821388597 0 -0.34240361958178978 -0.47166085440889582 0 -0.35371799632172279 -0.45604319178702563 0 -0.33252098208028658 -0.46369133821388597 0 -0.33999503846446028 -0.45950594587891708 0 -0.35371799632172279 -0.45604319178702563 0 -0.33332074727355909 -0.45321257994354502 0 -0.33252098208028658 -0.46369133821388597 0 -0.33999503846446028 -0.45950594587891708 0 -0.33332074727355909 -0.45321257994354502 0 -0.33252098208028658 -0.46369133821388597 0 -0.32082150150408317 -0.45688000142077823 0 -0.33999503846446028 -0.45950594587891708 0 -0.34487953972658619 -0.4388306072662338 0 -0.33332074727355909 -0.45321257994354502 0 -0.32838667459237891 -0.44715500693790999 0 -0.34487953972658619 -0.4388306072662338 0 -0.32838667459237891 -0.44715500693790999 0 -0.34487953972658619 -0.4388306072662338 0 -0.32940201075840259 -0.43595019623835252 0 -0.33332074727355909 -0.45321257994354502 0 -0.33999503846446028 -0.45950594587891708 0 -0.34487953972658619 -0.4388306072662338 0 -0.33332074727355909 -0.45321257994354502 0 -0.32838667459237891 -0.44715500693790999 0 -0.32082150150408317 -0.45688000142077823 0 -0.32838667459237891 -0.44715500693790999 0 -0.3149259106245394 -0.4460342910867629 0 -0.32082150150408317 -0.45688000142077823 0 -0.32838667459237891 -0.44715500693790999 0 -0.3149259106245394 -0.4460342910867629 0 -0.32940201075840259 -0.43595019623835252 0 -0.3149259106245394 -0.4460342910867629 0 -0.32940201075840259 -0.43595019623835252 0 -0.31588096561256779 -0.43260413164560357 0 -0.3149259106245394 -0.4460342910867629 0 -0.32082150150408317 -0.45688000142077823 0 -0.30455476456045721 -0.45647950970019452 0 -0.33252098208028658 -0.46369133821388597 0 -0.31132396783885069 -0.4713394846407476 0 -0.33252098208028658 -0.46369133821388597 0 -0.32082150150408317 -0.45688000142077823 0 -0.31132396783885069 -0.4713394846407476 0 -0.33252098208028658 -0.46369133821388597 0 -0.33227203022408008 -0.47935895037669563 0 -0.31132396783885069 -0.4713394846407476 0 -0.31588142759779508 -0.48725473026988281 0 -0.33227203022408008 -0.47935895037669563 0 -0.31132396783885069 -0.4713394846407476 0 -0.33227203022408008 -0.47935895037669563 0 -0.31132396783885069 -0.4713394846407476 0 -0.31588142759779508 -0.48725473026988281 0 -0.32984803145202019 -0.50000000000000022 0 -0.33227203022408008 -0.47935895037669563 0 -0.31588142759779508 -0.48725473026988281 0 -0.32984803145202019 -0.50000000000000022 0 -0.3043720453642299 -0.5 0 -0.32984803145202019 -0.50000000000000022 0 -0.35312769123228188 -0.49319363259964311 0 -0.32984803145202019 -0.50000000000000022 0 -0.33227203022408008 -0.47935895037669563 0 -0.35312769123228188 -0.49319363259964311 0 -0.33227203022408008 -0.47935895037669563 0 -0.3532200926093122 -0.48737841611263688 0 -0.34240361958178978 -0.47166085440889582 0 -0.33227203022408008 -0.47935895037669563 0 -0.3532200926093122 -0.48737841611263688 0 -0.33252098208028658 -0.46369133821388597 0 -0.34240361958178978 -0.47166085440889582 0 -0.33227203022408008 -0.47935895037669563 0 -0.35346904446551902 -0.47171080394983123 0 -0.3532200926093122 -0.48737841611263688 0 -0.3613651607015323 -0.48242235506221309 0 -0.34240361958178978 -0.47166085440889582 0 -0.35346904446551902 -0.47171080394983123 0 -0.3532200926093122 -0.48737841611263688 0 -0.35346904446551902 -0.47171080394983123 0 -0.3532200926093122 -0.48737841611263688 0 -0.32984803145202019 -0.50000000000000022 0 -0.35312769123228188 -0.49319363259964311 0 -0.35301954087849913 -0.500000000000003 0 -0.33227203022408008 -0.47935895037669563 0 -0.3532200926093122 -0.48737841611263688 0 -0.35312769123228188 -0.49319363259964311 0 -0.3532200926093122 -0.48737841611263688 0 -0.36051894961107639 -0.49017260932062878 0 -0.3613651607015323 -0.48242235506221309 0 -0.3532200926093122 -0.48737841611263688 0 -0.36051894961107639 -0.49017260932062878 0 -0.3532200926093122 -0.48737841611263688 0 -0.35312769123228188 -0.49319363259964311 0 -0.36051894961107639 -0.49017260932062878 0 -0.3532200926093122 -0.48737841611263688 0 -0.35312769123228188 -0.49319363259964311 0 -0.35312769123228188 -0.49319363259964311 0 -0.35301954087849913 -0.500000000000003 0 -0.35312769123228188 -0.49319363259964311 0 -0.37266329855325669 -0.48748192881742952 0 -0.35312769123228188 -0.49319363259964311 0 -0.35301954087849913 -0.500000000000003 0 -0.37266329855325669 -0.48748192881742952 0 -0.35312769123228188 -0.49319363259964311 0 -0.36051894961107639 -0.49017260932062878 0 -0.37266329855325669 -0.48748192881742952 0 -0.38054789694558239 -0.5 0 -0.35301954087849913 -0.500000000000003 0 -0.37266329855325669 -0.48748192881742952 0 -0.36051894961107639 -0.49017260932062878 0 -0.37266329855325669 -0.48748192881742952 0 -0.3613651607015323 -0.48242235506221309 0 -0.35346904446551902 -0.47171080394983123 0 -0.36695441826849451 -0.475368017110539 0 -0.3613651607015323 -0.48242235506221309 0 -0.35346904446551902 -0.47171080394983123 0 -0.36695441826849451 -0.475368017110539 0 -0.36186418518186031 -0.46454916054398371 0 -0.37266329855325669 -0.48748192881742952 0 -0.36695441826849451 -0.475368017110539 0 -0.3613651607015323 -0.48242235506221309 0 -0.38007567615417798 -0.47700737555269518 0 -0.37266329855325669 -0.48748192881742952 0 -0.36695441826849451 -0.475368017110539 0 -0.36695441826849451 -0.475368017110539 0 -0.37427480159930482 -0.46751936413266731 0 -0.36186418518186031 -0.46454916054398371 0 -0.38007567615417798 -0.47700737555269518 0 -0.36695441826849451 -0.475368017110539 0 -0.37427480159930482 -0.46751936413266731 0 -0.37427480159930482 -0.46751936413266731 0 -0.37310865864376852 -0.45653282154445002 0 -0.36186418518186031 -0.46454916054398371 0 -0.37310865864376852 -0.45653282154445002 0 -0.36048804989373973 -0.45360047223951061 0 -0.36186418518186031 -0.46454916054398371 0 -0.35346904446551902 -0.47171080394983123 0 -0.36186418518186031 -0.46454916054398371 0 -0.35371799632172279 -0.45604319178702563 0 -0.35346904446551902 -0.47171080394983123 0 -0.35371799632172279 -0.45604319178702563 0 -0.34240361958178978 -0.47166085440889582 0 -0.35346904446551902 -0.47171080394983123 0 -0.35371799632172279 -0.45604319178702563 0 -0.36048804989373973 -0.45360047223951061 0 -0.36186418518186031 -0.46454916054398371 0 -0.35371799632172279 -0.45604319178702563 0 -0.36048804989373973 -0.45360047223951061 0 -0.35371799632172279 -0.45604319178702563 0 -0.36048804989373973 -0.45360047223951061 0 -0.35371799632172279 -0.45604319178702563 0 -0.35418326928628169 -0.42676156091394662 0 -0.33999503846446028 -0.45950594587891708 0 -0.35371799632172279 -0.45604319178702563 0 -0.34487953972658619 -0.4388306072662338 0 -0.35371799632172279 -0.45604319178702563 0 -0.35418326928628169 -0.42676156091394662 0 -0.35371799632172279 -0.45604319178702563 0 -0.34487953972658619 -0.4388306072662338 0 -0.35418326928628169 -0.42676156091394662 0 -0.3759943363382815 -0.44184289981514541 0 -0.36048804989373973 -0.45360047223951061 0 -0.35418326928628169 -0.42676156091394662 0 -0.3759943363382815 -0.44184289981514541 0 -0.37310865864376852 -0.45653282154445002 0 -0.36048804989373973 -0.45360047223951061 0 -0.3759943363382815 -0.44184289981514541 0 -0.37488909373302781 -0.41988787385226561 0 -0.35418326928628169 -0.42676156091394662 0 -0.37488909373302781 -0.41988787385226561 0 -0.3649265000689606 -0.41059047496055989 0 -0.35418326928628169 -0.42676156091394662 0 -0.37598509500569272 -0.39823253503515998 0 -0.37488909373302781 -0.41988787385226561 0 -0.3649265000689606 -0.41059047496055989 0 -0.34976404098871222 -0.41815526865355063 0 -0.35418326928628169 -0.42676156091394662 0 -0.35464854225083908 -0.39747993004086762 0 -0.35418326928628169 -0.42676156091394662 0 -0.35464854225083908 -0.39747993004086762 0 -0.34976404098871222 -0.41815526865355063 0 -0.35464854225083908 -0.39747993004086762 0 -0.33796828661802109 -0.40679629485128982 0 -0.34976404098871222 -0.41815526865355063 0 -0.35464854225083908 -0.39747993004086762 0 -0.3649265000689606 -0.41059047496055989 0 -0.35418326928628169 -0.42676156091394662 0 -0.35464854225083908 -0.39747993004086762 0 -0.34487953972658619 -0.4388306072662338 0 -0.34976404098871222 -0.41815526865355063 0 -0.33804761336032468 -0.42649018082745133 0 -0.34487953972658619 -0.4388306072662338 0 -0.34976404098871222 -0.41815526865355063 0 -0.34487953972658619 -0.4388306072662338 0 -0.34976404098871222 -0.41815526865355063 0 -0.35418326928628169 -0.42676156091394662 0 -0.38194916828627518 -0.37771099111456408 0 -0.35920945734817789 -0.37817428163160771 0 -0.38194916828627518 -0.37771099111456408 0 -0.36794806572274641 -0.38789943445554981 0 -0.35920945734817789 -0.37817428163160771 0 -0.36794806572274641 -0.38789943445554981 0 -0.35464854225083908 -0.39747993004086762 0 -0.35920945734817789 -0.37817428163160771 0 -0.38194916828627518 -0.37771099111456408 0 -0.36045921166592071 -0.37288426483861847 0 -0.36269195156287809 -0.3774429694063291 0 -0.38194916828627518 -0.37771099111456408 0 -0.36269195156287809 -0.3774429694063291 0 -0.35920945734817789 -0.37817428163160771 0 -0.36045921166592071 -0.37288426483861847 0 -0.36269195156287809 -0.3774429694063291 0 -0.359913224415497 -0.37519534445042468 0 -0.36269195156287809 -0.3774429694063291 0 -0.359913224415497 -0.37519534445042468 0 -0.36269195156287809 -0.3774429694063291 0 -0.359913224415497 -0.37519534445042468 0 -0.35920945734817789 -0.37817428163160771 0 -0.359913224415497 -0.37519534445042468 0 -0.35920945734817789 -0.37817428163160771 0 -0.37598509500569272 -0.39823253503515998 0 -0.3649265000689606 -0.41059047496055989 0 -0.35464854225083908 -0.39747993004086762 0 -0.37598509500569272 -0.39823253503515998 0 -0.36794806572274641 -0.38789943445554981 0 -0.35464854225083908 -0.39747993004086762 0 -0.35464854225083908 -0.39747993004086762 0 -0.35920945734817789 -0.37817428163160771 0 -0.35464854225083908 -0.39747993004086762 0 -0.35495392335551712 -0.37826098231787952 0 -0.35920945734817789 -0.37817428163160771 0 -0.35464854225083908 -0.39747993004086762 0 -0.35495392335551712 -0.37826098231787952 0 -0.35464854225083908 -0.39747993004086762 0 -0.3500916450124999 -0.37836004459063721 0 -0.35495392335551712 -0.37826098231787952 0 -0.35464854225083908 -0.39747993004086762 0 -0.3500916450124999 -0.37836004459063721 0 -0.32937695203048117 -0.38974428870726952 0 -0.34785275774215357 -0.37840565885741051 0 -0.3500916450124999 -0.37836004459063721 0 -0.35499516928943592 -0.3756651981138408 0 -0.34785275774215357 -0.37840565885741051 0 -0.35499516928943592 -0.3756651981138408 0 -0.34785275774215357 -0.37840565885741051 0 -0.3500916450124999 -0.37836004459063721 0 -0.3500916450124999 -0.37836004459063721 0 -0.35499516928943592 -0.3756651981138408 0 -0.35495392335551712 -0.37826098231787952 0 -0.3550649479563539 -0.37127372617531751 0 -0.34785275774215357 -0.37840565885741051 0 -0.35499516928943592 -0.3756651981138408 0 -0.3500916450124999 -0.37836004459063721 0 -0.35499516928943592 -0.3756651981138408 0 -0.3500916450124999 -0.37836004459063721 0 -0.35495392335551712 -0.37826098231787952 0 -0.35499516928943592 -0.3756651981138408 0 -0.35495392335551712 -0.37826098231787952 0 -0.35495392335551712 -0.37826098231787952 0 -0.35920945734817789 -0.37817428163160771 0 -0.35495392335551712 -0.37826098231787952 0 -0.35920945734817789 -0.37817428163160771 0 -0.35746644731206012 -0.37623085671474149 0 -0.359913224415497 -0.37519534445042468 0 -0.35920945734817789 -0.37817428163160771 0 -0.35746644731206012 -0.37623085671474149 0 -0.35826046215167379 -0.37385847705995462 0 -0.359913224415497 -0.37519534445042468 0 -0.35746644731206012 -0.37623085671474149 0 -0.35826046215167379 -0.37385847705995462 0 -0.35499516928943592 -0.3756651981138408 0 -0.35746644731206012 -0.37623085671474149 0 -0.35499516928943592 -0.3756651981138408 0 -0.35495392335551712 -0.37826098231787952 0 -0.35746644731206012 -0.37623085671474149 0 -0.34785275774215357 -0.37840565885741051 0 -0.32943659817270171 -0.38647159666282738 0 -0.3500916450124999 -0.37836004459063721 0 -0.32937695203048117 -0.38974428870726952 0 -0.34785275774215357 -0.37840565885741051 0 -0.32943659817270171 -0.38647159666282738 0 -0.32937695203048117 -0.38974428870726952 0 -0.34785275774215357 -0.37840565885741051 0 -0.32943659817270171 -0.38647159666282738 0 -0.33797062103190628 -0.37860699388046448 0 -0.34785275774215357 -0.37840565885741051 0 -0.3500916450124999 -0.37836004459063721 0 -0.32937695203048117 -0.38974428870726952 0 -0.33298481585286238 -0.36926714917661779 0 -0.32943659817270171 -0.38647159666282738 0 -0.33797062103190628 -0.37860699388046448 0 -0.34301726708398139 -0.37152460107981161 0 -0.34785275774215357 -0.37840565885741051 0 -0.33797062103190628 -0.37860699388046448 0 -0.34785275774215357 -0.37840565885741051 0 -0.33797062103190628 -0.37860699388046448 0 -0.32937695203048117 -0.38974428870726952 0 -0.33796828661802109 -0.40679629485128982 0 -0.32507564401626932 -0.40974371202186632 0 -0.35464854225083908 -0.39747993004086762 0 -0.32937695203048117 -0.38974428870726952 0 -0.33796828661802109 -0.40679629485128982 0 -0.32937695203048117 -0.38974428870726952 0 -0.30866225904846029 -0.40112853282389738 0 -0.32937695203048117 -0.38974428870726952 0 -0.3110204386032458 -0.39453753446823542 0 -0.30866225904846029 -0.40112853282389738 0 -0.32937695203048117 -0.38974428870726952 0 -0.32507564401626932 -0.40974371202186632 0 -0.30866225904846029 -0.40112853282389738 0 -0.31919093816007349 -0.37170138145570347 0 -0.32943659817270171 -0.38647159666282738 0 -0.3110204386032458 -0.39453753446823542 0 -0.32943659817270171 -0.38647159666282738 0 -0.3110204386032458 -0.39453753446823542 0 -0.33298481585286238 -0.36926714917661779 0 -0.31919093816007349 -0.37170138145570347 0 -0.32943659817270171 -0.38647159666282738 0 -0.32943659817270171 -0.38647159666282738 0 -0.32937695203048117 -0.38974428870726952 0 -0.3110204386032458 -0.39453753446823542 0 -0.31919093816007349 -0.37170138145570347 0 -0.3110204386032458 -0.39453753446823542 0 -0.32940201075840259 -0.43595019623835252 0 -0.33804761336032468 -0.42649018082745133 0 -0.32646138579817818 -0.42320228316907021 0 -0.33804761336032468 -0.42649018082745133 0 -0.33546339415630111 -0.4168775479046456 0 -0.32646138579817818 -0.42320228316907021 0 -0.34487953972658619 -0.4388306072662338 0 -0.32940201075840259 -0.43595019623835252 0 -0.33804761336032468 -0.42649018082745133 0 -0.34976404098871222 -0.41815526865355063 0 -0.33804761336032468 -0.42649018082745133 0 -0.33546339415630111 -0.4168775479046456 0 -0.34976404098871222 -0.41815526865355063 0 -0.33796828661802109 -0.40679629485128982 0 -0.33546339415630111 -0.4168775479046456 0 -0.33796828661802109 -0.40679629485128982 0 -0.33546339415630111 -0.4168775479046456 0 -0.32507564401626932 -0.40974371202186632 0 -0.33546339415630111 -0.4168775479046456 0 -0.32507564401626932 -0.40974371202186632 0 -0.32646138579817818 -0.42320228316907021 0 -0.32507564401626932 -0.40974371202186632 0 -0.31376422668471732 -0.41814728059342993 0 -0.32646138579817818 -0.42320228316907021 0 -0.32507564401626932 -0.40974371202186632 0 -0.31376422668471732 -0.41814728059342993 0 -0.30866225904846029 -0.40112853282389738 0 -0.31376422668471732 -0.41814728059342993 0 -0.32646138579817818 -0.42320228316907021 0 -0.31588096561256779 -0.43260413164560357 0 -0.32940201075840259 -0.43595019623835252 0 -0.32646138579817818 -0.42320228316907021 0 -0.31588096561256779 -0.43260413164560357 0 -0.31588096561256779 -0.43260413164560357 0 -0.29964053987654149 -0.42634380369110503 0 -0.30527928961437462 -0.44270052567376289 0 -0.31376422668471732 -0.41814728059342993 0 -0.31588096561256779 -0.43260413164560357 0 -0.29964053987654149 -0.42634380369110503 0 -0.29964053987654149 -0.42634380369110503 0 -0.30866225904846029 -0.40112853282389738 0 -0.29964053987654149 -0.42634380369110503 0 -0.29230761082197382 -0.41011661234859248 0 -0.30866225904846029 -0.40112853282389738 0 -0.31376422668471732 -0.41814728059342993 0 -0.29964053987654149 -0.42634380369110503 0 -0.30866225904846029 -0.40112853282389738 0 -0.29964053987654149 -0.42634380369110503 0 -0.29230761082197382 -0.41011661234859248 0 -0.28687310410320899 -0.42590918062992028 0 -0.29230761082197382 -0.41011661234859248 0 -0.28289017480080242 -0.40685807054009782 0 -0.27595296259548419 -0.41910469187328209 0 -0.29230761082197382 -0.41011661234859248 0 -0.28687310410320899 -0.42590918062992028 0 -0.27595296259548419 -0.41910469187328209 0 -0.29230761082197382 -0.41011661234859248 0 -0.27595296259548419 -0.41910469187328209 0 -0.28687310410320899 -0.42590918062992028 0 -0.28007793289327881 -0.43497343963770219 0 -0.27871683638843697 -0.42651784334841569 0 -0.28687310410320899 -0.42590918062992028 0 -0.28866772051165962 -0.43688500450069401 0 -0.28007793289327881 -0.43497343963770219 0 -0.29964053987654149 -0.42634380369110503 0 -0.28687310410320899 -0.42590918062992028 0 -0.28866772051165962 -0.43688500450069401 0 -0.30324630136946479 -0.37543300802477558 0 -0.2987725933615506 -0.38815014379464241 0 -0.3110204386032458 -0.39453753446823542 0 -0.31919093816007349 -0.37170138145570347 0 -0.30324630136946479 -0.37543300802477558 0 -0.3110204386032458 -0.39453753446823542 0 -0.29230761082197382 -0.41011661234859248 0 -0.30866225904846029 -0.40112853282389738 0 -0.29230761082197382 -0.41011661234859248 0 -0.30866225904846029 -0.40112853282389738 0 -0.29695530670202569 -0.40069780250417047 0 -0.2987725933615506 -0.38815014379464241 0 -0.3110204386032458 -0.39453753446823542 0 -0.29695530670202569 -0.40069780250417047 0 -0.3110204386032458 -0.39453753446823542 0 -0.29695530670202569 -0.40069780250417047 0 -0.3110204386032458 -0.39453753446823542 0 -0.30866225904846029 -0.40112853282389738 0 -0.3110204386032458 -0.39453753446823542 0 -0.30866225904846029 -0.40112853282389738 0 -0.29695530670202569 -0.40069780250417047 0 -0.29230761082197382 -0.41011661234859248 0 -0.28289017480080242 -0.40685807054009782 0 -0.29695530670202569 -0.40069780250417047 0 -0.28289017480080242 -0.40685807054009782 0 -0.29695530670202569 -0.40069780250417047 0 -0.28289017480080242 -0.40685807054009782 0 -0.28323049759964741 -0.39510478190484161 0 -0.2781458195040033 -0.40438931258968708 0 -0.28289017480080242 -0.40685807054009782 0 -0.29695530670202569 -0.40069780250417047 0 -0.28323049759964741 -0.39510478190484161 0 -0.29695530670202569 -0.40069780250417047 0 -0.28323049759964741 -0.39510478190484161 0 -0.29169692612910592 -0.39160118480013062 0 -0.2987725933615506 -0.38815014379464241 0 -0.29695530670202569 -0.40069780250417047 0 -0.29169692612910592 -0.39160118480013062 0 -0.2987725933615506 -0.38815014379464241 0 -0.29169692612910592 -0.39160118480013062 0 -0.28782930685319991 -0.3824520109968681 0 -0.28323049759964741 -0.39510478190484161 0 -0.29169692612910592 -0.39160118480013062 0 -0.28782930685319991 -0.3824520109968681 0 -0.28323049759964741 -0.39510478190484161 0 -0.28782930685319991 -0.3824520109968681 0 -0.27775825368485169 -0.38389902796095488 0 -0.28080488171343909 -0.37323183786172071 0 -0.28782930685319991 -0.3824520109968681 0 -0.27775825368485169 -0.38389902796095488 0 -0.30324630136946479 -0.37543300802477558 0 -0.2987725933615506 -0.38815014379464241 0 -0.28782930685319991 -0.3824520109968681 0 -0.2925887299631979 -0.36843304642831443 0 -0.30324630136946479 -0.37543300802477558 0 -0.28782930685319991 -0.3824520109968681 0 -0.26747550121908192 -0.37327398573877102 0 -0.27050964302007768 -0.39648970604052458 0 -0.26747550121908192 -0.37327398573877102 0 -0.27775825368485169 -0.38389902796095488 0 -0.27050964302007768 -0.39648970604052458 0 -0.26747550121908192 -0.37327398573877102 0 -0.27050964302007768 -0.39648970604052458 0 -0.26574761556073428 -0.39173231922114499 0 -0.28080488171343909 -0.37323183786172071 0 -0.26747550121908192 -0.37327398573877102 0 -0.27775825368485169 -0.38389902796095488 0 -0.27050964302007768 -0.39648970604052458 0 -0.26574761556073428 -0.39173231922114499 0 -0.27595296259548419 -0.41910469187328209 0 -0.26574761556073428 -0.39173231922114499 0 -0.27595296259548419 -0.41910469187328209 0 -0.26489444913517701 -0.40763904427337888 0 -0.26574761556073428 -0.39173231922114499 0 -0.27595296259548419 -0.41910469187328209 0 -0.28323049759964741 -0.39510478190484161 0 -0.27775825368485169 -0.38389902796095488 0 -0.27050964302007768 -0.39648970604052458 0 -0.28323049759964741 -0.39510478190484161 0 -0.27050964302007768 -0.39648970604052458 0 -0.2781458195040033 -0.40438931258968708 0 -0.26574761556073428 -0.39173231922114499 0 -0.25832586692189652 -0.39930461870457118 0 -0.26489444913517701 -0.40763904427337888 0 -0.25832586692189652 -0.39930461870457118 0 -0.25407636969816749 -0.4124580203161039 0 -0.24710417551880079 -0.40231406071222781 0 -0.25832586692189652 -0.39930461870457118 0 -0.25269773307511179 -0.39124555653212539 0 -0.24710417551880079 -0.40231406071222781 0 -0.26574761556073428 -0.39173231922114499 0 -0.25832586692189652 -0.39930461870457118 0 -0.25269773307511179 -0.39124555653212539 0 -0.25554226852600281 -0.36435994656900111 0 -0.26574761556073428 -0.39173231922114499 0 -0.25554226852600281 -0.36435994656900111 0 -0.26574761556073428 -0.39173231922114499 0 -0.25240873419082382 -0.38056695435806998 0 -0.26747550121908192 -0.37327398573877102 0 -0.25554226852600281 -0.36435994656900111 0 -0.26574761556073428 -0.39173231922114499 0 -0.26574761556073428 -0.39173231922114499 0 -0.25269773307511179 -0.39124555653212539 0 -0.25240873419082382 -0.38056695435806998 0 -0.27116853288801579 -0.43254774680616409 0 -0.27595296259548419 -0.41910469187328209 0 -0.25070465155460381 -0.43298049185118082 0 -0.27116853288801579 -0.43254774680616409 0 -0.28007793289327881 -0.43497343963770219 0 -0.27871683638843697 -0.42651784334841569 0 -0.27116853288801579 -0.43254774680616409 0 -0.28007793289327881 -0.43497343963770219 0 -0.27442182134014592 -0.44134301787366531 0 -0.28687310410320899 -0.42590918062992028 0 -0.27871683638843697 -0.42651784334841569 0 -0.27595296259548419 -0.41910469187328209 0 -0.27116853288801579 -0.43254774680616409 0 -0.27871683638843697 -0.42651784334841569 0 -0.27595296259548419 -0.41910469187328209 0 -0.27871683638843697 -0.42651784334841569 0 -0.27595296259548419 -0.41910469187328209 0 -0.27050964302007768 -0.39648970604052458 0 -0.2781458195040033 -0.40438931258968708 0 -0.27595296259548419 -0.41910469187328209 0 -0.28289017480080242 -0.40685807054009782 0 -0.2781458195040033 -0.40438931258968708 0 -0.27595296259548419 -0.41910469187328209 0 -0.27595296259548419 -0.41910469187328209 0 -0.25407636969816749 -0.4124580203161039 0 -0.25070465155460381 -0.43298049185118082 0 -0.27595296259548419 -0.41910469187328209 0 -0.26489444913517701 -0.40763904427337888 0 -0.25407636969816749 -0.4124580203161039 0 -0.25832586692189652 -0.39930461870457118 0 -0.26489444913517701 -0.40763904427337888 0 -0.25407636969816749 -0.4124580203161039 0 -0.27595296259548419 -0.41910469187328209 0 -0.25070465155460381 -0.43298049185118082 0 -0.25070465155460381 -0.43298049185118082 0 -0.26261787018725219 -0.45269351757869819 0 -0.24349644104533871 -0.44659984309034118 0 -0.27116853288801579 -0.43254774680616409 0 -0.25070465155460381 -0.43298049185118082 0 -0.26261787018725219 -0.45269351757869819 0 -0.26261787018725219 -0.45269351757869819 0 -0.27054573956865302 -0.46845314151206768 0 -0.25618757843193068 -0.47495550140067982 0 -0.26261787018725219 -0.45269351757869819 0 -0.24349644104533871 -0.44659984309034118 0 -0.24884546327493129 -0.46100602696864418 0 -0.26261787018725219 -0.45269351757869819 0 -0.25618757843193068 -0.47495550140067982 0 -0.24884546327493129 -0.46100602696864418 0 -0.26261787018725219 -0.45269351757869819 0 -0.28061958212820592 -0.44663784466735451 0 -0.2869709190130515 -0.46201650110972292 0 -0.27054573956865302 -0.46845314151206768 0 -0.2869709190130515 -0.46201650110972292 0 -0.27970635531850091 -0.47382013714226479 0 -0.26261787018725219 -0.45269351757869819 0 -0.2869709190130515 -0.46201650110972292 0 -0.26261787018725219 -0.45269351757869819 0 -0.27054573956865302 -0.46845314151206768 0 -0.2869709190130515 -0.46201650110972292 0 -0.27116853288801579 -0.43254774680616409 0 -0.26261787018725219 -0.45269351757869819 0 -0.27442182134014592 -0.44134301787366531 0 -0.26261787018725219 -0.45269351757869819 0 -0.28061958212820592 -0.44663784466735451 0 -0.27442182134014592 -0.44134301787366531 0 -0.28007793289327881 -0.43497343963770219 0 -0.28061958212820592 -0.44663784466735451 0 -0.27442182134014592 -0.44134301787366531 0 -0.29964053987654149 -0.42634380369110503 0 -0.28866772051165962 -0.43688500450069401 0 -0.29061882070462519 -0.4515590745583134 0 -0.29964053987654149 -0.42634380369110503 0 -0.29061882070462519 -0.4515590745583134 0 -0.28866772051165962 -0.43688500450069401 0 -0.28061958212820592 -0.44663784466735451 0 -0.29061882070462519 -0.4515590745583134 0 -0.28866772051165962 -0.43688500450069401 0 -0.28007793289327881 -0.43497343963770219 0 -0.28061958212820592 -0.44663784466735451 0 -0.29061882070462519 -0.4515590745583134 0 -0.2869709190130515 -0.46201650110972292 0 -0.30455476456045721 -0.45647950970019452 0 -0.28061958212820592 -0.44663784466735451 0 -0.29061882070462519 -0.4515590745583134 0 -0.2869709190130515 -0.46201650110972292 0 -0.32082150150408317 -0.45688000142077823 0 -0.30455476456045721 -0.45647950970019452 0 -0.31132396783885069 -0.4713394846407476 0 -0.2869709190130515 -0.46201650110972292 0 -0.31132396783885069 -0.4713394846407476 0 -0.2869709190130515 -0.46201650110972292 0 -0.30455476456045721 -0.45647950970019452 0 -0.31132396783885069 -0.4713394846407476 0 -0.29964053987654149 -0.42634380369110503 0 -0.29061882070462519 -0.4515590745583134 0 -0.30527928961437462 -0.44270052567376289 0 -0.3149259106245394 -0.4460342910867629 0 -0.30455476456045721 -0.45647950970019452 0 -0.30527928961437462 -0.44270052567376289 0 -0.3149259106245394 -0.4460342910867629 0 -0.31588096561256779 -0.43260413164560357 0 -0.30527928961437462 -0.44270052567376289 0 -0.29061882070462519 -0.4515590745583134 0 -0.30455476456045721 -0.45647950970019452 0 -0.30527928961437462 -0.44270052567376289 0 -0.31588142759779508 -0.48725473026988281 0 -0.3043720453642299 -0.5 0 -0.29087757684371662 -0.4787167968626721 0 -0.31588142759779508 -0.48725473026988281 0 -0.31132396783885069 -0.4713394846407476 0 -0.29087757684371662 -0.4787167968626721 0 -0.31132396783885069 -0.4713394846407476 0 -0.29087757684371662 -0.4787167968626721 0 -0.2869709190130515 -0.46201650110972292 0 -0.29087757684371662 -0.4787167968626721 0 -0.27970635531850091 -0.47382013714226479 0 -0.2869709190130515 -0.46201650110972292 0 -0.31132396783885069 -0.4713394846407476 0 -0.29087757684371662 -0.4787167968626721 0 -0.3043720453642299 -0.5 0 -0.29087757684371662 -0.4787167968626721 0 -0.27889605927643968 -0.5 0 -0.27043118584858239 -0.48609410908459649 0 -0.27889605927643968 -0.5 0 -0.25342007318864929 -0.50000000000000067 0 -0.29087757684371662 -0.4787167968626721 0 -0.27043118584858239 -0.48609410908459649 0 -0.27889605927643968 -0.5 0 -0.27054573956865302 -0.46845314151206768 0 -0.27043118584858239 -0.48609410908459649 0 -0.25618757843193068 -0.47495550140067982 0 -0.29087757684371662 -0.4787167968626721 0 -0.27043118584858239 -0.48609410908459649 0 -0.29087757684371662 -0.4787167968626721 0 -0.27043118584858239 -0.48609410908459649 0 -0.27970635531850091 -0.47382013714226479 0 -0.27054573956865302 -0.46845314151206768 0 -0.27043118584858239 -0.48609410908459649 0 -0.27970635531850091 -0.47382013714226479 0 -0.27043118584858239 -0.48609410908459649 0 -0.24998479485344821 -0.49347142130652089 0 -0.27043118584858239 -0.48609410908459649 0 -0.25342007318864929 -0.50000000000000067 0 -0.24998479485344821 -0.49347142130652089 0 -0.27043118584858239 -0.48609410908459649 0 -0.25618757843193068 -0.47495550140067982 0 -0.24998479485344821 -0.49347142130652089 0 -0.25342007318864929 -0.50000000000000067 0 -0.24998479485344821 -0.49347142130652089 0 -0.24998479485344821 -0.49347142130652089 0 -0.24107127159571781 -0.49668753138116989 0 -0.24042972173504171 -0.47531247152470413 0 -0.25342007318864929 -0.50000000000000067 0 -0.24107127159571781 -0.49668753138116989 0 -0.22374513438433269 -0.5 0 -0.24998479485344821 -0.49347142130652089 0 -0.24042972173504171 -0.47531247152470413 0 -0.24998479485344821 -0.49347142130652089 0 -0.24107127159571781 -0.49668753138116989 0 -0.25342007318864929 -0.50000000000000067 0 -0.24998479485344821 -0.49347142130652089 0 -0.24107127159571781 -0.49668753138116989 0 -0.24107127159571781 -0.49668753138116989 0 -0.24042972173504171 -0.47531247152470413 0 -0.22709901383912209 -0.48488185483911889 0 -0.25618757843193068 -0.47495550140067982 0 -0.24998479485344821 -0.49347142130652089 0 -0.24042972173504171 -0.47531247152470413 0 -0.25618757843193068 -0.47495550140067982 0 -0.24042972173504171 -0.47531247152470413 0 -0.24884546327493129 -0.46100602696864418 0 -0.24042972173504171 -0.47531247152470413 0 -0.22459585300609819 -0.46970098971784319 0 -0.22709901383912209 -0.48488185483911889 0 -0.22459585300609819 -0.46970098971784319 0 -0.22709901383912209 -0.48488185483911889 0 -0.2167059226115236 -0.47722377902849722 0 -0.24107127159571781 -0.49668753138116989 0 -0.22374513438433269 -0.5 0 -0.22709901383912209 -0.48488185483911889 0 -0.22374513438433269 -0.5 0 -0.22709901383912209 -0.48488185483911889 0 -0.21221769617426389 -0.49003112268670879 0 -0.24349644104533871 -0.44659984309034118 0 -0.23479310157699529 -0.45272320885591588 0 -0.22545634051372179 -0.44685629182907671 0 -0.25070465155460381 -0.43298049185118082 0 -0.24349644104533871 -0.44659984309034118 0 -0.22545634051372179 -0.44685629182907671 0 -0.25070465155460381 -0.43298049185118082 0 -0.22545634051372179 -0.44685629182907671 0 -0.24349644104533871 -0.44659984309034118 0 -0.23479310157699529 -0.45272320885591588 0 -0.24149570497509271 -0.45546880124879757 0 -0.24042972173504171 -0.47531247152470413 0 -0.24149570497509271 -0.45546880124879757 0 -0.23264237273418811 -0.45753758636847619 0 -0.24042972173504171 -0.47531247152470413 0 -0.23087464861663759 -0.45715352174288598 0 -0.24042972173504171 -0.47531247152470413 0 -0.24149570497509271 -0.45546880124879757 0 -0.24884546327493129 -0.46100602696864418 0 -0.24042972173504171 -0.47531247152470413 0 -0.23087464861663759 -0.45715352174288598 0 -0.23264237273418811 -0.45753758636847619 0 -0.23479310157699529 -0.45272320885591588 0 -0.24149570497509271 -0.45546880124879757 0 -0.23264237273418811 -0.45753758636847619 0 -0.24349644104533871 -0.44659984309034118 0 -0.24149570497509271 -0.45546880124879757 0 -0.24884546327493129 -0.46100602696864418 0 -0.24042972173504171 -0.47531247152470413 0 -0.22459585300609819 -0.46970098971784319 0 -0.23087464861663759 -0.45715352174288598 0 -0.23087464861663759 -0.45715352174288598 0 -0.21356332519390889 -0.45339237661687309 0 -0.22459585300609819 -0.46970098971784319 0 -0.23087464861663759 -0.45715352174288598 0 -0.21356332519390889 -0.45339237661687309 0 -0.23087464861663759 -0.45715352174288598 0 -0.23264237273418811 -0.45753758636847619 0 -0.23479310157699529 -0.45272320885591588 0 -0.23087464861663759 -0.45715352174288598 0 -0.23264237273418811 -0.45753758636847619 0 -0.22545634051372179 -0.44685629182907671 0 -0.22074535129066211 -0.43790328690029862 0 -0.2319147169235512 -0.43100355718318972 0 -0.23087464861663759 -0.45715352174288598 0 -0.22545634051372179 -0.44685629182907671 0 -0.21356332519390889 -0.45339237661687309 0 -0.23087464861663759 -0.45715352174288598 0 -0.22545634051372179 -0.44685629182907671 0 -0.23479310157699529 -0.45272320885591588 0 -0.23087464861663759 -0.45715352174288598 0 -0.22545634051372179 -0.44685629182907671 0 -0.22545634051372179 -0.44685629182907671 0 -0.21356332519390889 -0.45339237661687309 0 -0.22545634051372179 -0.44685629182907671 0 -0.22074535129066211 -0.43790328690029862 0 -0.22545634051372179 -0.44685629182907671 0 -0.22074535129066211 -0.43790328690029862 0 -0.21376700891759121 -0.4420153445968763 0 -0.21376700891759121 -0.4420153445968763 0 -0.21356332519390889 -0.45339237661687309 0 -0.20230355158835761 -0.43876177587941578 0 -0.22545634051372179 -0.44685629182907671 0 -0.21376700891759121 -0.4420153445968763 0 -0.21356332519390889 -0.45339237661687309 0 -0.22459585300609819 -0.46970098971784319 0 -0.21356332519390889 -0.45339237661687309 0 -0.20971412557374439 -0.46943737128508262 0 -0.21356332519390889 -0.45339237661687309 0 -0.20971412557374439 -0.46943737128508262 0 -0.1872895695814554 -0.46783173364777131 0 -0.21356332519390889 -0.45339237661687309 0 -0.1872895695814554 -0.46783173364777131 0 -0.18612989294486951 -0.46450763799353628 0 -0.21356332519390889 -0.45339237661687309 0 -0.18612989294486951 -0.46450763799353628 0 -0.18598800999356421 -0.44740122505489971 0 -0.21356332519390889 -0.45339237661687309 0 -0.1872895695814554 -0.46783173364777131 0 -0.20230355158835761 -0.43876177587941578 0 -0.18598800999356421 -0.44740122505489971 0 -0.1858459829099314 -0.43027743450259931 0 -0.21356332519390889 -0.45339237661687309 0 -0.20230355158835761 -0.43876177587941578 0 -0.18598800999356421 -0.44740122505489971 0 -0.21356332519390889 -0.45339237661687309 0 -0.18598800999356421 -0.44740122505489971 0 -0.22374513438433269 -0.5 0 -0.21221769617426389 -0.49003112268670879 0 -0.19407019558001609 -0.5 0 -0.21221769617426389 -0.49003112268670879 0 -0.20258747394798171 -0.47870274271863528 0 -0.19809461919605911 -0.49031299733651229 0 -0.22709901383912209 -0.48488185483911889 0 -0.21221769617426389 -0.49003112268670879 0 -0.2167059226115236 -0.47722377902849722 0 -0.22459585300609819 -0.46970098971784319 0 -0.2167059226115236 -0.47722377902849722 0 -0.20971412557374439 -0.46943737128508262 0 -0.2167059226115236 -0.47722377902849722 0 -0.20971412557374439 -0.46943737128508262 0 -0.20258747394798171 -0.47870274271863528 0 -0.21221769617426389 -0.49003112268670879 0 -0.2167059226115236 -0.47722377902849722 0 -0.20258747394798171 -0.47870274271863528 0 -0.20971412557374439 -0.46943737128508262 0 -0.20258747394798171 -0.47870274271863528 0 -0.1872895695814554 -0.46783173364777131 0 -0.20258747394798171 -0.47870274271863528 0 -0.19099517867445739 -0.48069273207732088 0 -0.19809461919605911 -0.49031299733651229 0 -0.20258747394798171 -0.47870274271863528 0 -0.19099517867445739 -0.48069273207732088 0 -0.1872895695814554 -0.46783173364777131 0 -0.19407019558001609 -0.5 0 -0.19809461919605911 -0.49031299733651229 0 -0.17955521658253079 -0.48629204400758991 0 -0.21221769617426389 -0.49003112268670879 0 -0.19407019558001609 -0.5 0 -0.19809461919605911 -0.49031299733651229 0 -0.19809461919605911 -0.49031299733651229 0 -0.17955521658253079 -0.48629204400758991 0 -0.19099517867445739 -0.48069273207732088 0 -0.19809461919605911 -0.49031299733651229 0 -0.17955521658253079 -0.48629204400758991 0 -0.19407019558001609 -0.5 0 -0.17955521658253079 -0.48629204400758991 0 -0.16439525677569941 -0.5 0 -0.17955521658253079 -0.48629204400758991 0 -0.16439525677569941 -0.5 0 -0.16101581396900211 -0.48227109067866941 0 -0.16439525677569941 -0.5 0 -0.16101581396900211 -0.48227109067866941 0 -0.1476030158527922 -0.48964240765520489 0 -0.16101581396900211 -0.48227109067866941 0 -0.1574183284326702 -0.46092207287777281 0 -0.1710950211840466 -0.46874761780439661 0 -0.17955521658253079 -0.48629204400758991 0 -0.16101581396900211 -0.48227109067866941 0 -0.16101581396900211 -0.48227109067866941 0 -0.1872895695814554 -0.46783173364777131 0 -0.17955521658253079 -0.48629204400758991 0 -0.16101581396900211 -0.48227109067866941 0 -0.1872895695814554 -0.46783173364777131 0 -0.19099517867445739 -0.48069273207732088 0 -0.17955521658253079 -0.48629204400758991 0 -0.1872895695814554 -0.46783173364777131 0 -0.16101581396900211 -0.48227109067866941 0 -0.1872895695814554 -0.46783173364777131 0 -0.1710950211840466 -0.46874761780439661 0 -0.1872895695814554 -0.46783173364777131 0 -0.17983224419872729 -0.46428367101515561 0 -0.18612989294486951 -0.46450763799353628 0 -0.18612989294486951 -0.46450763799353628 0 -0.18598800999356421 -0.44740122505489971 0 -0.18612989294486951 -0.46450763799353628 0 -0.17481449308453759 -0.45604769461491801 0 -0.18598800999356421 -0.44740122505489971 0 -0.1872895695814554 -0.46783173364777131 0 -0.17983224419872729 -0.46428367101515561 0 -0.1710950211840466 -0.46874761780439661 0 -0.17983224419872729 -0.46428367101515561 0 -0.18612989294486951 -0.46450763799353628 0 -0.17481449308453759 -0.45604769461491801 0 -0.17983224419872729 -0.46428367101515561 0 -0.17481449308453759 -0.45604769461491801 0 -0.1710950211840466 -0.46874761780439661 0 -0.18598800999356421 -0.44740122505489971 0 -0.1791728010914091 -0.43849410903703878 0 -0.1858459829099314 -0.43027743450259931 0 -0.18598800999356421 -0.44740122505489971 0 -0.1858459829099314 -0.43027743450259931 0 -0.18598800999356421 -0.44740122505489971 0 -0.1791728010914091 -0.43849410903703878 0 -0.16776853372897069 -0.44344277007848559 0 -0.18598800999356421 -0.44740122505489971 0 -0.16776853372897069 -0.44344277007848559 0 -0.17481449308453759 -0.45604769461491801 0 -0.18598800999356421 -0.44740122505489971 0 -0.16776853372897069 -0.44344277007848559 0 -0.16776853372897069 -0.44344277007848559 0 -0.1574183284326702 -0.46092207287777281 0 -0.16776853372897069 -0.44344277007848559 0 -0.14536040907397599 -0.43857426830244672 0 -0.16776853372897069 -0.44344277007848559 0 -0.1574183284326702 -0.46092207287777281 0 -0.14536040907397599 -0.43857426830244672 0 -0.17481449308453759 -0.45604769461491801 0 -0.1574183284326702 -0.46092207287777281 0 -0.1710950211840466 -0.46874761780439661 0 -0.17481449308453759 -0.45604769461491801 0 -0.16776853372897069 -0.44344277007848559 0 -0.1574183284326702 -0.46092207287777281 0 -0.1574183284326702 -0.46092207287777281 0 -0.14210324834754601 -0.46452425213713822 0 -0.14536040907397599 -0.43857426830244672 0 -0.1574183284326702 -0.46092207287777281 0 -0.14210324834754601 -0.46452425213713822 0 -0.14706812313636961 -0.47840137567705981 0 -0.14536040907397599 -0.43857426830244672 0 -0.1266732872715573 -0.45466772510395781 0 -0.1229522844189808 -0.43370576652641007 0 -0.14210324834754601 -0.46452425213713822 0 -0.14536040907397599 -0.43857426830244672 0 -0.1266732872715573 -0.45466772510395781 0 -0.14210324834754601 -0.46452425213713822 0 -0.1266732872715573 -0.45466772510395781 0 -0.1303942901241347 -0.47562968368150538 0 -0.1266732872715573 -0.45466772510395781 0 -0.1303942901241347 -0.47562968368150538 0 -0.1303942901241347 -0.47562968368150538 0 -0.14706812313636961 -0.47840137567705981 0 -0.14210324834754601 -0.46452425213713822 0 -0.1303942901241347 -0.47562968368150538 0 -0.14706812313636961 -0.47840137567705981 0 -0.1303942901241347 -0.47562968368150538 0 -0.13419021773658019 -0.49701372463173682 0 -0.14706812313636961 -0.47840137567705981 0 -0.1303942901241347 -0.47562968368150538 0 -0.13419021773658019 -0.49701372463173682 0 -0.1303942901241347 -0.47562968368150538 0 -0.13419021773658019 -0.49701372463173682 0 -0.11832517605854199 -0.48705874080463729 0 -0.128756411435521 -0.50000000000001088 0 -0.13419021773658019 -0.49701372463173682 0 -0.11832517605854199 -0.48705874080463729 0 -0.128756411435521 -0.50000000000001088 0 -0.13472031797138281 -0.50000000000000033 0 -0.13419021773658019 -0.49701372463173682 0 -0.128756411435521 -0.50000000000001088 0 -0.13419021773658019 -0.49701372463173682 0 -0.13472031797138281 -0.50000000000000033 0 -0.13419021773658019 -0.49701372463173682 0 -0.1476030158527922 -0.48964240765520489 0 -0.13472031797138281 -0.50000000000000033 0 -0.13419021773658019 -0.49701372463173682 0 -0.16439525677569941 -0.5 0 -0.13472031797138281 -0.50000000000000033 0 -0.1476030158527922 -0.48964240765520489 0 -0.13419021773658019 -0.49701372463173682 0 -0.1476030158527922 -0.48964240765520489 0 -0.14706812313636961 -0.47840137567705981 0 -0.13419021773658019 -0.49701372463173682 0 -0.1476030158527922 -0.48964240765520489 0 -0.16101581396900211 -0.48227109067866941 0 -0.1476030158527922 -0.48964240765520489 0 -0.1574183284326702 -0.46092207287777281 0 -0.14706812313636961 -0.47840137567705981 0 -0.16101581396900211 -0.48227109067866941 0 -0.1574183284326702 -0.46092207287777281 0 -0.14706812313636961 -0.47840137567705981 0 -0.16101581396900211 -0.48227109067866941 0 -0.1476030158527922 -0.48964240765520489 0 -0.14706812313636961 -0.47840137567705981 0 -0.16101581396900211 -0.48227109067866941 0 -0.14706812313636961 -0.47840137567705981 0 -0.13738779332650169 -0.39239328884848801 0 -0.15214940472715641 -0.4074081710505717 0 -0.1580920107830773 -0.38639505685811049 0 -0.13738779332650169 -0.39239328884848801 0 -0.1326505070762681 -0.40726180765997883 0 -0.15214940472715641 -0.4074081710505717 0 -0.13867184321040671 -0.37791882159611861 0 -0.1580920107830773 -0.38639505685811049 0 -0.14755756298194639 -0.36772399181309928 0 -0.13867184321040671 -0.37791882159611861 0 -0.13738779332650169 -0.39239328884848801 0 -0.1580920107830773 -0.38639505685811049 0 -0.13738779332650169 -0.39239328884848801 0 -0.1580920107830773 -0.38639505685811049 0 -0.13867184321040671 -0.37791882159611861 0 -0.1261016000392115 -0.38762286794517758 0 -0.13738779332650169 -0.39239328884848801 0 -0.13867184321040671 -0.37791882159611861 0 -0.1261016000392115 -0.38762286794517758 0 -0.12198752904021749 -0.37612484935646451 0 -0.1261016000392115 -0.38762286794517758 0 -0.13738779332650169 -0.39239328884848801 0 -0.116683575869927 -0.39839152083886858 0 -0.13738779332650169 -0.39239328884848801 0 -0.1326505070762681 -0.40726180765997883 0 -0.116683575869927 -0.39839152083886858 0 -0.13738779332650169 -0.39239328884848801 0 -0.116683575869927 -0.39839152083886858 0 -0.1326505070762681 -0.40726180765997883 0 -0.13721383131330159 -0.42206741387932589 0 -0.1198179301444536 -0.41604864368263939 0 -0.14536040907397599 -0.43857426830244672 0 -0.13721383131330159 -0.42206741387932589 0 -0.1229522844189808 -0.43370576652641007 0 -0.14536040907397599 -0.43857426830244672 0 -0.1229522844189808 -0.43370576652641007 0 -0.13721383131330159 -0.42206741387932589 0 -0.1229522844189808 -0.43370576652641007 0 -0.1198179301444536 -0.41604864368263939 0 -0.14536040907397599 -0.43857426830244672 0 -0.13721383131330159 -0.42206741387932589 0 -0.15972993823939849 -0.42795907480556777 0 -0.1326505070762681 -0.40726180765997883 0 -0.13721383131330159 -0.42206741387932589 0 -0.15214940472715641 -0.4074081710505717 0 -0.13721383131330159 -0.42206741387932589 0 -0.15214940472715641 -0.4074081710505717 0 -0.15972993823939849 -0.42795907480556777 0 -0.15214940472715641 -0.4074081710505717 0 -0.16990073400721481 -0.4153815269313299 0 -0.17066323333658959 -0.4001280495281947 0 -0.15214940472715641 -0.4074081710505717 0 -0.16990073400721481 -0.4153815269313299 0 -0.15972993823939849 -0.42795907480556777 0 -0.16776853372897069 -0.44344277007848559 0 -0.14536040907397599 -0.43857426830244672 0 -0.15972993823939849 -0.42795907480556777 0 -0.16990073400721481 -0.4153815269313299 0 -0.15972993823939849 -0.42795907480556777 0 -0.17673624477763589 -0.4282982070143927 0 -0.16776853372897069 -0.44344277007848559 0 -0.15972993823939849 -0.42795907480556777 0 -0.17673624477763589 -0.4282982070143927 0 -0.17673624477763589 -0.4282982070143927 0 -0.1858459829099314 -0.43027743450259931 0 -0.18570395582630009 -0.41315364395029902 0 -0.1791728010914091 -0.43849410903703878 0 -0.16776853372897069 -0.44344277007848559 0 -0.17673624477763589 -0.4282982070143927 0 -0.16776853372897069 -0.44344277007848559 0 -0.17673624477763589 -0.4282982070143927 0 -0.1791728010914091 -0.43849410903703878 0 -0.17673624477763589 -0.4282982070143927 0 -0.1858459829099314 -0.43027743450259931 0 -0.16990073400721481 -0.4153815269313299 0 -0.17673624477763589 -0.4282982070143927 0 -0.18570395582630009 -0.41315364395029902 0 -0.1858459829099314 -0.43027743450259931 0 -0.18570395582630009 -0.41315364395029902 0 -0.16990073400721481 -0.4153815269313299 0 -0.18570395582630009 -0.41315364395029902 0 -0.17066323333658959 -0.4001280495281947 0 -0.17673624477763589 -0.4282982070143927 0 -0.18570395582630009 -0.41315364395029902 0 -0.18570395582630009 -0.41315364395029902 0 -0.17066323333658959 -0.4001280495281947 0 -0.1855132153856226 -0.3901566262516617 0 -0.18570395582630009 -0.41315364395029902 0 -0.1855132153856226 -0.3901566262516617 0 -0.15214940472715641 -0.4074081710505717 0 -0.17066323333658959 -0.4001280495281947 0 -0.1580920107830773 -0.38639505685811049 0 -0.1580920107830773 -0.38639505685811049 0 -0.17285035743821089 -0.37951964858010961 0 -0.16100109690762771 -0.36454889931311152 0 -0.17066323333658959 -0.4001280495281947 0 -0.1580920107830773 -0.38639505685811049 0 -0.17285035743821089 -0.37951964858010961 0 -0.17285035743821089 -0.37951964858010961 0 -0.1855132153856226 -0.3901566262516617 0 -0.18532247494494661 -0.3671596085530246 0 -0.17066323333658959 -0.4001280495281947 0 -0.17285035743821089 -0.37951964858010961 0 -0.1855132153856226 -0.3901566262516617 0 -0.1855132153856226 -0.3901566262516617 0 -0.18532247494494661 -0.3671596085530246 0 -0.1855132153856226 -0.3901566262516617 0 -0.19939159651717889 -0.39003812020999201 0 -0.18532247494494661 -0.3671596085530246 0 -0.18570395582630009 -0.41315364395029902 0 -0.19939159651717889 -0.39003812020999201 0 -0.20182117066780911 -0.40782688206832518 0 -0.18570395582630009 -0.41315364395029902 0 -0.1855132153856226 -0.3901566262516617 0 -0.19939159651717889 -0.39003812020999201 0 -0.18570395582630009 -0.41315364395029902 0 -0.19939159651717889 -0.39003812020999201 0 -0.19939159651717889 -0.39003812020999201 0 -0.21501062799061821 -0.39821054389663763 0 -0.20182117066780911 -0.40782688206832518 0 -0.19939159651717889 -0.39003812020999201 0 -0.21501062799061821 -0.39821054389663763 0 -0.21418473140426211 -0.38464080016545998 0 -0.19939159651717889 -0.39003812020999201 0 -0.21307923720805649 -0.36692259646968439 0 -0.19939159651717889 -0.39003812020999201 0 -0.21418473140426211 -0.38464080016545998 0 -0.21307923720805649 -0.36692259646968439 0 -0.1858459829099314 -0.43027743450259931 0 -0.18570395582630009 -0.41315364395029902 0 -0.19958277973085231 -0.4227179488604767 0 -0.20230355158835761 -0.43876177587941578 0 -0.1858459829099314 -0.43027743450259931 0 -0.19958277973085231 -0.4227179488604767 0 -0.18570395582630009 -0.41315364395029902 0 -0.19958277973085231 -0.4227179488604767 0 -0.20182117066780911 -0.40782688206832518 0 -0.21501062799061821 -0.39821054389663763 0 -0.21101812032271799 -0.41537656280730212 0 -0.22186372677081939 -0.41104285107428712 0 -0.21501062799061821 -0.39821054389663763 0 -0.20182117066780911 -0.40782688206832518 0 -0.21101812032271799 -0.41537656280730212 0 -0.21101812032271799 -0.41537656280730212 0 -0.22108727857416149 -0.42625189118123258 0 -0.22186372677081939 -0.41104285107428712 0 -0.19958277973085231 -0.4227179488604767 0 -0.20182117066780911 -0.40782688206832518 0 -0.21101812032271799 -0.41537656280730212 0 -0.20230355158835761 -0.43876177587941578 0 -0.19958277973085231 -0.4227179488604767 0 -0.21080389706999661 -0.43091139395491851 0 -0.19958277973085231 -0.4227179488604767 0 -0.21101812032271799 -0.41537656280730212 0 -0.21080389706999661 -0.43091139395491851 0 -0.21101812032271799 -0.41537656280730212 0 -0.21080389706999661 -0.43091139395491851 0 -0.22108727857416149 -0.42625189118123258 0 -0.22074535129066211 -0.43790328690029862 0 -0.21376700891759121 -0.4420153445968763 0 -0.21080389706999661 -0.43091139395491851 0 -0.22074535129066211 -0.43790328690029862 0 -0.21080389706999661 -0.43091139395491851 0 -0.22108727857416149 -0.42625189118123258 0 -0.21376700891759121 -0.4420153445968763 0 -0.20230355158835761 -0.43876177587941578 0 -0.21080389706999661 -0.43091139395491851 0 -0.22074535129066211 -0.43790328690029862 0 -0.2319147169235512 -0.43100355718318972 0 -0.22108727857416149 -0.42625189118123258 0 -0.2319147169235512 -0.43100355718318972 0 -0.2291697209752884 -0.41934515404542638 0 -0.24106533690687601 -0.41725466752911688 0 -0.2319147169235512 -0.43100355718318972 0 -0.22108727857416149 -0.42625189118123258 0 -0.2291697209752884 -0.41934515404542638 0 -0.2291697209752884 -0.41934515404542638 0 -0.24106533690687601 -0.41725466752911688 0 -0.2320642110516806 -0.40316440449873692 0 -0.2291697209752884 -0.41934515404542638 0 -0.22186372677081939 -0.41104285107428712 0 -0.2320642110516806 -0.40316440449873692 0 -0.22108727857416149 -0.42625189118123258 0 -0.2291697209752884 -0.41934515404542638 0 -0.22186372677081939 -0.41104285107428712 0 -0.25407636969816749 -0.4124580203161039 0 -0.25070465155460381 -0.43298049185118082 0 -0.24106533690687601 -0.41725466752911688 0 -0.24106533690687601 -0.41725466752911688 0 -0.2320642110516806 -0.40316440449873692 0 -0.24710417551880079 -0.40231406071222781 0 -0.25407636969816749 -0.4124580203161039 0 -0.24106533690687601 -0.41725466752911688 0 -0.24710417551880079 -0.40231406071222781 0 -0.25070465155460381 -0.43298049185118082 0 -0.22545634051372179 -0.44685629182907671 0 -0.2319147169235512 -0.43100355718318972 0 -0.25070465155460381 -0.43298049185118082 0 -0.2319147169235512 -0.43100355718318972 0 -0.24106533690687601 -0.41725466752911688 0 -0.21418473140426211 -0.38464080016545998 0 -0.22925746390119481 -0.38339194008552618 0 -0.21307923720805649 -0.36692259646968439 0 -0.21501062799061821 -0.39821054389663763 0 -0.21418473140426211 -0.38464080016545998 0 -0.22925746390119481 -0.38339194008552618 0 -0.21501062799061821 -0.39821054389663763 0 -0.22925746390119481 -0.38339194008552618 0 -0.2320642110516806 -0.40316440449873692 0 -0.22925746390119481 -0.38339194008552618 0 -0.2320642110516806 -0.40316440449873692 0 -0.24089071276389279 -0.39384558457997249 0 -0.21501062799061821 -0.39821054389663763 0 -0.22186372677081939 -0.41104285107428712 0 -0.2320642110516806 -0.40316440449873692 0 -0.2320642110516806 -0.40316440449873692 0 -0.24089071276389279 -0.39384558457997249 0 -0.24710417551880079 -0.40231406071222781 0 -0.25269773307511179 -0.39124555653212539 0 -0.24089071276389279 -0.39384558457997249 0 -0.24710417551880079 -0.40231406071222781 0 -0.25269773307511179 -0.39124555653212539 0 -0.24089071276389279 -0.39384558457997249 0 -0.24458261606595269 -0.38403471170289732 0 -0.25269773307511179 -0.39124555653212539 0 -0.25240873419082382 -0.38056695435806998 0 -0.24458261606595269 -0.38403471170289732 0 -0.22925746390119481 -0.38339194008552618 0 -0.24089071276389279 -0.39384558457997249 0 -0.24458261606595269 -0.38403471170289732 0 -0.22925746390119481 -0.38339194008552618 0 -0.24458261606595269 -0.38403471170289732 0 -0.24347343772631699 -0.37146223776518111 0 -0.25240873419082382 -0.38056695435806998 0 -0.24458261606595269 -0.38403471170289732 0 -0.24347343772631699 -0.37146223776518111 0 -0.22925746390119481 -0.38339194008552618 0 -0.24347343772631699 -0.37146223776518111 0 -0.23135297175937139 -0.36380988599827702 0 -0.25554226852600281 -0.36435994656900111 0 -0.24347343772631699 -0.37146223776518111 0 -0.24062206364244609 -0.35472384755395292 0 -0.24347343772631699 -0.37146223776518111 0 -0.23135297175937139 -0.36380988599827702 0 -0.24062206364244609 -0.35472384755395292 0 -0.22925746390119481 -0.38339194008552618 0 -0.23135297175937139 -0.36380988599827702 0 -0.21307923720805649 -0.36692259646968439 0 -0.2267668778989341 -0.34380707272937672 0 -0.21307923720805649 -0.36692259646968439 0 -0.23135297175937139 -0.36380988599827702 0 -0.2267668778989341 -0.34380707272937672 0 -0.21307923720805649 -0.36692259646968439 0 -0.23135297175937139 -0.36380988599827702 0 -0.2267668778989341 -0.34380707272937672 0 -0.24062206364244609 -0.35472384755395292 0 -0.25554226852600281 -0.36435994656900111 0 -0.24062206364244609 -0.35472384755395292 0 -0.2453369214912712 -0.33698757391685719 0 -0.2267668778989341 -0.34380707272937672 0 -0.24062206364244609 -0.35472384755395292 0 -0.2453369214912712 -0.33698757391685719 0 -0.2267668778989341 -0.34380707272937672 0 -0.2453369214912712 -0.33698757391685719 0 -0.23117722464368151 -0.3274971639103742 0 -0.2453369214912712 -0.33698757391685719 0 -0.2446258083714575 -0.31755415448893948 0 -0.23117722464368151 -0.3274971639103742 0 -0.23117722464368151 -0.3274971639103742 0 -0.21262224518418341 -0.32800257851324438 0 -0.22653427027256101 -0.3111344399034533 0 -0.2446258083714575 -0.31755415448893948 0 -0.23117722464368151 -0.3274971639103742 0 -0.22653427027256101 -0.3111344399034533 0 -0.2267668778989341 -0.34380707272937672 0 -0.23117722464368151 -0.3274971639103742 0 -0.21262224518418341 -0.32800257851324438 0 -0.21262224518418341 -0.32800257851324438 0 -0.19332731799267899 -0.34175675407166728 0 -0.20622363064575991 -0.34952972206739952 0 -0.2267668778989341 -0.34380707272937672 0 -0.21262224518418341 -0.32800257851324438 0 -0.20622363064575991 -0.34952972206739952 0 -0.21262224518418341 -0.32800257851324438 0 -0.19369976991618679 -0.31684940350277091 0 -0.20993467615829059 -0.30727567179942622 0 -0.21262224518418341 -0.32800257851324438 0 -0.22653427027256101 -0.3111344399034533 0 -0.20993467615829059 -0.30727567179942622 0 -0.21262224518418341 -0.32800257851324438 0 -0.19369976991618679 -0.31684940350277091 0 -0.19332731799267899 -0.34175675407166728 0 -0.19332731799267899 -0.34175675407166728 0 -0.20622363064575991 -0.34952972206739952 0 -0.18532247494494661 -0.3671596085530246 0 -0.21307923720805649 -0.36692259646968439 0 -0.20622363064575991 -0.34952972206739952 0 -0.18532247494494661 -0.3671596085530246 0 -0.19939159651717889 -0.39003812020999201 0 -0.21307923720805649 -0.36692259646968439 0 -0.18532247494494661 -0.3671596085530246 0 -0.2267668778989341 -0.34380707272937672 0 -0.21307923720805649 -0.36692259646968439 0 -0.20622363064575991 -0.34952972206739952 0 -0.23206587961242939 -0.25496471632509909 0 -0.23197094732608031 -0.27309690796845132 0 -0.20824623235315529 -0.2661365587586072 0 -0.23206587961242939 -0.25496471632509909 0 -0.24861229565321749 -0.26914929626367412 0 -0.24420758384304819 -0.24842821958125019 0 -0.23206587961242939 -0.25496471632509909 0 -0.24861229565321749 -0.26914929626367412 0 -0.24861229565321749 -0.26914929626367412 0 -0.23197094732608031 -0.27309690796845132 0 -0.24637317120339941 -0.29184799557545432 0 -0.23206587961242939 -0.25496471632509909 0 -0.24861229565321749 -0.26914929626367412 0 -0.23197094732608031 -0.27309690796845132 0 -0.23197094732608031 -0.27309690796845132 0 -0.2224852437409171 -0.2883596856466904 0 -0.20824623235315529 -0.2661365587586072 0 -0.23197094732608031 -0.27309690796845132 0 -0.2224852437409171 -0.2883596856466904 0 -0.24637317120339941 -0.29184799557545432 0 -0.2446258083714575 -0.31755415448893948 0 -0.24637317120339941 -0.29184799557545432 0 -0.22653427027256101 -0.3111344399034533 0 -0.25883551954499762 -0.30716521063406682 0 -0.2446258083714575 -0.31755415448893948 0 -0.24637317120339941 -0.29184799557545432 0 -0.2224852437409171 -0.2883596856466904 0 -0.24637317120339941 -0.29184799557545432 0 -0.22653427027256101 -0.3111344399034533 0 -0.2224852437409171 -0.2883596856466904 0 -0.22653427027256101 -0.3111344399034533 0 -0.20993467615829059 -0.30727567179942622 0 -0.19369976991618679 -0.31684940350277091 0 -0.20993467615829059 -0.30727567179942622 0 -0.20097300113467101 -0.29149298113068911 0 -0.19369976991618679 -0.31684940350277091 0 -0.20097300113467101 -0.29149298113068911 0 -0.18213088487957671 -0.30212221825621549 0 -0.19369976991618679 -0.31684940350277091 0 -0.20097300113467101 -0.29149298113068911 0 -0.20097300113467101 -0.29149298113068911 0 -0.19109232077204319 -0.2715549841042264 0 -0.18618606583022401 -0.28677077849700572 0 -0.20097300113467101 -0.29149298113068911 0 -0.18618606583022401 -0.28677077849700572 0 -0.18213088487957671 -0.30212221825621549 0 -0.2224852437409171 -0.2883596856466904 0 -0.20993467615829059 -0.30727567179942622 0 -0.20097300113467101 -0.29149298113068911 0 -0.2224852437409171 -0.2883596856466904 0 -0.20097300113467101 -0.29149298113068911 0 -0.20824623235315529 -0.2661365587586072 0 -0.20097300113467101 -0.29149298113068911 0 -0.20824623235315529 -0.2661365587586072 0 -0.20097300113467101 -0.29149298113068911 0 -0.20824623235315529 -0.2661365587586072 0 -0.19109232077204319 -0.2715549841042264 0 -0.20824623235315529 -0.2661365587586072 0 -0.19109232077204319 -0.2715549841042264 0 -0.19715624570168269 -0.25665000070718008 0 -0.19109232077204319 -0.2715549841042264 0 -0.19715624570168269 -0.25665000070718008 0 -0.18634948753055461 -0.25651004676778388 0 -0.19715624570168269 -0.25665000070718008 0 -0.18634948753055461 -0.25651004676778388 0 -0.1918043991281945 -0.24694729105096591 0 -0.19715624570168269 -0.25665000070718008 0 -0.20562149223732559 -0.25003540333929097 0 -0.19951336731501479 -0.24511267685473101 0 -0.23206587961242939 -0.25496471632509909 0 -0.20824623235315529 -0.2661365587586072 0 -0.21551946357164031 -0.24078013638652551 0 -0.20824623235315529 -0.2661365587586072 0 -0.20562149223732559 -0.25003540333929097 0 -0.21551946357164031 -0.24078013638652551 0 -0.20824623235315529 -0.2661365587586072 0 -0.19715624570168269 -0.25665000070718008 0 -0.20562149223732559 -0.25003540333929097 0 -0.20824623235315529 -0.2661365587586072 0 -0.21551946357164031 -0.24078013638652551 0 -0.16355308366542201 -0.26005738573066511 0 -0.14765582784824499 -0.24250290602987759 0 -0.1730193112966624 -0.2484669018237306 0 -0.16355308366542201 -0.26005738573066511 0 -0.17169770106826479 -0.26905104617830039 0 -0.15533858948731311 -0.26619514069068162 0 -0.16355308366542201 -0.26005738573066511 0 -0.17169770106826479 -0.26905104617830039 0 -0.16355308366542201 -0.26005738573066511 0 -0.17772561889659019 -0.26410693843622551 0 -0.17169770106826479 -0.26905104617830039 0 -0.16355308366542201 -0.26005738573066511 0 -0.1772616331536255 -0.25579310167913089 0 -0.1730193112966624 -0.2484669018237306 0 -0.1772616331536255 -0.25579310167913089 0 -0.18331645795018989 -0.24873503095268279 0 -0.1730193112966624 -0.2484669018237306 0 -0.18634948753055461 -0.25651004676778388 0 -0.18331645795018989 -0.24873503095268279 0 -0.1918043991281945 -0.24694729105096591 0 -0.1772616331536255 -0.25579310167913089 0 -0.18634948753055461 -0.25651004676778388 0 -0.18331645795018989 -0.24873503095268279 0 -0.1772616331536255 -0.25579310167913089 0 -0.18634948753055461 -0.25651004676778388 0 -0.17772561889659019 -0.26410693843622551 0 -0.19109232077204319 -0.2715549841042264 0 -0.18634948753055461 -0.25651004676778388 0 -0.17772561889659019 -0.26410693843622551 0 -0.16355308366542201 -0.26005738573066511 0 -0.1772616331536255 -0.25579310167913089 0 -0.17772561889659019 -0.26410693843622551 0 -0.179450339482599 -0.27761186543145272 0 -0.17169770106826479 -0.26905104617830039 0 -0.174165273932579 -0.28786040556116282 0 -0.179450339482599 -0.27761186543145272 0 -0.17169770106826479 -0.26905104617830039 0 -0.17772561889659019 -0.26410693843622551 0 -0.179450339482599 -0.27761186543145272 0 -0.17169770106826479 -0.26905104617830039 0 -0.19109232077204319 -0.2715549841042264 0 -0.17772561889659019 -0.26410693843622551 0 -0.179450339482599 -0.27761186543145272 0 -0.19109232077204319 -0.2715549841042264 0 -0.179450339482599 -0.27761186543145272 0 -0.18618606583022401 -0.28677077849700572 0 -0.17169770106826479 -0.26905104617830039 0 -0.15658308641158961 -0.27665574015823419 0 -0.15533858948731311 -0.26619514069068162 0 -0.17169770106826479 -0.26905104617830039 0 -0.15658308641158961 -0.27665574015823419 0 -0.1616515116286929 -0.29018085295157198 0 -0.17169770106826479 -0.26905104617830039 0 -0.1616515116286929 -0.29018085295157198 0 -0.17169770106826479 -0.26905104617830039 0 -0.1616515116286929 -0.29018085295157198 0 -0.174165273932579 -0.28786040556116282 0 -0.1616515116286929 -0.29018085295157198 0 -0.174165273932579 -0.28786040556116282 0 -0.16393278552676291 -0.30870310803934708 0 -0.15658308641158961 -0.27665574015823419 0 -0.1616515116286929 -0.29018085295157198 0 -0.15092356772834009 -0.28568513688461672 0 -0.179450339482599 -0.27761186543145272 0 -0.174165273932579 -0.28786040556116282 0 -0.18618606583022401 -0.28677077849700572 0 -0.174165273932579 -0.28786040556116282 0 -0.18618606583022401 -0.28677077849700572 0 -0.18213088487957671 -0.30212221825621549 0 -0.174165273932579 -0.28786040556116282 0 -0.18213088487957671 -0.30212221825621549 0 -0.16393278552676291 -0.30870310803934708 0 -0.18213088487957671 -0.30212221825621549 0 -0.16393278552676291 -0.30870310803934708 0 -0.1783889231317024 -0.31353783612371833 0 -0.19369976991618679 -0.31684940350277091 0 -0.18213088487957671 -0.30212221825621549 0 -0.1783889231317024 -0.31353783612371833 0 -0.1616515116286929 -0.29018085295157198 0 -0.16393278552676291 -0.30870310803934708 0 -0.15211142205760511 -0.31085233801918982 0 -0.174165273932579 -0.28786040556116282 0 -0.16393278552676291 -0.30870310803934708 0 -0.1616515116286929 -0.29018085295157198 0 -0.15211142205760511 -0.31085233801918982 0 -0.1616515116286929 -0.29018085295157198 0 -0.15211142205760511 -0.31085233801918982 0 -0.14915567496977691 -0.29663709719553288 0 -0.15211142205760511 -0.31085233801918982 0 -0.14055405507205929 -0.30570511697375391 0 -0.14915567496977691 -0.29663709719553288 0 -0.14055405507205929 -0.30570511697375391 0 -0.14053781836218729 -0.29076204114853182 0 -0.14915567496977691 -0.29663709719553288 0 -0.15211142205760511 -0.31085233801918982 0 -0.14055405507205929 -0.30570511697375391 0 -0.13811214572601049 -0.31983460693462218 0 -0.14055405507205929 -0.30570511697375391 0 -0.12830640928739981 -0.29836317722954442 0 -0.12934967030080799 -0.31288473439857067 0 -0.12830640928739981 -0.29836317722954442 0 -0.12934967030080799 -0.31288473439857067 0 -0.1191750668892555 -0.30631744688928458 0 -0.14055405507205929 -0.30570511697375391 0 -0.12830640928739981 -0.29836317722954442 0 -0.14053781836218729 -0.29076204114853182 0 -0.14053781836218729 -0.29076204114853182 0 -0.12766377854453659 -0.2838221008095882 0 -0.1432050824287629 -0.2746063177702881 0 -0.12830640928739981 -0.29836317722954442 0 -0.14053781836218729 -0.29076204114853182 0 -0.12766377854453659 -0.2838221008095882 0 -0.14053781836218729 -0.29076204114853182 0 -0.15092356772834009 -0.28568513688461672 0 -0.1432050824287629 -0.2746063177702881 0 -0.14053781836218729 -0.29076204114853182 0 -0.14915567496977691 -0.29663709719553288 0 -0.15092356772834009 -0.28568513688461672 0 -0.1616515116286929 -0.29018085295157198 0 -0.14915567496977691 -0.29663709719553288 0 -0.15092356772834009 -0.28568513688461672 0 -0.15533858948731311 -0.26619514069068162 0 -0.1432050824287629 -0.2746063177702881 0 -0.147477808453191 -0.25863960018048521 0 -0.15658308641158961 -0.27665574015823419 0 -0.15092356772834009 -0.28568513688461672 0 -0.1432050824287629 -0.2746063177702881 0 -0.15658308641158961 -0.27665574015823419 0 -0.15533858948731311 -0.26619514069068162 0 -0.1432050824287629 -0.2746063177702881 0 -0.12766377854453659 -0.2838221008095882 0 -0.1432050824287629 -0.2746063177702881 0 -0.13070163260614659 -0.26500153031149087 0 -0.12766377854453659 -0.2838221008095882 0 -0.13070163260614659 -0.26500153031149087 0 -0.1173829690163119 -0.27272600267365538 0 -0.1432050824287629 -0.2746063177702881 0 -0.13070163260614659 -0.26500153031149087 0 -0.147477808453191 -0.25863960018048521 0 -0.13070163260614659 -0.26500153031149087 0 -0.1324894623631693 -0.2500788841477915 0 -0.147477808453191 -0.25863960018048521 0 -0.13070163260614659 -0.26500153031149087 0 -0.1324894623631693 -0.2500788841477915 0 -0.1177457984409102 -0.25675586286376628 0 -0.16355308366542201 -0.26005738573066511 0 -0.15533858948731311 -0.26619514069068162 0 -0.147477808453191 -0.25863960018048521 0 -0.16355308366542201 -0.26005738573066511 0 -0.147477808453191 -0.25863960018048521 0 -0.14765582784824499 -0.24250290602987759 0 -0.16355308366542201 -0.26005738573066511 0 -0.14765582784824499 -0.24250290602987759 0 -0.1324894623631693 -0.2500788841477915 0 -0.147477808453191 -0.25863960018048521 0 -0.14765582784824499 -0.24250290602987759 0 -0.1683975633539051 -0.34607263353369172 0 -0.16100109690762771 -0.36454889931311152 0 -0.18532247494494661 -0.3671596085530246 0 -0.1683975633539051 -0.34607263353369172 0 -0.16100109690762771 -0.36454889931311152 0 -0.1520992923647744 -0.35720772931140582 0 -0.17285035743821089 -0.37951964858010961 0 -0.16100109690762771 -0.36454889931311152 0 -0.18532247494494661 -0.3671596085530246 0 -0.19332731799267899 -0.34175675407166728 0 -0.1683975633539051 -0.34607263353369172 0 -0.19332731799267899 -0.34175675407166728 0 -0.1683975633539051 -0.34607263353369172 0 -0.18532247494494661 -0.3671596085530246 0 -0.19332731799267899 -0.34175675407166728 0 -0.1683975633539051 -0.34607263353369172 0 -0.17379225220428329 -0.32647661469653982 0 -0.19369976991618679 -0.31684940350277091 0 -0.19332731799267899 -0.34175675407166728 0 -0.17379225220428329 -0.32647661469653982 0 -0.16393278552676291 -0.30870310803934708 0 -0.17379225220428329 -0.32647661469653982 0 -0.1783889231317024 -0.31353783612371833 0 -0.19369976991618679 -0.31684940350277091 0 -0.17379225220428329 -0.32647661469653982 0 -0.1783889231317024 -0.31353783612371833 0 -0.16393278552676291 -0.30870310803934708 0 -0.15370029712094679 -0.32954581051753118 0 -0.16393278552676291 -0.30870310803934708 0 -0.17379225220428329 -0.32647661469653982 0 -0.15370029712094679 -0.32954581051753118 0 -0.16393278552676291 -0.30870310803934708 0 -0.15211142205760511 -0.31085233801918982 0 -0.15370029712094679 -0.32954581051753118 0 -0.1683975633539051 -0.34607263353369172 0 -0.17379225220428329 -0.32647661469653982 0 -0.15370029712094679 -0.32954581051753118 0 -0.1683975633539051 -0.34607263353369172 0 -0.15370029712094679 -0.32954581051753118 0 -0.14346780871513101 -0.35038851299571561 0 -0.15370029712094679 -0.32954581051753118 0 -0.14346780871513101 -0.35038851299571561 0 -0.15370029712094679 -0.32954581051753118 0 -0.14257133248651729 -0.3315238230868075 0 -0.14346780871513101 -0.35038851299571561 0 -0.15211142205760511 -0.31085233801918982 0 -0.14257133248651729 -0.3315238230868075 0 -0.13811214572601049 -0.31983460693462218 0 -0.15211142205760511 -0.31085233801918982 0 -0.15370029712094679 -0.32954581051753118 0 -0.14257133248651729 -0.3315238230868075 0 -0.15211142205760511 -0.31085233801918982 0 -0.14257133248651729 -0.3315238230868075 0 -0.14055405507205929 -0.30570511697375391 0 -0.13811214572601049 -0.31983460693462218 0 -0.12934967030080799 -0.31288473439857067 0 -0.14257133248651729 -0.3315238230868075 0 -0.13811214572601049 -0.31983460693462218 0 -0.1349333816608245 -0.33072924073304139 0 -0.13811214572601049 -0.31983460693462218 0 -0.12926850188573499 -0.3259970452295568 0 -0.1349333816608245 -0.33072924073304139 0 -0.12926850188573499 -0.3259970452295568 0 -0.12934967030080799 -0.31288473439857067 0 -0.1190588789478416 -0.32036393822369053 0 -0.13811214572601049 -0.31983460693462218 0 -0.12926850188573499 -0.3259970452295568 0 -0.12934967030080799 -0.31288473439857067 0 -0.14257133248651729 -0.3315238230868075 0 -0.13303124291542731 -0.35219530815442418 0 -0.14257133248651729 -0.3315238230868075 0 -0.1315145679761969 -0.33855954570601882 0 -0.13303124291542731 -0.35219530815442418 0 -0.14257133248651729 -0.3315238230868075 0 -0.1349333816608245 -0.33072924073304139 0 -0.1315145679761969 -0.33855954570601882 0 -0.12926850188573499 -0.3259970452295568 0 -0.1349333816608245 -0.33072924073304139 0 -0.1315145679761969 -0.33855954570601882 0 -0.12926850188573499 -0.3259970452295568 0 -0.1315145679761969 -0.33855954570601882 0 -0.1232543804194112 -0.33840134118518228 0 -0.1315145679761969 -0.33855954570601882 0 -0.12585004375686309 -0.3448485279130355 0 -0.1232543804194112 -0.33840134118518228 0 -0.1315145679761969 -0.33855954570601882 0 -0.12585004375686309 -0.3448485279130355 0 -0.13303124291542731 -0.35219530815442418 0 -0.12585004375686309 -0.3448485279130355 0 -0.13303124291542731 -0.35219530815442418 0 -0.1191774914018081 -0.35023959388412351 0 -0.14257133248651729 -0.3315238230868075 0 -0.13303124291542731 -0.35219530815442418 0 -0.14346780871513101 -0.35038851299571561 0 -0.13303124291542731 -0.35219530815442418 0 -0.1400724298652618 -0.35730460890141069 0 -0.1379854199590525 -0.36611997335256929 0 -0.13303124291542731 -0.35219530815442418 0 -0.1400724298652618 -0.35730460890141069 0 -0.14346780871513101 -0.35038851299571561 0 -0.13303124291542731 -0.35219530815442418 0 -0.14346780871513101 -0.35038851299571561 0 -0.1683975633539051 -0.34607263353369172 0 -0.14346780871513101 -0.35038851299571561 0 -0.1520992923647744 -0.35720772931140582 0 -0.1683975633539051 -0.34607263353369172 0 -0.14346780871513101 -0.35038851299571561 0 -0.1400724298652618 -0.35730460890141069 0 -0.14346780871513101 -0.35038851299571561 0 -0.1400724298652618 -0.35730460890141069 0 -0.14346780871513101 -0.35038851299571561 0 -0.1520992923647744 -0.35720772931140582 0 -0.1580920107830773 -0.38639505685811049 0 -0.16100109690762771 -0.36454889931311152 0 -0.14755756298194639 -0.36772399181309928 0 -0.16100109690762771 -0.36454889931311152 0 -0.1520992923647744 -0.35720772931140582 0 -0.14755756298194639 -0.36772399181309928 0 -0.1400724298652618 -0.35730460890141069 0 -0.1520992923647744 -0.35720772931140582 0 -0.14755756298194639 -0.36772399181309928 0 -0.1400724298652618 -0.35730460890141069 0 -0.14755756298194639 -0.36772399181309928 0 -0.1379854199590525 -0.36611997335256929 0 -0.13867184321040671 -0.37791882159611861 0 -0.14755756298194639 -0.36772399181309928 0 -0.1379854199590525 -0.36611997335256929 0 -0.13303124291542731 -0.35219530815442418 0 -0.12198752904021749 -0.37612484935646451 0 -0.13303124291542731 -0.35219530815442418 0 -0.1379854199590525 -0.36611997335256929 0 -0.12198752904021749 -0.37612484935646451 0 -0.13867184321040671 -0.37791882159611861 0 -0.1379854199590525 -0.36611997335256929 0 -0.12198752904021749 -0.37612484935646451 0 -0.13303124291542731 -0.35219530815442418 0 -0.12172961598846779 -0.36167953682535697 0 -0.12198752904021749 -0.37612484935646451 0 -0.12172961598846779 -0.36167953682535697 0 -0.1145553680648593 -0.36706975842035189 0 -0.12198752904021749 -0.37612484935646451 0 -0.12172961598846779 -0.36167953682535697 0 -0.1145553680648593 -0.36706975842035189 0 -0.1163255548827558 -0.35743936710610341 0 -0.1145553680648593 -0.36706975842035189 0 -0.11206994869701981 -0.36174726426303361 0 -0.1163255548827558 -0.35743936710610341 0 -0.1145553680648593 -0.36706975842035189 0 -0.11206994869701981 -0.36174726426303361 0 -0.10814247983924299 -0.36662069322059843 0 -0.11206994869701981 -0.36174726426303361 0 -0.1124065257016687 -0.35858797067072301 0 -0.1108127874608211 -0.35905506936785481 0 -0.1145553680648593 -0.36706975842035189 0 -0.10843398110716369 -0.37349346380725351 0 -0.12198752904021749 -0.37612484935646451 0 -0.1145553680648593 -0.36706975842035189 0 -0.10843398110716369 -0.37349346380725351 0 -0.10814247983924299 -0.36662069322059843 0 -0.10843398110716369 -0.37349346380725351 0 -0.10814247983924299 -0.36662069322059843 0 -0.10043266094837409 -0.36829889481233419 0 -0.10843398110716369 -0.37349346380725351 0 -0.10043266094837409 -0.36829889481233419 0 -0.09664854879367818 -0.37838555299803123 0 -0.11206994869701981 -0.36174726426303361 0 -0.10814247983924299 -0.36662069322059843 0 -0.1052204403787982 -0.36249408480001871 0 -0.11206994869701981 -0.36174726426303361 0 -0.1052204403787982 -0.36249408480001871 0 -0.1108127874608211 -0.35905506936785481 0 -0.1052204403787982 -0.36249408480001871 0 -0.1088083885967783 -0.35686172650335701 0 -0.1108127874608211 -0.35905506936785481 0 -0.10814247983924299 -0.36662069322059843 0 -0.1052204403787982 -0.36249408480001871 0 -0.10043266094837409 -0.36829889481233419 0 -0.10043266094837409 -0.36829889481233419 0 -0.088301046330317823 -0.36609800319119828 0 -0.092795272228429121 -0.35578241197675642 0 -0.1052204403787982 -0.36249408480001871 0 -0.10043266094837409 -0.36829889481233419 0 -0.092795272228429121 -0.35578241197675642 0 -0.10043266094837409 -0.36829889481233419 0 -0.088301046330317823 -0.36609800319119828 0 -0.09664854879367818 -0.37838555299803123 0 -0.1088083885967783 -0.35686172650335701 0 -0.1024874125305839 -0.34665079504220608 0 -0.083178910937193526 -0.34137276956029472 0 -0.1088083885967783 -0.35686172650335701 0 -0.083178910937193526 -0.34137276956029472 0 -0.092795272228429121 -0.35578241197675642 0 -0.1088083885967783 -0.35686172650335701 0 -0.083178910937193526 -0.34137276956029472 0 -0.1052204403787982 -0.36249408480001871 0 -0.1088083885967783 -0.35686172650335701 0 -0.092795272228429121 -0.35578241197675642 0 -0.1088083885967783 -0.35686172650335701 0 -0.1024874125305839 -0.34665079504220608 0 -0.10939085109497521 -0.35157370375522923 0 -0.1024874125305839 -0.34665079504220608 0 -0.1079647303978335 -0.3449100332690237 0 -0.10939085109497521 -0.35157370375522923 0 -0.1138391822257131 -0.34814952217947792 0 -0.11928943462919001 -0.34498893941048719 0 -0.1130728214572586 -0.33931329962675127 0 -0.13303124291542731 -0.35219530815442418 0 -0.110417811766078 -0.35611018194590038 0 -0.1079647303978335 -0.3449100332690237 0 -0.1138391822257131 -0.34814952217947792 0 -0.1130728214572586 -0.33931329962675127 0 -0.13303124291542731 -0.35219530815442418 0 -0.110417811766078 -0.35611018194590038 0 -0.1163255548827558 -0.35743936710610341 0 -0.13303124291542731 -0.35219530815442418 0 -0.110417811766078 -0.35611018194590038 0 -0.1191774914018081 -0.35023959388412351 0 -0.13303124291542731 -0.35219530815442418 0 -0.12172961598846779 -0.36167953682535697 0 -0.1163255548827558 -0.35743936710610341 0 -0.1138391822257131 -0.34814952217947792 0 -0.1130119330159448 -0.35186710682304712 0 -0.10939085109497521 -0.35157370375522923 0 -0.1079647303978335 -0.3449100332690237 0 -0.1138391822257131 -0.34814952217947792 0 -0.10939085109497521 -0.35157370375522923 0 -0.1138391822257131 -0.34814952217947792 0 -0.1130119330159448 -0.35186710682304712 0 -0.1191774914018081 -0.35023959388412351 0 -0.110417811766078 -0.35611018194590038 0 -0.1130119330159448 -0.35186710682304712 0 -0.1191774914018081 -0.35023959388412351 0 -0.1124065257016687 -0.35858797067072301 0 -0.110417811766078 -0.35611018194590038 0 -0.1163255548827558 -0.35743936710610341 0 -0.1124065257016687 -0.35858797067072301 0 -0.1108127874608211 -0.35905506936785481 0 -0.110417811766078 -0.35611018194590038 0 -0.1088083885967783 -0.35686172650335701 0 -0.1108127874608211 -0.35905506936785481 0 -0.110417811766078 -0.35611018194590038 0 -0.110417811766078 -0.35611018194590038 0 -0.1130119330159448 -0.35186710682304712 0 -0.10939085109497521 -0.35157370375522923 0 -0.1088083885967783 -0.35686172650335701 0 -0.110417811766078 -0.35611018194590038 0 -0.10939085109497521 -0.35157370375522923 0 -0.11206994869701981 -0.36174726426303361 0 -0.1124065257016687 -0.35858797067072301 0 -0.1163255548827558 -0.35743936710610341 0 -0.1138391822257131 -0.34814952217947792 0 -0.11928943462919001 -0.34498893941048719 0 -0.1191774914018081 -0.35023959388412351 0 -0.12585004375686309 -0.3448485279130355 0 -0.11928943462919001 -0.34498893941048719 0 -0.1191774914018081 -0.35023959388412351 0 -0.11928943462919001 -0.34498893941048719 0 -0.1232543804194112 -0.33840134118518228 0 -0.1130728214572586 -0.33931329962675127 0 -0.1232543804194112 -0.33840134118518228 0 -0.118230770615232 -0.33196166608695898 0 -0.1130728214572586 -0.33931329962675127 0 -0.12585004375686309 -0.3448485279130355 0 -0.11928943462919001 -0.34498893941048719 0 -0.1232543804194112 -0.33840134118518228 0 -0.12926850188573499 -0.3259970452295568 0 -0.1232543804194112 -0.33840134118518228 0 -0.118230770615232 -0.33196166608695898 0 -0.118230770615232 -0.33196166608695898 0 -0.1130728214572586 -0.33931329962675127 0 -0.10631774318058861 -0.32617927952271603 0 -0.12934967030080799 -0.31288473439857067 0 -0.1190588789478416 -0.32036393822369053 0 -0.1191750668892555 -0.30631744688928458 0 -0.12926850188573499 -0.3259970452295568 0 -0.118230770615232 -0.33196166608695898 0 -0.1190588789478416 -0.32036393822369053 0 -0.118230770615232 -0.33196166608695898 0 -0.1190588789478416 -0.32036393822369053 0 -0.10631774318058861 -0.32617927952271603 0 -0.1190588789478416 -0.32036393822369053 0 -0.1101377120205075 -0.3125026414737459 0 -0.1191750668892555 -0.30631744688928458 0 -0.1190588789478416 -0.32036393822369053 0 -0.1101377120205075 -0.3125026414737459 0 -0.10631774318058861 -0.32617927952271603 0 -0.10631774318058861 -0.32617927952271603 0 -0.090151715718552128 -0.32479909016819453 0 -0.097223545448816909 -0.31108663316568258 0 -0.1101377120205075 -0.3125026414737459 0 -0.10631774318058861 -0.32617927952271603 0 -0.097223545448816909 -0.31108663316568258 0 -0.10631774318058861 -0.32617927952271603 0 -0.1010333846806367 -0.33886284574145381 0 -0.090151715718552128 -0.32479909016819453 0 -0.1024874125305839 -0.34665079504220608 0 -0.1010333846806367 -0.33886284574145381 0 -0.083178910937193526 -0.34137276956029472 0 -0.1079647303978335 -0.3449100332690237 0 -0.1130728214572586 -0.33931329962675127 0 -0.1010333846806367 -0.33886284574145381 0 -0.1024874125305839 -0.34665079504220608 0 -0.1079647303978335 -0.3449100332690237 0 -0.1010333846806367 -0.33886284574145381 0 -0.1130728214572586 -0.33931329962675127 0 -0.10631774318058861 -0.32617927952271603 0 -0.1010333846806367 -0.33886284574145381 0 -0.083178910937193526 -0.34137276956029472 0 -0.090151715718552128 -0.32479909016819453 0 -0.070470354422744269 -0.32196936896693401 0 -0.1010333846806367 -0.33886284574145381 0 -0.083178910937193526 -0.34137276956029472 0 -0.090151715718552128 -0.32479909016819453 0 -0.090151715718552128 -0.32479909016819453 0 -0.070470354422744269 -0.32196936896693401 0 -0.082686355641332782 -0.30932364405208618 0 -0.090151715718552128 -0.32479909016819453 0 -0.097223545448816909 -0.31108663316568258 0 -0.082686355641332782 -0.30932364405208618 0 -0.083178910937193526 -0.34137276956029472 0 -0.062322779804588453 -0.34405765609245131 0 -0.057549433277608773 -0.32588381261723243 0 -0.083178910937193526 -0.34137276956029472 0 -0.070470354422744269 -0.32196936896693401 0 -0.057549433277608773 -0.32588381261723243 0 -0.083178910937193526 -0.34137276956029472 0 -0.057549433277608773 -0.32588381261723243 0 -0.083178910937193526 -0.34137276956029472 0 -0.073209204485975801 -0.35858339237649778 0 -0.062322779804588453 -0.34405765609245131 0 -0.073209204485975801 -0.35858339237649778 0 -0.052723855289950758 -0.35570181019509378 0 -0.062322779804588453 -0.34405765609245131 0 -0.073209204485975801 -0.35858339237649778 0 -0.077756349542724076 -0.37082101601793299 0 -0.055054619442423007 -0.37694070571453819 0 -0.077756349542724076 -0.37082101601793299 0 -0.088301046330317823 -0.36609800319119828 0 -0.09664854879367818 -0.37838555299803123 0 -0.073209204485975801 -0.35858339237649778 0 -0.077756349542724076 -0.37082101601793299 0 -0.088301046330317823 -0.36609800319119828 0 -0.073209204485975801 -0.35858339237649778 0 -0.088301046330317823 -0.36609800319119828 0 -0.092795272228429121 -0.35578241197675642 0 -0.083178910937193526 -0.34137276956029472 0 -0.073209204485975801 -0.35858339237649778 0 -0.092795272228429121 -0.35578241197675642 0 -0.10088548835506531 -0.26558022797582997 0 -0.085591391298974168 -0.25525670998288419 0 -0.1024958807902701 -0.24662047527455311 0 -0.10088548835506531 -0.26558022797582997 0 -0.1177457984409102 -0.25675586286376628 0 -0.1024958807902701 -0.24662047527455311 0 -0.10088548835506531 -0.26558022797582997 0 -0.1177457984409102 -0.25675586286376628 0 -0.1173829690163119 -0.27272600267365538 0 -0.13070163260614659 -0.26500153031149087 0 -0.1177457984409102 -0.25675586286376628 0 -0.1173829690163119 -0.27272600267365538 0 -0.10088548835506531 -0.26558022797582997 0 -0.1086905185149004 -0.29431700710516773 0 -0.088300478490928341 -0.2783787802631677 0 -0.10088548835506531 -0.26558022797582997 0 -0.1173829690163119 -0.27272600267365538 0 -0.1086905185149004 -0.29431700710516773 0 -0.1086905185149004 -0.29431700710516773 0 -0.090897995020448208 -0.2956468741563294 0 -0.088300478490928341 -0.2783787802631677 0 -0.1086905185149004 -0.29431700710516773 0 -0.088300478490928341 -0.2783787802631677 0 -0.12830640928739981 -0.29836317722954442 0 -0.12766377854453659 -0.2838221008095882 0 -0.1086905185149004 -0.29431700710516773 0 -0.12766377854453659 -0.2838221008095882 0 -0.1173829690163119 -0.27272600267365538 0 -0.1086905185149004 -0.29431700710516773 0 -0.12830640928739981 -0.29836317722954442 0 -0.1086905185149004 -0.29431700710516773 0 -0.1191750668892555 -0.30631744688928458 0 -0.1101377120205075 -0.3125026414737459 0 -0.1086905185149004 -0.29431700710516773 0 -0.1191750668892555 -0.30631744688928458 0 -0.1101377120205075 -0.3125026414737459 0 -0.1086905185149004 -0.29431700710516773 0 -0.097223545448816909 -0.31108663316568258 0 -0.1086905185149004 -0.29431700710516773 0 -0.097223545448816909 -0.31108663316568258 0 -0.090897995020448208 -0.2956468741563294 0 -0.082686355641332782 -0.30932364405208618 0 -0.069190396444849811 -0.29220496119405098 0 -0.090897995020448208 -0.2956468741563294 0 -0.097223545448816909 -0.31108663316568258 0 -0.082686355641332782 -0.30932364405208618 0 -0.090897995020448208 -0.2956468741563294 0 -0.070470354422744269 -0.32196936896693401 0 -0.082686355641332782 -0.30932364405208618 0 -0.069190396444849811 -0.29220496119405098 0 -0.070470354422744269 -0.32196936896693401 0 -0.069190396444849811 -0.29220496119405098 0 -0.070470354422744269 -0.32196936896693401 0 -0.069190396444849811 -0.29220496119405098 0 -0.058072350439826982 -0.30784442721416061 0 -0.069190396444849811 -0.29220496119405098 0 -0.090897995020448208 -0.2956468741563294 0 -0.088300478490928341 -0.2783787802631677 0 -0.10088548835506531 -0.26558022797582997 0 -0.088300478490928341 -0.2783787802631677 0 -0.085591391298974168 -0.25525670998288419 0 -0.069190396444849811 -0.29220496119405098 0 -0.067910438466956005 -0.26244055342116801 0 -0.069190396444849811 -0.29220496119405098 0 -0.067910438466956005 -0.26244055342116801 0 -0.054156375835217298 -0.27743468704089841 0 -0.088300478490928341 -0.2783787802631677 0 -0.067910438466956005 -0.26244055342116801 0 -0.069190396444849811 -0.29220496119405098 0 -0.088300478490928341 -0.2783787802631677 0 -0.067910438466956005 -0.26244055342116801 0 -0.067910438466956005 -0.26244055342116801 0 -0.06702448306146816 -0.24183836302669171 0 -0.067910438466956005 -0.26244055342116801 0 -0.085591391298974168 -0.25525670998288419 0 -0.06702448306146816 -0.24183836302669171 0 -0.088300478490928341 -0.2783787802631677 0 -0.067910438466956005 -0.26244055342116801 0 -0.085591391298974168 -0.25525670998288419 0 -0.031734752645820631 -0.25710441704462761 0 -0.047964650075353853 -0.26349647087778583 0 -0.044292763933359319 -0.2439793903359338 0 -0.031734752645820631 -0.25710441704462761 0 -0.047964650075353853 -0.26349647087778583 0 -0.038357972140739993 -0.27609053451530807 0 -0.067910438466956005 -0.26244055342116801 0 -0.044292763933359319 -0.2439793903359338 0 -0.067910438466956005 -0.26244055342116801 0 -0.047964650075353853 -0.26349647087778583 0 -0.044292763933359319 -0.2439793903359338 0 -0.067910438466956005 -0.26244055342116801 0 -0.047964650075353853 -0.26349647087778583 0 -0.054156375835217298 -0.27743468704089841 0 -0.047964650075353853 -0.26349647087778583 0 -0.054156375835217298 -0.27743468704089841 0 -0.038357972140739993 -0.27609053451530807 0 -0.038357972140739993 -0.27609053451530807 0 -0.046905472255554678 -0.29281292164723122 0 -0.028095966589391039 -0.2903649222546113 0 -0.054156375835217298 -0.27743468704089841 0 -0.038357972140739993 -0.27609053451530807 0 -0.046905472255554678 -0.29281292164723122 0 -0.069190396444849811 -0.29220496119405098 0 -0.054156375835217298 -0.27743468704089841 0 -0.046905472255554678 -0.29281292164723122 0 -0.069190396444849811 -0.29220496119405098 0 -0.046905472255554678 -0.29281292164723122 0 -0.058072350439826982 -0.30784442721416061 0 -0.046905472255554678 -0.29281292164723122 0 -0.058072350439826982 -0.30784442721416061 0 -0.031919955618023937 -0.31039485567417002 0 -0.046905472255554678 -0.29281292164723122 0 -0.031919955618023937 -0.31039485567417002 0 -0.028095966589391039 -0.2903649222546113 0 -0.0062904779584391293 -0.29490589873110767 0 -0.01372632204363926 -0.27253411672486377 0 0.01933899970114571 -0.27941694178804538 0 -0.031919955618023937 -0.31039485567417002 0 -0.0062904779584391293 -0.29490589873110767 0 -0.028095966589391039 -0.2903649222546113 0 -0.031919955618023937 -0.31039485567417002 0 -0.0062904779584391293 -0.29490589873110767 0 -0.015936783505504589 -0.32457883084223582 0 -0.031919955618023937 -0.31039485567417002 0 -0.0062904779584391293 -0.29490589873110767 0 -0.0062904779584391293 -0.29490589873110767 0 -0.028095966589391039 -0.2903649222546113 0 -0.01372632204363926 -0.27253411672486377 0 -0.031734752645820631 -0.25710441704462761 0 -0.038357972140739993 -0.27609053451530807 0 -0.01372632204363926 -0.27253411672486377 0 -0.038357972140739993 -0.27609053451530807 0 -0.028095966589391039 -0.2903649222546113 0 -0.01372632204363926 -0.27253411672486377 0 -0.01372632204363926 -0.27253411672486377 0 -0.01457790468976509 -0.24802235646209489 0 0.012011206364422111 -0.25275089785599059 0 -0.031734752645820631 -0.25710441704462761 0 -0.01372632204363926 -0.27253411672486377 0 -0.01457790468976509 -0.24802235646209489 0 -0.034038952021759147 -0.3560108187195713 0 -0.052723855289950758 -0.35570181019509378 0 -0.048937241897429332 -0.3409317867067978 0 -0.044156288482612507 -0.36694839551265612 0 -0.033511182078635807 -0.37639575098856759 0 -0.055054619442423007 -0.37694070571453819 0 -0.034038952021759147 -0.3560108187195713 0 -0.044156288482612507 -0.36694839551265612 0 -0.052723855289950758 -0.35570181019509378 0 -0.034038952021759147 -0.3560108187195713 0 -0.044156288482612507 -0.36694839551265612 0 -0.033511182078635807 -0.37639575098856759 0 -0.073209204485975801 -0.35858339237649778 0 -0.052723855289950758 -0.35570181019509378 0 -0.055054619442423007 -0.37694070571453819 0 -0.044156288482612507 -0.36694839551265612 0 -0.052723855289950758 -0.35570181019509378 0 -0.055054619442423007 -0.37694070571453819 0 -0.052723855289950758 -0.35570181019509378 0 -0.062322779804588453 -0.34405765609245131 0 -0.048937241897429332 -0.3409317867067978 0 -0.062322779804588453 -0.34405765609245131 0 -0.048937241897429332 -0.3409317867067978 0 -0.057549433277608773 -0.32588381261723243 0 -0.070470354422744269 -0.32196936896693401 0 -0.058072350439826982 -0.30784442721416061 0 -0.057549433277608773 -0.32588381261723243 0 -0.058072350439826982 -0.30784442721416061 0 -0.031919955618023937 -0.31039485567417002 0 -0.057549433277608773 -0.32588381261723243 0 -0.031919955618023937 -0.31039485567417002 0 -0.057549433277608773 -0.32588381261723243 0 -0.031919955618023937 -0.31039485567417002 0 -0.057549433277608773 -0.32588381261723243 0 -0.033187468292983607 -0.33398043363786128 0 -0.034038952021759147 -0.3560108187195713 0 -0.048937241897429332 -0.3409317867067978 0 -0.033187468292983607 -0.33398043363786128 0 -0.048937241897429332 -0.3409317867067978 0 -0.057549433277608773 -0.32588381261723243 0 -0.033187468292983607 -0.33398043363786128 0 -0.033187468292983607 -0.33398043363786128 0 -0.015936783505504589 -0.32457883084223582 0 -0.01132347348887399 -0.34647629943326852 0 -0.031919955618023937 -0.31039485567417002 0 -0.033187468292983607 -0.33398043363786128 0 -0.015936783505504589 -0.32457883084223582 0 -0.0062904779584391293 -0.29490589873110767 0 -0.015936783505504589 -0.32457883084223582 0 0.0067780386225128313 -0.32069423561336358 0 -0.015936783505504589 -0.32457883084223582 0 -0.01132347348887399 -0.34647629943326852 0 0.0067780386225128313 -0.32069423561336358 0 -0.034038952021759147 -0.3560108187195713 0 -0.033187468292983607 -0.33398043363786128 0 -0.01132347348887399 -0.34647629943326852 0 -0.034038952021759147 -0.3560108187195713 0 -0.01132347348887399 -0.34647629943326852 0 -0.019276567142949369 -0.367333855168611 0 -0.034038952021759147 -0.3560108187195713 0 -0.019276567142949369 -0.367333855168611 0 -0.033511182078635807 -0.37639575098856759 0 -0.01132347348887399 -0.34647629943326852 0 -0.019276567142949369 -0.367333855168611 0 0.001329830272625719 -0.37172096034497498 0 -0.001437518266137712 -0.39260329897227669 0 -0.018839058398103639 -0.38606544635667273 0 0.001329830272625719 -0.37172096034497498 0 -0.019276567142949369 -0.367333855168611 0 -0.018839058398103639 -0.38606544635667273 0 0.001329830272625719 -0.37172096034497498 0 -0.001437518266137712 -0.39260329897227669 0 -0.01277198429310071 -0.40307588270242389 0 0.0095576460485872552 -0.41214570334098932 0 -0.001437518266137712 -0.39260329897227669 0 -0.01277198429310071 -0.40307588270242389 0 -0.018839058398103639 -0.38606544635667273 0 -0.02781839127326393 -0.39998951755214668 0 -0.018839058398103639 -0.38606544635667273 0 -0.03868495994736295 -0.39055302720992757 0 -0.01277198429310071 -0.40307588270242389 0 -0.02781839127326393 -0.39998951755214668 0 -0.018839058398103639 -0.38606544635667273 0 -0.01277198429310071 -0.40307588270242389 0 -0.02781839127326393 -0.39998951755214668 0 -0.025475555649262051 -0.41060736509465012 0 -0.02781839127326393 -0.39998951755214668 0 -0.038872780994770588 -0.40589362859398259 0 -0.025475555649262051 -0.41060736509465012 0 -0.018839058398103639 -0.38606544635667273 0 -0.033511182078635807 -0.37639575098856759 0 -0.03868495994736295 -0.39055302720992757 0 -0.019276567142949369 -0.367333855168611 0 -0.018839058398103639 -0.38606544635667273 0 -0.033511182078635807 -0.37639575098856759 0 -0.033511182078635807 -0.37639575098856759 0 -0.03868495994736295 -0.39055302720992757 0 -0.055054619442423007 -0.37694070571453819 0 -0.02781839127326393 -0.39998951755214668 0 -0.03868495994736295 -0.39055302720992757 0 -0.038872780994770588 -0.40589362859398259 0 -0.03868495994736295 -0.39055302720992757 0 -0.038872780994770588 -0.40589362859398259 0 -0.05167212638442846 -0.39869180496617002 0 -0.038872780994770588 -0.40589362859398259 0 -0.05167212638442846 -0.39869180496617002 0 -0.052232890879759547 -0.4125213360055634 0 -0.05167212638442846 -0.39869180496617002 0 -0.052232890879759547 -0.4125213360055634 0 -0.065206150196892299 -0.40414400715726528 0 -0.05167212638442846 -0.39869180496617002 0 -0.063776459064912042 -0.3908233398031562 0 -0.065206150196892299 -0.40414400715726528 0 -0.03868495994736295 -0.39055302720992757 0 -0.05167212638442846 -0.39869180496617002 0 -0.055054619442423007 -0.37694070571453819 0 -0.05167212638442846 -0.39869180496617002 0 -0.055054619442423007 -0.37694070571453819 0 -0.063776459064912042 -0.3908233398031562 0 -0.056159920884544627 -0.42721999162275798 0 -0.039219650966994118 -0.43993369420983469 0 -0.054858384676533867 -0.44335949856273121 0 -0.056159920884544627 -0.42721999162275798 0 -0.054858384676533867 -0.44335949856273121 0 -0.06708753092689522 -0.43847526656636482 0 -0.056159920884544627 -0.42721999162275798 0 -0.052232890879759547 -0.4125213360055634 0 -0.067232301577754089 -0.41698335483103621 0 -0.056159920884544627 -0.42721999162275798 0 -0.052232890879759547 -0.4125213360055634 0 -0.03425406524016731 -0.42219522886216859 0 -0.052232890879759547 -0.4125213360055634 0 -0.065206150196892299 -0.40414400715726528 0 -0.067232301577754089 -0.41698335483103621 0 -0.038872780994770588 -0.40589362859398259 0 -0.03425406524016731 -0.42219522886216859 0 -0.025475555649262051 -0.41060736509465012 0 -0.038872780994770588 -0.40589362859398259 0 -0.052232890879759547 -0.4125213360055634 0 -0.03425406524016731 -0.42219522886216859 0 -0.056159920884544627 -0.42721999162275798 0 -0.03425406524016731 -0.42219522886216859 0 -0.039219650966994118 -0.43993369420983469 0 -0.056159920884544627 -0.42721999162275798 0 -0.03425406524016731 -0.42219522886216859 0 -0.03425406524016731 -0.42219522886216859 0 -0.028290500672523481 -0.43328462373739368 0 -0.039219650966994118 -0.43993369420983469 0 -0.028290500672523481 -0.43328462373739368 0 -0.021493365521205111 -0.42029022452707721 0 -0.01916899609321842 -0.43909647226391968 0 -0.021493365521205111 -0.42029022452707721 0 -0.01148670204715382 -0.43608022824107973 0 -0.01916899609321842 -0.43909647226391968 0 -0.03425406524016731 -0.42219522886216859 0 -0.028290500672523481 -0.43328462373739368 0 -0.021493365521205111 -0.42029022452707721 0 -0.03425406524016731 -0.42219522886216859 0 -0.01234820959579002 -0.41717046610157921 0 -0.03425406524016731 -0.42219522886216859 0 -0.025475555649262051 -0.41060736509465012 0 -0.01234820959579002 -0.41717046610157921 0 -0.03425406524016731 -0.42219522886216859 0 -0.021493365521205111 -0.42029022452707721 0 -0.01234820959579002 -0.41717046610157921 0 -0.01277198429310071 -0.40307588270242389 0 -0.025475555649262051 -0.41060736509465012 0 -0.01234820959579002 -0.41717046610157921 0 -0.01234820959579002 -0.41717046610157921 0 0.0095576460485872552 -0.41214570334098932 0 -0.01277198429310071 -0.40307588270242389 0 -0.01234820959579002 -0.41717046610157921 0 0.0095576460485872552 -0.41214570334098932 0 -0.01234820959579002 -0.41717046610157921 0 0.0095576460485872552 -0.41214570334098932 0 0.0010375023834286519 -0.4343684959930546 0 -0.021493365521205111 -0.42029022452707721 0 -0.01234820959579002 -0.41717046610157921 0 0.0010375023834286519 -0.4343684959930546 0 -0.021493365521205111 -0.42029022452707721 0 -0.01148670204715382 -0.43608022824107973 0 0.0010375023834286519 -0.4343684959930546 0 -0.021493365521205111 -0.42029022452707721 0 0.0010375023834286519 -0.4343684959930546 0 -0.01160789492439597 -0.44738992288539342 0 -0.0074202278742511044 -0.45642849793787049 0 0.0010375023834286519 -0.4343684959930546 0 -0.01148670204715382 -0.43608022824107973 0 -0.01160789492439597 -0.44738992288539342 0 0.0010375023834286519 -0.4343684959930546 0 -0.0074202278742511044 -0.45642849793787049 0 0.0010375023834286519 -0.4343684959930546 0 0.0004496438087077761 -0.45535156770205759 0 -0.0074202278742511044 -0.45642849793787049 0 0.0010375023834286519 -0.4343684959930546 0 -0.01148670204715382 -0.43608022824107973 0 -0.01160789492439597 -0.44738992288539342 0 -0.01916899609321842 -0.43909647226391968 0 -0.01160789492439597 -0.44738992288539342 0 -0.0074202278742511044 -0.45642849793787049 0 -0.020028059688804421 -0.45271281868019869 0 -0.0061332739445871323 -0.46027128126309252 0 -0.0074202278742511044 -0.45642849793787049 0 0.0004496438087077761 -0.45535156770205759 0 -0.0061332739445871323 -0.46027128126309252 0 -0.0042480672254351058 -0.47158187165537568 0 0.0061377907538116318 -0.46935369526845938 0 -0.0061332739445871323 -0.46027128126309252 0 -0.0042480672254351058 -0.47158187165537568 0 -0.016790587478368969 -0.47035488017167859 0 -0.0061332739445871323 -0.46027128126309252 0 -0.0074202278742511044 -0.45642849793787049 0 -0.020028059688804421 -0.45271281868019869 0 -0.0061332739445871323 -0.46027128126309252 0 -0.031027935021987672 -0.45990770839890871 0 -0.020028059688804421 -0.45271281868019869 0 -0.0061332739445871323 -0.46027128126309252 0 -0.031027935021987672 -0.45990770839890871 0 -0.016790587478368969 -0.47035488017167859 0 -0.0061332739445871323 -0.46027128126309252 0 -0.031027935021987672 -0.45990770839890871 0 -0.031027935021987672 -0.45990770839890871 0 -0.027316425541032471 -0.44490749882396852 0 -0.020028059688804421 -0.45271281868019869 0 -0.028290500672523481 -0.43328462373739368 0 -0.027316425541032471 -0.44490749882396852 0 -0.01916899609321842 -0.43909647226391968 0 -0.01160789492439597 -0.44738992288539342 0 -0.01916899609321842 -0.43909647226391968 0 -0.020028059688804421 -0.45271281868019869 0 -0.027316425541032471 -0.44490749882396852 0 -0.01916899609321842 -0.43909647226391968 0 -0.020028059688804421 -0.45271281868019869 0 -0.01134111977391916 -0.5 0 -0.01204862080277474 -0.48010111032556968 0 0.0058358895367897701 -0.48046532183178642 0 -0.01204862080277474 -0.48010111032556968 0 -0.0042480672254351058 -0.47158187165537568 0 0.0058358895367897701 -0.48046532183178642 0 -0.01204862080277474 -0.48010111032556968 0 -0.0042480672254351058 -0.47158187165537568 0 -0.016790587478368969 -0.47035488017167859 0 -0.031027935021987672 -0.45990770839890871 0 -0.030495040397060209 -0.47991242921544641 0 -0.016790587478368969 -0.47035488017167859 0 -0.01204862080277474 -0.48010111032556968 0 -0.030495040397060209 -0.47991242921544641 0 -0.016790587478368969 -0.47035488017167859 0 -0.01134111977391916 -0.5 0 -0.030495040397060209 -0.47991242921544641 0 -0.040694942689319558 -0.5 0 -0.01134111977391916 -0.5 0 -0.01204862080277474 -0.48010111032556968 0 -0.030495040397060209 -0.47991242921544641 0 -0.030495040397060209 -0.47991242921544641 0 -0.040694942689319558 -0.5 0 -0.056842214343114962 -0.48255321341928969 0 -0.030495040397060209 -0.47991242921544641 0 -0.056842214343114962 -0.48255321341928969 0 -0.046863756047834063 -0.46628110181753019 0 -0.056842214343114962 -0.48255321341928969 0 -0.046863756047834063 -0.46628110181753019 0 -0.059063855834004038 -0.46866961485627079 0 -0.056842214343114962 -0.48255321341928969 0 -0.059063855834004038 -0.46866961485627079 0 -0.066818729778652081 -0.47416442508231588 0 -0.040694942689319558 -0.5 0 -0.056842214343114962 -0.48255321341928969 0 -0.070048765604720009 -0.5 0 -0.039219650966994118 -0.43993369420983469 0 -0.045740383087984629 -0.45339549461664358 0 -0.054858384676533867 -0.44335949856273121 0 -0.031027935021987672 -0.45990770839890871 0 -0.039219650966994118 -0.43993369420983469 0 -0.045740383087984629 -0.45339549461664358 0 -0.031027935021987672 -0.45990770839890871 0 -0.027316425541032471 -0.44490749882396852 0 -0.039219650966994118 -0.43993369420983469 0 -0.028290500672523481 -0.43328462373739368 0 -0.027316425541032471 -0.44490749882396852 0 -0.039219650966994118 -0.43993369420983469 0 -0.031027935021987672 -0.45990770839890871 0 -0.030495040397060209 -0.47991242921544641 0 -0.046863756047834063 -0.46628110181753019 0 -0.031027935021987672 -0.45990770839890871 0 -0.046863756047834063 -0.46628110181753019 0 -0.045740383087984629 -0.45339549461664358 0 -0.046863756047834063 -0.46628110181753019 0 -0.045740383087984629 -0.45339549461664358 0 -0.056732188726573443 -0.45749547009421282 0 -0.046863756047834063 -0.46628110181753019 0 -0.059063855834004038 -0.46866961485627079 0 -0.056732188726573443 -0.45749547009421282 0 -0.059063855834004038 -0.46866961485627079 0 -0.056732188726573443 -0.45749547009421282 0 -0.068062390273845669 -0.46285386386800598 0 -0.056732188726573443 -0.45749547009421282 0 -0.054858384676533867 -0.44335949856273121 0 -0.068769467303020776 -0.45086207063833073 0 -0.045740383087984629 -0.45339549461664358 0 -0.056732188726573443 -0.45749547009421282 0 -0.054858384676533867 -0.44335949856273121 0 -0.054858384676533867 -0.44335949856273121 0 -0.06708753092689522 -0.43847526656636482 0 -0.068769467303020776 -0.45086207063833073 0 -0.068769467303020776 -0.45086207063833073 0 -0.074882435057314387 -0.45655124061624391 0 -0.080945729837518937 -0.43976829126926348 0 -0.06708753092689522 -0.43847526656636482 0 -0.068769467303020776 -0.45086207063833073 0 -0.080945729837518937 -0.43976829126926348 0 -0.056732188726573443 -0.45749547009421282 0 -0.068769467303020776 -0.45086207063833073 0 -0.068062390273845669 -0.46285386386800598 0 -0.068062390273845669 -0.46285386386800598 0 -0.074625731269735776 -0.46652126095257918 0 -0.066818729778652081 -0.47416442508231588 0 -0.059063855834004038 -0.46866961485627079 0 -0.068062390273845669 -0.46285386386800598 0 -0.066818729778652081 -0.47416442508231588 0 -0.074625731269735776 -0.46652126095257918 0 -0.082008856602450789 -0.46275071635304033 0 -0.077131063959714197 -0.47331992715823562 0 -0.068062390273845669 -0.46285386386800598 0 -0.074625731269735776 -0.46652126095257918 0 -0.074882435057314387 -0.45655124061624391 0 -0.074625731269735776 -0.46652126095257918 0 -0.074882435057314387 -0.45655124061624391 0 -0.082008856602450789 -0.46275071635304033 0 -0.068769467303020776 -0.45086207063833073 0 -0.068062390273845669 -0.46285386386800598 0 -0.074882435057314387 -0.45655124061624391 0 -0.082008856602450789 -0.46275071635304033 0 -0.089965957738843805 -0.44550925377590112 0 -0.082008856602450789 -0.46275071635304033 0 -0.088521622832008595 -0.45772582017561703 0 -0.089965957738843805 -0.44550925377590112 0 -0.082008856602450789 -0.46275071635304033 0 -0.077131063959714197 -0.47331992715823562 0 -0.082008856602450789 -0.46275071635304033 0 -0.082219629466361036 -0.46730715469539258 0 -0.077131063959714197 -0.47331992715823562 0 -0.082008856602450789 -0.46275071635304033 0 -0.082219629466361036 -0.46730715469539258 0 -0.088852059401353087 -0.46467299519669009 0 -0.082008856602450789 -0.46275071635304033 0 -0.082219629466361036 -0.46730715469539258 0 -0.088852059401353087 -0.46467299519669009 0 -0.0932596175853867 -0.45797031537683652 0 -0.097741960324114904 -0.46616234089512792 0 -0.082219629466361036 -0.46730715469539258 0 -0.088852059401353087 -0.46467299519669009 0 -0.088247144066257832 -0.47362203157918831 0 -0.088852059401353087 -0.46467299519669009 0 -0.088247144066257832 -0.47362203157918831 0 -0.097741960324114904 -0.46616234089512792 0 -0.082008856602450789 -0.46275071635304033 0 -0.088852059401353087 -0.46467299519669009 0 -0.088521622832008595 -0.45772582017561703 0 -0.088521622832008595 -0.45772582017561703 0 -0.0932596175853867 -0.45797031537683652 0 -0.089965957738843805 -0.44550925377590112 0 -0.088852059401353087 -0.46467299519669009 0 -0.088521622832008595 -0.45772582017561703 0 -0.0932596175853867 -0.45797031537683652 0 -0.074882435057314387 -0.45655124061624391 0 -0.082008856602450789 -0.46275071635304033 0 -0.080945729837518937 -0.43976829126926348 0 -0.082008856602450789 -0.46275071635304033 0 -0.089965957738843805 -0.44550925377590112 0 -0.080945729837518937 -0.43976829126926348 0 -0.082008856602450789 -0.46275071635304033 0 -0.080945729837518937 -0.43976829126926348 0 -0.089965957738843805 -0.44550925377590112 0 -0.080945729837518937 -0.43976829126926348 0 -0.089872878867396089 -0.43438624897365791 0 -0.056842214343114962 -0.48255321341928969 0 -0.070048765604720009 -0.5 0 -0.079595373143356948 -0.4858382082214151 0 -0.056842214343114962 -0.48255321341928969 0 -0.066818729778652081 -0.47416442508231588 0 -0.079595373143356948 -0.4858382082214151 0 -0.066818729778652081 -0.47416442508231588 0 -0.077131063959714197 -0.47331992715823562 0 -0.079595373143356948 -0.4858382082214151 0 -0.074625731269735776 -0.46652126095257918 0 -0.066818729778652081 -0.47416442508231588 0 -0.077131063959714197 -0.47331992715823562 0 -0.088247144066257832 -0.47362203157918831 0 -0.079595373143356948 -0.4858382082214151 0 -0.099291573954669921 -0.48113598537334618 0 -0.082219629466361036 -0.46730715469539258 0 -0.077131063959714197 -0.47331992715823562 0 -0.088247144066257832 -0.47362203157918831 0 -0.077131063959714197 -0.47331992715823562 0 -0.088247144066257832 -0.47362203157918831 0 -0.079595373143356948 -0.4858382082214151 0 -0.070048765604720009 -0.5 0 -0.079595373143356948 -0.4858382082214151 0 -0.099402588520120516 -0.5 0 -0.079595373143356948 -0.4858382082214151 0 -0.099402588520120516 -0.5 0 -0.099291573954669921 -0.48113598537334618 0 -0.099402588520120516 -0.5 0 -0.099291573954669921 -0.48113598537334618 0 -0.11832517605854199 -0.48705874080463729 0 -0.088247144066257832 -0.47362203157918831 0 -0.099291573954669921 -0.48113598537334618 0 -0.097741960324114904 -0.46616234089512792 0 -0.099291573954669921 -0.48113598537334618 0 -0.1120754061200048 -0.47165655794741063 0 -0.097741960324114904 -0.46616234089512792 0 -0.099291573954669921 -0.48113598537334618 0 -0.1120754061200048 -0.47165655794741063 0 -0.11832517605854199 -0.48705874080463729 0 -0.1303942901241347 -0.47562968368150538 0 -0.1120754061200048 -0.47165655794741063 0 -0.1303942901241347 -0.47562968368150538 0 -0.1120754061200048 -0.47165655794741063 0 -0.11832517605854199 -0.48705874080463729 0 -0.128756411435521 -0.50000000000001088 0 -0.099402588520120516 -0.5 0 -0.11832517605854199 -0.48705874080463729 0 -0.089965957738843805 -0.44550925377590112 0 -0.10542161506418631 -0.44292504787331988 0 -0.097923058875237307 -0.4282677911987619 0 -0.10542161506418631 -0.44292504787331988 0 -0.1019449973282484 -0.45336568099480717 0 -0.11432177695962289 -0.45377674687071923 0 -0.089965957738843805 -0.44550925377590112 0 -0.10542161506418631 -0.44292504787331988 0 -0.1019449973282484 -0.45336568099480717 0 -0.0932596175853867 -0.45797031537683652 0 -0.089965957738843805 -0.44550925377590112 0 -0.1019449973282484 -0.45336568099480717 0 -0.0932596175853867 -0.45797031537683652 0 -0.097741960324114904 -0.46616234089512792 0 -0.1019449973282484 -0.45336568099480717 0 -0.1120754061200048 -0.47165655794741063 0 -0.097741960324114904 -0.46616234089512792 0 -0.1065210351829978 -0.46124033167701622 0 -0.1065210351829978 -0.46124033167701622 0 -0.1019449973282484 -0.45336568099480717 0 -0.11432177695962289 -0.45377674687071923 0 -0.097741960324114904 -0.46616234089512792 0 -0.1065210351829978 -0.46124033167701622 0 -0.1019449973282484 -0.45336568099480717 0 -0.1266732872715573 -0.45466772510395781 0 -0.1120754061200048 -0.47165655794741063 0 -0.11432177695962289 -0.45377674687071923 0 -0.1266732872715573 -0.45466772510395781 0 -0.1303942901241347 -0.47562968368150538 0 -0.1120754061200048 -0.47165655794741063 0 -0.1120754061200048 -0.47165655794741063 0 -0.1065210351829978 -0.46124033167701622 0 -0.11432177695962289 -0.45377674687071923 0 -0.1266732872715573 -0.45466772510395781 0 -0.1229522844189808 -0.43370576652641007 0 -0.10542161506418631 -0.44292504787331988 0 -0.11432177695962289 -0.45377674687071923 0 -0.1229522844189808 -0.43370576652641007 0 -0.1266732872715573 -0.45466772510395781 0 -0.11432177695962289 -0.45377674687071923 0 -0.1229522844189808 -0.43370576652641007 0 -0.1229522844189808 -0.43370576652641007 0 -0.097923058875237307 -0.4282677911987619 0 -0.1198179301444536 -0.41604864368263939 0 -0.1229522844189808 -0.43370576652641007 0 -0.097923058875237307 -0.4282677911987619 0 -0.1229522844189808 -0.43370576652641007 0 -0.1198179301444536 -0.41604864368263939 0 -0.10542161506418631 -0.44292504787331988 0 -0.1229522844189808 -0.43370576652641007 0 -0.097923058875237307 -0.4282677911987619 0 -0.089965957738843805 -0.44550925377590112 0 -0.097923058875237307 -0.4282677911987619 0 -0.097923058875237307 -0.4282677911987619 0 -0.094234796882961214 -0.427466460862722 0 -0.09372568044455952 -0.42228810283010432 0 -0.097923058875237307 -0.4282677911987619 0 -0.094234796882961214 -0.427466460862722 0 -0.097923058875237307 -0.4282677911987619 0 -0.094234796882961214 -0.427466460862722 0 -0.089872878867396089 -0.43438624897365791 0 -0.097923058875237307 -0.4282677911987619 0 -0.10443343702012101 -0.41416109087863268 0 -0.1198179301444536 -0.41604864368263939 0 -0.10443343702012101 -0.41416109087863268 0 -0.096123501951424689 -0.40434799291326962 0 -0.09303485647857955 -0.41532479050328219 0 -0.10443343702012101 -0.41416109087863268 0 -0.09372568044455952 -0.42228810283010432 0 -0.09303485647857955 -0.41532479050328219 0 -0.097923058875237307 -0.4282677911987619 0 -0.10443343702012101 -0.41416109087863268 0 -0.097923058875237307 -0.4282677911987619 0 -0.10443343702012101 -0.41416109087863268 0 -0.09372568044455952 -0.42228810283010432 0 -0.10443343702012101 -0.41416109087863268 0 -0.11094381516500609 -0.40005439055850411 0 -0.1198179301444536 -0.41604864368263939 0 -0.116683575869927 -0.39839152083886858 0 -0.1326505070762681 -0.40726180765997883 0 -0.1198179301444536 -0.41604864368263939 0 -0.116683575869927 -0.39839152083886858 0 -0.10443343702012101 -0.41416109087863268 0 -0.1198179301444536 -0.41604864368263939 0 -0.11094381516500609 -0.40005439055850411 0 -0.1198179301444536 -0.41604864368263939 0 -0.116683575869927 -0.39839152083886858 0 -0.11094381516500609 -0.40005439055850411 0 -0.1261016000392115 -0.38762286794517758 0 -0.116683575869927 -0.39839152083886858 0 -0.1157772587490042 -0.39328585908594821 0 -0.116683575869927 -0.39839152083886858 0 -0.1157772587490042 -0.39328585908594821 0 -0.11094381516500609 -0.40005439055850411 0 -0.116683575869927 -0.39839152083886858 0 -0.1157772587490042 -0.39328585908594821 0 -0.116683575869927 -0.39839152083886858 0 -0.11094381516500609 -0.40005439055850411 0 -0.1157772587490042 -0.39328585908594821 0 -0.11094381516500609 -0.40005439055850411 0 -0.12198752904021749 -0.37612484935646451 0 -0.11094381516500609 -0.40005439055850411 0 -0.12198752904021749 -0.37612484935646451 0 -0.107760996682504 -0.38476151877063031 0 -0.1261016000392115 -0.38762286794517758 0 -0.1157772587490042 -0.39328585908594821 0 -0.12198752904021749 -0.37612484935646451 0 -0.11094381516500609 -0.40005439055850411 0 -0.12198752904021749 -0.37612484935646451 0 -0.10843398110716369 -0.37349346380725351 0 -0.12198752904021749 -0.37612484935646451 0 -0.107760996682504 -0.38476151877063031 0 -0.10843398110716369 -0.37349346380725351 0 -0.107760996682504 -0.38476151877063031 0 -0.09664854879367818 -0.37838555299803123 0 -0.09664854879367818 -0.37838555299803123 0 -0.099427206685132857 -0.39317935706669399 0 -0.087901594847244274 -0.38725489627332338 0 -0.107760996682504 -0.38476151877063031 0 -0.09664854879367818 -0.37838555299803123 0 -0.099427206685132857 -0.39317935706669399 0 -0.10443343702012101 -0.41416109087863268 0 -0.11094381516500609 -0.40005439055850411 0 -0.096123501951424689 -0.40434799291326962 0 -0.11094381516500609 -0.40005439055850411 0 -0.096123501951424689 -0.40434799291326962 0 -0.11094381516500609 -0.40005439055850411 0 -0.099427206685132857 -0.39317935706669399 0 -0.096123501951424689 -0.40434799291326962 0 -0.11094381516500609 -0.40005439055850411 0 -0.107760996682504 -0.38476151877063031 0 -0.099427206685132857 -0.39317935706669399 0 -0.099427206685132857 -0.39317935706669399 0 -0.096123501951424689 -0.40434799291326962 0 -0.086856392907030525 -0.40008511418224918 0 -0.096123501951424689 -0.40434799291326962 0 -0.086856392907030525 -0.40008511418224918 0 -0.081303188737843146 -0.40864159526803462 0 -0.078819476307655692 -0.39380344110170967 0 -0.079882603072587322 -0.41678586618548658 0 -0.099427206685132857 -0.39317935706669399 0 -0.086856392907030525 -0.40008511418224918 0 -0.087901594847244274 -0.38725489627332338 0 -0.086856392907030525 -0.40008511418224918 0 -0.078819476307655692 -0.39380344110170967 0 -0.087901594847244274 -0.38725489627332338 0 -0.086856392907030525 -0.40008511418224918 0 -0.078819476307655692 -0.39380344110170967 0 -0.081303188737843146 -0.40864159526803462 0 -0.077756349542724076 -0.37082101601793299 0 -0.078819476307655692 -0.39380344110170967 0 -0.077756349542724076 -0.37082101601793299 0 -0.078819476307655692 -0.39380344110170967 0 -0.087901594847244274 -0.38725489627332338 0 -0.077756349542724076 -0.37082101601793299 0 -0.09664854879367818 -0.37838555299803123 0 -0.087901594847244274 -0.38725489627332338 0 -0.077756349542724076 -0.37082101601793299 0 -0.078819476307655692 -0.39380344110170967 0 -0.063776459064912042 -0.3908233398031562 0 -0.077756349542724076 -0.37082101601793299 0 -0.055054619442423007 -0.37694070571453819 0 -0.063776459064912042 -0.3908233398031562 0 -0.078819476307655692 -0.39380344110170967 0 -0.07278513278872234 -0.40792916731887452 0 -0.079882603072587322 -0.41678586618548658 0 -0.078819476307655692 -0.39380344110170967 0 -0.065206150196892299 -0.40414400715726528 0 -0.07278513278872234 -0.40792916731887452 0 -0.078819476307655692 -0.39380344110170967 0 -0.063776459064912042 -0.3908233398031562 0 -0.065206150196892299 -0.40414400715726528 0 -0.065206150196892299 -0.40414400715726528 0 -0.07278513278872234 -0.40792916731887452 0 -0.067232301577754089 -0.41698335483103621 0 -0.07278513278872234 -0.40792916731887452 0 -0.067232301577754089 -0.41698335483103621 0 -0.079882603072587322 -0.41678586618548658 0 -0.067232301577754089 -0.41698335483103621 0 -0.070957616735740539 -0.42860158612728311 0 -0.079882603072587322 -0.41678586618548658 0 -0.056159920884544627 -0.42721999162275798 0 -0.067232301577754089 -0.41698335483103621 0 -0.070957616735740539 -0.42860158612728311 0 -0.080945729837518937 -0.43976829126926348 0 -0.070957616735740539 -0.42860158612728311 0 -0.079882603072587322 -0.41678586618548658 0 -0.056159920884544627 -0.42721999162275798 0 -0.06708753092689522 -0.43847526656636482 0 -0.070957616735740539 -0.42860158612728311 0 -0.06708753092689522 -0.43847526656636482 0 -0.080945729837518937 -0.43976829126926348 0 -0.070957616735740539 -0.42860158612728311 0 -0.080945729837518937 -0.43976829126926348 0 -0.079882603072587322 -0.41678586618548658 0 -0.080945729837518937 -0.43976829126926348 0 -0.08629485100241982 -0.43091944776164148 0 -0.079882603072587322 -0.41678586618548658 0 -0.08629485100241982 -0.43091944776164148 0 -0.086824846158217964 -0.42241566903712952 0 -0.079882603072587322 -0.41678586618548658 0 -0.089965957738843805 -0.44550925377590112 0 -0.097923058875237307 -0.4282677911987619 0 -0.089872878867396089 -0.43438624897365791 0 -0.080945729837518937 -0.43976829126926348 0 -0.089872878867396089 -0.43438624897365791 0 -0.08629485100241982 -0.43091944776164148 0 -0.094234796882961214 -0.427466460862722 0 -0.089872878867396089 -0.43438624897365791 0 -0.08629485100241982 -0.43091944776164148 0 -0.094234796882961214 -0.427466460862722 0 -0.08629485100241982 -0.43091944776164148 0 -0.090270043622039636 -0.42577242012289929 0 -0.08629485100241982 -0.43091944776164148 0 -0.086824846158217964 -0.42241566903712952 0 -0.090270043622039636 -0.42577242012289929 0 -0.086824846158217964 -0.42241566903712952 0 -0.09372568044455952 -0.42228810283010432 0 -0.090270043622039636 -0.42577242012289929 0 -0.094234796882961214 -0.427466460862722 0 -0.09372568044455952 -0.42228810283010432 0 -0.090270043622039636 -0.42577242012289929 0 -0.078819476307655692 -0.39380344110170967 0 -0.081303188737843146 -0.40864159526803462 0 -0.079882603072587322 -0.41678586618548658 0 -0.086824846158217964 -0.42241566903712952 0 -0.09372568044455952 -0.42228810283010432 0 -0.09303485647857955 -0.41532479050328219 0 -0.086824846158217964 -0.42241566903712952 0 -0.09303485647857955 -0.41532479050328219 0 -0.086919673414888488 -0.41352887370492852 0 -0.096123501951424689 -0.40434799291326962 0 -0.086919673414888488 -0.41352887370492852 0 -0.081303188737843146 -0.40864159526803462 0 -0.096123501951424689 -0.40434799291326962 0 -0.09303485647857955 -0.41532479050328219 0 -0.086919673414888488 -0.41352887370492852 0 -0.096123501951424689 -0.40434799291326962 0 -0.081303188737843146 -0.40864159526803462 0 -0.086919673414888488 -0.41352887370492852 0 -0.081303188737843146 -0.40864159526803462 0 -0.079882603072587322 -0.41678586618548658 0 -0.086824846158217964 -0.42241566903712952 0 -0.086919673414888488 -0.41352887370492852 0 -0.079882603072587322 -0.41678586618548658 0 -0.087689730184715181 -0.072584255009734477 0 -0.096877071132811715 -0.091708203621162887 0 -0.078346268210225264 -0.082512936449974927 0 -0.087689730184715181 -0.072584255009734477 0 -0.096877071132811715 -0.091708203621162887 0 -0.078346268210225264 -0.082512936449974927 0 -0.07748939413609976 -0.098751377406457425 0 -0.096877071132811715 -0.091708203621162887 0 -0.078346268210225264 -0.082512936449974927 0 -0.087689730184715181 -0.072584255009734477 0 -0.079203142284352726 -0.066274495493492513 0 -0.087689730184715181 -0.072584255009734477 0 -0.098396104907248594 -0.068909198853537371 0 -0.082054180276970479 -0.060853552139183281 0 -0.078346268210225264 -0.082512936449974927 0 -0.079203142284352726 -0.066274495493492513 0 -0.087689730184715181 -0.072584255009734477 0 -0.098488210791047512 -0.08061290168926355 0 -0.087689730184715181 -0.072584255009734477 0 -0.082054180276970479 -0.060853552139183281 0 -0.087689730184715181 -0.072584255009734477 0 -0.079203142284352726 -0.066274495493492513 0 -0.082054180276970479 -0.060853552139183281 0 -0.087689730184715181 -0.072584255009734477 0 -0.079203142284352726 -0.066274495493492513 0 -0.079203142284352726 -0.066274495493492513 0 -0.079453069391684158 -0.061538179273186083 0 -0.082054180276970479 -0.060853552139183281 0 -0.079203142284352726 -0.066274495493492513 0 -0.079453069391684158 -0.061538179273186083 0 -0.078346268210225264 -0.082512936449974927 0 -0.072475332291661712 -0.070478649437382565 0 -0.067152337472304341 -0.075939744756790273 0 -0.078346268210225264 -0.082512936449974927 0 -0.079203142284352726 -0.066274495493492513 0 -0.072475332291661712 -0.070478649437382565 0 -0.079203142284352726 -0.066274495493492513 0 -0.074563708646548335 -0.062825086745271083 0 -0.079453069391684158 -0.061538179273186083 0 -0.079203142284352726 -0.066274495493492513 0 -0.074563708646548335 -0.062825086745271083 0 -0.079203142284352726 -0.066274495493492513 0 -0.072475332291661712 -0.070478649437382565 0 -0.074563708646548335 -0.062825086745271083 0 -0.072475332291661712 -0.070478649437382565 0 -0.074563708646548335 -0.062825086745271083 0 -0.068653424811404698 -0.067930975804191357 0 -0.074563708646548335 -0.062825086745271083 0 -0.064583654294517276 -0.065451893640289208 0 -0.074563708646548335 -0.062825086745271083 0 -0.068653424811404698 -0.067930975804191357 0 -0.064583654294517276 -0.065451893640289208 0 -0.068653424811404698 -0.067930975804191357 0 -0.065112497769405406 -0.067524498886117973 0 -0.066090048551386837 -0.071634580985232801 0 -0.072475332291661712 -0.070478649437382565 0 -0.068653424811404698 -0.067930975804191357 0 -0.066090048551386837 -0.071634580985232801 0 -0.065112497769405406 -0.067524498886117973 0 -0.064583654294517276 -0.065451893640289208 0 -0.061891373696365597 -0.072103099773147286 0 -0.068653424811404698 -0.067930975804191357 0 -0.065112497769405406 -0.067524498886117973 0 -0.064583654294517276 -0.065451893640289208 0 -0.065112497769405406 -0.067524498886117973 0 -0.064583654294517276 -0.065451893640289208 0 -0.067152337472304341 -0.075939744756790273 0 -0.062285751979021448 -0.083356801233608849 0 -0.061891373696365597 -0.072103099773147286 0 -0.072475332291661712 -0.070478649437382565 0 -0.067152337472304341 -0.075939744756790273 0 -0.066090048551386837 -0.071634580985232801 0 -0.065112497769405406 -0.067524498886117973 0 -0.066090048551386837 -0.071634580985232801 0 -0.061891373696365597 -0.072103099773147286 0 -0.067152337472304341 -0.075939744756790273 0 -0.066090048551386837 -0.071634580985232801 0 -0.061891373696365597 -0.072103099773147286 0 -0.078346268210225264 -0.082512936449974927 0 -0.069967657805204808 -0.092566269804908383 0 -0.07748939413609976 -0.098751377406457425 0 -0.078346268210225264 -0.082512936449974927 0 -0.069967657805204808 -0.092566269804908383 0 -0.062285751979021448 -0.083356801233608849 0 -0.078346268210225264 -0.082512936449974927 0 -0.07748939413609976 -0.098751377406457425 0 -0.078346268210225264 -0.082512936449974927 0 -0.067152337472304341 -0.075939744756790273 0 -0.062285751979021448 -0.083356801233608849 0 -0.069967657805204808 -0.092566269804908383 0 -0.062285751979021448 -0.083356801233608849 0 -0.061705104080998108 -0.096742378327168588 0 -0.069967657805204808 -0.092566269804908383 0 -0.070011770619679309 -0.10146785560733181 0 -0.061705104080998108 -0.096742378327168588 0 -0.070927946597859504 -0.1077314810632644 0 -0.07748939413609976 -0.098751377406457425 0 -0.076356911845466086 -0.12021281189956209 0 -0.070011770619679309 -0.10146785560733181 0 -0.064518809140877778 -0.1061857597201456 0 -0.061705104080998108 -0.096742378327168588 0 -0.064518809140877778 -0.1061857597201456 0 -0.070927946597859504 -0.1077314810632644 0 -0.067442288582566859 -0.11269343141151179 0 -0.070011770619679309 -0.10146785560733181 0 -0.064518809140877778 -0.1061857597201456 0 -0.070927946597859504 -0.1077314810632644 0 -0.070011770619679309 -0.10146785560733181 0 -0.070927946597859504 -0.1077314810632644 0 -0.07748939413609976 -0.098751377406457425 0 -0.069967657805204808 -0.092566269804908383 0 -0.070011770619679309 -0.10146785560733181 0 -0.07748939413609976 -0.098751377406457425 0 -0.070011770619679309 -0.10146785560733181 0 -0.07748939413609976 -0.098751377406457425 0 -0.076356911845466086 -0.12021281189956209 0 -0.081160465231656834 -0.1225154164946881 0 -0.059619915887674929 -0.1212376501946269 0 -0.052743994431308221 -0.1208297766265711 0 -0.059619915887674929 -0.1212376501946269 0 -0.075764490596910233 -0.13262170878292451 0 -0.07748939413609976 -0.098751377406457425 0 -0.076356911845466086 -0.12021281189956209 0 -0.065132042871223816 -0.1163716968197253 0 -0.076356911845466086 -0.12021281189956209 0 -0.059619915887674929 -0.1212376501946269 0 -0.081160465231656834 -0.1225154164946881 0 -0.059619915887674929 -0.1212376501946269 0 -0.065132042871223816 -0.1163716968197253 0 -0.067442288582566859 -0.11269343141151179 0 -0.076356911845466086 -0.12021281189956209 0 -0.065132042871223816 -0.1163716968197253 0 -0.067442288582566859 -0.11269343141151179 0 -0.059653091971374819 -0.11110215055363031 0 -0.064518809140877778 -0.1061857597201456 0 -0.067442288582566859 -0.11269343141151179 0 -0.059653091971374819 -0.11110215055363031 0 -0.070927946597859504 -0.1077314810632644 0 -0.067442288582566859 -0.11269343141151179 0 -0.076356911845466086 -0.12021281189956209 0 -0.07748939413609976 -0.098751377406457425 0 -0.076356911845466086 -0.12021281189956209 0 -0.084307508452819979 -0.1113000736302633 0 -0.076356911845466086 -0.12021281189956209 0 -0.081160465231656834 -0.1225154164946881 0 -0.084307508452819979 -0.1113000736302633 0 -0.081160465231656834 -0.1225154164946881 0 -0.084307508452819979 -0.1113000736302633 0 -0.096563574140114655 -0.1123036948554129 0 -0.07748939413609976 -0.098751377406457425 0 -0.091593022978020827 -0.1037193422624748 0 -0.096877071132811715 -0.091708203621162887 0 -0.07748939413609976 -0.098751377406457425 0 -0.096877071132811715 -0.091708203621162887 0 -0.07748939413609976 -0.098751377406457425 0 -0.084307508452819979 -0.1113000736302633 0 -0.091593022978020827 -0.1037193422624748 0 -0.084307508452819979 -0.1113000736302633 0 -0.091593022978020827 -0.1037193422624748 0 -0.096563574140114655 -0.1123036948554129 0 -0.10150106721898319 -0.10133330233371 0 -0.096877071132811715 -0.091708203621162887 0 -0.091593022978020827 -0.1037193422624748 0 -0.10150106721898319 -0.10133330233371 0 -0.096877071132811715 -0.091708203621162887 0 -0.091593022978020827 -0.1037193422624748 0 -0.10150106721898319 -0.10133330233371 0 -0.096563574140114655 -0.1123036948554129 0 -0.10150106721898319 -0.10133330233371 0 -0.096563574140114655 -0.1123036948554129 0 -0.11062935633412301 -0.1097248711419829 0 -0.081160465231656834 -0.1225154164946881 0 -0.096563574140114655 -0.1123036948554129 0 -0.1095769360320055 -0.12420105636280469 0 -0.081160465231656834 -0.1225154164946881 0 -0.1095769360320055 -0.12420105636280469 0 -0.096563574140114655 -0.1123036948554129 0 -0.1095769360320055 -0.12420105636280469 0 -0.11062935633412301 -0.1097248711419829 0 -0.1095769360320055 -0.12420105636280469 0 -0.11062935633412301 -0.1097248711419829 0 -0.12577690156327029 -0.11012255766180661 0 -0.1095769360320055 -0.12420105636280469 0 -0.13799340683235409 -0.1258866962309213 0 -0.12577690156327029 -0.11012255766180661 0 -0.10150106721898319 -0.10133330233371 0 -0.11062935633412301 -0.1097248711419829 0 -0.1176464408371143 -0.098810885827636058 0 -0.1176464408371143 -0.098810885827636058 0 -0.12999288857614619 -0.093686328831556503 0 -0.12577690156327029 -0.11012255766180661 0 -0.10150106721898319 -0.10133330233371 0 -0.1176464408371143 -0.098810885827636058 0 -0.11655659649242391 -0.084559006884318888 0 -0.11062935633412301 -0.1097248711419829 0 -0.1176464408371143 -0.098810885827636058 0 -0.12577690156327029 -0.11012255766180661 0 -0.1176464408371143 -0.098810885827636058 0 -0.11655659649242391 -0.084559006884318888 0 -0.12999288857614619 -0.093686328831556503 0 -0.1176464408371143 -0.098810885827636058 0 -0.11655659649242391 -0.084559006884318888 0 -0.11655659649242391 -0.084559006884318888 0 -0.096877071132811715 -0.091708203621162887 0 -0.11655659649242391 -0.084559006884318888 0 -0.098488210791047512 -0.08061290168926355 0 -0.1072259149863496 -0.07499262054188259 0 -0.10150106721898319 -0.10133330233371 0 -0.11655659649242391 -0.084559006884318888 0 -0.096877071132811715 -0.091708203621162887 0 -0.11655659649242391 -0.084559006884318888 0 -0.098488210791047512 -0.08061290168926355 0 -0.096877071132811715 -0.091708203621162887 0 -0.087689730184715181 -0.072584255009734477 0 -0.098488210791047512 -0.08061290168926355 0 -0.096877071132811715 -0.091708203621162887 0 -0.098396104907248594 -0.068909198853537371 0 -0.1072259149863496 -0.07499262054188259 0 -0.11532772782976949 -0.06848910891888986 0 -0.098396104907248594 -0.068909198853537371 0 -0.11532772782976949 -0.06848910891888986 0 -0.098076519722041164 -0.056636381546322757 0 -0.087689730184715181 -0.072584255009734477 0 -0.098488210791047512 -0.08061290168926355 0 -0.098396104907248594 -0.068909198853537371 0 -0.098488210791047512 -0.08061290168926355 0 -0.098396104907248594 -0.068909198853537371 0 -0.1072259149863496 -0.07499262054188259 0 -0.11655659649242391 -0.084559006884318888 0 -0.11532772782976949 -0.06848910891888986 0 -0.14226160065796431 -0.075220868461634449 0 -0.11655659649242391 -0.084559006884318888 0 -0.1072259149863496 -0.07499262054188259 0 -0.11532772782976949 -0.06848910891888986 0 -0.11655659649242391 -0.084559006884318888 0 -0.11532772782976949 -0.06848910891888986 0 -0.11532772782976949 -0.06848910891888986 0 -0.1140988591671116 -0.052419210953461068 0 -0.12929758581347681 -0.059690850942959492 0 -0.11532772782976949 -0.06848910891888986 0 -0.1140988591671116 -0.052419210953461068 0 -0.1140988591671116 -0.052419210953461068 0 -0.1122086689428039 -0.027701220363369701 0 -0.12955396198145891 -0.030767486083318842 0 -0.1140988591671116 -0.052419210953461068 0 -0.1122086689428039 -0.027701220363369701 0 -0.1140988591671116 -0.052419210953461068 0 -0.1036425197998255 -0.043637052219597079 0 -0.1122086689428039 -0.027701220363369701 0 -0.094889432455603523 -0.037465902605830062 0 -0.1036425197998255 -0.043637052219597079 0 -0.1122086689428039 -0.027701220363369701 0 -0.094889432455603523 -0.037465902605830062 0 -0.1036425197998255 -0.043637052219597079 0 -0.098076519722041164 -0.056636381546322757 0 -0.11532772782976949 -0.06848910891888986 0 -0.1140988591671116 -0.052419210953461068 0 -0.098076519722041164 -0.056636381546322757 0 -0.1140988591671116 -0.052419210953461068 0 -0.1036425197998255 -0.043637052219597079 0 -0.098076519722041164 -0.056636381546322757 0 -0.1140988591671116 -0.052419210953461068 0 -0.098076519722041164 -0.056636381546322757 0 -0.1164388837083003 -0.0026345546631316862 0 -0.1225727701940631 -0.01455985372084038 0 -0.13211260120916571 -0.006208574162898362 0 -0.1103184787184923 -0.002983229773278688 0 -0.1225727701940631 -0.01455985372084038 0 -0.1122086689428039 -0.027701220363369701 0 -0.1103184787184923 -0.002983229773278688 0 -0.1122086689428039 -0.027701220363369701 0 -0.1103184787184923 -0.002983229773278688 0 -0.1164388837083003 -0.0026345546631316862 0 -0.1225727701940631 -0.01455985372084038 0 -0.1225727701940631 -0.01455985372084038 0 -0.1122086689428039 -0.027701220363369701 0 -0.12955396198145891 -0.030767486083318842 0 -0.094889432455603523 -0.037465902605830062 0 -0.1122086689428039 -0.027701220363369701 0 -0.094802713500361319 -0.01377456584920111 0 -0.1122086689428039 -0.027701220363369701 0 -0.10355538031242829 -0.0098091968982004854 0 -0.094802713500361319 -0.01377456584920111 0 -0.1103184787184923 -0.002983229773278688 0 -0.1122086689428039 -0.027701220363369701 0 -0.10355538031242829 -0.0098091968982004854 0 -0.094802713500361319 -0.01377456584920111 0 -0.099898419841897623 -0.00092325477833528379 0 -0.090898068884156247 0.0047172067815882367 0 -0.10355538031242829 -0.0098091968982004854 0 -0.094802713500361319 -0.01377456584920111 0 -0.099898419841897623 -0.00092325477833528379 0 -0.1103184787184923 -0.002983229773278688 0 -0.10355538031242829 -0.0098091968982004854 0 -0.099898419841897623 -0.00092325477833528379 0 -0.081276921025937074 -0.02697474927771747 0 -0.082810791649288867 0.0020933113676955811 0 -0.081276921025937074 -0.02697474927771747 0 -0.071408624790867001 -0.01426442296412786 0 -0.082810791649288867 0.0020933113676955811 0 -0.094802713500361319 -0.01377456584920111 0 -0.090898068884156247 0.0047172067815882367 0 -0.082810791649288867 0.0020933113676955811 0 -0.094802713500361319 -0.01377456584920111 0 -0.081276921025937074 -0.02697474927771747 0 -0.082810791649288867 0.0020933113676955811 0 -0.094889432455603523 -0.037465902605830062 0 -0.094802713500361319 -0.01377456584920111 0 -0.081276921025937074 -0.02697474927771747 0 -0.065977816151277291 -0.027389728043037749 0 -0.071408624790867001 -0.01426442296412786 0 -0.06192442777119718 -0.01683978225425669 0 -0.081276921025937074 -0.02697474927771747 0 -0.065977816151277291 -0.027389728043037749 0 -0.071408624790867001 -0.01426442296412786 0 -0.071408624790867001 -0.01426442296412786 0 -0.066435485497779195 -0.0032196128049521229 0 -0.082810791649288867 0.0020933113676955811 0 -0.066435485497779195 -0.0032196128049521229 0 -0.082810791649288867 0.0020933113676955811 0 -0.071408624790867001 -0.01426442296412786 0 -0.066435485497779195 -0.0032196128049521229 0 -0.06192442777119718 -0.01683978225425669 0 -0.098076519722041164 -0.056636381546322757 0 -0.07974305040258492 -0.056042809923130633 0 -0.082054180276970479 -0.060853552139183281 0 -0.098076519722041164 -0.056636381546322757 0 -0.082054180276970479 -0.060853552139183281 0 -0.098396104907248594 -0.068909198853537371 0 -0.098076519722041164 -0.056636381546322757 0 -0.082054180276970479 -0.060853552139183281 0 -0.094889432455603523 -0.037465902605830062 0 -0.098076519722041164 -0.056636381546322757 0 -0.07974305040258492 -0.056042809923130633 0 -0.07974305040258492 -0.056042809923130633 0 -0.082054180276970479 -0.060853552139183281 0 -0.07974305040258492 -0.056042809923130633 0 -0.079453069391684158 -0.061538179273186083 0 -0.082054180276970479 -0.060853552139183281 0 -0.07974305040258492 -0.056042809923130633 0 -0.079453069391684158 -0.061538179273186083 0 -0.079453069391684158 -0.061538179273186083 0 -0.082054180276970479 -0.060853552139183281 0 -0.094889432455603523 -0.037465902605830062 0 -0.081276921025937074 -0.02697474927771747 0 -0.07974305040258492 -0.056042809923130633 0 -0.081276921025937074 -0.02697474927771747 0 -0.07974305040258492 -0.056042809923130633 0 -0.081276921025937074 -0.02697474927771747 0 -0.07974305040258492 -0.056042809923130633 0 -0.072860433276931105 -0.041716268983084157 0 -0.081276921025937074 -0.02697474927771747 0 -0.065977816151277291 -0.027389728043037749 0 -0.072860433276931105 -0.041716268983084157 0 -0.065977816151277291 -0.027389728043037749 0 -0.072860433276931105 -0.041716268983084157 0 -0.065977816151277291 -0.027389728043037749 0 -0.072860433276931105 -0.041716268983084157 0 -0.063999542322829728 -0.038237822873304753 0 -0.072860433276931105 -0.041716268983084157 0 -0.063999542322829728 -0.038237822873304753 0 -0.0614198867933195 -0.053052683985530903 0 -0.074563708646548335 -0.062825086745271083 0 -0.07974305040258492 -0.056042809923130633 0 -0.0614198867933195 -0.053052683985530903 0 -0.07974305040258492 -0.056042809923130633 0 -0.072860433276931105 -0.041716268983084157 0 -0.0614198867933195 -0.053052683985530903 0 -0.07974305040258492 -0.056042809923130633 0 -0.072860433276931105 -0.041716268983084157 0 -0.074563708646548335 -0.062825086745271083 0 -0.079453069391684158 -0.061538179273186083 0 -0.074563708646548335 -0.062825086745271083 0 -0.07974305040258492 -0.056042809923130633 0 -0.079453069391684158 -0.061538179273186083 0 -0.064583654294517276 -0.065451893640289208 0 -0.0614198867933195 -0.053052683985530903 0 -0.074563708646548335 -0.062825086745271083 0 -0.064583654294517276 -0.065451893640289208 0 -0.0614198867933195 -0.053052683985530903 0 -0.074563708646548335 -0.062825086745271083 0 -0.0614198867933195 -0.053052683985530903 0 -0.064583654294517276 -0.065451893640289208 0 -0.0614198867933195 -0.053052683985530903 0 -0.04519129143490927 -0.054902075759591468 0 -0.0614198867933195 -0.053052683985530903 0 -0.038850481143148971 -0.036272380317071307 0 -0.04519129143490927 -0.054902075759591468 0 -0.0614198867933195 -0.053052683985530903 0 -0.038850481143148971 -0.036272380317071307 0 -0.055740033069792812 -0.030792610481565761 0 -0.063999542322829728 -0.038237822873304753 0 -0.0614198867933195 -0.053052683985530903 0 -0.055740033069792812 -0.030792610481565761 0 -0.0614198867933195 -0.053052683985530903 0 -0.038850481143148971 -0.036272380317071307 0 -0.0614198867933195 -0.053052683985530903 0 -0.055740033069792812 -0.030792610481565761 0 -0.065977816151277291 -0.027389728043037749 0 -0.063999542322829728 -0.038237822873304753 0 -0.055740033069792812 -0.030792610481565761 0 -0.038850481143148971 -0.036272380317071307 0 -0.04519129143490927 -0.054902075759591468 0 -0.023059570611726591 -0.047295840803270817 0 -0.04519129143490927 -0.054902075759591468 0 -0.023059570611726591 -0.047295840803270817 0 -0.038042864331835027 -0.072437580051791878 0 -0.066435485497779195 -0.0032196128049521229 0 -0.050060179346269558 -0.0085325369775998625 0 -0.06192442777119718 -0.01683978225425669 0 -0.066435485497779195 -0.0032196128049521229 0 -0.050060179346269558 -0.0085325369775998625 0 -0.066435485497779195 -0.0032196128049521229 0 -0.050060179346269558 -0.0085325369775998625 0 -0.055410707191302949 0.0050441632942630089 0 -0.050060179346269558 -0.0085325369775998625 0 -0.055740033069792812 -0.030792610481565761 0 -0.044455330244708463 -0.022402458647336611 0 -0.050060179346269558 -0.0085325369775998625 0 -0.06192442777119718 -0.01683978225425669 0 -0.055740033069792812 -0.030792610481565761 0 -0.050060179346269558 -0.0085325369775998625 0 -0.055740033069792812 -0.030792610481565761 0 -0.065977816151277291 -0.027389728043037749 0 -0.06192442777119718 -0.01683978225425669 0 -0.055740033069792812 -0.030792610481565761 0 -0.038850481143148971 -0.036272380317071307 0 -0.044455330244708463 -0.022402458647336611 0 -0.033170627419622511 -0.0140123068131094 0 -0.038850481143148971 -0.036272380317071307 0 -0.055740033069792812 -0.030792610481565761 0 -0.044455330244708463 -0.022402458647336611 0 -0.050060179346269558 -0.0085325369775998625 0 -0.033170627419622511 -0.0140123068131094 0 -0.031401804829180688 0.0027902702105055579 0 -0.050060179346269558 -0.0085325369775998625 0 -0.033170627419622511 -0.0140123068131094 0 -0.050060179346269558 -0.0085325369775998625 0 -0.044455330244708463 -0.022402458647336611 0 -0.033170627419622511 -0.0140123068131094 0 -0.033170627419622511 -0.0140123068131094 0 -0.01721953082408104 -0.0031172801099605988 0 -0.01628107549297474 -0.019492076648616671 0 -0.033170627419622511 -0.0140123068131094 0 -0.01721953082408104 -0.0031172801099605988 0 -0.031401804829180688 0.0027902702105055579 0 -0.033170627419622511 -0.0140123068131094 0 -0.01628107549297474 -0.019492076648616671 0 -0.038850481143148971 -0.036272380317071307 0 -0.01628107549297474 -0.019492076648616671 0 -0.01628107549297474 -0.019492076648616671 0 -0.0080762768916106727 -0.022154101554753981 0 -0.023059570611726591 -0.047295840803270817 0 -0.038850481143148971 -0.036272380317071307 0 -0.033170627419622511 -0.0140123068131094 0 -0.01628107549297474 -0.019492076648616671 0 -0.0080762768916106727 -0.022154101554753981 0 -0.0064242675956501551 -0.039195660703315788 0 0.01090422342544064 -0.028312273988929021 0 -0.01628107549297474 -0.019492076648616671 0 -0.0080762768916106727 -0.022154101554753981 0 0.001300284477923656 -0.0064203740176691469 0 -0.01628107549297474 -0.019492076648616671 0 -0.0080762768916106727 -0.022154101554753981 0 -0.01628107549297474 -0.019492076648616671 0 0.001300284477923656 -0.0064203740176691469 0 -0.01721953082408104 -0.0031172801099605988 0 -0.01628107549297474 -0.019492076648616671 0 0.001300284477923656 -0.0064203740176691469 0 -0.0080762768916106727 -0.022154101554753981 0 0.001300284477923656 -0.0064203740176691469 0 -0.01721953082408104 -0.0031172801099605988 0 -0.0045202662753825928 0.0076875810721139838 0 0.001300284477923656 -0.0064203740176691469 0 -0.020615308642819581 -0.048774712166032567 0 -0.025766335292371819 -0.064344389228912696 0 -0.033988398442946897 -0.073504738463647495 0 -0.023059570611726591 -0.047295840803270817 0 -0.020615308642819581 -0.048774712166032567 0 -0.033988398442946897 -0.073504738463647495 0 -0.023059570611726591 -0.047295840803270817 0 -0.038042864331835027 -0.072437580051791878 0 -0.020615308642819581 -0.048774712166032567 0 -0.033988398442946897 -0.073504738463647495 0 -0.020615308642819581 -0.048774712166032567 0 -0.017559973038546561 -0.053827614431614171 0 -0.01120381140474995 -0.047416227675810031 0 -0.020615308642819581 -0.048774712166032567 0 -0.017559973038546561 -0.053827614431614171 0 -0.021829357424598541 -0.05836190718670365 0 -0.023059570611726591 -0.047295840803270817 0 -0.020615308642819581 -0.048774712166032567 0 -0.01120381140474995 -0.047416227675810031 0 -0.020615308642819581 -0.048774712166032567 0 -0.021829357424598541 -0.05836190718670365 0 -0.025766335292371819 -0.064344389228912696 0 -0.017559973038546561 -0.053827614431614171 0 -0.017576259023686019 -0.060268140454943442 0 -0.021829357424598541 -0.05836190718670365 0 -0.017559973038546561 -0.053827614431614171 0 -0.017576259023686019 -0.060268140454943442 0 -0.012730189725035861 -0.05686257490583372 0 -0.021829357424598541 -0.05836190718670365 0 -0.02289599127575433 -0.064549976025104816 0 -0.020760486141112089 -0.062628901755948249 0 -0.017576259023686019 -0.060268140454943442 0 -0.021829357424598541 -0.05836190718670365 0 -0.020760486141112089 -0.062628901755948249 0 -0.021829357424598541 -0.05836190718670365 0 -0.02289599127575433 -0.064549976025104816 0 -0.025766335292371819 -0.064344389228912696 0 -0.038850481143148971 -0.036272380317071307 0 -0.01628107549297474 -0.019492076648616671 0 -0.023059570611726591 -0.047295840803270817 0 -0.023059570611726591 -0.047295840803270817 0 -0.0064242675956501551 -0.039195660703315788 0 -0.01120381140474995 -0.047416227675810031 0 -0.0080762768916106727 -0.022154101554753981 0 -0.023059570611726591 -0.047295840803270817 0 -0.0064242675956501551 -0.039195660703315788 0 -0.0080762768916106727 -0.022154101554753981 0 -0.023059570611726591 -0.047295840803270817 0 -0.0064242675956501551 -0.039195660703315788 0 -0.00078708000148443357 -0.048538300474750183 0 -0.01120381140474995 -0.047416227675810031 0 -0.00078708000148443357 -0.048538300474750183 0 -0.01120381140474995 -0.047416227675810031 0 -0.0033324927636182362 -0.055788865741512143 0 -0.01120381140474995 -0.047416227675810031 0 -0.012730189725035861 -0.05686257490583372 0 -0.0033324927636182362 -0.055788865741512143 0 -0.017559973038546561 -0.053827614431614171 0 -0.01120381140474995 -0.047416227675810031 0 -0.012730189725035861 -0.05686257490583372 0 -0.012730189725035861 -0.05686257490583372 0 -0.0033324927636182362 -0.055788865741512143 0 -0.0078058758839707346 -0.061049144146270377 0 -0.017576259023686019 -0.060268140454943442 0 -0.012730189725035861 -0.05686257490583372 0 -0.013347004534543161 -0.064056156123228153 0 -0.012730189725035861 -0.05686257490583372 0 -0.0078058758839707346 -0.061049144146270377 0 -0.013347004534543161 -0.064056156123228153 0 -0.0033324927636182362 -0.055788865741512143 0 -0.0078058758839707346 -0.061049144146270377 0 0.00029661487375323931 -0.063456112584095156 0 -0.0072121827325475861 -0.067864757132353154 0 0.00029661487375323931 -0.063456112584095156 0 0.0061302044082681591 -0.072685309045958837 0 -0.0072121827325475861 -0.067864757132353154 0 -0.011052574766886871 -0.07954157730739933 0 0.0061302044082681591 -0.072685309045958837 0 -0.0078058758839707346 -0.061049144146270377 0 -0.0072121827325475861 -0.067864757132353154 0 0.00029661487375323931 -0.063456112584095156 0 -0.0072121827325475861 -0.067864757132353154 0 -0.01466021420622919 -0.070260712733920413 0 -0.011052574766886871 -0.07954157730739933 0 -0.0072121827325475861 -0.067864757132353154 0 -0.01466021420622919 -0.070260712733920413 0 -0.013347004534543161 -0.064056156123228153 0 -0.0078058758839707346 -0.061049144146270377 0 -0.0072121827325475861 -0.067864757132353154 0 -0.013347004534543161 -0.064056156123228153 0 -0.0090612447988093099 -0.089460404684983577 0 -0.0019803882487723222 -0.094826818401422736 0 0.0061302044082681591 -0.072685309045958837 0 -0.0090612447988093099 -0.089460404684983577 0 0.0061302044082681591 -0.072685309045958837 0 -0.011052574766886871 -0.07954157730739933 0 -0.0090612447988093099 -0.089460404684983577 0 0.0061302044082681591 -0.072685309045958837 0 -0.011052574766886871 -0.07954157730739933 0 -0.0090612447988093099 -0.089460404684983577 0 -0.018423014270024879 -0.085738122828434474 0 -0.011052574766886871 -0.07954157730739933 0 -0.018423014270024879 -0.085738122828434474 0 -0.033988398442946897 -0.073504738463647495 0 -0.02239354096133828 -0.09338749024688564 0 -0.018423014270024879 -0.085738122828434474 0 -0.026395015192515209 -0.08802261486869202 0 -0.0090612447988093099 -0.089460404684983577 0 -0.02239354096133828 -0.09338749024688564 0 -0.018423014270024879 -0.085738122828434474 0 -0.018423014270024879 -0.085738122828434474 0 -0.026395015192515209 -0.08802261486869202 0 -0.033988398442946897 -0.073504738463647495 0 -0.02239354096133828 -0.09338749024688564 0 -0.026395015192515209 -0.08802261486869202 0 -0.033835736539455492 -0.097480808528309579 0 -0.011052574766886871 -0.07954157730739933 0 -0.021702011756172281 -0.07232979849461145 0 -0.033988398442946897 -0.073504738463647495 0 -0.011052574766886871 -0.07954157730739933 0 -0.033988398442946897 -0.073504738463647495 0 -0.019640050965854201 -0.066531630997262795 0 -0.02289599127575433 -0.064549976025104816 0 -0.024546115387813951 -0.068753187259980753 0 -0.019640050965854201 -0.066531630997262795 0 -0.021702011756172281 -0.07232979849461145 0 -0.024546115387813951 -0.068753187259980753 0 -0.019640050965854201 -0.066531630997262795 0 -0.02289599127575433 -0.064549976025104816 0 -0.020760486141112089 -0.062628901755948249 0 -0.017576259023686019 -0.060268140454943442 0 -0.019640050965854201 -0.066531630997262795 0 -0.020760486141112089 -0.062628901755948249 0 -0.017576259023686019 -0.060268140454943442 0 -0.013347004534543161 -0.064056156123228153 0 -0.019640050965854201 -0.066531630997262795 0 -0.01466021420622919 -0.070260712733920413 0 -0.019640050965854201 -0.066531630997262795 0 -0.021702011756172281 -0.07232979849461145 0 -0.01466021420622919 -0.070260712733920413 0 -0.013347004534543161 -0.064056156123228153 0 -0.019640050965854201 -0.066531630997262795 0 -0.01466021420622919 -0.070260712733920413 0 -0.011052574766886871 -0.07954157730739933 0 -0.021702011756172281 -0.07232979849461145 0 -0.021702011756172281 -0.07232979849461145 0 -0.024546115387813951 -0.068753187259980753 0 -0.033988398442946897 -0.073504738463647495 0 -0.024546115387813951 -0.068753187259980753 0 -0.025766335292371819 -0.064344389228912696 0 -0.033988398442946897 -0.073504738463647495 0 -0.02289599127575433 -0.064549976025104816 0 -0.024546115387813951 -0.068753187259980753 0 -0.025766335292371819 -0.064344389228912696 0 -0.023059570611726591 -0.047295840803270817 0 -0.038042864331835027 -0.072437580051791878 0 -0.033988398442946897 -0.073504738463647495 0 -0.038042864331835027 -0.072437580051791878 0 -0.033988398442946897 -0.073504738463647495 0 -0.046560997936773423 -0.08673087884039607 0 -0.038042864331835027 -0.072437580051791878 0 -0.033988398442946897 -0.073504738463647495 0 -0.026395015192515209 -0.08802261486869202 0 -0.033988398442946897 -0.073504738463647495 0 -0.033835736539455492 -0.097480808528309579 0 -0.033988398442946897 -0.073504738463647495 0 -0.046813087806952029 -0.097220641816610137 0 -0.033835736539455492 -0.097480808528309579 0 -0.033988398442946897 -0.073504738463647495 0 -0.046560997936773423 -0.08673087884039607 0 -0.046813087806952029 -0.097220641816610137 0 -0.033988398442946897 -0.073504738463647495 0 -0.046813087806952029 -0.097220641816610137 0 -0.038042864331835027 -0.072437580051791878 0 -0.046560997936773423 -0.08673087884039607 0 -0.038042864331835027 -0.072437580051791878 0 -0.046560997936773423 -0.08673087884039607 0 -0.048549552026608711 -0.078508426994339797 0 -0.046560997936773423 -0.08673087884039607 0 -0.048549552026608711 -0.078508426994339797 0 -0.053266585911512301 -0.082141320676802493 0 -0.048549552026608711 -0.078508426994339797 0 -0.053266585911512301 -0.082141320676802493 0 -0.055215048340834891 -0.074825779827388139 0 -0.046560997936773423 -0.08673087884039607 0 -0.054188634484533912 -0.091092586883293206 0 -0.046813087806952029 -0.097220641816610137 0 -0.046560997936773423 -0.08673087884039607 0 -0.053266585911512301 -0.082141320676802493 0 -0.054188634484533912 -0.091092586883293206 0 -0.054188634484533912 -0.091092586883293206 0 -0.062285751979021448 -0.083356801233608849 0 -0.061705104080998108 -0.096742378327168588 0 -0.053266585911512301 -0.082141320676802493 0 -0.054188634484533912 -0.091092586883293206 0 -0.062285751979021448 -0.083356801233608849 0 -0.053266585911512301 -0.082141320676802493 0 -0.062285751979021448 -0.083356801233608849 0 -0.055215048340834891 -0.074825779827388139 0 -0.064583654294517276 -0.065451893640289208 0 -0.055215048340834891 -0.074825779827388139 0 -0.061891373696365597 -0.072103099773147286 0 -0.062285751979021448 -0.083356801233608849 0 -0.055215048340834891 -0.074825779827388139 0 -0.061891373696365597 -0.072103099773147286 0 -0.064583654294517276 -0.065451893640289208 0 -0.04519129143490927 -0.054902075759591468 0 -0.038042864331835027 -0.072437580051791878 0 -0.064583654294517276 -0.065451893640289208 0 -0.038042864331835027 -0.072437580051791878 0 -0.064583654294517276 -0.065451893640289208 0 -0.038042864331835027 -0.072437580051791878 0 -0.055215048340834891 -0.074825779827388139 0 -0.038042864331835027 -0.072437580051791878 0 -0.048549552026608711 -0.078508426994339797 0 -0.055215048340834891 -0.074825779827388139 0 -0.059619915887674929 -0.1212376501946269 0 -0.059653091971374819 -0.11110215055363031 0 -0.046813087806952029 -0.097220641816610137 0 -0.047631221813804893 -0.1113556993862902 0 -0.059619915887674929 -0.1212376501946269 0 -0.046813087806952029 -0.097220641816610137 0 -0.046903103685044079 -0.1204833001631011 0 -0.052743994431308221 -0.1208297766265711 0 -0.041494165450922743 -0.12527432463270199 0 -0.046903103685044079 -0.1204833001631011 0 -0.052743994431308221 -0.1208297766265711 0 -0.047631221813804893 -0.1113556993862902 0 -0.052743994431308221 -0.1208297766265711 0 -0.059619915887674929 -0.1212376501946269 0 -0.052743994431308221 -0.1208297766265711 0 -0.059619915887674929 -0.1212376501946269 0 -0.065132042871223816 -0.1163716968197253 0 -0.059619915887674929 -0.1212376501946269 0 -0.059653091971374819 -0.11110215055363031 0 -0.059619915887674929 -0.1212376501946269 0 -0.046813087806952029 -0.097220641816610137 0 -0.064518809140877778 -0.1061857597201456 0 -0.057337889584594223 -0.1036674422240549 0 -0.061705104080998108 -0.096742378327168588 0 -0.064518809140877778 -0.1061857597201456 0 -0.059653091971374819 -0.11110215055363031 0 -0.057337889584594223 -0.1036674422240549 0 -0.057337889584594223 -0.1036674422240549 0 -0.061705104080998108 -0.096742378327168588 0 -0.055011178989269563 -0.097180762312781707 0 -0.054188634484533912 -0.091092586883293206 0 -0.061705104080998108 -0.096742378327168588 0 -0.055011178989269563 -0.097180762312781707 0 -0.057337889584594223 -0.1036674422240549 0 -0.055011178989269563 -0.097180762312781707 0 -0.046813087806952029 -0.097220641816610137 0 -0.054188634484533912 -0.091092586883293206 0 -0.055011178989269563 -0.097180762312781707 0 -0.046813087806952029 -0.097220641816610137 0 -0.059653091971374819 -0.11110215055363031 0 -0.057337889584594223 -0.1036674422240549 0 -0.046813087806952029 -0.097220641816610137 0 -0.040462905441213913 -0.10425889484340529 0 -0.03849834421859747 -0.1135326384752897 0 -0.024252694005886609 -0.1062355003240084 0 -0.047631221813804893 -0.1113556993862902 0 -0.040462905441213913 -0.10425889484340529 0 -0.046813087806952029 -0.097220641816610137 0 -0.040462905441213913 -0.10425889484340529 0 -0.033835736539455492 -0.097480808528309579 0 -0.024252694005886609 -0.1062355003240084 0 -0.040462905441213913 -0.10425889484340529 0 -0.046813087806952029 -0.097220641816610137 0 -0.033835736539455492 -0.097480808528309579 0 -0.024252694005886609 -0.1062355003240084 0 -0.041494165450922743 -0.12527432463270199 0 -0.03849834421859747 -0.1135326384752897 0 -0.024252694005886609 -0.1062355003240084 0 -0.041494165450922743 -0.12527432463270199 0 -0.03849834421859747 -0.1135326384752897 0 -0.024252694005886609 -0.1062355003240084 0 -0.047631221813804893 -0.1113556993862902 0 -0.040462905441213913 -0.10425889484340529 0 -0.03849834421859747 -0.1135326384752897 0 -0.047631221813804893 -0.1113556993862902 0 -0.052743994431308221 -0.1208297766265711 0 -0.03849834421859747 -0.1135326384752897 0 -0.052743994431308221 -0.1208297766265711 0 -0.03849834421859747 -0.1135326384752897 0 -0.046903103685044079 -0.1204833001631011 0 -0.052743994431308221 -0.1208297766265711 0 -0.03849834421859747 -0.1135326384752897 0 -0.046903103685044079 -0.1204833001631011 0 -0.03849834421859747 -0.1135326384752897 0 -0.041494165450922743 -0.12527432463270199 0 -0.024982235146028309 -0.1229374312581781 0 -0.024252694005886609 -0.1062355003240084 0 -0.041494165450922743 -0.12527432463270199 0 -0.024982235146028309 -0.1229374312581781 0 -0.024252694005886609 -0.1062355003240084 0 -0.01064541398267013 -0.11436145263820489 0 -0.0090612447988093099 -0.089460404684983577 0 -0.024252694005886609 -0.1062355003240084 0 -0.0090612447988093099 -0.089460404684983577 0 -0.02239354096133828 -0.09338749024688564 0 -0.024252694005886609 -0.1062355003240084 0 -0.02239354096133828 -0.09338749024688564 0 -0.033835736539455492 -0.097480808528309579 0 -0.024252694005886609 -0.1062355003240084 0 -0.024252694005886609 -0.1062355003240084 0 -0.0019803882487723222 -0.094826818401422736 0 -0.0090612447988093099 -0.089460404684983577 0 -0.024252694005886609 -0.1062355003240084 0 -0.0019803882487723222 -0.094826818401422736 0 -0.024252694005886609 -0.1062355003240084 0 -0.008763459470000335 -0.1052242896166448 0 -0.0019803882487723222 -0.094826818401422736 0 -0.024252694005886609 -0.1062355003240084 0 -0.008763459470000335 -0.1052242896166448 0 -0.01064541398267013 -0.11436145263820489 0 -0.008763459470000335 -0.1052242896166448 0 -0.0019803882487723222 -0.094826818401422736 0 0.001824658357327627 -0.1054733871029431 0 -0.008763459470000335 -0.1052242896166448 0 -0.01064541398267013 -0.11436145263820489 0 0.001824658357327627 -0.1054733871029431 0 -0.01064541398267013 -0.11436145263820489 0 -1.1024891662820941e-05 -0.1179733914109671 0 -0.01122296251645335 -0.13073236201005109 0 -0.024982235146028309 -0.1229374312581781 0 -0.01064541398267013 -0.11436145263820489 0 -0.01122296251645335 -0.13073236201005109 0 -0.01064541398267013 -0.11436145263820489 0 -1.1024891662820941e-05 -0.1179733914109671 0 0.001824658357327627 -0.1054733871029431 0 -0.01122296251645335 -0.13073236201005109 0 -0.0094617969145815786 -0.1507676640924068 0 0.0084465345920672896 -0.12804710113955539 0 -1.1024891662820941e-05 -0.1179733914109671 0 -0.01122296251645335 -0.13073236201005109 0 0.0084465345920672896 -0.12804710113955539 0 -0.024982235146028309 -0.1229374312581781 0 -0.01122296251645335 -0.13073236201005109 0 -0.031721866833847673 -0.14364697089723441 0 -0.01122296251645335 -0.13073236201005109 0 -0.031721866833847673 -0.14364697089723441 0 -0.019633437305273751 -0.14763916488333789 0 -0.023086809920030659 -0.1613899403835391 0 -0.031721866833847673 -0.14364697089723441 0 -0.01122296251645335 -0.13073236201005109 0 -0.019633437305273751 -0.14763916488333789 0 -0.031721866833847673 -0.14364697089723441 0 -0.019633437305273751 -0.14763916488333789 0 -0.0094617969145815786 -0.1507676640924068 0 -0.023086809920030659 -0.1613899403835391 0 -0.0094617969145815786 -0.1507676640924068 0 -0.0049237239026245858 -0.15418735608634859 0 0.0084465345920672896 -0.12804710113955539 0 -0.0094617969145815786 -0.1507676640924068 0 -0.0049237239026245858 -0.15418735608634859 0 -0.023086809920030659 -0.1613899403835391 0 -0.01122296251645335 -0.13073236201005109 0 -0.019633437305273751 -0.14763916488333789 0 -0.0094617969145815786 -0.1507676640924068 0 -0.0094617969145815786 -0.1507676640924068 0 -0.0049237239026245858 -0.15418735608634859 0 -0.0049237239026245858 -0.15418735608634859 0 -0.017776816662633439 -0.17931649788527401 0 -0.0049237239026245858 -0.15418735608634859 0 -0.017776816662633439 -0.17931649788527401 0 -0.023086809920030659 -0.1613899403835391 0 -0.0049237239026245858 -0.15418735608634859 0 -0.0003562882565626862 -0.1747178663493702 0 -0.017776816662633439 -0.17931649788527401 0 -0.0003562882565626862 -0.1747178663493702 0 -0.017776816662633439 -0.17931649788527401 0 -0.0034610342632233932 -0.19838100306331299 0 -0.017776816662633439 -0.17931649788527401 0 -0.023086809920030659 -0.1613899403835391 0 -0.034747685849417127 -0.18171400192545559 0 -0.042374487418790248 -0.16882329498574761 0 -0.052220771151241942 -0.1565615797844177 0 -0.031721866833847673 -0.14364697089723441 0 -0.023086809920030659 -0.1613899403835391 0 -0.042374487418790248 -0.16882329498574761 0 -0.031721866833847673 -0.14364697089723441 0 -0.023086809920030659 -0.1613899403835391 0 -0.042374487418790248 -0.16882329498574761 0 -0.034747685849417127 -0.18171400192545559 0 -0.034747685849417127 -0.18171400192545559 0 -0.052311483039327852 -0.18174796089171791 0 -0.04472251194855275 -0.1940947736310413 0 -0.042374487418790248 -0.16882329498574761 0 -0.034747685849417127 -0.18171400192545559 0 -0.052311483039327852 -0.18174796089171791 0 -0.042374487418790248 -0.16882329498574761 0 -0.052311483039327852 -0.18174796089171791 0 -0.057051729238527998 -0.17057520873247439 0 -0.052311483039327852 -0.18174796089171791 0 -0.057051729238527998 -0.17057520873247439 0 -0.065212872872060207 -0.17700884471367431 0 -0.052311483039327852 -0.18174796089171791 0 -0.066356875270059554 -0.1872171783275039 0 -0.065212872872060207 -0.17700884471367431 0 -0.052220771151241942 -0.1565615797844177 0 -0.072719675468636155 -0.16947618867160091 0 -0.052220771151241942 -0.1565615797844177 0 -0.057051729238527998 -0.17057520873247439 0 -0.072719675468636155 -0.16947618867160091 0 -0.042374487418790248 -0.16882329498574761 0 -0.052220771151241942 -0.1565615797844177 0 -0.057051729238527998 -0.17057520873247439 0 -0.052220771151241942 -0.1565615797844177 0 -0.058735636895958773 -0.14431314894139591 0 -0.031721866833847673 -0.14364697089723441 0 -0.052220771151241942 -0.1565615797844177 0 -0.058735636895958773 -0.14431314894139591 0 -0.075977108340994817 -0.16335197325008971 0 -0.052743994431308221 -0.1208297766265711 0 -0.058735636895958773 -0.14431314894139591 0 -0.041494165450922743 -0.12527432463270199 0 -0.052743994431308221 -0.1208297766265711 0 -0.058735636895958773 -0.14431314894139591 0 -0.075764490596910233 -0.13262170878292451 0 -0.058735636895958773 -0.14431314894139591 0 -0.041494165450922743 -0.12527432463270199 0 -0.058735636895958773 -0.14431314894139591 0 -0.041494165450922743 -0.12527432463270199 0 -0.031721866833847673 -0.14364697089723441 0 -0.024982235146028309 -0.1229374312581781 0 -0.041494165450922743 -0.12527432463270199 0 -0.031721866833847673 -0.14364697089723441 0 -0.052220771151241942 -0.1565615797844177 0 -0.031721866833847673 -0.14364697089723441 0 -0.03096635535031074 -0.24089892805247801 0 -0.01457790468976509 -0.24802235646209489 0 -0.020743353299958179 -0.22581369493660949 0 -0.031734752645820631 -0.25710441704462761 0 -0.03096635535031074 -0.24089892805247801 0 -0.01457790468976509 -0.24802235646209489 0 -0.01457790468976509 -0.24802235646209489 0 0.0022737653020384711 -0.2270177109581504 0 -0.01457790468976509 -0.24802235646209489 0 0.012011206364422111 -0.25275089785599059 0 0.0022737653020384711 -0.2270177109581504 0 -0.01457790468976509 -0.24802235646209489 0 -0.020743353299958179 -0.22581369493660949 0 0.0022737653020384711 -0.2270177109581504 0 -0.020743353299958179 -0.22581369493660949 0 -0.030629909422641929 -0.20444563968419921 0 -0.0034610342632233932 -0.19838100306331299 0 -0.020743353299958179 -0.22581369493660949 0 -0.0034610342632233932 -0.19838100306331299 0 0.0022737653020384711 -0.2270177109581504 0 -0.017776816662633439 -0.17931649788527401 0 -0.034747685849417127 -0.18171400192545559 0 -0.030629909422641929 -0.20444563968419921 0 -0.017776816662633439 -0.17931649788527401 0 -0.030629909422641929 -0.20444563968419921 0 -0.017776816662633439 -0.17931649788527401 0 -0.030629909422641929 -0.20444563968419921 0 -0.0034610342632233932 -0.19838100306331299 0 -0.034747685849417127 -0.18171400192545559 0 -0.030629909422641929 -0.20444563968419921 0 -0.04472251194855275 -0.1940947736310413 0 -0.030629909422641929 -0.20444563968419921 0 -0.04472251194855275 -0.1940947736310413 0 -0.050199023391961972 -0.2076850722706691 0 -0.052311483039327852 -0.18174796089171791 0 -0.04472251194855275 -0.1940947736310413 0 -0.055724458039414851 -0.1948811933831647 0 -0.055724458039414851 -0.1948811933831647 0 -0.050199023391961972 -0.2076850722706691 0 -0.067448299862646208 -0.2031950777036769 0 -0.052311483039327852 -0.18174796089171791 0 -0.055724458039414851 -0.1948811933831647 0 -0.066356875270059554 -0.1872171783275039 0 -0.04472251194855275 -0.1940947736310413 0 -0.055724458039414851 -0.1948811933831647 0 -0.050199023391961972 -0.2076850722706691 0 -0.050199023391961972 -0.2076850722706691 0 -0.060565100051884459 -0.22056517490713271 0 -0.067448299862646208 -0.2031950777036769 0 -0.030629909422641929 -0.20444563968419921 0 -0.050199023391961972 -0.2076850722706691 0 -0.043483002182650499 -0.2295747814831246 0 -0.030629909422641929 -0.20444563968419921 0 -0.043483002182650499 -0.2295747814831246 0 -0.03096635535031074 -0.24089892805247801 0 -0.020743353299958179 -0.22581369493660949 0 -0.043483002182650499 -0.2295747814831246 0 -0.020743353299958179 -0.22581369493660949 0 -0.030629909422641929 -0.20444563968419921 0 -0.043483002182650499 -0.2295747814831246 0 -0.050199023391961972 -0.2076850722706691 0 -0.043483002182650499 -0.2295747814831246 0 -0.060565100051884459 -0.22056517490713271 0 -0.043483002182650499 -0.2295747814831246 0 -0.060565100051884459 -0.22056517490713271 0 -0.055872912470210201 -0.23451799817569641 0 -0.067910438466956005 -0.26244055342116801 0 -0.044292763933359319 -0.2439793903359338 0 -0.06702448306146816 -0.24183836302669171 0 -0.043483002182650499 -0.2295747814831246 0 -0.055872912470210201 -0.23451799817569641 0 -0.044292763933359319 -0.2439793903359338 0 -0.055872912470210201 -0.23451799817569641 0 -0.044292763933359319 -0.2439793903359338 0 -0.06702448306146816 -0.24183836302669171 0 -0.031734752645820631 -0.25710441704462761 0 -0.03096635535031074 -0.24089892805247801 0 -0.044292763933359319 -0.2439793903359338 0 -0.03096635535031074 -0.24089892805247801 0 -0.043483002182650499 -0.2295747814831246 0 -0.044292763933359319 -0.2439793903359338 0 -0.085591391298974168 -0.25525670998288419 0 -0.087951612448116626 -0.2372463167873041 0 -0.06702448306146816 -0.24183836302669171 0 -0.085591391298974168 -0.25525670998288419 0 -0.087951612448116626 -0.2372463167873041 0 -0.1024958807902701 -0.24662047527455311 0 -0.087951612448116626 -0.2372463167873041 0 -0.06702448306146816 -0.24183836302669171 0 -0.074190513046430637 -0.22914715983858999 0 -0.055872912470210201 -0.23451799817569641 0 -0.06702448306146816 -0.24183836302669171 0 -0.074190513046430637 -0.22914715983858999 0 -0.060565100051884459 -0.22056517490713271 0 -0.055872912470210201 -0.23451799817569641 0 -0.074190513046430637 -0.22914715983858999 0 -0.060565100051884459 -0.22056517490713271 0 -0.074190513046430637 -0.22914715983858999 0 -0.07487986488562598 -0.21506190081176541 0 -0.087951612448116626 -0.2372463167873041 0 -0.074190513046430637 -0.22914715983858999 0 -0.088013039436044174 -0.2210704408272976 0 -0.074190513046430637 -0.22914715983858999 0 -0.088013039436044174 -0.2210704408272976 0 -0.07487986488562598 -0.21506190081176541 0 -0.088013039436044174 -0.2210704408272976 0 -0.07487986488562598 -0.21506190081176541 0 -0.086078987801752799 -0.20149607860424121 0 -0.060565100051884459 -0.22056517490713271 0 -0.067448299862646208 -0.2031950777036769 0 -0.07487986488562598 -0.21506190081176541 0 -0.067448299862646208 -0.2031950777036769 0 -0.07487986488562598 -0.21506190081176541 0 -0.086078987801752799 -0.20149607860424121 0 -0.067448299862646208 -0.2031950777036769 0 -0.078265170384165722 -0.19177504862899869 0 -0.066356875270059554 -0.1872171783275039 0 -0.067448299862646208 -0.2031950777036769 0 -0.086078987801752799 -0.20149607860424121 0 -0.078265170384165722 -0.19177504862899869 0 -0.055724458039414851 -0.1948811933831647 0 -0.067448299862646208 -0.2031950777036769 0 -0.066356875270059554 -0.1872171783275039 0 -0.086078987801752799 -0.20149607860424121 0 -0.078265170384165722 -0.19177504862899869 0 -0.093218579786030598 -0.18239079755878379 0 -0.1146262760481609 -0.19587795863433641 0 -0.093218579786030598 -0.18239079755878379 0 -0.11136432914010221 -0.20242816704914809 0 -0.093218579786030598 -0.18239079755878379 0 -0.11136432914010221 -0.20242816704914809 0 -0.1146262760481609 -0.19587795863433641 0 -0.093218579786030598 -0.18239079755878379 0 -0.086078987801752799 -0.20149607860424121 0 -0.11136432914010221 -0.20242816704914809 0 -0.093218579786030598 -0.18239079755878379 0 -0.11136432914010221 -0.20242816704914809 0 -0.1146262760481609 -0.19587795863433641 0 -0.13603397231029141 -0.20936511970988869 0 -0.1146262760481609 -0.19587795863433641 0 -0.10927822534484311 -0.1807036897331534 0 -0.1207920240460465 -0.1865978803816474 0 -0.1146262760481609 -0.19587795863433641 0 -0.1207920240460465 -0.1865978803816474 0 -0.12688147277931869 -0.19591272946601529 0 -0.11136432914010221 -0.20242816704914809 0 -0.12951007849417359 -0.2224655365395129 0 -0.11136432914010221 -0.20242816704914809 0 -0.1082554853557897 -0.22733847806125509 0 -0.12951007849417359 -0.2224655365395129 0 -0.088013039436044174 -0.2210704408272976 0 -0.11136432914010221 -0.20242816704914809 0 -0.1082554853557897 -0.22733847806125509 0 -0.088013039436044174 -0.2210704408272976 0 -0.086078987801752799 -0.20149607860424121 0 -0.11136432914010221 -0.20242816704914809 0 -0.087951612448116626 -0.2372463167873041 0 -0.088013039436044174 -0.2210704408272976 0 -0.1082554853557897 -0.22733847806125509 0 -0.1082554853557897 -0.22733847806125509 0 -0.1165264082877072 -0.24280735305789661 0 -0.12951007849417359 -0.2224655365395129 0 -0.1324894623631693 -0.2500788841477915 0 -0.1177457984409102 -0.25675586286376628 0 -0.1165264082877072 -0.24280735305789661 0 -0.1177457984409102 -0.25675586286376628 0 -0.1165264082877072 -0.24280735305789661 0 -0.1024958807902701 -0.24662047527455311 0 -0.1082554853557897 -0.22733847806125509 0 -0.1165264082877072 -0.24280735305789661 0 -0.1024958807902701 -0.24662047527455311 0 -0.087951612448116626 -0.2372463167873041 0 -0.1082554853557897 -0.22733847806125509 0 -0.1024958807902701 -0.24662047527455311 0 -0.075764490596910233 -0.13262170878292451 0 -0.098784986762511989 -0.14441364093927819 0 -0.083610352425363868 -0.1442564746130868 0 -0.075764490596910233 -0.13262170878292451 0 -0.098784986762511989 -0.14441364093927819 0 -0.075764490596910233 -0.13262170878292451 0 -0.098784986762511989 -0.14441364093927819 0 -0.095090436292185734 -0.13225086889304061 0 -0.081160465231656834 -0.1225154164946881 0 -0.075764490596910233 -0.13262170878292451 0 -0.095090436292185734 -0.13225086889304061 0 -0.052743994431308221 -0.1208297766265711 0 -0.075764490596910233 -0.13262170878292451 0 -0.081160465231656834 -0.1225154164946881 0 -0.059619915887674929 -0.1212376501946269 0 -0.075764490596910233 -0.13262170878292451 0 -0.058735636895958773 -0.14431314894139591 0 -0.075764490596910233 -0.13262170878292451 0 -0.072850714464454569 -0.14557728284116289 0 -0.058735636895958773 -0.14431314894139591 0 -0.075977108340994817 -0.16335197325008971 0 -0.058735636895958773 -0.14431314894139591 0 -0.072850714464454569 -0.14557728284116289 0 -0.075977108340994817 -0.16335197325008971 0 -0.083610352425363868 -0.1442564746130868 0 -0.072850714464454569 -0.14557728284116289 0 -0.075977108340994817 -0.16335197325008971 0 -0.083610352425363868 -0.1442564746130868 0 -0.075764490596910233 -0.13262170878292451 0 -0.072850714464454569 -0.14557728284116289 0 -0.052220771151241942 -0.1565615797844177 0 -0.075977108340994817 -0.16335197325008971 0 -0.072719675468636155 -0.16947618867160091 0 -0.057051729238527998 -0.17057520873247439 0 -0.072719675468636155 -0.16947618867160091 0 -0.065212872872060207 -0.17700884471367431 0 -0.066356875270059554 -0.1872171783275039 0 -0.065212872872060207 -0.17700884471367431 0 -0.075154634756190511 -0.18157361158011229 0 -0.072719675468636155 -0.16947618867160091 0 -0.065212872872060207 -0.17700884471367431 0 -0.075154634756190511 -0.18157361158011229 0 -0.078265170384165722 -0.19177504862899869 0 -0.066356875270059554 -0.1872171783275039 0 -0.075154634756190511 -0.18157361158011229 0 -0.072719675468636155 -0.16947618867160091 0 -0.075154634756190511 -0.18157361158011229 0 -0.093218579786030598 -0.18239079755878379 0 -0.072719675468636155 -0.16947618867160091 0 -0.093218579786030598 -0.18239079755878379 0 -0.075977108340994817 -0.16335197325008971 0 -0.093218579786030598 -0.18239079755878379 0 -0.078265170384165722 -0.19177504862899869 0 -0.075154634756190511 -0.18157361158011229 0 -0.093218579786030598 -0.18239079755878379 0 -0.075977108340994817 -0.16335197325008971 0 -0.093218579786030598 -0.18239079755878379 0 -0.094968611668415262 -0.16116174302992309 0 -0.075977108340994817 -0.16335197325008971 0 -0.072719675468636155 -0.16947618867160091 0 -0.093218579786030598 -0.18239079755878379 0 -0.083610352425363868 -0.1442564746130868 0 -0.075977108340994817 -0.16335197325008971 0 -0.094968611668415262 -0.16116174302992309 0 -0.094968611668415262 -0.16116174302992309 0 -0.10703718361033369 -0.16840173520861329 0 -0.1126215530599662 -0.150588468370045 0 -0.093218579786030598 -0.18239079755878379 0 -0.094968611668415262 -0.16116174302992309 0 -0.10703718361033369 -0.16840173520861329 0 -0.1146262760481609 -0.19587795863433641 0 -0.093218579786030598 -0.18239079755878379 0 -0.10927822534484311 -0.1807036897331534 0 -0.093218579786030598 -0.18239079755878379 0 -0.10703718361033369 -0.16840173520861329 0 -0.10927822534484311 -0.1807036897331534 0 -0.10703718361033369 -0.16840173520861329 0 -0.10927822534484311 -0.1807036897331534 0 -0.12158918941477879 -0.17394971554160951 0 -0.10927822534484311 -0.1807036897331534 0 -0.12158918941477879 -0.17394971554160951 0 -0.1207920240460465 -0.1865978803816474 0 -0.10703718361033369 -0.16840173520861329 0 -0.12158918941477879 -0.17394971554160951 0 -0.1126215530599662 -0.150588468370045 0 -0.1126215530599662 -0.150588468370045 0 -0.1084753086262967 -0.138165322479224 0 -0.12630263098481431 -0.1393725778309515 0 -0.083610352425363868 -0.1442564746130868 0 -0.094968611668415262 -0.16116174302992309 0 -0.1126215530599662 -0.150588468370045 0 -0.083610352425363868 -0.1442564746130868 0 -0.1126215530599662 -0.150588468370045 0 -0.098784986762511989 -0.14441364093927819 0 -0.083610352425363868 -0.1442564746130868 0 -0.1126215530599662 -0.150588468370045 0 -0.1126215530599662 -0.150588468370045 0 -0.098784986762511989 -0.14441364093927819 0 -0.1084753086262967 -0.138165322479224 0 -0.081160465231656834 -0.1225154164946881 0 -0.1095769360320055 -0.12420105636280469 0 -0.095090436292185734 -0.13225086889304061 0 -0.098784986762511989 -0.14441364093927819 0 -0.095090436292185734 -0.13225086889304061 0 -0.1084753086262967 -0.138165322479224 0 -0.1095769360320055 -0.12420105636280469 0 -0.095090436292185734 -0.13225086889304061 0 -0.1084753086262967 -0.138165322479224 0 -0.1095769360320055 -0.12420105636280469 0 -0.1084753086262967 -0.138165322479224 0 -0.12630263098481431 -0.1393725778309515 0 -0.1095769360320055 -0.12420105636280469 0 -0.13799340683235409 -0.1258866962309213 0 -0.12630263098481431 -0.1393725778309515 0 -0.1095769360320055 -0.12420105636280469 0 -0.13799340683235409 -0.1258866962309213 0 -0.13799340683235409 -0.1258866962309213 0 -0.12630263098481431 -0.1393725778309515 0 -0.14875101350336289 -0.13978050874838011 0 -0.13799340683235409 -0.1258866962309213 0 -0.14875101350336289 -0.13978050874838011 0 -0.16640987763270279 -0.1275723360990379 0 -0.13799340683235409 -0.1258866962309213 0 -0.16640987763270279 -0.1275723360990379 0 -0.14875101350336289 -0.13978050874838011 0 -0.14163275369456821 -0.15692046212700311 0 -0.15859891199749521 -0.14925734423153969 0 -0.1126215530599662 -0.150588468370045 0 -0.12630263098481431 -0.1393725778309515 0 -0.14163275369456821 -0.15692046212700311 0 -0.1126215530599662 -0.150588468370045 0 -0.14163275369456821 -0.15692046212700311 0 -0.12630263098481431 -0.1393725778309515 0 -0.14875101350336289 -0.13978050874838011 0 -0.14163275369456821 -0.15692046212700311 0 -0.12158918941477879 -0.17394971554160951 0 -0.14527571591422181 -0.17423339906322899 0 -0.14163275369456821 -0.15692046212700311 0 -0.12158918941477879 -0.17394971554160951 0 -0.1126215530599662 -0.150588468370045 0 -0.14163275369456821 -0.15692046212700311 0 -0.12158918941477879 -0.17394971554160951 0 -0.14527571591422181 -0.17423339906322899 0 -0.12158918941477879 -0.17394971554160951 0 -0.14527571591422181 -0.17423339906322899 0 -0.1326850206417198 -0.18794571586636591 0 -0.12158918941477879 -0.17394971554160951 0 -0.1207920240460465 -0.1865978803816474 0 -0.1326850206417198 -0.18794571586636591 0 -0.14527571591422181 -0.17423339906322899 0 -0.15675086316305831 -0.18603211862003269 0 -0.14732717882940721 -0.19684051359115909 0 -0.14527571591422181 -0.17423339906322899 0 -0.1326850206417198 -0.18794571586636591 0 -0.14732717882940721 -0.19684051359115909 0 -0.14163275369456821 -0.15692046212700311 0 -0.17064395432917029 -0.16325245588396131 0 -0.14527571591422181 -0.17423339906322899 0 -0.14163275369456821 -0.15692046212700311 0 -0.15662866658790631 -0.1672308499147605 0 -0.14163275369456821 -0.15692046212700311 0 -0.17064395432917029 -0.16325245588396131 0 -0.15859891199749521 -0.14925734423153969 0 -0.14163275369456821 -0.15692046212700311 0 -0.15662866658790631 -0.1672308499147605 0 -0.17064395432917029 -0.16325245588396131 0 -0.17064395432917029 -0.16325245588396131 0 -0.16896224241366481 -0.1745170825848488 0 -0.15662866658790631 -0.1672308499147605 0 -0.17064395432917029 -0.16325245588396131 0 -0.16896224241366481 -0.1745170825848488 0 -0.14527571591422181 -0.17423339906322899 0 -0.15675086316305831 -0.18603211862003269 0 -0.16896224241366481 -0.1745170825848488 0 -0.14527571591422181 -0.17423339906322899 0 -0.15662866658790631 -0.1672308499147605 0 -0.16896224241366481 -0.1745170825848488 0 -0.14527571591422181 -0.17423339906322899 0 -0.16896224241366481 -0.1745170825848488 0 -0.15675086316305831 -0.18603211862003269 0 -0.16896224241366481 -0.1745170825848488 0 -0.1650462339928255 -0.20074771852890019 0 -0.16896224241366481 -0.1745170825848488 0 -0.1985935048645423 -0.17487196369763189 0 -0.16896224241366481 -0.1745170825848488 0 -0.18469791284173989 -0.18944578359353439 0 -0.1985935048645423 -0.17487196369763189 0 -0.16896224241366481 -0.1745170825848488 0 -0.17631570271229799 -0.164490373466392 0 -0.1859616939236676 -0.1633866984096668 0 -0.16896224241366481 -0.1745170825848488 0 -0.1859616939236676 -0.1633866984096668 0 -0.1985935048645423 -0.17487196369763189 0 -0.17631570271229799 -0.164490373466392 0 -0.1801804986063921 -0.15997504206485491 0 -0.17699228593865129 -0.1562214919480448 0 -0.17064395432917029 -0.16325245588396131 0 -0.17631570271229799 -0.164490373466392 0 -0.17699228593865129 -0.1562214919480448 0 -0.17064395432917029 -0.16325245588396131 0 -0.17631570271229799 -0.164490373466392 0 -0.17064395432917029 -0.16325245588396131 0 -0.16896224241366481 -0.1745170825848488 0 -0.17631570271229799 -0.164490373466392 0 -0.1859616939236676 -0.1633866984096668 0 -0.18259005829477709 -0.1556972080703746 0 -0.1897808151022787 -0.15528187629347101 0 -0.17631570271229799 -0.164490373466392 0 -0.1859616939236676 -0.1633866984096668 0 -0.1801804986063921 -0.15997504206485491 0 -0.1859616939236676 -0.1633866984096668 0 -0.1801804986063921 -0.15997504206485491 0 -0.18259005829477709 -0.1556972080703746 0 -0.1801804986063921 -0.15997504206485491 0 -0.18259005829477709 -0.1556972080703746 0 -0.17699228593865129 -0.1562214919480448 0 -0.18560355648730681 -0.1503239792367112 0 -0.18259005829477709 -0.1556972080703746 0 -0.1897808151022787 -0.15528187629347101 0 -0.17064395432917029 -0.16325245588396131 0 -0.17699228593865129 -0.1562214919480448 0 -0.1733235186333473 -0.14530390516647859 0 -0.17064395432917029 -0.16325245588396131 0 -0.1733235186333473 -0.14530390516647859 0 -0.18560355648730681 -0.1503239792367112 0 -0.17987271695610119 -0.14940393920251621 0 -0.18259005829477709 -0.1556972080703746 0 -0.17987271695610119 -0.14940393920251621 0 -0.18259005829477709 -0.1556972080703746 0 -0.17699228593865129 -0.1562214919480448 0 -0.17987271695610119 -0.14940393920251621 0 -0.17699228593865129 -0.1562214919480448 0 -0.1733235186333473 -0.14530390516647859 0 -0.17987271695610119 -0.14940393920251621 0 -0.1733235186333473 -0.14530390516647859 0 -0.1847404350896015 -0.14335601035045059 0 -0.18560355648730681 -0.1503239792367112 0 -0.17987271695610119 -0.14940393920251621 0 -0.1847404350896015 -0.14335601035045059 0 -0.18560355648730681 -0.1503239792367112 0 -0.1847404350896015 -0.14335601035045059 0 -0.19170337139201049 -0.14834245915999009 0 -0.1733235186333473 -0.14530390516647859 0 -0.1847404350896015 -0.14335601035045059 0 -0.16640987763270279 -0.1275723360990379 0 -0.16640987763270279 -0.1275723360990379 0 -0.1948263484330513 -0.12925797596715499 0 -0.1847404350896015 -0.14335601035045059 0 -0.16640987763270279 -0.1275723360990379 0 -0.1948263484330513 -0.12925797596715499 0 -0.14875101350336289 -0.13978050874838011 0 -0.16640987763270279 -0.1275723360990379 0 -0.16177083044172699 -0.14047852356135909 0 -0.1733235186333473 -0.14530390516647859 0 -0.16640987763270279 -0.1275723360990379 0 -0.16177083044172699 -0.14047852356135909 0 -0.14875101350336289 -0.13978050874838011 0 -0.16177083044172699 -0.14047852356135909 0 -0.15859891199749521 -0.14925734423153969 0 -0.17064395432917029 -0.16325245588396131 0 -0.1733235186333473 -0.14530390516647859 0 -0.15859891199749521 -0.14925734423153969 0 -0.1733235186333473 -0.14530390516647859 0 -0.16177083044172699 -0.14047852356135909 0 -0.15859891199749521 -0.14925734423153969 0 -0.14765582784824499 -0.24250290602987759 0 -0.15329560866931549 -0.2302083001494907 0 -0.16770988851516691 -0.2324854021699439 0 -0.1324894623631693 -0.2500788841477915 0 -0.14765582784824499 -0.24250290602987759 0 -0.12951007849417359 -0.2224655365395129 0 -0.1324894623631693 -0.2500788841477915 0 -0.14765582784824499 -0.24250290602987759 0 -0.1324894623631693 -0.2500788841477915 0 -0.1165264082877072 -0.24280735305789661 0 -0.12951007849417359 -0.2224655365395129 0 -0.14765582784824499 -0.24250290602987759 0 -0.12951007849417359 -0.2224655365395129 0 -0.1447002004217586 -0.22244622723247329 0 -0.14765582784824499 -0.24250290602987759 0 -0.12951007849417359 -0.2224655365395129 0 -0.14765582784824499 -0.24250290602987759 0 -0.1447002004217586 -0.22244622723247329 0 -0.15329560866931549 -0.2302083001494907 0 -0.1447002004217586 -0.22244622723247329 0 -0.15329560866931549 -0.2302083001494907 0 -0.15452650795475259 -0.21811579588492391 0 -0.15452650795475259 -0.21811579588492391 0 -0.14846027111787921 -0.21019837904080391 0 -0.1650462339928255 -0.20074771852890019 0 -0.1447002004217586 -0.22244622723247329 0 -0.15452650795475259 -0.21811579588492391 0 -0.14846027111787921 -0.21019837904080391 0 -0.14846027111787921 -0.21019837904080391 0 -0.13603397231029141 -0.20936511970988869 0 -0.14732717882940721 -0.19684051359115909 0 -0.1447002004217586 -0.22244622723247329 0 -0.14846027111787921 -0.21019837904080391 0 -0.13603397231029141 -0.20936511970988869 0 -0.11136432914010221 -0.20242816704914809 0 -0.12951007849417359 -0.2224655365395129 0 -0.13603397231029141 -0.20936511970988869 0 -0.12951007849417359 -0.2224655365395129 0 -0.1447002004217586 -0.22244622723247329 0 -0.13603397231029141 -0.20936511970988869 0 -0.1146262760481609 -0.19587795863433641 0 -0.13603397231029141 -0.20936511970988869 0 -0.1146262760481609 -0.19587795863433641 0 -0.13603397231029141 -0.20936511970988869 0 -0.12688147277931869 -0.19591272946601529 0 -0.13603397231029141 -0.20936511970988869 0 -0.13573191114018429 -0.19751601965835719 0 -0.14732717882940721 -0.19684051359115909 0 -0.13603397231029141 -0.20936511970988869 0 -0.13573191114018429 -0.19751601965835719 0 -0.12688147277931869 -0.19591272946601529 0 -0.13573191114018429 -0.19751601965835719 0 -0.12688147277931869 -0.19591272946601529 0 -0.1326850206417198 -0.18794571586636591 0 -0.1207920240460465 -0.1865978803816474 0 -0.12688147277931869 -0.19591272946601529 0 -0.1326850206417198 -0.18794571586636591 0 -0.13573191114018429 -0.19751601965835719 0 -0.1326850206417198 -0.18794571586636591 0 -0.14732717882940721 -0.19684051359115909 0 -0.14846027111787921 -0.21019837904080391 0 -0.14732717882940721 -0.19684051359115909 0 -0.1650462339928255 -0.20074771852890019 0 -0.15675086316305831 -0.18603211862003269 0 -0.14732717882940721 -0.19684051359115909 0 -0.1650462339928255 -0.20074771852890019 0 -0.16896224241366481 -0.1745170825848488 0 -0.1650462339928255 -0.20074771852890019 0 -0.16896224241366481 -0.1745170825848488 0 -0.1650462339928255 -0.20074771852890019 0 -0.18469791284173989 -0.18944578359353439 0 -0.1650462339928255 -0.20074771852890019 0 -0.18469791284173989 -0.18944578359353439 0 -0.18760163146006961 -0.20605962484002491 0 -0.1650462339928255 -0.20074771852890019 0 -0.17346517264762121 -0.21892503312393 0 -0.18760163146006961 -0.20605962484002491 0 -0.17346517264762121 -0.21892503312393 0 -0.1877639491820888 -0.2224678983100101 0 -0.18760163146006961 -0.20605962484002491 0 -0.1650462339928255 -0.20074771852890019 0 -0.16113022557198389 -0.22697835447295139 0 -0.1650462339928255 -0.20074771852890019 0 -0.16113022557198389 -0.22697835447295139 0 -0.17346517264762121 -0.21892503312393 0 -0.15452650795475259 -0.21811579588492391 0 -0.1650462339928255 -0.20074771852890019 0 -0.16113022557198389 -0.22697835447295139 0 -0.15329560866931549 -0.2302083001494907 0 -0.15452650795475259 -0.21811579588492391 0 -0.16113022557198389 -0.22697835447295139 0 -0.15329560866931549 -0.2302083001494907 0 -0.16113022557198389 -0.22697835447295139 0 -0.16770988851516691 -0.2324854021699439 0 -0.16113022557198389 -0.22697835447295139 0 -0.16770988851516691 -0.2324854021699439 0 -0.17346517264762121 -0.21892503312393 0 -0.16770988851516691 -0.2324854021699439 0 -0.1844985433038748 -0.23886606773038441 0 -0.1877639491820888 -0.2224678983100101 0 -0.16770988851516691 -0.2324854021699439 0 -0.1877639491820888 -0.2224678983100101 0 -0.16770988851516691 -0.2324854021699439 0 -0.17346517264762121 -0.21892503312393 0 -0.1877639491820888 -0.2224678983100101 0 -0.16770988851516691 -0.2324854021699439 0 -0.1844985433038748 -0.23886606773038441 0 -0.1730193112966624 -0.2484669018237306 0 -0.1844985433038748 -0.23886606773038441 0 -0.18331645795018989 -0.24873503095268279 0 -0.1918043991281945 -0.24694729105096591 0 -0.1844985433038748 -0.23886606773038441 0 -0.18331645795018989 -0.24873503095268279 0 -0.1730193112966624 -0.2484669018237306 0 -0.14765582784824499 -0.24250290602987759 0 -0.16770988851516691 -0.2324854021699439 0 -0.14765582784824499 -0.24250290602987759 0 -0.16770988851516691 -0.2324854021699439 0 -0.1730193112966624 -0.2484669018237306 0 -0.21551946357164031 -0.24078013638652551 0 -0.21224576761874739 -0.2323031720292337 0 -0.21747794487500491 -0.23395234862009889 0 -0.21551946357164031 -0.24078013638652551 0 -0.21747794487500491 -0.23395234862009889 0 -0.21551946357164031 -0.24078013638652551 0 -0.2067220462497944 -0.2417839436881313 0 -0.20318361931292819 -0.23020511104168939 0 -0.2067220462497944 -0.2417839436881313 0 -0.20118784123830541 -0.23785109465459381 0 -0.20318361931292819 -0.23020511104168939 0 -0.21551946357164031 -0.24078013638652551 0 -0.20318361931292819 -0.23020511104168939 0 -0.21551946357164031 -0.24078013638652551 0 -0.20318361931292819 -0.23020511104168939 0 -0.21224576761874739 -0.2323031720292337 0 -0.20562149223732559 -0.25003540333929097 0 -0.2067220462497944 -0.2417839436881313 0 -0.19951336731501479 -0.24511267685473101 0 -0.20562149223732559 -0.25003540333929097 0 -0.21551946357164031 -0.24078013638652551 0 -0.2067220462497944 -0.2417839436881313 0 -0.19715624570168269 -0.25665000070718008 0 -0.19951336731501479 -0.24511267685473101 0 -0.1918043991281945 -0.24694729105096591 0 -0.19951336731501479 -0.24511267685473101 0 -0.1918043991281945 -0.24694729105096591 0 -0.1946812953848551 -0.23971874101568569 0 -0.1844985433038748 -0.23886606773038441 0 -0.1946812953848551 -0.23971874101568569 0 -0.1925354633794589 -0.2332985660275898 0 -0.1844985433038748 -0.23886606773038441 0 -0.1918043991281945 -0.24694729105096591 0 -0.1946812953848551 -0.23971874101568569 0 -0.1946812953848551 -0.23971874101568569 0 -0.19871403309271091 -0.23312190981005021 0 -0.1925354633794589 -0.2332985660275898 0 -0.1946812953848551 -0.23971874101568569 0 -0.20118784123830541 -0.23785109465459381 0 -0.19871403309271091 -0.23312190981005021 0 -0.19951336731501479 -0.24511267685473101 0 -0.1946812953848551 -0.23971874101568569 0 -0.20118784123830541 -0.23785109465459381 0 -0.2067220462497944 -0.2417839436881313 0 -0.19951336731501479 -0.24511267685473101 0 -0.20118784123830541 -0.23785109465459381 0 -0.20118784123830541 -0.23785109465459381 0 -0.19871403309271091 -0.23312190981005021 0 -0.20318361931292819 -0.23020511104168939 0 -0.1877639491820888 -0.2224678983100101 0 -0.19490191130647161 -0.22612701853477449 0 -0.20781800984901039 -0.21245039445007549 0 -0.20091358932407091 -0.22825910522625789 0 -0.19871403309271091 -0.23312190981005021 0 -0.20318361931292819 -0.23020511104168939 0 -0.20091358932407091 -0.22825910522625789 0 -0.19490191130647161 -0.22612701853477449 0 -0.20781800984901039 -0.21245039445007549 0 -0.20118784123830541 -0.23785109465459381 0 -0.20318361931292819 -0.23020511104168939 0 -0.1844985433038748 -0.23886606773038441 0 -0.1925354633794589 -0.2332985660275898 0 -0.1877639491820888 -0.2224678983100101 0 -0.20091358932407091 -0.22825910522625789 0 -0.20318361931292819 -0.23020511104168939 0 -0.20091358932407091 -0.22825910522625789 0 -0.19871403309271091 -0.23312190981005021 0 -0.19490191130647161 -0.22612701853477449 0 -0.19871403309271091 -0.23312190981005021 0 -0.1925354633794589 -0.2332985660275898 0 -0.19490191130647161 -0.22612701853477449 0 -0.1925354633794589 -0.2332985660275898 0 -0.1877639491820888 -0.2224678983100101 0 -0.19490191130647161 -0.22612701853477449 0 -0.20318361931292819 -0.23020511104168939 0 -0.21280204271541611 -0.22427509206862101 0 -0.20781800984901039 -0.21245039445007549 0 -0.20091358932407091 -0.22825910522625789 0 -0.20318361931292819 -0.23020511104168939 0 -0.20781800984901039 -0.21245039445007549 0 -0.20318361931292819 -0.23020511104168939 0 -0.20781800984901039 -0.21245039445007549 0 -0.21280204271541611 -0.22427509206862101 0 -0.20781800984901039 -0.21245039445007549 0 -0.2239427658221087 -0.22436833622587399 0 -0.20318361931292819 -0.23020511104168939 0 -0.21224576761874739 -0.2323031720292337 0 -0.21280204271541611 -0.22427509206862101 0 -0.21224576761874739 -0.2323031720292337 0 -0.21747794487500491 -0.23395234862009889 0 -0.21280204271541611 -0.22427509206862101 0 -0.21747794487500491 -0.23395234862009889 0 -0.21280204271541611 -0.22427509206862101 0 -0.2239427658221087 -0.22436833622587399 0 -0.20781800984901039 -0.21245039445007549 0 -0.18760163146006961 -0.20605962484002491 0 -0.1993987041737775 -0.19332292522355929 0 -0.1877639491820888 -0.2224678983100101 0 -0.20781800984901039 -0.21245039445007549 0 -0.18760163146006961 -0.20605962484002491 0 -0.1877639491820888 -0.2224678983100101 0 -0.20781800984901039 -0.21245039445007549 0 -0.18469791284173989 -0.18944578359353439 0 -0.18760163146006961 -0.20605962484002491 0 -0.1993987041737775 -0.19332292522355929 0 -0.20781800984901039 -0.21245039445007549 0 -0.21519087598962761 -0.1842043612823045 0 -0.20781800984901039 -0.21245039445007549 0 -0.1993987041737775 -0.19332292522355929 0 -0.21519087598962761 -0.1842043612823045 0 -0.20781800984901039 -0.21245039445007549 0 -0.23462583113721311 -0.19905921858344211 0 -0.21519087598962761 -0.1842043612823045 0 -0.23462583113721311 -0.19905921858344211 0 -0.25497145227442608 -0.2101784452455481 0 -0.25794011146818069 -0.1874131536250189 0 -0.23462583113721311 -0.19905921858344211 0 -0.25794011146818069 -0.1874131536250189 0 -0.23462583113721311 -0.19905921858344211 0 -0.23941670749013111 -0.22374371908234611 0 -0.23462583113721311 -0.19905921858344211 0 -0.23941670749013111 -0.22374371908234611 0 -0.25497145227442608 -0.2101784452455481 0 -0.20781800984901039 -0.21245039445007549 0 -0.23462583113721311 -0.19905921858344211 0 -0.20781800984901039 -0.21245039445007549 0 -0.23462583113721311 -0.19905921858344211 0 -0.2239427658221087 -0.22436833622587399 0 -0.23462583113721311 -0.19905921858344211 0 -0.2239427658221087 -0.22436833622587399 0 -0.23941670749013111 -0.22374371908234611 0 -0.21747794487500491 -0.23395234862009889 0 -0.2239427658221087 -0.22436833622587399 0 -0.2243739799584038 -0.23840964432676851 0 -0.2239427658221087 -0.22436833622587399 0 -0.23941670749013111 -0.22374371908234611 0 -0.23286384591083581 -0.23798268407624501 0 -0.2239427658221087 -0.22436833622587399 0 -0.23286384591083581 -0.23798268407624501 0 -0.2243739799584038 -0.23840964432676851 0 -0.23941670749013111 -0.22374371908234611 0 -0.24420758384304819 -0.24842821958125019 0 -0.25561367355809922 -0.2342256554916041 0 -0.23941670749013111 -0.22374371908234611 0 -0.24420758384304819 -0.24842821958125019 0 -0.23206587961242939 -0.25496471632509909 0 -0.24420758384304819 -0.24842821958125019 0 -0.23286384591083581 -0.23798268407624501 0 -0.23941670749013111 -0.22374371908234611 0 -0.24420758384304819 -0.24842821958125019 0 -0.23286384591083581 -0.23798268407624501 0 -0.23206587961242939 -0.25496471632509909 0 -0.21551946357164031 -0.24078013638652551 0 -0.23206587961242939 -0.25496471632509909 0 -0.21551946357164031 -0.24078013638652551 0 -0.2243739799584038 -0.23840964432676851 0 -0.23206587961242939 -0.25496471632509909 0 -0.23286384591083581 -0.23798268407624501 0 -0.2243739799584038 -0.23840964432676851 0 -0.21551946357164031 -0.24078013638652551 0 -0.21747794487500491 -0.23395234862009889 0 -0.2243739799584038 -0.23840964432676851 0 -0.20964998333284901 -0.1422715119267261 0 -0.20784729260948659 -0.15339929895560739 0 -0.19511111665664971 -0.147189693292303 0 -0.20784729260948659 -0.15339929895560739 0 -0.21645344051944099 -0.1481920070018542 0 -0.22256374213024521 -0.15595832811453361 0 -0.20964998333284901 -0.1422715119267261 0 -0.20784729260948659 -0.15339929895560739 0 -0.21645344051944099 -0.1481920070018542 0 -0.20964998333284901 -0.1422715119267261 0 -0.21645344051944099 -0.1481920070018542 0 -0.22337558648345279 -0.1410934834420052 0 -0.20964998333284901 -0.1422715119267261 0 -0.2241888500090482 -0.13735333056114879 0 -0.21118851686650869 -0.13613286805390351 0 -0.21383814742472021 -0.13038573903703349 0 -0.2241888500090482 -0.13735333056114879 0 -0.20964998333284901 -0.1422715119267261 0 -0.21118851686650869 -0.13613286805390351 0 -0.2241888500090482 -0.13735333056114879 0 -0.21118851686650869 -0.13613286805390351 0 -0.20923690616099419 -0.13011279748241689 0 -0.19496247500007419 -0.13782980006140741 0 -0.20964998333284901 -0.1422715119267261 0 -0.21118851686650869 -0.13613286805390351 0 -0.19496247500007419 -0.13782980006140741 0 -0.21383814742472021 -0.13038573903703349 0 -0.20923690616099419 -0.13011279748241689 0 -0.21118851686650869 -0.13613286805390351 0 -0.21383814742472021 -0.13038573903703349 0 -0.20923690616099419 -0.13011279748241689 0 -0.21383814742472021 -0.13038573903703349 0 -0.21156386606290931 -0.12885480300530661 0 -0.20923690616099419 -0.13011279748241689 0 -0.21383814742472021 -0.13038573903703349 0 -0.21156386606290931 -0.12885480300530661 0 -0.21156386606290931 -0.12885480300530661 0 -0.20923690616099419 -0.13011279748241689 0 -0.19698894271951911 -0.11904367071504 0 -0.21156386606290931 -0.12885480300530661 0 -0.20923690616099419 -0.13011279748241689 0 -0.20923690616099419 -0.13011279748241689 0 -0.19496247500007419 -0.13782980006140741 0 -0.20923690616099419 -0.13011279748241689 0 -0.1948263484330513 -0.12925797596715499 0 -0.20923690616099419 -0.13011279748241689 0 -0.1948263484330513 -0.12925797596715499 0 -0.19698894271951911 -0.11904367071504 0 -0.20923690616099419 -0.13011279748241689 0 -0.1948263484330513 -0.12925797596715499 0 -0.19496247500007419 -0.13782980006140741 0 -0.1847404350896015 -0.14335601035045059 0 -0.19496247500007419 -0.13782980006140741 0 -0.1847404350896015 -0.14335601035045059 0 -0.1948263484330513 -0.12925797596715499 0 -0.19496247500007419 -0.13782980006140741 0 -0.1948263484330513 -0.12925797596715499 0 -0.19496247500007419 -0.13782980006140741 0 -0.1847404350896015 -0.14335601035045059 0 -0.19496247500007419 -0.13782980006140741 0 -0.19170337139201049 -0.14834245915999009 0 -0.19496247500007419 -0.13782980006140741 0 -0.19170337139201049 -0.14834245915999009 0 -0.19511111665664971 -0.147189693292303 0 -0.19496247500007419 -0.13782980006140741 0 -0.19511111665664971 -0.147189693292303 0 -0.19170337139201049 -0.14834245915999009 0 -0.19511111665664971 -0.147189693292303 0 -0.20964998333284901 -0.1422715119267261 0 -0.19511111665664971 -0.147189693292303 0 -0.20964998333284901 -0.1422715119267261 0 -0.19496247500007419 -0.13782980006140741 0 -0.19511111665664971 -0.147189693292303 0 -0.20784729260948659 -0.15339929895560739 0 -0.19511111665664971 -0.147189693292303 0 -0.19532772165979809 -0.16082920558920941 0 -0.19511111665664971 -0.147189693292303 0 -0.19532772165979809 -0.16082920558920941 0 -0.19511111665664971 -0.147189693292303 0 -0.1897808151022787 -0.15528187629347101 0 -0.19532772165979809 -0.16082920558920941 0 -0.19170337139201049 -0.14834245915999009 0 -0.19511111665664971 -0.147189693292303 0 -0.1897808151022787 -0.15528187629347101 0 -0.18560355648730681 -0.1503239792367112 0 -0.19170337139201049 -0.14834245915999009 0 -0.1897808151022787 -0.15528187629347101 0 -0.1859616939236676 -0.1633866984096668 0 -0.1897808151022787 -0.15528187629347101 0 -0.19532772165979809 -0.16082920558920941 0 -0.1859616939236676 -0.1633866984096668 0 -0.19532772165979809 -0.16082920558920941 0 -0.1985935048645423 -0.17487196369763189 0 -0.19532772165979809 -0.16082920558920941 0 -0.1985935048645423 -0.17487196369763189 0 -0.20735869991998629 -0.16594322344220999 0 -0.18469791284173989 -0.18944578359353439 0 -0.1993987041737775 -0.19332292522355929 0 -0.1985935048645423 -0.17487196369763189 0 -0.1985935048645423 -0.17487196369763189 0 -0.21519087598962761 -0.1842043612823045 0 -0.20735869991998629 -0.16594322344220999 0 -0.1993987041737775 -0.19332292522355929 0 -0.1985935048645423 -0.17487196369763189 0 -0.21519087598962761 -0.1842043612823045 0 -0.21519087598962761 -0.1842043612823045 0 -0.20735869991998629 -0.16594322344220999 0 -0.22256374213024521 -0.15595832811453361 0 -0.20784729260948659 -0.15339929895560739 0 -0.19532772165979809 -0.16082920558920941 0 -0.20735869991998629 -0.16594322344220999 0 -0.20784729260948659 -0.15339929895560739 0 -0.20735869991998629 -0.16594322344220999 0 -0.22256374213024521 -0.15595832811453361 0 -0.21519087598962761 -0.1842043612823045 0 -0.22900070881033341 -0.17007635101272359 0 -0.22256374213024521 -0.15595832811453361 0 -0.21519087598962761 -0.1842043612823045 0 -0.22256374213024521 -0.15595832811453361 0 -0.23462583113721311 -0.19905921858344211 0 -0.21519087598962761 -0.1842043612823045 0 -0.22900070881033341 -0.17007635101272359 0 -0.23462583113721311 -0.19905921858344211 0 -0.22900070881033341 -0.17007635101272359 0 -0.23462583113721311 -0.19905921858344211 0 -0.22900070881033341 -0.17007635101272359 0 -0.24697969284727 -0.17288689331231 0 -0.23462583113721311 -0.19905921858344211 0 -0.24697969284727 -0.17288689331231 0 -0.25794011146818069 -0.1874131536250189 0 -0.22900070881033341 -0.17007635101272359 0 -0.24697969284727 -0.17288689331231 0 -0.2432106972724157 -0.1501579165962969 0 -0.2432106972724157 -0.1501579165962969 0 -0.22337558648345279 -0.1410934834420052 0 -0.2241888500090482 -0.13735333056114879 0 -0.22900070881033341 -0.17007635101272359 0 -0.22337558648345279 -0.1410934834420052 0 -0.22256374213024521 -0.15595832811453361 0 -0.22900070881033341 -0.17007635101272359 0 -0.22337558648345279 -0.1410934834420052 0 -0.2432106972724157 -0.1501579165962969 0 -0.2241888500090482 -0.13735333056114879 0 -0.22900070881033341 -0.17007635101272359 0 -0.2432106972724157 -0.1501579165962969 0 -0.22337558648345279 -0.1410934834420052 0 -0.21645344051944099 -0.1481920070018542 0 -0.22337558648345279 -0.1410934834420052 0 -0.22256374213024521 -0.15595832811453361 0 -0.21383814742472021 -0.13038573903703349 0 -0.23496242967267331 -0.13163881274181269 0 -0.23415543765642671 -0.116641411502323 0 -0.21383814742472021 -0.13038573903703349 0 -0.23496242967267331 -0.13163881274181269 0 -0.21383814742472021 -0.13038573903703349 0 -0.2241888500090482 -0.13735333056114879 0 -0.23496242967267331 -0.13163881274181269 0 -0.21383814742472021 -0.13038573903703349 0 -0.21156386606290931 -0.12885480300530661 0 -0.23415543765642671 -0.116641411502323 0 -0.2241888500090482 -0.13735333056114879 0 -0.24414510373304521 -0.13060256536204701 0 -0.21383814742472021 -0.13038573903703349 0 -0.2241888500090482 -0.13735333056114879 0 -0.20964998333284901 -0.1422715119267261 0 -0.22337558648345279 -0.1410934834420052 0 -0.2241888500090482 -0.13735333056114879 0 -0.2432106972724157 -0.1501579165962969 0 -0.24414510373304521 -0.13060256536204701 0 -0.25831117895737959 -0.13960737339820159 0 -0.2241888500090482 -0.13735333056114879 0 -0.23496242967267331 -0.13163881274181269 0 -0.24414510373304521 -0.13060256536204701 0 -0.23496242967267331 -0.13163881274181269 0 -0.24414510373304521 -0.13060256536204701 0 -0.24163917940672999 -0.1228049181518641 0 -0.2432106972724157 -0.1501579165962969 0 -0.2241888500090482 -0.13735333056114879 0 -0.24414510373304521 -0.13060256536204701 0 -0.23415543765642671 -0.116641411502323 0 -0.25091414607788359 -0.1177406574638967 0 -0.25674700924994409 -0.1044280199993394 0 -0.24414510373304521 -0.13060256536204701 0 -0.24163917940672999 -0.1228049181518641 0 -0.25091414607788359 -0.1177406574638967 0 -0.24163917940672999 -0.1228049181518641 0 -0.23415543765642671 -0.116641411502323 0 -0.25091414607788359 -0.1177406574638967 0 -0.23415543765642671 -0.116641411502323 0 -0.25674700924994409 -0.1044280199993394 0 -0.23496242967267331 -0.13163881274181269 0 -0.24163917940672999 -0.1228049181518641 0 -0.23415543765642671 -0.116641411502323 0 -0.24813890095642441 -0.094900992904842857 0 -0.24088238805934489 -0.10286992299486911 0 -0.25674700924994409 -0.1044280199993394 0 -0.24088238805934489 -0.10286992299486911 0 -0.23415543765642671 -0.116641411502323 0 -0.25674700924994409 -0.1044280199993394 0 -0.24088238805934489 -0.10286992299486911 0 -0.22896701010309589 -0.1033421962793787 0 -0.23605103183215431 -0.092591566606571057 0 -0.24813890095642441 -0.094900992904842857 0 -0.24088238805934489 -0.10286992299486911 0 -0.23605103183215431 -0.092591566606571057 0 -0.24088238805934489 -0.10286992299486911 0 -0.22896701010309589 -0.1033421962793787 0 -0.23415543765642671 -0.116641411502323 0 -0.22896701010309589 -0.1033421962793787 0 -0.22244276175535119 -0.091722076431601379 0 -0.2158516247040366 -0.1092681522656497 0 -0.22896701010309589 -0.1033421962793787 0 -0.23605103183215431 -0.092591566606571057 0 -0.22244276175535119 -0.091722076431601379 0 -0.21156386606290931 -0.12885480300530661 0 -0.23415543765642671 -0.116641411502323 0 -0.21156386606290931 -0.12885480300530661 0 -0.23415543765642671 -0.116641411502323 0 -0.2158516247040366 -0.1092681522656497 0 -0.22896701010309589 -0.1033421962793787 0 -0.23415543765642671 -0.116641411502323 0 -0.2158516247040366 -0.1092681522656497 0 -0.23142667576485931 -0.076620995107883894 0 -0.2323315243755236 -0.059052365072440292 0 -0.25022041194564271 -0.065724720361071992 0 -0.2455166695662627 -0.081063769452341394 0 -0.23142667576485931 -0.076620995107883894 0 -0.25022041194564271 -0.065724720361071992 0 -0.2455166695662627 -0.081063769452341394 0 -0.23605103183215431 -0.092591566606571057 0 -0.23142667576485931 -0.076620995107883894 0 -0.24813890095642441 -0.094900992904842857 0 -0.2455166695662627 -0.081063769452341394 0 -0.23605103183215431 -0.092591566606571057 0 -0.22244276175535119 -0.091722076431601379 0 -0.23142667576485931 -0.076620995107883894 0 -0.21538632356412299 -0.073079595645186554 0 -0.23605103183215431 -0.092591566606571057 0 -0.22244276175535119 -0.091722076431601379 0 -0.23142667576485931 -0.076620995107883894 0 -0.23142667576485931 -0.076620995107883894 0 -0.21538632356412299 -0.073079595645186554 0 -0.2323315243755236 -0.059052365072440292 0 -0.21538632356412299 -0.073079595645186554 0 -0.1940565221370425 -0.080782386399893255 0 -0.2069739045638378 -0.095429952684938257 0 -0.22244276175535119 -0.091722076431601379 0 -0.21538632356412299 -0.073079595645186554 0 -0.2069739045638378 -0.095429952684938257 0 -0.1940565221370425 -0.080782386399893255 0 -0.19444143528504321 -0.1050201811835242 0 -0.1940565221370425 -0.080782386399893255 0 -0.2069739045638378 -0.095429952684938257 0 -0.19444143528504321 -0.1050201811835242 0 -0.1940565221370425 -0.080782386399893255 0 -0.19444143528504321 -0.1050201811835242 0 -0.18113317195024181 -0.092871379585857144 0 -0.21538632356412299 -0.073079595645186554 0 -0.1940565221370425 -0.080782386399893255 0 -0.19367160898904401 -0.056544591616262303 0 -0.1940565221370425 -0.080782386399893255 0 -0.19367160898904401 -0.056544591616262303 0 -0.21156386606290931 -0.12885480300530661 0 -0.20706812162389279 -0.1172993260890758 0 -0.2158516247040366 -0.1092681522656497 0 -0.20706812162389279 -0.1172993260890758 0 -0.2158516247040366 -0.1092681522656497 0 -0.20426480577926601 -0.10921225658764561 0 -0.21156386606290931 -0.12885480300530661 0 -0.19698894271951911 -0.11904367071504 0 -0.21156386606290931 -0.12885480300530661 0 -0.20706812162389279 -0.1172993260890758 0 -0.19698894271951911 -0.11904367071504 0 -0.22244276175535119 -0.091722076431601379 0 -0.2158516247040366 -0.1092681522656497 0 -0.2069739045638378 -0.095429952684938257 0 -0.2158516247040366 -0.1092681522656497 0 -0.2069739045638378 -0.095429952684938257 0 -0.20426480577926601 -0.10921225658764561 0 -0.2069739045638378 -0.095429952684938257 0 -0.20426480577926601 -0.10921225658764561 0 -0.19444143528504321 -0.1050201811835242 0 -0.1948263484330513 -0.12925797596715499 0 -0.19444143528504321 -0.1050201811835242 0 -0.1948263484330513 -0.12925797596715499 0 -0.19444143528504321 -0.1050201811835242 0 -0.19698894271951911 -0.11904367071504 0 -0.1948263484330513 -0.12925797596715499 0 -0.19444143528504321 -0.1050201811835242 0 -0.18071368568866719 -0.1137880351325696 0 -0.20426480577926601 -0.10921225658764561 0 -0.19444143528504321 -0.1050201811835242 0 -0.19698894271951911 -0.11904367071504 0 -0.20706812162389279 -0.1172993260890758 0 -0.20426480577926601 -0.10921225658764561 0 -0.19698894271951911 -0.11904367071504 0 -0.16640987763270279 -0.1275723360990379 0 -0.1948263484330513 -0.12925797596715499 0 -0.18071368568866719 -0.1137880351325696 0 -0.16640987763270279 -0.1275723360990379 0 -0.16349335935957701 -0.096885839684650768 0 -0.1438259122579735 -0.1039786467714318 0 -0.16640987763270279 -0.1275723360990379 0 -0.18071368568866719 -0.1137880351325696 0 -0.16349335935957701 -0.096885839684650768 0 -0.18071368568866719 -0.1137880351325696 0 -0.16349335935957701 -0.096885839684650768 0 -0.18113317195024181 -0.092871379585857144 0 -0.19444143528504321 -0.1050201811835242 0 -0.18071368568866719 -0.1137880351325696 0 -0.18113317195024181 -0.092871379585857144 0 -0.1940565221370425 -0.080782386399893255 0 -0.18113317195024181 -0.092871379585857144 0 -0.16796660482350431 -0.065882730038948706 0 -0.1940565221370425 -0.080782386399893255 0 -0.16796660482350431 -0.065882730038948706 0 -0.19367160898904401 -0.056544591616262303 0 -0.16349335935957701 -0.096885839684650768 0 -0.18113317195024181 -0.092871379585857144 0 -0.16796660482350431 -0.065882730038948706 0 -0.16349335935957701 -0.096885839684650768 0 -0.16796660482350431 -0.065882730038948706 0 -0.14226160065796431 -0.075220868461634449 0 -0.16349335935957701 -0.096885839684650768 0 -0.14226160065796431 -0.075220868461634449 0 -0.1438259122579735 -0.1039786467714318 0 -0.16796660482350431 -0.065882730038948706 0 -0.14226160065796431 -0.075220868461634449 0 -0.11532772782976949 -0.06848910891888986 0 -0.14226160065796431 -0.075220868461634449 0 -0.12929758581347681 -0.059690850942959492 0 -0.14226160065796431 -0.075220868461634449 0 -0.12999288857614619 -0.093686328831556503 0 -0.1438259122579735 -0.1039786467714318 0 -0.11655659649242391 -0.084559006884318888 0 -0.14226160065796431 -0.075220868461634449 0 -0.12999288857614619 -0.093686328831556503 0 -0.11655659649242391 -0.084559006884318888 0 -0.14226160065796431 -0.075220868461634449 0 -0.12999288857614619 -0.093686328831556503 0 -0.12577690156327029 -0.11012255766180661 0 -0.1438259122579735 -0.1039786467714318 0 -0.13799340683235409 -0.1258866962309213 0 -0.12577690156327029 -0.11012255766180661 0 -0.1438259122579735 -0.1039786467714318 0 -0.13799340683235409 -0.1258866962309213 0 -0.16640987763270279 -0.1275723360990379 0 -0.1438259122579735 -0.1039786467714318 0 -0.1508870945426419 -0.02654415828381574 0 -0.1463954756695956 -0.0058153693874122246 0 -0.13706542397739421 -0.017907811515415008 0 -0.1463954756695956 -0.0058153693874122246 0 -0.16242646614593281 -0.0071964109301604576 0 -0.15835162420705179 0.0087119178024780992 0 -0.1508870945426419 -0.02654415828381574 0 -0.1463954756695956 -0.0058153693874122246 0 -0.16242646614593281 -0.0071964109301604576 0 -0.1463954756695956 -0.0058153693874122246 0 -0.13211260120916571 -0.006208574162898362 0 -0.13690710031888381 0.01195771323067427 0 -0.1463954756695956 -0.0058153693874122246 0 -0.13211260120916571 -0.006208574162898362 0 -0.13706542397739421 -0.017907811515415008 0 -0.1225727701940631 -0.01455985372084038 0 -0.13211260120916571 -0.006208574162898362 0 -0.13706542397739421 -0.017907811515415008 0 -0.1225727701940631 -0.01455985372084038 0 -0.12955396198145891 -0.030767486083318842 0 -0.13706542397739421 -0.017907811515415008 0 -0.1508870945426419 -0.02654415828381574 0 -0.12955396198145891 -0.030767486083318842 0 -0.13706542397739421 -0.017907811515415008 0 -0.1508870945426419 -0.02654415828381574 0 -0.12955396198145891 -0.030767486083318842 0 -0.1404909550647386 -0.045472661663011858 0 -0.1140988591671116 -0.052419210953461068 0 -0.12955396198145891 -0.030767486083318842 0 -0.1404909550647386 -0.045472661663011858 0 -0.1140988591671116 -0.052419210953461068 0 -0.1404909550647386 -0.045472661663011858 0 -0.14226160065796431 -0.075220868461634449 0 -0.1404909550647386 -0.045472661663011858 0 -0.12929758581347681 -0.059690850942959492 0 -0.1140988591671116 -0.052419210953461068 0 -0.1404909550647386 -0.045472661663011858 0 -0.12929758581347681 -0.059690850942959492 0 -0.16796660482350431 -0.065882730038948706 0 -0.14226160065796431 -0.075220868461634449 0 -0.1404909550647386 -0.045472661663011858 0 -0.1404909550647386 -0.045472661663011858 0 -0.16688305096236589 -0.038526112372563329 0 -0.1508870945426419 -0.02654415828381574 0 -0.1404909550647386 -0.045472661663011858 0 -0.16688305096236589 -0.038526112372563329 0 -0.16796660482350431 -0.065882730038948706 0 -0.1404909550647386 -0.045472661663011858 0 -0.16688305096236589 -0.038526112372563329 0 -0.16796660482350431 -0.065882730038948706 0 -0.19367160898904401 -0.056544591616262303 0 -0.16796660482350431 -0.065882730038948706 0 -0.16688305096236589 -0.038526112372563329 0 -0.19367160898904401 -0.056544591616262303 0 -0.16688305096236589 -0.038526112372563329 0 -0.19327514685999381 -0.031579563082118151 0 -0.16688305096236589 -0.038526112372563329 0 -0.19367160898904401 -0.056544591616262303 0 -0.19327514685999381 -0.031579563082118151 0 -0.16688305096236589 -0.038526112372563329 0 -0.18453926791605149 -0.020121715980214869 0 -0.19327514685999381 -0.031579563082118151 0 -0.18453926791605149 -0.020121715980214869 0 -0.16810408750946909 -0.022026086553549259 0 -0.17617136535093039 -0.0081619959644970916 0 -0.16688305096236589 -0.038526112372563329 0 -0.18453926791605149 -0.020121715980214869 0 -0.16810408750946909 -0.022026086553549259 0 -0.1508870945426419 -0.02654415828381574 0 -0.16688305096236589 -0.038526112372563329 0 -0.16810408750946909 -0.022026086553549259 0 -0.1508870945426419 -0.02654415828381574 0 -0.16810408750946909 -0.022026086553549259 0 -0.16242646614593281 -0.0071964109301604576 0 -0.16810408750946909 -0.022026086553549259 0 -0.16242646614593281 -0.0071964109301604576 0 -0.17617136535093039 -0.0081619959644970916 0 -0.16242646614593281 -0.0071964109301604576 0 -0.17617136535093039 -0.0081619959644970916 0 -0.17341675758933661 0.0047366988330417251 0 -0.18453926791605149 -0.020121715980214869 0 -0.17617136535093039 -0.0081619959644970916 0 -0.1884722209359557 0.0015402469942710109 0 -0.18453926791605149 -0.020121715980214869 0 -0.1884722209359557 0.0015402469942710109 0 -0.17617136535093039 -0.0081619959644970916 0 -0.17341675758933661 0.0047366988330417251 0 -0.1884722209359557 0.0015402469942710109 0 -0.18453926791605149 -0.020121715980214869 0 -0.19284016040793381 -0.0041886765566805789 0 -0.1884722209359557 0.0015402469942710109 0 -0.19284016040793381 -0.0041886765566805789 0 -0.20084076352851871 -0.00020028152259580351 0 -0.20384982758437981 -0.01591808159437768 0 -0.19284016040793381 -0.0041886765566805789 0 -0.20384982758437981 -0.01591808159437768 0 -0.19327514685999381 -0.031579563082118151 0 -0.19284016040793381 -0.0041886765566805789 0 -0.19327514685999381 -0.031579563082118151 0 -0.18453926791605149 -0.020121715980214869 0 -0.19284016040793381 -0.0041886765566805789 0 -0.19327514685999381 -0.031579563082118151 0 -0.20384982758437981 -0.01591808159437768 0 -0.21158541641819201 -0.0082493684831916551 0 -0.2189157141546357 -0.024830820381338641 0 -0.20384982758437981 -0.01591808159437768 0 -0.19327514685999381 -0.031579563082118151 0 -0.2189157141546357 -0.024830820381338641 0 -0.19327514685999381 -0.031579563082118151 0 -0.2189157141546357 -0.024830820381338641 0 -0.20084076352851871 -0.00020028152259580351 0 -0.20384982758437981 -0.01591808159437768 0 -0.21158541641819201 -0.0082493684831916551 0 -0.21158541641819201 -0.0082493684831916551 0 -0.22346190016105291 -0.0051988592664399917 0 -0.2189157141546357 -0.024830820381338641 0 -0.21158541641819201 -0.0082493684831916551 0 -0.22346190016105291 -0.0051988592664399917 0 -0.21437324906605321 0.0021701380236543101 0 -0.20084076352851871 -0.00020028152259580351 0 -0.21158541641819201 -0.0082493684831916551 0 -0.21437324906605321 0.0021701380236543101 0 -0.19367160898904401 -0.056544591616262303 0 -0.19327514685999381 -0.031579563082118151 0 -0.19367160898904401 -0.056544591616262303 0 -0.19327514685999381 -0.031579563082118151 0 -0.2132757437763862 -0.049422782838398398 0 -0.19327514685999381 -0.031579563082118151 0 -0.2132757437763862 -0.049422782838398398 0 -0.2189157141546357 -0.024830820381338641 0 -0.19367160898904401 -0.056544591616262303 0 -0.2132757437763862 -0.049422782838398398 0 -0.21538632356412299 -0.073079595645186554 0 -0.19367160898904401 -0.056544591616262303 0 -0.2132757437763862 -0.049422782838398398 0 -0.2132757437763862 -0.049422782838398398 0 -0.2323315243755236 -0.059052365072440292 0 -0.23287987856372799 -0.042300974060533868 0 -0.21538632356412299 -0.073079595645186554 0 -0.2132757437763862 -0.049422782838398398 0 -0.2323315243755236 -0.059052365072440292 0 -0.2132757437763862 -0.049422782838398398 0 -0.23287987856372799 -0.042300974060533868 0 -0.2189157141546357 -0.024830820381338641 0 -0.2132757437763862 -0.049422782838398398 0 -0.23287987856372799 -0.042300974060533868 0 -0.23287987856372799 -0.042300974060533868 0 -0.24455628144927841 -0.018082077680562431 0 -0.25080011263840252 -0.047165122421567021 0 -0.2323315243755236 -0.059052365072440292 0 -0.23287987856372799 -0.042300974060533868 0 -0.25080011263840252 -0.047165122421567021 0 -0.2323315243755236 -0.059052365072440292 0 -0.25080011263840252 -0.047165122421567021 0 -0.25022041194564271 -0.065724720361071992 0 -0.22346190016105291 -0.0051988592664399917 0 -0.23748093572953399 -0.016059876272065361 0 -0.23785897178045259 0.005694125113922267 0 -0.22346190016105291 -0.0051988592664399917 0 -0.2189157141546357 -0.024830820381338641 0 -0.23748093572953399 -0.016059876272065361 0 -0.2189157141546357 -0.024830820381338641 0 -0.23748093572953399 -0.016059876272065361 0 -0.24455628144927841 -0.018082077680562431 0 -0.23287987856372799 -0.042300974060533868 0 -0.2189157141546357 -0.024830820381338641 0 -0.24455628144927841 -0.018082077680562431 0 -0.2189157141546357 -0.024830820381338641 0 -0.24455628144927841 -0.018082077680562431 0 -0.23748093572953399 -0.016059876272065361 0 -0.24871960323422521 -0.0040779935892079214 0 -0.23785897178045259 0.005694125113922267 0 -0.23748093572953399 -0.016059876272065361 0 -0.24455628144927841 -0.018082077680562431 0 -0.24871960323422521 -0.0040779935892079214 0 -0.23748093572953399 -0.016059876272065361 0 -0.23785897178045259 0.005694125113922267 0 -0.24455628144927841 -0.018082077680562431 0 -0.26297327802616549 -0.007284295890669118 0 -0.27019684874392103 -0.011333334979786251 0 -0.24455628144927841 -0.018082077680562431 0 -0.24871960323422521 -0.0040779935892079214 0 -0.26297327802616549 -0.007284295890669118 0 -0.24455628144927841 -0.018082077680562431 0 -0.27019684874392103 -0.011333334979786251 0 -0.24455628144927841 -0.018082077680562431 0 -0.27019684874392103 -0.011333334979786251 0 -0.26521917348562513 -0.032836742664965328 0 -0.27898997256227909 -0.0271570494551591 0 -0.27019684874392103 -0.011333334979786251 0 -0.26521917348562513 -0.032836742664965328 0 -0.27898997256227909 -0.0271570494551591 0 -0.27019684874392103 -0.011333334979786251 0 -0.28917700289266679 -0.017472494646406961 0 -0.27019684874392103 -0.011333334979786251 0 -0.29583741603856339 -0.0045845922790098536 0 -0.2740535381829538 0.002859602543604707 0 -0.26297327802616549 -0.007284295890669118 0 -0.27019684874392103 -0.011333334979786251 0 -0.2740535381829538 0.002859602543604707 0 -0.27019684874392103 -0.011333334979786251 0 -0.29583741603856339 -0.0045845922790098536 0 -0.27019684874392103 -0.011333334979786251 0 -0.29583741603856339 -0.0045845922790098536 0 -0.28917700289266679 -0.017472494646406961 0 -0.29583741603856339 -0.0045845922790098536 0 -0.29687552824972552 -0.0063559827868097107 0 -0.28917700289266679 -0.017472494646406961 0 -0.29802576414415299 -0.015879696470337521 0 -0.29687552824972552 -0.0063559827868097107 0 -0.29583741603856339 -0.0045845922790098536 0 -0.28917700289266679 -0.017472494646406961 0 -0.29687552824972552 -0.0063559827868097107 0 -0.27898997256227909 -0.0271570494551591 0 -0.28917700289266679 -0.017472494646406961 0 -0.2910496138811477 -0.032714843719744958 0 -0.28917700289266679 -0.017472494646406961 0 -0.29690117045043429 -0.02403302126358222 0 -0.2910496138811477 -0.032714843719744958 0 -0.28917700289266679 -0.017472494646406961 0 -0.29802576414415299 -0.015879696470337521 0 -0.29690117045043429 -0.02403302126358222 0 -0.29802576414415299 -0.015879696470337521 0 -0.30499456821900939 -0.021327592125566421 0 -0.30363297621194818 -0.01073279409690008 0 -0.29802576414415299 -0.015879696470337521 0 -0.29690117045043429 -0.02403302126358222 0 -0.30499456821900939 -0.021327592125566421 0 -0.30499456821900939 -0.021327592125566421 0 -0.31162403140943312 -0.0097516636075976829 0 -0.31888937154162877 -0.030649470261424949 0 -0.29690117045043429 -0.02403302126358222 0 -0.30416375372123272 -0.033817284491010777 0 -0.2910496138811477 -0.032714843719744958 0 -0.29690117045043429 -0.02403302126358222 0 -0.30499456821900939 -0.021327592125566421 0 -0.30416375372123272 -0.033817284491010777 0 -0.30499456821900939 -0.021327592125566421 0 -0.30416375372123272 -0.033817284491010777 0 -0.31888937154162877 -0.030649470261424949 0 -0.29583741603856339 -0.0045845922790098536 0 -0.31162403140943312 -0.0097516636075976829 0 -0.30363297621194818 -0.01073279409690008 0 -0.29583741603856339 -0.0045845922790098536 0 -0.31162403140943312 -0.0097516636075976829 0 -0.32108526965035911 0.002060785953649905 0 -0.30499456821900939 -0.021327592125566421 0 -0.31162403140943312 -0.0097516636075976829 0 -0.30363297621194818 -0.01073279409690008 0 -0.29583741603856339 -0.0045845922790098536 0 -0.32108526965035911 0.002060785953649905 0 -0.29583741603856339 -0.0045845922790098536 0 -0.29687552824972552 -0.0063559827868097107 0 -0.30363297621194818 -0.01073279409690008 0 -0.29802576414415299 -0.015879696470337521 0 -0.29687552824972552 -0.0063559827868097107 0 -0.30363297621194818 -0.01073279409690008 0 -0.30357264839307257 -0.059635343064400083 0 -0.31171442024782681 -0.045870758467197771 0 -0.29657781139641332 -0.046284774034828079 0 -0.30357264839307257 -0.059635343064400083 0 -0.29657781139641332 -0.046284774034828079 0 -0.29294847914264632 -0.057280364765548007 0 -0.30357264839307257 -0.059635343064400083 0 -0.31171442024782681 -0.045870758467197771 0 -0.31512033311768911 -0.058505546491203847 0 -0.31171442024782681 -0.045870758467197771 0 -0.30416375372123272 -0.033817284491010777 0 -0.31888937154162877 -0.030649470261424949 0 -0.30416375372123272 -0.033817284491010777 0 -0.29657781139641332 -0.046284774034828079 0 -0.2910496138811477 -0.032714843719744958 0 -0.31171442024782681 -0.045870758467197771 0 -0.30416375372123272 -0.033817284491010777 0 -0.29657781139641332 -0.046284774034828079 0 -0.29657781139641332 -0.046284774034828079 0 -0.2910496138811477 -0.032714843719744958 0 -0.2804290101871853 -0.040671772553380718 0 -0.27898997256227909 -0.0271570494551591 0 -0.2910496138811477 -0.032714843719744958 0 -0.2804290101871853 -0.040671772553380718 0 -0.29657781139641332 -0.046284774034828079 0 -0.28187388397831492 -0.054207746721906591 0 -0.2804290101871853 -0.040671772553380718 0 -0.29657781139641332 -0.046284774034828079 0 -0.28187388397831492 -0.054207746721906591 0 -0.29294847914264632 -0.057280364765548007 0 -0.30357264839307257 -0.059635343064400083 0 -0.29294847914264632 -0.057280364765548007 0 -0.29288639902301722 -0.068162232303269454 0 -0.28187388397831492 -0.054207746721906591 0 -0.29294847914264632 -0.057280364765548007 0 -0.28239023162487398 -0.065290061521452655 0 -0.28187388397831492 -0.054207746721906591 0 -0.27100118129896411 -0.064984149937810626 0 -0.28239023162487398 -0.065290061521452655 0 -0.28187388397831492 -0.054207746721906591 0 -0.26659062892235569 -0.050931709110117032 0 -0.2804290101871853 -0.040671772553380718 0 -0.28187388397831492 -0.054207746721906591 0 -0.26659062892235569 -0.050931709110117032 0 -0.27100118129896411 -0.064984149937810626 0 -0.26659062892235569 -0.050931709110117032 0 -0.2804290101871853 -0.040671772553380718 0 -0.26521917348562513 -0.032836742664965328 0 -0.27898997256227909 -0.0271570494551591 0 -0.2804290101871853 -0.040671772553380718 0 -0.26521917348562513 -0.032836742664965328 0 -0.26659062892235569 -0.050931709110117032 0 -0.26521917348562513 -0.032836742664965328 0 -0.25080011263840252 -0.047165122421567021 0 -0.24455628144927841 -0.018082077680562431 0 -0.26521917348562513 -0.032836742664965328 0 -0.25080011263840252 -0.047165122421567021 0 -0.26659062892235569 -0.050931709110117032 0 -0.25022041194564271 -0.065724720361071992 0 -0.27100118129896411 -0.064984149937810626 0 -0.26659062892235569 -0.050931709110117032 0 -0.25080011263840252 -0.047165122421567021 0 -0.25022041194564271 -0.065724720361071992 0 -0.25022041194564271 -0.065724720361071992 0 -0.27100118129896411 -0.064984149937810626 0 -0.26637131039333078 -0.076978184961144683 0 -0.25022041194564271 -0.065724720361071992 0 -0.25851128941906237 -0.090473948742725352 0 -0.25022041194564271 -0.065724720361071992 0 -0.25851128941906237 -0.090473948742725352 0 -0.26637131039333078 -0.076978184961144683 0 -0.2455166695662627 -0.081063769452341394 0 -0.25022041194564271 -0.065724720361071992 0 -0.25851128941906237 -0.090473948742725352 0 -0.24813890095642441 -0.094900992904842857 0 -0.2455166695662627 -0.081063769452341394 0 -0.25851128941906237 -0.090473948742725352 0 -0.2725355050853035 -0.087448284415255928 0 -0.27958816421768151 -0.076259821348859488 0 -0.26637131039333078 -0.076978184961144683 0 -0.25851128941906237 -0.090473948742725352 0 -0.2725355050853035 -0.087448284415255928 0 -0.26637131039333078 -0.076978184961144683 0 -0.25851128941906237 -0.090473948742725352 0 -0.2725355050853035 -0.087448284415255928 0 -0.27083906669322222 -0.1003738301556034 0 -0.2725355050853035 -0.087448284415255928 0 -0.27848080523323121 -0.094937004020361496 0 -0.28665726939722591 -0.089979893072667655 0 -0.2725355050853035 -0.087448284415255928 0 -0.27958816421768151 -0.076259821348859488 0 -0.28665726939722591 -0.089979893072667655 0 -0.27958816421768151 -0.076259821348859488 0 -0.27100118129896411 -0.064984149937810626 0 -0.28239023162487398 -0.065290061521452655 0 -0.27958816421768151 -0.076259821348859488 0 -0.27100118129896411 -0.064984149937810626 0 -0.26637131039333078 -0.076978184961144683 0 -0.24414510373304521 -0.13060256536204701 0 -0.26410135745704177 -0.12385180016294441 0 -0.25091414607788359 -0.1177406574638967 0 -0.26410135745704177 -0.12385180016294441 0 -0.25091414607788359 -0.1177406574638967 0 -0.259248597467306 -0.11671837436762179 0 -0.26410135745704177 -0.12385180016294441 0 -0.259248597467306 -0.11671837436762179 0 -0.2668021668924821 -0.1152231771243787 0 -0.25091414607788359 -0.1177406574638967 0 -0.259248597467306 -0.11671837436762179 0 -0.25674700924994409 -0.1044280199993394 0 -0.259248597467306 -0.11671837436762179 0 -0.25674700924994409 -0.1044280199993394 0 -0.2668021668924821 -0.1152231771243787 0 -0.25851128941906237 -0.090473948742725352 0 -0.2668021668924821 -0.1152231771243787 0 -0.25851128941906237 -0.090473948742725352 0 -0.25674700924994409 -0.1044280199993394 0 -0.2668021668924821 -0.1152231771243787 0 -0.25851128941906237 -0.090473948742725352 0 -0.27083906669322222 -0.1003738301556034 0 -0.2668021668924821 -0.1152231771243787 0 -0.24813890095642441 -0.094900992904842857 0 -0.25851128941906237 -0.090473948742725352 0 -0.25674700924994409 -0.1044280199993394 0 -0.27083906669322222 -0.1003738301556034 0 -0.27848080523323121 -0.094937004020361496 0 -0.28193621305823863 -0.1038525899201052 0 -0.2725355050853035 -0.087448284415255928 0 -0.27083906669322222 -0.1003738301556034 0 -0.27848080523323121 -0.094937004020361496 0 -0.27495205784387228 -0.1085822326372716 0 -0.2802307847315465 -0.1148793333489994 0 -0.28193621305823863 -0.1038525899201052 0 -0.27083906669322222 -0.1003738301556034 0 -0.27495205784387228 -0.1085822326372716 0 -0.28193621305823863 -0.1038525899201052 0 -0.27083906669322222 -0.1003738301556034 0 -0.27495205784387228 -0.1085822326372716 0 -0.2668021668924821 -0.1152231771243787 0 -0.27495205784387228 -0.1085822326372716 0 -0.2668021668924821 -0.1152231771243787 0 -0.2802307847315465 -0.1148793333489994 0 -0.2668021668924821 -0.1152231771243787 0 -0.2802307847315465 -0.1148793333489994 0 -0.28165613224495512 -0.1272121628220059 0 -0.28992218621857441 -0.12121090261211249 0 -0.2965623965121118 -0.11701994000450799 0 -0.29818071929502649 -0.12533829272112651 0 -0.2802307847315465 -0.1148793333489994 0 -0.28992218621857441 -0.12121090261211249 0 -0.28165613224495512 -0.1272121628220059 0 -0.2802307847315465 -0.1148793333489994 0 -0.28992218621857441 -0.12121090261211249 0 -0.2900635250041429 -0.1112255364351384 0 -0.2802307847315465 -0.1148793333489994 0 -0.2900635250041429 -0.1112255364351384 0 -0.28193621305823863 -0.1038525899201052 0 -0.28992218621857441 -0.12121090261211249 0 -0.2965623965121118 -0.11701994000450799 0 -0.2900635250041429 -0.1112255364351384 0 -0.2965623965121118 -0.11701994000450799 0 -0.2900635250041429 -0.1112255364351384 0 -0.29907377272889868 -0.1089979880691484 0 -0.29066103962009998 -0.099885876773618237 0 -0.30042219685057481 -0.097227290533347513 0 -0.29907377272889868 -0.1089979880691484 0 -0.2900635250041429 -0.1112255364351384 0 -0.29066103962009998 -0.099885876773618237 0 -0.29907377272889868 -0.1089979880691484 0 -0.2900635250041429 -0.1112255364351384 0 -0.28193621305823863 -0.1038525899201052 0 -0.29066103962009998 -0.099885876773618237 0 -0.27848080523323121 -0.094937004020361496 0 -0.29066103962009998 -0.099885876773618237 0 -0.28665726939722591 -0.089979893072667655 0 -0.27848080523323121 -0.094937004020361496 0 -0.28193621305823863 -0.1038525899201052 0 -0.29066103962009998 -0.099885876773618237 0 -0.29066103962009998 -0.099885876773618237 0 -0.30042219685057481 -0.097227290533347513 0 -0.29646357585493238 -0.088270953275525907 0 -0.30042219685057481 -0.097227290533347513 0 -0.30718228699576511 -0.10475614014504959 0 -0.31413057107246251 -0.094025728982225887 0 -0.30718228699576511 -0.10475614014504959 0 -0.29907377272889868 -0.1089979880691484 0 -0.30978202788364972 -0.1119727599886042 0 -0.30718228699576511 -0.10475614014504959 0 -0.30978202788364972 -0.1119727599886042 0 -0.31685941794142058 -0.10914206090647539 0 -0.30042219685057481 -0.097227290533347513 0 -0.30718228699576511 -0.10475614014504959 0 -0.29907377272889868 -0.1089979880691484 0 -0.2965623965121118 -0.11701994000450799 0 -0.29907377272889868 -0.1089979880691484 0 -0.30557177931391682 -0.1183269801850142 0 -0.29907377272889868 -0.1089979880691484 0 -0.30978202788364972 -0.1119727599886042 0 -0.30557177931391682 -0.1183269801850142 0 -0.30978202788364972 -0.1119727599886042 0 -0.30557177931391682 -0.1183269801850142 0 -0.3127070392079988 -0.11983974052116721 0 -0.30557177931391682 -0.1183269801850142 0 -0.3127070392079988 -0.11983974052116721 0 -0.30659383293176717 -0.12836008554116621 0 -0.30557177931391682 -0.1183269801850142 0 -0.30659383293176717 -0.12836008554116621 0 -0.29818071929502649 -0.12533829272112651 0 -0.2965623965121118 -0.11701994000450799 0 -0.30557177931391682 -0.1183269801850142 0 -0.29818071929502649 -0.12533829272112651 0 -0.29288639902301722 -0.068162232303269454 0 -0.29152329783040948 -0.080201345581178293 0 -0.30202108065919059 -0.07833382790556892 0 -0.29294847914264632 -0.057280364765548007 0 -0.29288639902301722 -0.068162232303269454 0 -0.28239023162487398 -0.065290061521452655 0 -0.27958816421768151 -0.076259821348859488 0 -0.29288639902301722 -0.068162232303269454 0 -0.28239023162487398 -0.065290061521452655 0 -0.27958816421768151 -0.076259821348859488 0 -0.29288639902301722 -0.068162232303269454 0 -0.29152329783040948 -0.080201345581178293 0 -0.27958816421768151 -0.076259821348859488 0 -0.28665726939722591 -0.089979893072667655 0 -0.29152329783040948 -0.080201345581178293 0 -0.28665726939722591 -0.089979893072667655 0 -0.29646357585493238 -0.088270953275525907 0 -0.29152329783040948 -0.080201345581178293 0 -0.29066103962009998 -0.099885876773618237 0 -0.28665726939722591 -0.089979893072667655 0 -0.29646357585493238 -0.088270953275525907 0 -0.29646357585493238 -0.088270953275525907 0 -0.29152329783040948 -0.080201345581178293 0 -0.30202108065919059 -0.07833382790556892 0 -0.29646357585493238 -0.088270953275525907 0 -0.30202108065919059 -0.07833382790556892 0 -0.3056620303393317 -0.088279728833940446 0 -0.30042219685057481 -0.097227290533347513 0 -0.29646357585493238 -0.088270953275525907 0 -0.3056620303393317 -0.088279728833940446 0 -0.3056620303393317 -0.088279728833940446 0 -0.31120497227667171 -0.082008408674462449 0 -0.31413057107246251 -0.094025728982225887 0 -0.30042219685057481 -0.097227290533347513 0 -0.3056620303393317 -0.088279728833940446 0 -0.31413057107246251 -0.094025728982225887 0 -0.30202108065919059 -0.07833382790556892 0 -0.3056620303393317 -0.088279728833940446 0 -0.31120497227667171 -0.082008408674462449 0 -0.30202108065919059 -0.07833382790556892 0 -0.31120497227667171 -0.082008408674462449 0 -0.31237785291584602 -0.069779599229170111 0 -0.30202108065919059 -0.07833382790556892 0 -0.3027144952477816 -0.068977750625602144 0 -0.31237785291584602 -0.069779599229170111 0 -0.29288639902301722 -0.068162232303269454 0 -0.30202108065919059 -0.07833382790556892 0 -0.3027144952477816 -0.068977750625602144 0 -0.30357264839307257 -0.059635343064400083 0 -0.29288639902301722 -0.068162232303269454 0 -0.3027144952477816 -0.068977750625602144 0 -0.30357264839307257 -0.059635343064400083 0 -0.3027144952477816 -0.068977750625602144 0 -0.31237785291584602 -0.069779599229170111 0 -0.30357264839307257 -0.059635343064400083 0 -0.31237785291584602 -0.069779599229170111 0 -0.31512033311768911 -0.058505546491203847 0 -0.31237785291584602 -0.069779599229170111 0 -0.32228855523183442 -0.067412463942328485 0 -0.31512033311768911 -0.058505546491203847 0 -0.32228855523183442 -0.067412463942328485 0 -0.33266609991267537 -0.071141957851293819 0 -0.32670947635562941 -0.057942322018680041 0 -0.32228855523183442 -0.067412463942328485 0 -0.3218333263965279 -0.079623158421406895 0 -0.33266609991267537 -0.071141957851293819 0 -0.31120497227667171 -0.082008408674462449 0 -0.31237785291584602 -0.069779599229170111 0 -0.3218333263965279 -0.079623158421406895 0 -0.31237785291584602 -0.069779599229170111 0 -0.32228855523183442 -0.067412463942328485 0 -0.3218333263965279 -0.079623158421406895 0 -0.31120497227667171 -0.082008408674462449 0 -0.3218333263965279 -0.079623158421406895 0 -0.31413057107246251 -0.094025728982225887 0 -0.32782594411528981 -0.091457685180327097 0 -0.3218333263965279 -0.079623158421406895 0 -0.31413057107246251 -0.094025728982225887 0 -0.32782594411528981 -0.091457685180327097 0 -0.3218333263965279 -0.079623158421406895 0 -0.3335778889340259 -0.082451580408153091 0 -0.32782594411528981 -0.091457685180327097 0 -0.3335778889340259 -0.082451580408153091 0 -0.34165770705380771 -0.090731403761530646 0 -0.3335778889340259 -0.082451580408153091 0 -0.34165770705380771 -0.090731403761530646 0 -0.34390636719182882 -0.079303696826206985 0 -0.33266609991267537 -0.071141957851293819 0 -0.34690015559293019 -0.0687441474097783 0 -0.34390636719182882 -0.079303696826206985 0 -0.3335778889340259 -0.082451580408153091 0 -0.33266609991267537 -0.071141957851293819 0 -0.34390636719182882 -0.079303696826206985 0 -0.33266609991267537 -0.071141957851293819 0 -0.34690015559293019 -0.0687441474097783 0 -0.33838793771633557 -0.061087895524668263 0 -0.33266609991267537 -0.071141957851293819 0 -0.32670947635562941 -0.057942322018680041 0 -0.33838793771633557 -0.061087895524668263 0 -0.3218333263965279 -0.079623158421406895 0 -0.3335778889340259 -0.082451580408153091 0 -0.33266609991267537 -0.071141957851293819 0 -0.3220225050481379 -0.1208358837763179 0 -0.33281902370276312 -0.121937847958709 0 -0.32692124900018849 -0.1316055839017648 0 -0.3220225050481379 -0.1208358837763179 0 -0.32894372753917689 -0.11141289544397209 0 -0.33281902370276312 -0.121937847958709 0 -0.3220225050481379 -0.1208358837763179 0 -0.3127070392079988 -0.11983974052116721 0 -0.31541267212910112 -0.1304006727294251 0 -0.3220225050481379 -0.1208358837763179 0 -0.3127070392079988 -0.11983974052116721 0 -0.31685941794142058 -0.10914206090647539 0 -0.30978202788364972 -0.1119727599886042 0 -0.3127070392079988 -0.11983974052116721 0 -0.31685941794142058 -0.10914206090647539 0 -0.3220225050481379 -0.1208358837763179 0 -0.31685941794142058 -0.10914206090647539 0 -0.32894372753917689 -0.11141289544397209 0 -0.32490098380414972 -0.1015801428795698 0 -0.31685941794142058 -0.10914206090647539 0 -0.32894372753917689 -0.11141289544397209 0 -0.30718228699576511 -0.10475614014504959 0 -0.31685941794142058 -0.10914206090647539 0 -0.31413057107246251 -0.094025728982225887 0 -0.32490098380414972 -0.1015801428795698 0 -0.31685941794142058 -0.10914206090647539 0 -0.31413057107246251 -0.094025728982225887 0 -0.32782594411528981 -0.091457685180327097 0 -0.32490098380414972 -0.1015801428795698 0 -0.31413057107246251 -0.094025728982225887 0 -0.32782594411528981 -0.091457685180327097 0 -0.34165770705380771 -0.090731403761530646 0 -0.33674525835239871 -0.1018623438848483 0 -0.32782594411528981 -0.091457685180327097 0 -0.32490098380414972 -0.1015801428795698 0 -0.33674525835239871 -0.1018623438848483 0 -0.34165770705380771 -0.090731403761530646 0 -0.33674525835239871 -0.1018623438848483 0 -0.34719506697004598 -0.10357586404307501 0 -0.33674525835239871 -0.1018623438848483 0 -0.3433383610898571 -0.1158082150106745 0 -0.34719506697004598 -0.10357586404307501 0 -0.32490098380414972 -0.1015801428795698 0 -0.33674525835239871 -0.1018623438848483 0 -0.32894372753917689 -0.11141289544397209 0 -0.3433383610898571 -0.1158082150106745 0 -0.33281902370276312 -0.121937847958709 0 -0.34084471854603932 -0.13214134829864821 0 -0.32894372753917689 -0.11141289544397209 0 -0.3433383610898571 -0.1158082150106745 0 -0.33281902370276312 -0.121937847958709 0 -0.33674525835239871 -0.1018623438848483 0 -0.32894372753917689 -0.11141289544397209 0 -0.3433383610898571 -0.1158082150106745 0 -0.3433383610898571 -0.1158082150106745 0 -0.34719506697004598 -0.10357586404307501 0 -0.36232758239183582 -0.1135653549006088 0 -0.3433383610898571 -0.1158082150106745 0 -0.34084471854603932 -0.13214134829864821 0 -0.35366831172704771 -0.12576671887634161 0 -0.3433383610898571 -0.1158082150106745 0 -0.36232758239183582 -0.1135653549006088 0 -0.35366831172704771 -0.12576671887634161 0 -0.34719506697004598 -0.10357586404307501 0 -0.35467540402294728 -0.094150828641927753 0 -0.36598978952768702 -0.10049230602183511 0 -0.34719506697004598 -0.10357586404307501 0 -0.36598978952768702 -0.10049230602183511 0 -0.36232758239183582 -0.1135653549006088 0 -0.34165770705380771 -0.090731403761530646 0 -0.34719506697004598 -0.10357586404307501 0 -0.35467540402294728 -0.094150828641927753 0 -0.35467540402294728 -0.094150828641927753 0 -0.36598978952768702 -0.10049230602183511 0 -0.3710615428907762 -0.088432852022637343 0 -0.36598978952768702 -0.10049230602183511 0 -0.3710615428907762 -0.088432852022637343 0 -0.38243094650880338 -0.1059575807915757 0 -0.36598978952768702 -0.10049230602183511 0 -0.36232758239183582 -0.1135653549006088 0 -0.38243094650880338 -0.1059575807915757 0 -0.36232758239183582 -0.1135653549006088 0 -0.35366831172704771 -0.12576671887634161 0 -0.3762508269806728 -0.12969304455337599 0 -0.36232758239183582 -0.1135653549006088 0 -0.3762508269806728 -0.12969304455337599 0 -0.38243094650880338 -0.1059575807915757 0 -0.35799323547629769 -0.071576041618272718 0 -0.34390636719182882 -0.079303696826206985 0 -0.3564251842098316 -0.083294263079383327 0 -0.35799323547629769 -0.071576041618272718 0 -0.36113304727332102 -0.058961249708899349 0 -0.3496038367749924 -0.05767961254428787 0 -0.35799323547629769 -0.071576041618272718 0 -0.34690015559293019 -0.0687441474097783 0 -0.3496038367749924 -0.05767961254428787 0 -0.34690015559293019 -0.0687441474097783 0 -0.3496038367749924 -0.05767961254428787 0 -0.33838793771633557 -0.061087895524668263 0 -0.35799323547629769 -0.071576041618272718 0 -0.34690015559293019 -0.0687441474097783 0 -0.34390636719182882 -0.079303696826206985 0 -0.34165770705380771 -0.090731403761530646 0 -0.34390636719182882 -0.079303696826206985 0 -0.3564251842098316 -0.083294263079383327 0 -0.34165770705380771 -0.090731403761530646 0 -0.35467540402294728 -0.094150828641927753 0 -0.3564251842098316 -0.083294263079383327 0 -0.3564251842098316 -0.083294263079383327 0 -0.3710615428907762 -0.088432852022637343 0 -0.36925684862333191 -0.075570755605724571 0 -0.35467540402294728 -0.094150828641927753 0 -0.3564251842098316 -0.083294263079383327 0 -0.3710615428907762 -0.088432852022637343 0 -0.3710615428907762 -0.088432852022637343 0 -0.36925684862333191 -0.075570755605724571 0 -0.38397168268224552 -0.076429317657624118 0 -0.35799323547629769 -0.071576041618272718 0 -0.3737851180713696 -0.063118395580058217 0 -0.36113304727332102 -0.058961249708899349 0 -0.35799323547629769 -0.071576041618272718 0 -0.36925684862333191 -0.075570755605724571 0 -0.3737851180713696 -0.063118395580058217 0 -0.35799323547629769 -0.071576041618272718 0 -0.3564251842098316 -0.083294263079383327 0 -0.36925684862333191 -0.075570755605724571 0 -0.3737851180713696 -0.063118395580058217 0 -0.36113304727332102 -0.058961249708899349 0 -0.36811241657795418 -0.046063652852842647 0 -0.36113304727332102 -0.058961249708899349 0 -0.35437741888053831 -0.044993794830128081 0 -0.36811241657795418 -0.046063652852842647 0 -0.3496038367749924 -0.05767961254428787 0 -0.35437741888053831 -0.044993794830128081 0 -0.33867070448803321 -0.045764496708811518 0 -0.36113304727332102 -0.058961249708899349 0 -0.3496038367749924 -0.05767961254428787 0 -0.35437741888053831 -0.044993794830128081 0 -0.35437741888053831 -0.044993794830128081 0 -0.36107933840778389 -0.032195246697208482 0 -0.34654977572243589 -0.028943878132961769 0 -0.35437741888053831 -0.044993794830128081 0 -0.34654977572243589 -0.028943878132961769 0 -0.33867070448803321 -0.045764496708811518 0 -0.36107933840778389 -0.032195246697208482 0 -0.36811241657795418 -0.046063652852842647 0 -0.37636024238127208 -0.02856628230930431 0 -0.35437741888053831 -0.044993794830128081 0 -0.36107933840778389 -0.032195246697208482 0 -0.36811241657795418 -0.046063652852842647 0 -0.35999683847671909 -0.012408625360805579 0 -0.38485887469789321 -0.006265053940782743 0 -0.37636024238127208 -0.02856628230930431 0 -0.36107933840778389 -0.032195246697208482 0 -0.35999683847671909 -0.012408625360805579 0 -0.37636024238127208 -0.02856628230930431 0 -0.35999683847671909 -0.012408625360805579 0 -0.38485887469789321 -0.006265053940782743 0 -0.37158097687395047 0.0153515424189699 0 -0.35999683847671909 -0.012408625360805579 0 -0.33225599713101878 -0.01511796039223893 0 -0.34633312326215482 0.0087061641863099039 0 -0.36107933840778389 -0.032195246697208482 0 -0.35999683847671909 -0.012408625360805579 0 -0.34654977572243589 -0.028943878132961769 0 -0.35999683847671909 -0.012408625360805579 0 -0.34654977572243589 -0.028943878132961769 0 -0.33225599713101878 -0.01511796039223893 0 -0.34654977572243589 -0.028943878132961769 0 -0.33300306675845498 -0.031037552293433999 0 -0.33225599713101878 -0.01511796039223893 0 -0.33225599713101878 -0.01511796039223893 0 -0.32108526965035911 0.002060785953649905 0 -0.34633312326215482 0.0087061641863099039 0 -0.31162403140943312 -0.0097516636075976829 0 -0.33225599713101878 -0.01511796039223893 0 -0.32108526965035911 0.002060785953649905 0 -0.33300306675845498 -0.031037552293433999 0 -0.33225599713101878 -0.01511796039223893 0 -0.31888937154162877 -0.030649470261424949 0 -0.31162403140943312 -0.0097516636075976829 0 -0.33225599713101878 -0.01511796039223893 0 -0.31888937154162877 -0.030649470261424949 0 -0.33300306675845498 -0.031037552293433999 0 -0.31888937154162877 -0.030649470261424949 0 -0.3246736101166634 -0.045168768484107072 0 -0.31171442024782681 -0.045870758467197771 0 -0.31888937154162877 -0.030649470261424949 0 -0.3246736101166634 -0.045168768484107072 0 -0.31171442024782681 -0.045870758467197771 0 -0.3246736101166634 -0.045168768484107072 0 -0.31512033311768911 -0.058505546491203847 0 -0.32228855523183442 -0.067412463942328485 0 -0.31512033311768911 -0.058505546491203847 0 -0.32670947635562941 -0.057942322018680041 0 -0.3246736101166634 -0.045168768484107072 0 -0.31512033311768911 -0.058505546491203847 0 -0.32670947635562941 -0.057942322018680041 0 -0.3246736101166634 -0.045168768484107072 0 -0.32670947635562941 -0.057942322018680041 0 -0.33867070448803321 -0.045764496708811518 0 -0.32670947635562941 -0.057942322018680041 0 -0.33838793771633557 -0.061087895524668263 0 -0.33867070448803321 -0.045764496708811518 0 -0.3496038367749924 -0.05767961254428787 0 -0.33838793771633557 -0.061087895524668263 0 -0.33867070448803321 -0.045764496708811518 0 -0.34654977572243589 -0.028943878132961769 0 -0.33300306675845498 -0.031037552293433999 0 -0.33867070448803321 -0.045764496708811518 0 -0.33300306675845498 -0.031037552293433999 0 -0.3246736101166634 -0.045168768484107072 0 -0.33867070448803321 -0.045764496708811518 0 -0.2989969812672415 -0.25685767029938761 0 -0.30688642208107159 -0.2408772910233668 0 -0.29199662451381508 -0.24395190857152521 0 -0.30688642208107159 -0.2408772910233668 0 -0.2974177280728405 -0.2262829239669214 0 -0.29199662451381508 -0.24395190857152521 0 -0.30688642208107159 -0.2408772910233668 0 -0.31003689493595771 -0.22519251148771979 0 -0.31871320956963478 -0.23348994629003031 0 -0.30688642208107159 -0.2408772910233668 0 -0.31003689493595771 -0.22519251148771979 0 -0.2974177280728405 -0.2262829239669214 0 -0.31003689493595771 -0.22519251148771979 0 -0.2974177280728405 -0.2262829239669214 0 -0.30856574268658199 -0.2125374837929937 0 -0.2974177280728405 -0.2262829239669214 0 -0.2822119211907379 -0.23357204555037309 0 -0.28552392511025732 -0.2151217184963127 0 -0.2974177280728405 -0.2262829239669214 0 -0.2822119211907379 -0.23357204555037309 0 -0.29199662451381508 -0.24395190857152521 0 -0.2822119211907379 -0.23357204555037309 0 -0.29199662451381508 -0.24395190857152521 0 -0.27989972723655071 -0.24951081827475999 0 -0.2822119211907379 -0.23357204555037309 0 -0.27989972723655071 -0.24951081827475999 0 -0.26800758892227822 -0.2459884927220134 0 -0.25723245459539951 -0.25549634606515792 0 -0.26800758892227822 -0.2459884927220134 0 -0.25561367355809922 -0.2342256554916041 0 -0.25723245459539951 -0.25549634606515792 0 -0.24420758384304819 -0.24842821958125019 0 -0.25561367355809922 -0.2342256554916041 0 -0.23941670749013111 -0.22374371908234611 0 -0.25561367355809922 -0.2342256554916041 0 -0.25497145227442608 -0.2101784452455481 0 -0.26800758892227822 -0.2459884927220134 0 -0.25561367355809922 -0.2342256554916041 0 -0.27037907639407682 -0.22206723941748441 0 -0.25561367355809922 -0.2342256554916041 0 -0.27037907639407682 -0.22206723941748441 0 -0.25497145227442608 -0.2101784452455481 0 -0.2822119211907379 -0.23357204555037309 0 -0.26800758892227822 -0.2459884927220134 0 -0.27037907639407682 -0.22206723941748441 0 -0.2822119211907379 -0.23357204555037309 0 -0.27037907639407682 -0.22206723941748441 0 -0.28552392511025732 -0.2151217184963127 0 -0.27037907639407682 -0.22206723941748441 0 -0.27394377996781022 -0.20364230612437659 0 -0.28552392511025732 -0.2151217184963127 0 -0.27037907639407682 -0.22206723941748441 0 -0.27394377996781022 -0.20364230612437659 0 -0.25497145227442608 -0.2101784452455481 0 -0.27394377996781022 -0.20364230612437659 0 -0.25497145227442608 -0.2101784452455481 0 -0.25794011146818069 -0.1874131536250189 0 -0.27394377996781022 -0.20364230612437659 0 -0.27959887450268511 -0.19005226436608971 0 -0.25794011146818069 -0.1874131536250189 0 -0.27394377996781022 -0.20364230612437659 0 -0.27959887450268511 -0.19005226436608971 0 -0.29607461344245428 -0.202604816435493 0 -0.29607461344245428 -0.202604816435493 0 -0.28878147583583119 -0.18083395697896409 0 -0.27959887450268511 -0.19005226436608971 0 -0.29607461344245428 -0.202604816435493 0 -0.28878147583583119 -0.18083395697896409 0 -0.29607461344245428 -0.202604816435493 0 -0.30566538195503168 -0.19219938461169711 0 -0.28878147583583119 -0.18083395697896409 0 -0.27394377996781022 -0.20364230612437659 0 -0.29607461344245428 -0.202604816435493 0 -0.28552392511025732 -0.2151217184963127 0 -0.2974177280728405 -0.2262829239669214 0 -0.28552392511025732 -0.2151217184963127 0 -0.29663231290606268 -0.2139386661620801 0 -0.29607461344245428 -0.202604816435493 0 -0.28552392511025732 -0.2151217184963127 0 -0.29663231290606268 -0.2139386661620801 0 -0.29607461344245428 -0.202604816435493 0 -0.29663231290606268 -0.2139386661620801 0 -0.30856574268658199 -0.2125374837929937 0 -0.2974177280728405 -0.2262829239669214 0 -0.29663231290606268 -0.2139386661620801 0 -0.30856574268658199 -0.2125374837929937 0 -0.30856574268658199 -0.2125374837929937 0 -0.30566538195503168 -0.19219938461169711 0 -0.32254928807423239 -0.20356481224442949 0 -0.29607461344245428 -0.202604816435493 0 -0.30856574268658199 -0.2125374837929937 0 -0.30566538195503168 -0.19219938461169711 0 -0.30566538195503168 -0.19219938461169711 0 -0.29979611935978112 -0.17973742679260191 0 -0.28878147583583119 -0.18083395697896409 0 -0.30566538195503168 -0.19219938461169711 0 -0.28878147583583119 -0.18083395697896409 0 -0.29979611935978112 -0.17973742679260191 0 -0.29677492077878792 -0.16801419704310069 0 -0.31392491427256253 -0.18316879865766789 0 -0.29677492077878792 -0.16801419704310069 0 -0.32402122023455981 -0.17471348528253791 0 -0.31392491427256253 -0.18316879865766789 0 -0.30566538195503168 -0.19219938461169711 0 -0.29979611935978112 -0.17973742679260191 0 -0.31392491427256253 -0.18316879865766789 0 -0.30332693385598508 -0.16474130297035791 0 -0.29677492077878792 -0.16801419704310069 0 -0.32402122023455981 -0.17471348528253791 0 -0.29677492077878792 -0.16801419704310069 0 -0.32402122023455981 -0.17471348528253791 0 -0.30897405095764752 -0.15770376687721549 0 -0.30332693385598508 -0.16474130297035791 0 -0.31772375842085981 -0.16132348979489289 0 -0.30897405095764752 -0.15770376687721549 0 -0.30332693385598508 -0.16474130297035791 0 -0.30330385792881731 -0.15466541210308751 0 -0.29825779308574207 -0.1597149405198606 0 -0.30332693385598508 -0.16474130297035791 0 -0.30330385792881731 -0.15466541210308751 0 -0.29825779308574207 -0.1597149405198606 0 -0.30332693385598508 -0.16474130297035791 0 -0.29677492077878792 -0.16801419704310069 0 -0.30332693385598508 -0.16474130297035791 0 -0.29677492077878792 -0.16801419704310069 0 -0.29677492077878792 -0.16801419704310069 0 -0.28338392183931987 -0.16472163388768599 0 -0.29677492077878792 -0.16801419704310069 0 -0.29294590916443908 -0.16136198903321769 0 -0.28338392183931987 -0.16472163388768599 0 -0.29677492077878792 -0.16801419704310069 0 -0.28624840698660642 -0.1732724534279895 0 -0.29825779308574207 -0.1597149405198606 0 -0.29294590916443908 -0.16136198903321769 0 -0.29336700095390678 -0.1529971846822219 0 -0.29294590916443908 -0.16136198903321769 0 -0.28338392183931987 -0.16472163388768599 0 -0.29336700095390678 -0.1529971846822219 0 -0.29825779308574207 -0.1597149405198606 0 -0.29677492077878792 -0.16801419704310069 0 -0.29294590916443908 -0.16136198903321769 0 -0.29677492077878792 -0.16801419704310069 0 -0.28338392183931987 -0.16472163388768599 0 -0.28624840698660642 -0.1732724534279895 0 -0.28338392183931987 -0.16472163388768599 0 -0.28125439179914852 -0.17576708866659629 0 -0.28624840698660642 -0.1732724534279895 0 -0.28338392183931987 -0.16472163388768599 0 -0.28624840698660642 -0.1732724534279895 0 -0.28125439179914852 -0.17576708866659629 0 -0.28624840698660642 -0.1732724534279895 0 -0.28125439179914852 -0.17576708866659629 0 -0.28878147583583119 -0.18083395697896409 0 -0.28624840698660642 -0.1732724534279895 0 -0.28878147583583119 -0.18083395697896409 0 -0.28125439179914852 -0.17576708866659629 0 -0.28624840698660642 -0.1732724534279895 0 -0.28878147583583119 -0.18083395697896409 0 -0.29979611935978112 -0.17973742679260191 0 -0.29677492077878792 -0.16801419704310069 0 -0.29347822797871559 -0.1751115891738392 0 -0.29677492077878792 -0.16801419704310069 0 -0.28624840698660642 -0.1732724534279895 0 -0.29347822797871559 -0.1751115891738392 0 -0.29979611935978112 -0.17973742679260191 0 -0.29347822797871559 -0.1751115891738392 0 -0.28878147583583119 -0.18083395697896409 0 -0.28624840698660642 -0.1732724534279895 0 -0.29347822797871559 -0.1751115891738392 0 -0.28878147583583119 -0.18083395697896409 0 -0.27959887450268511 -0.19005226436608971 0 -0.28125439179914852 -0.17576708866659629 0 -0.28878147583583119 -0.18083395697896409 0 -0.27959887450268511 -0.19005226436608971 0 -0.28125439179914852 -0.17576708866659629 0 -0.25794011146818069 -0.1874131536250189 0 -0.28125439179914852 -0.17576708866659629 0 -0.25794011146818069 -0.1874131536250189 0 -0.28125439179914852 -0.17576708866659629 0 -0.25794011146818069 -0.1874131536250189 0 -0.2622325445357826 -0.16296250263144599 0 -0.24697969284727 -0.17288689331231 0 -0.25794011146818069 -0.1874131536250189 0 -0.2622325445357826 -0.16296250263144599 0 -0.2432106972724157 -0.1501579165962969 0 -0.2622325445357826 -0.16296250263144599 0 -0.24697969284727 -0.17288689331231 0 -0.2432106972724157 -0.1501579165962969 0 -0.2622325445357826 -0.16296250263144599 0 -0.2622325445357826 -0.16296250263144599 0 -0.27774702748207991 -0.16333564089675981 0 -0.270249394152417 -0.15235498686519769 0 -0.28125439179914852 -0.17576708866659629 0 -0.2622325445357826 -0.16296250263144599 0 -0.28125439179914852 -0.17576708866659629 0 -0.2622325445357826 -0.16296250263144599 0 -0.27774702748207991 -0.16333564089675981 0 -0.28338392183931987 -0.16472163388768599 0 -0.28125439179914852 -0.17576708866659629 0 -0.27774702748207991 -0.16333564089675981 0 -0.28338392183931987 -0.16472163388768599 0 -0.27774702748207991 -0.16333564089675981 0 -0.270249394152417 -0.15235498686519769 0 -0.28338392183931987 -0.16472163388768599 0 -0.27774702748207991 -0.16333564089675981 0 -0.28338392183931987 -0.16472163388768599 0 -0.270249394152417 -0.15235498686519769 0 -0.27509304436590182 -0.1399724055060321 0 -0.28338392183931987 -0.16472163388768599 0 -0.27509304436590182 -0.1399724055060321 0 -0.270249394152417 -0.15235498686519769 0 -0.25831117895737959 -0.13960737339820159 0 -0.27509304436590182 -0.1399724055060321 0 -0.2622325445357826 -0.16296250263144599 0 -0.270249394152417 -0.15235498686519769 0 -0.25850095372949872 -0.15127069487278549 0 -0.2432106972724157 -0.1501579165962969 0 -0.2622325445357826 -0.16296250263144599 0 -0.25850095372949872 -0.15127069487278549 0 -0.270249394152417 -0.15235498686519769 0 -0.25850095372949872 -0.15127069487278549 0 -0.25831117895737959 -0.13960737339820159 0 -0.2432106972724157 -0.1501579165962969 0 -0.25850095372949872 -0.15127069487278549 0 -0.25831117895737959 -0.13960737339820159 0 -0.24414510373304521 -0.13060256536204701 0 -0.26410135745704177 -0.12385180016294441 0 -0.25831117895737959 -0.13960737339820159 0 -0.24414510373304521 -0.13060256536204701 0 -0.26410135745704177 -0.12385180016294441 0 -0.2668021668924821 -0.1152231771243787 0 -0.27509304436590182 -0.1399724055060321 0 -0.2668021668924821 -0.1152231771243787 0 -0.27509304436590182 -0.1399724055060321 0 -0.28165613224495512 -0.1272121628220059 0 -0.26410135745704177 -0.12385180016294441 0 -0.2668021668924821 -0.1152231771243787 0 -0.27509304436590182 -0.1399724055060321 0 -0.26410135745704177 -0.12385180016294441 0 -0.25831117895737959 -0.13960737339820159 0 -0.27509304436590182 -0.1399724055060321 0 -0.28992218621857441 -0.12121090261211249 0 -0.28165613224495512 -0.1272121628220059 0 -0.29124008899697368 -0.1302994722889608 0 -0.28992218621857441 -0.12121090261211249 0 -0.29124008899697368 -0.1302994722889608 0 -0.29818071929502649 -0.12533829272112651 0 -0.29124008899697368 -0.1302994722889608 0 -0.29818071929502649 -0.12533829272112651 0 -0.2987703797059359 -0.13541869813432031 0 -0.29124008899697368 -0.1302994722889608 0 -0.28767102752037621 -0.1423173051552388 0 -0.2987703797059359 -0.13541869813432031 0 -0.28165613224495512 -0.1272121628220059 0 -0.29124008899697368 -0.1302994722889608 0 -0.28767102752037621 -0.1423173051552388 0 -0.27509304436590182 -0.1399724055060321 0 -0.28165613224495512 -0.1272121628220059 0 -0.28767102752037621 -0.1423173051552388 0 -0.28338392183931987 -0.16472163388768599 0 -0.28767102752037621 -0.1423173051552388 0 -0.29336700095390678 -0.1529971846822219 0 -0.28338392183931987 -0.16472163388768599 0 -0.27509304436590182 -0.1399724055060321 0 -0.28767102752037621 -0.1423173051552388 0 -0.28767102752037621 -0.1423173051552388 0 -0.3004787159394382 -0.14569751117936811 0 -0.2987703797059359 -0.13541869813432031 0 -0.28767102752037621 -0.1423173051552388 0 -0.29336700095390678 -0.1529971846822219 0 -0.3004787159394382 -0.14569751117936811 0 -0.29825779308574207 -0.1597149405198606 0 -0.29336700095390678 -0.1529971846822219 0 -0.30330385792881731 -0.15466541210308751 0 -0.29336700095390678 -0.1529971846822219 0 -0.3004787159394382 -0.14569751117936811 0 -0.30330385792881731 -0.15466541210308751 0 -0.30897405095764752 -0.15770376687721549 0 -0.30330385792881731 -0.15466541210308751 0 -0.31154165362492808 -0.1500848626405237 0 -0.3004787159394382 -0.14569751117936811 0 -0.30330385792881731 -0.15466541210308751 0 -0.31154165362492808 -0.1500848626405237 0 -0.3004787159394382 -0.14569751117936811 0 -0.31154165362492808 -0.1500848626405237 0 -0.30870905866223952 -0.13867345968553069 0 -0.30870905866223952 -0.13867345968553069 0 -0.30659383293176717 -0.12836008554116621 0 -0.2987703797059359 -0.13541869813432031 0 -0.30870905866223952 -0.13867345968553069 0 -0.30659383293176717 -0.12836008554116621 0 -0.31541267212910112 -0.1304006727294251 0 -0.3127070392079988 -0.11983974052116721 0 -0.30659383293176717 -0.12836008554116621 0 -0.31541267212910112 -0.1304006727294251 0 -0.30659383293176717 -0.12836008554116621 0 -0.29818071929502649 -0.12533829272112651 0 -0.2987703797059359 -0.13541869813432031 0 -0.3004787159394382 -0.14569751117936811 0 -0.30870905866223952 -0.13867345968553069 0 -0.2987703797059359 -0.13541869813432031 0 -0.32692124900018849 -0.1316055839017648 0 -0.31887054610959997 -0.14060153674419121 0 -0.33049915771306693 -0.14262067381460841 0 -0.32692124900018849 -0.1316055839017648 0 -0.31541267212910112 -0.1304006727294251 0 -0.31887054610959997 -0.14060153674419121 0 -0.3220225050481379 -0.1208358837763179 0 -0.32692124900018849 -0.1316055839017648 0 -0.31541267212910112 -0.1304006727294251 0 -0.30870905866223952 -0.13867345968553069 0 -0.31541267212910112 -0.1304006727294251 0 -0.31887054610959997 -0.14060153674419121 0 -0.31154165362492808 -0.1500848626405237 0 -0.30870905866223952 -0.13867345968553069 0 -0.31887054610959997 -0.14060153674419121 0 -0.31154165362492808 -0.1500848626405237 0 -0.31887054610959997 -0.14060153674419121 0 -0.32164490168355142 -0.15100972734714349 0 -0.31154165362492808 -0.1500848626405237 0 -0.32164490168355142 -0.15100972734714349 0 -0.31772375842085981 -0.16132348979489289 0 -0.32164490168355142 -0.15100972734714349 0 -0.33049915771306693 -0.14262067381460841 0 -0.3306939182402337 -0.15597576926640239 0 -0.32164490168355142 -0.15100972734714349 0 -0.3306939182402337 -0.15597576926640239 0 -0.31772375842085981 -0.16132348979489289 0 -0.31887054610959997 -0.14060153674419121 0 -0.32164490168355142 -0.15100972734714349 0 -0.33049915771306693 -0.14262067381460841 0 -0.33049915771306693 -0.14262067381460841 0 -0.3306939182402337 -0.15597576926640239 0 -0.34092633487009583 -0.14622186648894989 0 -0.3306939182402337 -0.15597576926640239 0 -0.34092633487009583 -0.14622186648894989 0 -0.3471007123255756 -0.15965419094794159 0 -0.33049915771306693 -0.14262067381460841 0 -0.34092633487009583 -0.14622186648894989 0 -0.34084471854603932 -0.13214134829864821 0 -0.32692124900018849 -0.1316055839017648 0 -0.33049915771306693 -0.14262067381460841 0 -0.34084471854603932 -0.13214134829864821 0 -0.33281902370276312 -0.121937847958709 0 -0.32692124900018849 -0.1316055839017648 0 -0.34084471854603932 -0.13214134829864821 0 -0.34092633487009583 -0.14622186648894989 0 -0.34084471854603932 -0.13214134829864821 0 -0.35549316752556342 -0.14071735011714889 0 -0.34084471854603932 -0.13214134829864821 0 -0.35366831172704771 -0.12576671887634161 0 -0.35549316752556342 -0.14071735011714889 0 -0.35366831172704771 -0.12576671887634161 0 -0.35549316752556342 -0.14071735011714889 0 -0.3762508269806728 -0.12969304455337599 0 -0.37085910199024757 -0.14746961565196939 0 -0.35549316752556342 -0.14071735011714889 0 -0.3762508269806728 -0.12969304455337599 0 -0.37085910199024757 -0.14746961565196939 0 -0.35549316752556342 -0.14071735011714889 0 -0.3471007123255756 -0.15965419094794159 0 -0.34092633487009583 -0.14622186648894989 0 -0.35549316752556342 -0.14071735011714889 0 -0.3471007123255756 -0.15965419094794159 0 -0.3471007123255756 -0.15965419094794159 0 -0.36970112771986602 -0.16519807248713231 0 -0.35126751969033182 -0.18141277352197391 0 -0.37085910199024757 -0.14746961565196939 0 -0.3471007123255756 -0.15965419094794159 0 -0.36970112771986602 -0.16519807248713231 0 -0.35126751969033182 -0.18141277352197391 0 -0.37851381914610388 -0.1881120617614099 0 -0.36970112771986602 -0.16519807248713231 0 -0.35126751969033182 -0.18141277352197391 0 -0.37851381914610388 -0.1881120617614099 0 -0.35126751969033182 -0.18141277352197391 0 -0.32402122023455981 -0.17471348528253791 0 -0.35126751969033182 -0.18141277352197391 0 -0.32402122023455981 -0.17471348528253791 0 -0.33214640550964653 -0.18959122549723501 0 -0.3471007123255756 -0.15965419094794159 0 -0.35126751969033182 -0.18141277352197391 0 -0.32402122023455981 -0.17471348528253791 0 -0.3306939182402337 -0.15597576926640239 0 -0.3471007123255756 -0.15965419094794159 0 -0.32402122023455981 -0.17471348528253791 0 -0.30332693385598508 -0.16474130297035791 0 -0.31772375842085981 -0.16132348979489289 0 -0.32402122023455981 -0.17471348528253791 0 -0.3306939182402337 -0.15597576926640239 0 -0.31772375842085981 -0.16132348979489289 0 -0.32402122023455981 -0.17471348528253791 0 -0.30897405095764752 -0.15770376687721549 0 -0.31154165362492808 -0.1500848626405237 0 -0.31772375842085981 -0.16132348979489289 0 -0.32402122023455981 -0.17471348528253791 0 -0.31392491427256253 -0.18316879865766789 0 -0.33214640550964653 -0.18959122549723501 0 -0.31392491427256253 -0.18316879865766789 0 -0.32254928807423239 -0.20356481224442949 0 -0.33214640550964653 -0.18959122549723501 0 -0.30566538195503168 -0.19219938461169711 0 -0.32254928807423239 -0.20356481224442949 0 -0.30566538195503168 -0.19219938461169711 0 -0.31392491427256253 -0.18316879865766789 0 -0.32254928807423239 -0.20356481224442949 0 -0.30856574268658199 -0.2125374837929937 0 -0.32254928807423239 -0.20356481224442949 0 -0.32459514743456952 -0.21887612083854049 0 -0.32254928807423239 -0.20356481224442949 0 -0.34129944794769929 -0.20411452274494171 0 -0.32459514743456952 -0.21887612083854049 0 -0.34129944794769929 -0.20411452274494171 0 -0.3406279613925669 -0.22155840011260949 0 -0.32459514743456952 -0.21887612083854049 0 -0.35126751969033182 -0.18141277352197391 0 -0.34129944794769929 -0.20411452274494171 0 -0.33214640550964653 -0.18959122549723501 0 -0.32254928807423239 -0.20356481224442949 0 -0.34129944794769929 -0.20411452274494171 0 -0.33214640550964653 -0.18959122549723501 0 -0.35126751969033182 -0.18141277352197391 0 -0.34129944794769929 -0.20411452274494171 0 -0.36059450865931453 -0.2002623644615579 0 -0.35126751969033182 -0.18141277352197391 0 -0.36059450865931453 -0.2002623644615579 0 -0.37851381914610388 -0.1881120617614099 0 -0.36059450865931453 -0.2002623644615579 0 -0.37618669488559953 -0.21240098463229071 0 -0.37851381914610388 -0.1881120617614099 0 -0.35473859147532832 -0.21619473076995091 0 -0.3606529002083767 -0.22698200399158591 0 -0.37618669488559953 -0.21240098463229071 0 -0.36059450865931453 -0.2002623644615579 0 -0.35473859147532832 -0.21619473076995091 0 -0.37618669488559953 -0.21240098463229071 0 -0.34129944794769929 -0.20411452274494171 0 -0.36059450865931453 -0.2002623644615579 0 -0.35473859147532832 -0.21619473076995091 0 -0.34129944794769929 -0.20411452274494171 0 -0.35473859147532832 -0.21619473076995091 0 -0.3406279613925669 -0.22155840011260949 0 -0.35473859147532832 -0.21619473076995091 0 -0.34791503009455382 -0.23123720406468759 0 -0.3406279613925669 -0.22155840011260949 0 -0.34791503009455382 -0.23123720406468759 0 -0.3606529002083767 -0.22698200399158591 0 -0.35718801745933282 -0.23765982156544871 0 -0.35473859147532832 -0.21619473076995091 0 -0.34791503009455382 -0.23123720406468759 0 -0.3606529002083767 -0.22698200399158591 0 -0.3606529002083767 -0.22698200399158591 0 -0.36723616712707691 -0.23741727892555431 0 -0.37618669488559953 -0.21240098463229071 0 -0.36723616712707691 -0.23741727892555431 0 -0.37618669488559953 -0.21240098463229071 0 -0.3606529002083767 -0.22698200399158591 0 -0.36723616712707691 -0.23741727892555431 0 -0.35718801745933282 -0.23765982156544871 0 -0.36723616712707691 -0.23741727892555431 0 -0.38256295026869941 -0.2239064984687483 0 -0.37559939495059241 -0.25759382415502369 0 -0.36198061697463252 -0.25210628865026241 0 -0.36723616712707691 -0.23741727892555431 0 -0.37559939495059241 -0.25759382415502369 0 -0.36723616712707691 -0.23741727892555431 0 -0.38160478445204399 -0.2381723507000279 0 -0.36723616712707691 -0.23741727892555431 0 -0.35704918331323882 -0.2463972521237382 0 -0.36723616712707691 -0.23741727892555431 0 -0.35704918331323882 -0.2463972521237382 0 -0.35718801745933282 -0.23765982156544871 0 -0.36198061697463252 -0.25210628865026241 0 -0.36723616712707691 -0.23741727892555431 0 -0.35704918331323882 -0.2463972521237382 0 -0.36198061697463252 -0.25210628865026241 0 -0.36723616712707691 -0.23741727892555431 0 -0.35704918331323882 -0.2463972521237382 0 -0.35718801745933282 -0.23765982156544871 0 -0.34531969915818922 -0.24521335040884201 0 -0.35704918331323882 -0.2463972521237382 0 -0.35718801745933282 -0.23765982156544871 0 -0.34791503009455382 -0.23123720406468759 0 -0.35718801745933282 -0.23765982156544871 0 -0.34531969915818922 -0.24521335040884201 0 -0.34531969915818922 -0.24521335040884201 0 -0.328202492380054 -0.24702697275665519 0 -0.33336932808792608 -0.2335698768354495 0 -0.34791503009455382 -0.23123720406468759 0 -0.34531969915818922 -0.24521335040884201 0 -0.33336932808792608 -0.2335698768354495 0 -0.3406279613925669 -0.22155840011260949 0 -0.33336932808792608 -0.2335698768354495 0 -0.32459514743456952 -0.21887612083854049 0 -0.34791503009455382 -0.23123720406468759 0 -0.3406279613925669 -0.22155840011260949 0 -0.33336932808792608 -0.2335698768354495 0 -0.33336932808792608 -0.2335698768354495 0 -0.32459514743456952 -0.21887612083854049 0 -0.31871320956963478 -0.23348994629003031 0 -0.31003689493595771 -0.22519251148771979 0 -0.30856574268658199 -0.2125374837929937 0 -0.32459514743456952 -0.21887612083854049 0 -0.31003689493595771 -0.22519251148771979 0 -0.32459514743456952 -0.21887612083854049 0 -0.31871320956963478 -0.23348994629003031 0 -0.30688642208107159 -0.2408772910233668 0 -0.31871320956963478 -0.23348994629003031 0 -0.31715735955622371 -0.2445022096132447 0 -0.31382319645809431 -0.25537883115472171 0 -0.328202492380054 -0.24702697275665519 0 -0.31715735955622371 -0.2445022096132447 0 -0.31382319645809431 -0.25537883115472171 0 -0.30688642208107159 -0.2408772910233668 0 -0.31715735955622371 -0.2445022096132447 0 -0.328202492380054 -0.24702697275665519 0 -0.33336932808792608 -0.2335698768354495 0 -0.31871320956963478 -0.23348994629003031 0 -0.328202492380054 -0.24702697275665519 0 -0.31871320956963478 -0.23348994629003031 0 -0.31715735955622371 -0.2445022096132447 0 -0.43534344162737859 -0.24047631527095989 0 -0.41599572027092829 -0.2308763102902866 0 -0.42066567285705447 -0.24747213920793271 0 -0.43534344162737859 -0.24047631527095989 0 -0.43524987343654858 -0.2261218355439521 0 -0.41599572027092829 -0.2308763102902866 0 -0.43524987343654858 -0.2261218355439521 0 -0.42797025300646202 -0.21410326264050389 0 -0.44799952697485568 -0.2189563797826358 0 -0.43524987343654858 -0.2261218355439521 0 -0.41599572027092829 -0.2308763102902866 0 -0.42797025300646202 -0.21410326264050389 0 -0.41599572027092829 -0.2308763102902866 0 -0.39831859429118138 -0.23199988348810369 0 -0.40578108161144449 -0.22401229982098031 0 -0.41599572027092829 -0.2308763102902866 0 -0.41095125672322341 -0.21507194316695649 0 -0.42797025300646202 -0.21410326264050389 0 -0.41599572027092829 -0.2308763102902866 0 -0.40578108161144449 -0.22401229982098031 0 -0.41095125672322341 -0.21507194316695649 0 -0.41599572027092829 -0.2308763102902866 0 -0.42066567285705447 -0.24747213920793271 0 -0.4060172103153033 -0.2466409140486745 0 -0.41599572027092829 -0.2308763102902866 0 -0.4060172103153033 -0.2466409140486745 0 -0.39831859429118138 -0.23199988348810369 0 -0.4060172103153033 -0.2466409140486745 0 -0.39148266415987848 -0.24724731724582799 0 -0.39831859429118138 -0.23199988348810369 0 -0.37559939495059241 -0.25759382415502369 0 -0.39148266415987848 -0.24724731724582799 0 -0.38160478445204399 -0.2381723507000279 0 -0.39148266415987848 -0.24724731724582799 0 -0.38160478445204399 -0.2381723507000279 0 -0.39831859429118138 -0.23199988348810369 0 -0.36723616712707691 -0.23741727892555431 0 -0.38256295026869941 -0.2239064984687483 0 -0.37618669488559953 -0.21240098463229071 0 -0.38160478445204399 -0.2381723507000279 0 -0.38256295026869941 -0.2239064984687483 0 -0.39831859429118138 -0.23199988348810369 0 -0.36723616712707691 -0.23741727892555431 0 -0.38160478445204399 -0.2381723507000279 0 -0.38256295026869941 -0.2239064984687483 0 -0.38256295026869941 -0.2239064984687483 0 -0.39831859429118138 -0.23199988348810369 0 -0.39785875516044511 -0.21810106233857471 0 -0.40578108161144449 -0.22401229982098031 0 -0.39785875516044511 -0.21810106233857471 0 -0.41095125672322341 -0.21507194316695649 0 -0.39831859429118138 -0.23199988348810369 0 -0.40578108161144449 -0.22401229982098031 0 -0.39785875516044511 -0.21810106233857471 0 -0.40066355076090943 -0.20327441215359149 0 -0.39785875516044511 -0.21810106233857471 0 -0.41095125672322341 -0.21507194316695649 0 -0.40066355076090943 -0.20327441215359149 0 -0.39785875516044511 -0.21810106233857471 0 -0.3884818347439567 -0.20901352958644701 0 -0.38256295026869941 -0.2239064984687483 0 -0.39785875516044511 -0.21810106233857471 0 -0.3884818347439567 -0.20901352958644701 0 -0.38256295026869941 -0.2239064984687483 0 -0.3884818347439567 -0.20901352958644701 0 -0.37618669488559953 -0.21240098463229071 0 -0.37618669488559953 -0.21240098463229071 0 -0.37851381914610388 -0.1881120617614099 0 -0.38513722264412997 -0.18738469033902991 0 -0.3884818347439567 -0.20901352958644701 0 -0.37618669488559953 -0.21240098463229071 0 -0.38513722264412997 -0.18738469033902991 0 -0.37618669488559953 -0.21240098463229071 0 -0.38513722264412997 -0.18738469033902991 0 -0.40066355076090943 -0.20327441215359149 0 -0.3884818347439567 -0.20901352958644701 0 -0.38513722264412997 -0.18738469033902991 0 -0.40066355076090943 -0.20327441215359149 0 -0.40337511607238907 -0.18642342028559331 0 -0.38513722264412997 -0.18738469033902991 0 -0.40066355076090943 -0.20327441215359149 0 -0.41938580303462092 -0.19795961846702431 0 -0.40337511607238907 -0.18642342028559331 0 -0.41938580303462092 -0.19795961846702431 0 -0.41095125672322341 -0.21507194316695649 0 -0.42797025300646202 -0.21410326264050389 0 -0.40066355076090943 -0.20327441215359149 0 -0.41938580303462092 -0.19795961846702431 0 -0.41095125672322341 -0.21507194316695649 0 -0.41938580303462092 -0.19795961846702431 0 -0.42797025300646202 -0.21410326264050389 0 -0.43838396388955841 -0.2027760574533056 0 -0.41938580303462092 -0.19795961846702431 0 -0.43812620105171018 -0.18179465630655431 0 -0.43838396388955841 -0.2027760574533056 0 -0.41938580303462092 -0.19795961846702431 0 -0.41616867309295968 -0.17386728874614099 0 -0.43812620105171018 -0.18179465630655431 0 -0.42974902272786758 -0.15651163862692649 0 -0.41616867309295968 -0.17386728874614099 0 -0.43812620105171018 -0.18179465630655431 0 -0.42974902272786758 -0.15651163862692649 0 -0.41616867309295968 -0.17386728874614099 0 -0.41157185505517818 -0.15451465490677299 0 -0.41616867309295968 -0.17386728874614099 0 -0.39408775040266031 -0.16236839604576911 0 -0.41157185505517818 -0.15451465490677299 0 -0.41938580303462092 -0.19795961846702431 0 -0.41616867309295968 -0.17386728874614099 0 -0.40337511607238907 -0.18642342028559331 0 -0.40337511607238907 -0.18642342028559331 0 -0.38513722264412997 -0.18738469033902991 0 -0.39408775040266031 -0.16236839604576911 0 -0.41616867309295968 -0.17386728874614099 0 -0.40337511607238907 -0.18642342028559331 0 -0.39408775040266031 -0.16236839604576911 0 -0.36970112771986602 -0.16519807248713231 0 -0.37851381914610388 -0.1881120617614099 0 -0.38073852672451852 -0.1746494262426532 0 -0.38513722264412997 -0.18738469033902991 0 -0.38073852672451852 -0.1746494262426532 0 -0.39408775040266031 -0.16236839604576911 0 -0.38513722264412997 -0.18738469033902991 0 -0.39408775040266031 -0.16236839604576911 0 -0.37851381914610388 -0.1881120617614099 0 -0.38513722264412997 -0.18738469033902991 0 -0.38073852672451852 -0.1746494262426532 0 -0.36970112771986602 -0.16519807248713231 0 -0.39408775040266031 -0.16236839604576911 0 -0.38669343927280758 -0.14660748034245871 0 -0.36970112771986602 -0.16519807248713231 0 -0.38073852672451852 -0.1746494262426532 0 -0.39408775040266031 -0.16236839604576911 0 -0.39408775040266031 -0.16236839604576911 0 -0.38669343927280758 -0.14660748034245871 0 -0.40303827816119059 -0.1373521017525082 0 -0.39408775040266031 -0.16236839604576911 0 -0.40303827816119059 -0.1373521017525082 0 -0.41157185505517818 -0.15451465490677299 0 -0.39408775040266031 -0.16236839604576911 0 -0.40303827816119059 -0.1373521017525082 0 -0.37085910199024757 -0.14746961565196939 0 -0.38669343927280758 -0.14660748034245871 0 -0.3762508269806728 -0.12969304455337599 0 -0.37085910199024757 -0.14746961565196939 0 -0.36970112771986602 -0.16519807248713231 0 -0.38669343927280758 -0.14660748034245871 0 -0.38669343927280758 -0.14660748034245871 0 -0.3762508269806728 -0.12969304455337599 0 -0.40303827816119059 -0.1373521017525082 0 -0.3762508269806728 -0.12969304455337599 0 -0.40303827816119059 -0.1373521017525082 0 -0.39342721439259698 -0.12133463363917681 0 -0.40303827816119059 -0.1373521017525082 0 -0.42504752033769388 -0.12845244577964721 0 -0.41198880591972109 -0.1123358074592473 0 -0.40303827816119059 -0.1373521017525082 0 -0.41157185505517818 -0.15451465490677299 0 -0.42504752033769388 -0.12845244577964721 0 -0.42974902272786758 -0.15651163862692649 0 -0.41157185505517818 -0.15451465490677299 0 -0.42504752033769388 -0.12845244577964721 0 -0.42974902272786758 -0.15651163862692649 0 -0.42504752033769388 -0.12845244577964721 0 -0.44497151870134311 -0.139897060422943 0 -0.42504752033769388 -0.12845244577964721 0 -0.44497151870134311 -0.139897060422943 0 -0.44007047451708048 -0.1141490580437016 0 -0.44497151870134311 -0.139897060422943 0 -0.46446437205799068 -0.12619982473044111 0 -0.44007047451708048 -0.1141490580437016 0 -0.44497151870134311 -0.139897060422943 0 -0.4625274526091282 -0.1512873775981764 0 -0.44797026995829747 -0.16278201775876611 0 -0.42974902272786758 -0.15651163862692649 0 -0.44497151870134311 -0.139897060422943 0 -0.44797026995829747 -0.16278201775876611 0 -0.4625274526091282 -0.1512873775981764 0 -0.46837666553851032 -0.1417835643265869 0 -0.47037249233062878 -0.15276320157061149 0 -0.44497151870134311 -0.139897060422943 0 -0.4625274526091282 -0.1512873775981764 0 -0.46446437205799068 -0.12619982473044111 0 -0.4625274526091282 -0.1512873775981764 0 -0.46837666553851032 -0.1417835643265869 0 -0.46446437205799068 -0.12619982473044111 0 -0.4625274526091282 -0.1512873775981764 0 -0.46446437205799068 -0.12619982473044111 0 -0.46837666553851032 -0.1417835643265869 0 -0.46446437205799068 -0.12619982473044111 0 -0.47090872410275109 -0.1343940827270326 0 -0.46446437205799068 -0.12619982473044111 0 -0.47788594967197873 -0.13283018382426171 0 -0.46446437205799068 -0.12619982473044111 0 -0.47788594967197873 -0.13283018382426171 0 -0.46489433234608979 -0.12063085206865851 0 -0.46446437205799068 -0.12619982473044111 0 -0.47090872410275109 -0.1343940827270326 0 -0.47788594967197873 -0.13283018382426171 0 -0.46837666553851032 -0.1417835643265869 0 -0.47090872410275109 -0.1343940827270326 0 -0.47712341059676772 -0.13485318125778459 0 -0.47090872410275109 -0.1343940827270326 0 -0.47712341059676772 -0.13485318125778459 0 -0.47788594967197873 -0.13283018382426171 0 -0.47712341059676772 -0.13485318125778459 0 -0.47788594967197873 -0.13283018382426171 0 -0.48456908853345709 -0.1430079985343882 0 -0.47712341059676772 -0.13485318125778459 0 -0.47788594967197873 -0.13283018382426171 0 -0.47788594967197873 -0.13283018382426171 0 -0.50000000000000078 -0.1437546890434406 0 -0.47788594967197873 -0.13283018382426171 0 -0.50000000000000078 -0.1437546890434406 0 -0.48456908853345709 -0.1430079985343882 0 -0.47788594967197873 -0.13283018382426171 0 -0.50000000000000078 -0.1437546890434406 0 -0.5 -0.1205571765527803 0 -0.50000000000000078 -0.1437546890434406 0 -0.48456908853345709 -0.1430079985343882 0 -0.48326699386508071 -0.1605939400120667 0 -0.47712341059676772 -0.13485318125778459 0 -0.48456908853345709 -0.1430079985343882 0 -0.48326699386508071 -0.1605939400120667 0 -0.47712341059676772 -0.13485318125778459 0 -0.47037249233062878 -0.15276320157061149 0 -0.48326699386508071 -0.1605939400120667 0 -0.46837666553851032 -0.1417835643265869 0 -0.47712341059676772 -0.13485318125778459 0 -0.47037249233062878 -0.15276320157061149 0 -0.47712341059676772 -0.13485318125778459 0 -0.47037249233062878 -0.15276320157061149 0 -0.47712341059676772 -0.13485318125778459 0 -0.48326699386508071 -0.1605939400120667 0 -0.47037249233062878 -0.15276320157061149 0 -0.47249960992668733 -0.16379232694870879 0 -0.48326699386508071 -0.1605939400120667 0 -0.47037249233062878 -0.15276320157061149 0 -0.47249960992668733 -0.16379232694870879 0 -0.46362157406449039 -0.17067322188343859 0 -0.471570802061127 -0.17140437249734619 0 -0.48326699386508071 -0.1605939400120667 0 -0.47528549591981761 -0.18053029688042621 0 -0.47249960992668733 -0.16379232694870879 0 -0.471570802061127 -0.17140437249734619 0 -0.48326699386508071 -0.1605939400120667 0 -0.47249960992668733 -0.16379232694870879 0 -0.471570802061127 -0.17140437249734619 0 -0.46362157406449039 -0.17067322188343859 0 -0.48326699386508071 -0.1605939400120667 0 -0.5 -0.1678547070788701 0 -0.48941057713339331 -0.18633469876634909 0 -0.50000000000000078 -0.1437546890434406 0 -0.48326699386508071 -0.1605939400120667 0 -0.5 -0.1678547070788701 0 -0.5 -0.1678547070788701 0 -0.48941057713339331 -0.18633469876634909 0 -0.5 -0.19195472511429951 0 -0.48326699386508071 -0.1605939400120667 0 -0.48941057713339331 -0.18633469876634909 0 -0.48326699386508071 -0.1605939400120667 0 -0.48941057713339331 -0.18633469876634909 0 -0.47528549591981761 -0.18053029688042621 0 -0.48941057713339331 -0.18633469876634909 0 -0.47528549591981761 -0.18053029688042621 0 -0.4777532859679175 -0.1946576620847302 0 -0.471570802061127 -0.17140437249734619 0 -0.47528549591981761 -0.18053029688042621 0 -0.46059053316026821 -0.17637493046591179 0 -0.47528549591981761 -0.18053029688042621 0 -0.46059053316026821 -0.17637493046591179 0 -0.45865361371140811 -0.2014624833336473 0 -0.471570802061127 -0.17140437249734619 0 -0.46059053316026821 -0.17637493046591179 0 -0.46362157406449039 -0.17067322188343859 0 -0.4625274526091282 -0.1512873775981764 0 -0.46059053316026821 -0.17637493046591179 0 -0.44797026995829747 -0.16278201775876611 0 -0.4625274526091282 -0.1512873775981764 0 -0.46059053316026821 -0.17637493046591179 0 -0.4625274526091282 -0.1512873775981764 0 -0.47037249233062878 -0.15276320157061149 0 -0.46362157406449039 -0.17067322188343859 0 -0.4625274526091282 -0.1512873775981764 0 -0.46059053316026821 -0.17637493046591179 0 -0.46362157406449039 -0.17067322188343859 0 -0.47037249233062878 -0.15276320157061149 0 -0.46362157406449039 -0.17067322188343859 0 -0.42974902272786758 -0.15651163862692649 0 -0.44797026995829747 -0.16278201775876611 0 -0.43812620105171018 -0.18179465630655431 0 -0.46059053316026821 -0.17637493046591179 0 -0.43812620105171018 -0.18179465630655431 0 -0.45865361371140811 -0.2014624833336473 0 -0.46059053316026821 -0.17637493046591179 0 -0.44797026995829747 -0.16278201775876611 0 -0.43812620105171018 -0.18179465630655431 0 -0.43812620105171018 -0.18179465630655431 0 -0.43838396388955841 -0.2027760574533056 0 -0.45865361371140811 -0.2014624833336473 0 -0.42797025300646202 -0.21410326264050389 0 -0.43838396388955841 -0.2027760574533056 0 -0.44799952697485568 -0.2189563797826358 0 -0.43838396388955841 -0.2027760574533056 0 -0.45865361371140811 -0.2014624833336473 0 -0.44799952697485568 -0.2189563797826358 0 -0.45865361371140811 -0.2014624833336473 0 -0.45671669426254741 -0.22655003620138259 0 -0.44799952697485568 -0.2189563797826358 0 -0.46843146770864219 -0.2137068893222013 0 -0.45865361371140811 -0.2014624833336473 0 -0.45671669426254741 -0.22655003620138259 0 -0.46843146770864219 -0.2137068893222013 0 -0.45865361371140811 -0.2014624833336473 0 -0.47516265013842779 -0.2054668595552063 0 -0.45865361371140811 -0.2014624833336473 0 -0.45671669426254741 -0.22655003620138259 0 -0.46059053316026821 -0.17637493046591179 0 -0.45865361371140811 -0.2014624833336473 0 -0.45865361371140811 -0.2014624833336473 0 -0.4777532859679175 -0.1946576620847302 0 -0.47516265013842779 -0.2054668595552063 0 -0.48941057713339331 -0.18633469876634909 0 -0.48410526154370492 -0.2027496760410929 0 -0.4777532859679175 -0.1946576620847302 0 -0.47528549591981761 -0.18053029688042621 0 -0.45865361371140811 -0.2014624833336473 0 -0.4777532859679175 -0.1946576620847302 0 -0.48410526154370492 -0.2027496760410929 0 -0.4777532859679175 -0.1946576620847302 0 -0.47516265013842779 -0.2054668595552063 0 -0.48941057713339331 -0.18633469876634909 0 -0.5 -0.19195472511429951 0 -0.49555416040170569 -0.21207545752063139 0 -0.48941057713339331 -0.18633469876634909 0 -0.48410526154370492 -0.2027496760410929 0 -0.49555416040170569 -0.21207545752063139 0 -0.48941057713339331 -0.18633469876634909 0 -0.49555416040170569 -0.21207545752063139 0 -0.5 -0.19195472511429951 0 -0.5 -0.21605474314972889 0 -0.49555416040170569 -0.21207545752063139 0 -0.5 -0.21605474314972889 0 -0.49555416040170569 -0.21207545752063139 0 -0.49173507930754168 -0.22081549960986249 0 -0.48410526154370492 -0.2027496760410929 0 -0.49555416040170569 -0.21207545752063139 0 -0.48264563407708022 -0.2152137022785475 0 -0.49555416040170569 -0.21207545752063139 0 -0.48264563407708022 -0.2152137022785475 0 -0.49173507930754168 -0.22081549960986249 0 -0.48410526154370492 -0.2027496760410929 0 -0.48264563407708022 -0.2152137022785475 0 -0.47516265013842779 -0.2054668595552063 0 -0.46843146770864219 -0.2137068893222013 0 -0.48264563407708022 -0.2152137022785475 0 -0.47430965597614849 -0.2259703507902131 0 -0.46843146770864219 -0.2137068893222013 0 -0.48264563407708022 -0.2152137022785475 0 -0.47516265013842779 -0.2054668595552063 0 -0.47430965597614849 -0.2259703507902131 0 -0.47835834713127418 -0.24540240771098509 0 -0.45671669426254741 -0.22655003620138259 0 -0.47430965597614849 -0.2259703507902131 0 -0.48539613670119902 -0.22897871843794859 0 -0.47835834713127418 -0.24540240771098509 0 -0.48264563407708022 -0.2152137022785475 0 -0.47430965597614849 -0.2259703507902131 0 -0.48539613670119902 -0.22897871843794859 0 -0.5 -0.21605474314972889 0 -0.49173507930754168 -0.22081549960986249 0 -0.5 -0.24015476118515819 0 -0.48264563407708022 -0.2152137022785475 0 -0.49173507930754168 -0.22081549960986249 0 -0.48539613670119902 -0.22897871843794859 0 -0.49173507930754168 -0.22081549960986249 0 -0.48539613670119902 -0.22897871843794859 0 -0.5 -0.24015476118515819 0 -0.48539613670119902 -0.22897871843794859 0 -0.5 -0.24015476118515819 0 -0.47835834713127418 -0.24540240771098509 0 -0.50000000000000089 -0.2642547792205876 0 -0.5 -0.24015476118515819 0 -0.47835834713127418 -0.24540240771098509 0 -0.47835834713127418 -0.24540240771098509 0 -0.45671669426254741 -0.22655003620138259 0 -0.45462712384395731 -0.25361476952217549 0 -0.45671669426254741 -0.22655003620138259 0 -0.45462712384395731 -0.25361476952217549 0 -0.47835834713127418 -0.24540240771098509 0 -0.45671669426254741 -0.22655003620138259 0 -0.46843146770864219 -0.2137068893222013 0 -0.47430965597614849 -0.2259703507902131 0 -0.45671669426254741 -0.22655003620138259 0 -0.45671669426254741 -0.22655003620138259 0 -0.44598733202905771 -0.23314386726422121 0 -0.44799952697485568 -0.2189563797826358 0 -0.45671669426254741 -0.22655003620138259 0 -0.44799952697485568 -0.2189563797826358 0 -0.43524987343654858 -0.2261218355439521 0 -0.44598733202905771 -0.23314386726422121 0 -0.44799952697485568 -0.2189563797826358 0 -0.43534344162737859 -0.24047631527095989 0 -0.43524987343654858 -0.2261218355439521 0 -0.44598733202905771 -0.23314386726422121 0 -0.45462712384395731 -0.25361476952217549 0 -0.45671669426254741 -0.22655003620138259 0 -0.44598733202905771 -0.23314386726422121 0 -0.45462712384395731 -0.25361476952217549 0 -0.43534344162737859 -0.24047631527095989 0 -0.44598733202905771 -0.23314386726422121 0 -0.41921093266659359 -0.033164954261902801 0 -0.41295173416197378 -0.06234822558326894 0 -0.40195936500103141 -0.046796709667722668 0 -0.41921093266659359 -0.033164954261902801 0 -0.41295173416197378 -0.06234822558326894 0 -0.43040198375701832 -0.060745891718668607 0 -0.41295173416197378 -0.06234822558326894 0 -0.42988986143678481 -0.062303218872726752 0 -0.41295173416197378 -0.06234822558326894 0 -0.42988986143678481 -0.062303218872726752 0 -0.43040198375701832 -0.060745891718668607 0 -0.43040198375701832 -0.060745891718668607 0 -0.4380515092733156 -0.039491805992396427 0 -0.41921093266659359 -0.033164954261902801 0 -0.43040198375701832 -0.060745891718668607 0 -0.42988986143678481 -0.062303218872726752 0 -0.43040198375701832 -0.060745891718668607 0 -0.445481763444253 -0.054145757887925132 0 -0.42988986143678481 -0.062303218872726752 0 -0.43040198375701832 -0.060745891718668607 0 -0.41921093266659359 -0.033164954261902801 0 -0.43040198375701832 -0.060745891718668607 0 -0.4380515092733156 -0.039491805992396427 0 -0.41921093266659359 -0.033164954261902801 0 -0.43230720793599609 -0.026094421193308431 0 -0.4380515092733156 -0.039491805992396427 0 -0.43230720793599609 -0.026094421193308431 0 -0.42630531071212308 -0.0134974999185404 0 -0.44566107909195207 -0.018223424600394129 0 -0.41921093266659359 -0.033164954261902801 0 -0.43230720793599609 -0.026094421193308431 0 -0.42630531071212308 -0.0134974999185404 0 -0.42630531071212308 -0.0134974999185404 0 -0.44366757214212588 -0.0037234520514396528 0 -0.42902323539132631 0.0019823452864290588 0 -0.42630531071212308 -0.0134974999185404 0 -0.40801988157616897 -0.0055840168051370133 0 -0.42902323539132631 0.0019823452864290588 0 -0.41921093266659359 -0.033164954261902801 0 -0.40801988157616897 -0.0055840168051370133 0 -0.41921093266659359 -0.033164954261902801 0 -0.42630531071212308 -0.0134974999185404 0 -0.40801988157616897 -0.0055840168051370133 0 -0.41921093266659359 -0.033164954261902801 0 -0.40801988157616897 -0.0055840168051370133 0 -0.39636647839350242 -0.028379862240049378 0 -0.40801988157616897 -0.0055840168051370133 0 -0.39636647839350242 -0.028379862240049378 0 -0.38485887469789321 -0.006265053940782743 0 -0.39636647839350242 -0.028379862240049378 0 -0.38485887469789321 -0.006265053940782743 0 -0.37636024238127208 -0.02856628230930431 0 -0.36811241657795418 -0.046063652852842647 0 -0.37636024238127208 -0.02856628230930431 0 -0.38525407289592412 -0.047697273959590523 0 -0.39636647839350242 -0.028379862240049378 0 -0.37636024238127208 -0.02856628230930431 0 -0.38525407289592412 -0.047697273959590523 0 -0.41921093266659359 -0.033164954261902801 0 -0.39636647839350242 -0.028379862240049378 0 -0.40195936500103141 -0.046796709667722668 0 -0.39636647839350242 -0.028379862240049378 0 -0.40195936500103141 -0.046796709667722668 0 -0.38525407289592412 -0.047697273959590523 0 -0.41295173416197378 -0.06234822558326894 0 -0.39601360688716281 -0.062393232293801761 0 -0.40195936500103141 -0.046796709667722668 0 -0.39601360688716281 -0.062393232293801761 0 -0.38525407289592412 -0.047697273959590523 0 -0.41295173416197378 -0.06234822558326894 0 -0.40195936500103141 -0.046796709667722668 0 -0.39601360688716281 -0.062393232293801761 0 -0.3737851180713696 -0.063118395580058217 0 -0.36811241657795418 -0.046063652852842647 0 -0.38525407289592412 -0.047697273959590523 0 -0.3737851180713696 -0.063118395580058217 0 -0.39601360688716281 -0.062393232293801761 0 -0.38525407289592412 -0.047697273959590523 0 -0.3737851180713696 -0.063118395580058217 0 -0.39601360688716281 -0.062393232293801761 0 -0.38397168268224552 -0.076429317657624118 0 -0.36925684862333191 -0.075570755605724571 0 -0.3737851180713696 -0.063118395580058217 0 -0.38397168268224552 -0.076429317657624118 0 -0.3710615428907762 -0.088432852022637343 0 -0.38397168268224552 -0.076429317657624118 0 -0.39558112630105779 -0.09016001402609701 0 -0.38397168268224552 -0.076429317657624118 0 -0.39558112630105779 -0.09016001402609701 0 -0.40264167198013717 -0.075616311922087953 0 -0.39601360688716281 -0.062393232293801761 0 -0.38397168268224552 -0.076429317657624118 0 -0.40264167198013717 -0.075616311922087953 0 -0.41295173416197378 -0.06234822558326894 0 -0.39601360688716281 -0.062393232293801761 0 -0.40264167198013717 -0.075616311922087953 0 -0.3762508269806728 -0.12969304455337599 0 -0.38243094650880338 -0.1059575807915757 0 -0.39342721439259698 -0.12133463363917681 0 -0.3710615428907762 -0.088432852022637343 0 -0.39558112630105779 -0.09016001402609701 0 -0.38243094650880338 -0.1059575807915757 0 -0.39558112630105779 -0.09016001402609701 0 -0.38243094650880338 -0.1059575807915757 0 -0.41198880591972109 -0.1123358074592473 0 -0.38243094650880338 -0.1059575807915757 0 -0.39342721439259698 -0.12133463363917681 0 -0.41198880591972109 -0.1123358074592473 0 -0.40303827816119059 -0.1373521017525082 0 -0.39342721439259698 -0.12133463363917681 0 -0.41198880591972109 -0.1123358074592473 0 -0.40303827816119059 -0.1373521017525082 0 -0.41198880591972109 -0.1123358074592473 0 -0.39558112630105779 -0.09016001402609701 0 -0.41198880591972109 -0.1123358074592473 0 -0.42093933367825143 -0.087319513165986518 0 -0.41198880591972109 -0.1123358074592473 0 -0.42093933367825143 -0.087319513165986518 0 -0.41198880591972109 -0.1123358074592473 0 -0.428675226549597 -0.10753216097262849 0 -0.42093933367825143 -0.087319513165986518 0 -0.428675226549597 -0.10753216097262849 0 -0.42093933367825143 -0.087319513165986518 0 -0.44532999829523801 -0.095403980414559747 0 -0.42504752033769388 -0.12845244577964721 0 -0.41198880591972109 -0.1123358074592473 0 -0.428675226549597 -0.10753216097262849 0 -0.42504752033769388 -0.12845244577964721 0 -0.428675226549597 -0.10753216097262849 0 -0.44007047451708048 -0.1141490580437016 0 -0.41295173416197378 -0.06234822558326894 0 -0.42988986143678481 -0.062303218872726752 0 -0.42093933367825143 -0.087319513165986518 0 -0.41295173416197378 -0.06234822558326894 0 -0.40264167198013717 -0.075616311922087953 0 -0.42093933367825143 -0.087319513165986518 0 -0.39558112630105779 -0.09016001402609701 0 -0.40264167198013717 -0.075616311922087953 0 -0.42093933367825143 -0.087319513165986518 0 -0.42093933367825143 -0.087319513165986518 0 -0.44352482208928051 -0.075476291908082513 0 -0.44532999829523801 -0.095403980414559747 0 -0.42988986143678481 -0.062303218872726752 0 -0.42093933367825143 -0.087319513165986518 0 -0.42988986143678481 -0.062303218872726752 0 -0.42093933367825143 -0.087319513165986518 0 -0.44352482208928051 -0.075476291908082513 0 -0.42988986143678481 -0.062303218872726752 0 -0.44352482208928051 -0.075476291908082513 0 -0.45978884722028818 -0.062223773549381023 0 -0.44352482208928051 -0.075476291908082513 0 -0.46167606981584391 -0.070130973537759253 0 -0.44532999829523801 -0.095403980414559747 0 -0.46167606981584391 -0.070130973537759253 0 -0.44532999829523801 -0.095403980414559747 0 -0.46660875189734308 -0.09079822486751131 0 -0.46167606981584391 -0.070130973537759253 0 -0.46660875189734308 -0.09079822486751131 0 -0.46167606981584391 -0.070130973537759253 0 -0.44532999829523801 -0.095403980414559747 0 -0.46660875189734308 -0.09079822486751131 0 -0.46167606981584391 -0.070130973537759253 0 -0.47553936258594409 -0.072890928715443268 0 -0.44352482208928051 -0.075476291908082513 0 -0.46167606981584391 -0.070130973537759253 0 -0.45978884722028818 -0.062223773549381023 0 -0.46167606981584391 -0.070130973537759253 0 -0.46680234062521597 -0.062205137825232001 0 -0.45978884722028818 -0.062223773549381023 0 -0.46167606981584391 -0.070130973537759253 0 -0.46680234062521597 -0.062205137825232001 0 -0.46167606981584391 -0.070130973537759253 0 -0.47553936258594409 -0.072890928715443268 0 -0.46680234062521597 -0.062205137825232001 0 -0.46167606981584391 -0.070130973537759253 0 -0.45978884722028818 -0.062223773549381023 0 -0.46446437205799068 -0.12619982473044111 0 -0.44007047451708048 -0.1141490580437016 0 -0.44007047451708048 -0.1141490580437016 0 -0.44532999829523801 -0.095403980414559747 0 -0.4560943567290483 -0.107255691954944 0 -0.428675226549597 -0.10753216097262849 0 -0.44007047451708048 -0.1141490580437016 0 -0.44532999829523801 -0.095403980414559747 0 -0.46660875189734308 -0.09079822486751131 0 -0.4560943567290483 -0.107255691954944 0 -0.4634810328616813 -0.11104556232049 0 -0.46660875189734308 -0.09079822486751131 0 -0.4634810328616813 -0.11104556232049 0 -0.47154143397884352 -0.1114654761972631 0 -0.46660875189734308 -0.09079822486751131 0 -0.44532999829523801 -0.095403980414559747 0 -0.4560943567290483 -0.107255691954944 0 -0.44007047451708048 -0.1141490580437016 0 -0.4560943567290483 -0.107255691954944 0 -0.46489433234608979 -0.12063085206865851 0 -0.46446437205799068 -0.12619982473044111 0 -0.44007047451708048 -0.1141490580437016 0 -0.46489433234608979 -0.12063085206865851 0 -0.4560943567290483 -0.107255691954944 0 -0.4634810328616813 -0.11104556232049 0 -0.46489433234608979 -0.12063085206865851 0 -0.4634810328616813 -0.11104556232049 0 -0.46489433234608979 -0.12063085206865851 0 -0.47154143397884352 -0.1114654761972631 0 -0.46446437205799068 -0.12619982473044111 0 -0.46489433234608979 -0.12063085206865851 0 -0.47788594967197873 -0.13283018382426171 0 -0.47154143397884352 -0.1114654761972631 0 -0.47788594967197873 -0.13283018382426171 0 -0.48525729978131837 -0.11327417307332729 0 -0.47788594967197873 -0.13283018382426171 0 -0.46489433234608979 -0.12063085206865851 0 -0.47154143397884352 -0.1114654761972631 0 -0.47788594967197873 -0.13283018382426171 0 -0.47154143397884352 -0.1114654761972631 0 -0.48525729978131837 -0.11327417307332729 0 -0.46660875189734308 -0.09079822486751131 0 -0.47154143397884352 -0.1114654761972631 0 -0.48001338162697349 -0.10013028910861339 0 -0.46660875189734308 -0.09079822486751131 0 -0.47154143397884352 -0.1114654761972631 0 -0.47154143397884352 -0.1114654761972631 0 -0.48001338162697349 -0.10013028910861339 0 -0.48525729978131837 -0.11327417307332729 0 -0.48001338162697349 -0.10013028910861339 0 -0.48525729978131837 -0.11327417307332729 0 -0.49262864989066041 -0.093718162322393814 0 -0.5 -0.097359664062120155 0 -0.48525729978131837 -0.11327417307332729 0 -0.49262864989066041 -0.093718162322393814 0 -0.48525729978131837 -0.11327417307332729 0 -0.49262864989066041 -0.093718162322393814 0 -0.47788594967197873 -0.13283018382426171 0 -0.5 -0.1205571765527803 0 -0.48525729978131837 -0.11327417307332729 0 -0.5 -0.097359664062120155 0 -0.5 -0.1205571765527803 0 -0.48525729978131837 -0.11327417307332729 0 -0.47553936258594409 -0.072890928715443268 0 -0.48340117031260732 -0.062161032670582123 0 -0.46680234062521597 -0.062205137825232001 0 -0.47553936258594409 -0.072890928715443268 0 -0.48625202128796408 -0.081550607026024194 0 -0.48903851083730332 -0.070576329499888554 0 -0.47553936258594409 -0.072890928715443268 0 -0.48903851083730332 -0.070576329499888554 0 -0.48340117031260732 -0.062161032670582123 0 -0.46660875189734308 -0.09079822486751131 0 -0.48001338162697349 -0.10013028910861339 0 -0.48625202128796408 -0.081550607026024194 0 -0.46660875189734308 -0.09079822486751131 0 -0.47553936258594409 -0.072890928715443268 0 -0.48625202128796408 -0.081550607026024194 0 -0.5 -0.097359664062120155 0 -0.49262864989066041 -0.093718162322393814 0 -0.50000000000000122 -0.074162151571459889 0 -0.48001338162697349 -0.10013028910861339 0 -0.49262864989066041 -0.093718162322393814 0 -0.48625202128796408 -0.081550607026024194 0 -0.49262864989066041 -0.093718162322393814 0 -0.48625202128796408 -0.081550607026024194 0 -0.50000000000000122 -0.074162151571459889 0 -0.49262864989066041 -0.093718162322393814 0 -0.50000000000000122 -0.074162151571459889 0 -0.48903851083730332 -0.070576329499888554 0 -0.49999999999999861 -0.062116927515932903 0 -0.48340117031260732 -0.062161032670582123 0 -0.48625202128796408 -0.081550607026024194 0 -0.50000000000000122 -0.074162151571459889 0 -0.48903851083730332 -0.070576329499888554 0 -0.50000000000000122 -0.074162151571459889 0 -0.48903851083730332 -0.070576329499888554 0 -0.49999999999999861 -0.062116927515932903 0 -0.49999999999999861 -0.062116927515932903 0 -0.49004070218756363 -0.046771572727125683 0 -0.5 -0.036497231046605072 0 -0.49999999999999861 -0.062116927515932903 0 -0.48340117031260732 -0.062161032670582123 0 -0.49999999999999861 -0.062116927515932903 0 -0.49004070218756363 -0.046771572727125683 0 -0.48340117031260732 -0.062161032670582123 0 -0.49004070218756363 -0.046771572727125683 0 -0.47786822708347609 -0.045095936742580153 0 -0.48893411354173599 -0.027986735659928111 0 -0.49004070218756363 -0.046771572727125683 0 -0.5 -0.036497231046605072 0 -0.48893411354173599 -0.027986735659928111 0 -0.47786822708347609 -0.045095936742580153 0 -0.46882174202180921 -0.034055559810237883 0 -0.48893411354173599 -0.027986735659928111 0 -0.47786822708347609 -0.045095936742580153 0 -0.48893411354173599 -0.027986735659928111 0 -0.47786822708347609 -0.045095936742580153 0 -0.46882174202180921 -0.034055559810237883 0 -0.4639745088328352 -0.047777207998901061 0 -0.48340117031260732 -0.062161032670582123 0 -0.46680234062521597 -0.062205137825232001 0 -0.49004070218756363 -0.046771572727125683 0 -0.47786822708347609 -0.045095936742580153 0 -0.48340117031260732 -0.062161032670582123 0 -0.47786822708347609 -0.045095936742580153 0 -0.46680234062521597 -0.062205137825232001 0 -0.47786822708347609 -0.045095936742580153 0 -0.48340117031260732 -0.062161032670582123 0 -0.46680234062521597 -0.062205137825232001 0 -0.47786822708347609 -0.045095936742580153 0 -0.46680234062521597 -0.062205137825232001 0 -0.4639745088328352 -0.047777207998901061 0 -0.46680234062521597 -0.062205137825232001 0 -0.45978884722028818 -0.062223773549381023 0 -0.4639745088328352 -0.047777207998901061 0 -0.45978884722028818 -0.062223773549381023 0 -0.4639745088328352 -0.047777207998901061 0 -0.45343992856281629 -0.035622688095642008 0 -0.45978884722028818 -0.062223773549381023 0 -0.45343992856281629 -0.035622688095642008 0 -0.46680234062521597 -0.062205137825232001 0 -0.45978884722028818 -0.062223773549381023 0 -0.46882174202180921 -0.034055559810237883 0 -0.4639745088328352 -0.047777207998901061 0 -0.45343992856281629 -0.035622688095642008 0 -0.45343992856281629 -0.035622688095642008 0 -0.4380515092733156 -0.039491805992396427 0 -0.445481763444253 -0.054145757887925132 0 -0.42988986143678481 -0.062303218872726752 0 -0.45978884722028818 -0.062223773549381023 0 -0.43040198375701832 -0.060745891718668607 0 -0.4380515092733156 -0.039491805992396427 0 -0.445481763444253 -0.054145757887925132 0 -0.42988986143678481 -0.062303218872726752 0 -0.45978884722028818 -0.062223773549381023 0 -0.445481763444253 -0.054145757887925132 0 -0.45978884722028818 -0.062223773549381023 0 -0.45343992856281629 -0.035622688095642008 0 -0.445481763444253 -0.054145757887925132 0 -0.44566107909195207 -0.018223424600394129 0 -0.45327064891058511 0.00304495679160946 0 -0.42630531071212308 -0.0134974999185404 0 -0.44366757214212588 -0.0037234520514396528 0 -0.44566107909195207 -0.018223424600394129 0 -0.44366757214212588 -0.0037234520514396528 0 -0.44566107909195207 -0.018223424600394129 0 -0.45327064891058511 0.00304495679160946 0 -0.44366757214212588 -0.0037234520514396528 0 -0.45327064891058511 0.00304495679160946 0 -0.45343992856281629 -0.035622688095642008 0 -0.4380515092733156 -0.039491805992396427 0 -0.44566107909195207 -0.018223424600394129 0 -0.43230720793599609 -0.026094421193308431 0 -0.4380515092733156 -0.039491805992396427 0 -0.44566107909195207 -0.018223424600394129 0 -0.4380515092733156 -0.039491805992396427 0 -0.44566107909195207 -0.018223424600394129 0 -0.45343992856281629 -0.035622688095642008 0 -0.44566107909195207 -0.018223424600394129 0 -0.46833053142682451 -0.01852689591314597 0 -0.46882174202180921 -0.034055559810237883 0 -0.45343992856281629 -0.035622688095642008 0 -0.46833053142682451 -0.01852689591314597 0 -0.46833053142682451 -0.01852689591314597 0 -0.48100815468351582 -0.002010352775923496 0 -0.45327064891058511 0.00304495679160946 0 -0.44566107909195207 -0.018223424600394129 0 -0.46833053142682451 -0.01852689591314597 0 -0.45327064891058511 0.00304495679160946 0 -0.46882174202180921 -0.034055559810237883 0 -0.46833053142682451 -0.01852689591314597 0 -0.48893411354173599 -0.027986735659928111 0 -0.46833053142682451 -0.01852689591314597 0 -0.48100815468351582 -0.002010352775923496 0 -0.48893411354173599 -0.027986735659928111 0 -0.5 -0.036497231046605072 0 -0.48893411354173599 -0.027986735659928111 0 -0.49999999999999761 -0.01087753457727726 0 -0.48893411354173599 -0.027986735659928111 0 -0.49999999999999761 -0.01087753457727726 0 -0.48100815468351582 -0.002010352775923496 0 -0.49999999999999761 -0.01087753457727726 0 -0.5 0.012251244279806509 0 -0.48100815468351582 -0.002010352775923496 0 -0.48893411354173599 -0.027986735659928111 0 -0.49999999999999761 -0.01087753457727726 0 -0.48100815468351582 -0.002010352775923496 0 -0.5 0.012251244279806509 0 -0.47651431179380249 0.019427478476797391 0 -0.5 0.012251244279806509 0 -0.47651431179380249 0.019427478476797391 0 -0.4997579746770221 0.03581000016198186 0 -0.47651431179380249 0.019427478476797391 0 -0.4997579746770221 0.03581000016198186 0 -0.47651431179380249 0.019427478476797391 0 -0.4997579746770221 0.03581000016198186 0 -0.48387191122562379 0.035318291717874171 0 -0.48100815468351582 -0.002010352775923496 0 -0.47651431179380249 0.019427478476797391 0 -0.45327064891058511 0.00304495679160946 0 -0.49328980217069363 0.060931714553400768 0 -0.49324823997122907 0.047375055951869222 0 -0.48167866942108339 0.067929308148762843 0 -0.49328980217069363 0.060931714553400768 0 -0.50000000000000067 0.049152157475713498 0 -0.5 0.074690434906506287 0 -0.49324823997122907 0.047375055951869222 0 -0.48167866942108339 0.067929308148762843 0 -0.49328980217069363 0.060931714553400768 0 -0.50000000000000067 0.049152157475713498 0 -0.49324823997122907 0.047375055951869222 0 -0.50000000000000067 0.049152157475713498 0 -0.49324823997122907 0.047375055951869222 0 -0.49324823997122907 0.047375055951869222 0 -0.4997579746770221 0.03581000016198186 0 -0.48387191122562379 0.035318291717874171 0 -0.50000000000000067 0.049152157475713498 0 -0.49324823997122907 0.047375055951869222 0 -0.4997579746770221 0.03581000016198186 0 -0.49324823997122907 0.047375055951869222 0 -0.4997579746770221 0.03581000016198186 0 -0.49324823997122907 0.047375055951869222 0 -0.48387191122562379 0.035318291717874171 0 -0.46662418747517459 0.040367454369455547 0 -0.49324823997122907 0.047375055951869222 0 -0.46662418747517459 0.040367454369455547 0 -0.47651431179380249 0.019427478476797391 0 -0.48387191122562379 0.035318291717874171 0 -0.46662418747517459 0.040367454369455547 0 -0.47281195505366602 0.057661966932046449 0 -0.46662418747517459 0.040367454369455547 0 -0.49324823997122907 0.047375055951869222 0 -0.47281195505366602 0.057661966932046449 0 -0.46662418747517459 0.040367454369455547 0 -0.49324823997122907 0.047375055951869222 0 -0.47281195505366602 0.057661966932046449 0 -0.48167866942108339 0.067929308148762843 0 -0.47281195505366602 0.057661966932046449 0 -0.4584982921918625 0.053516102002706921 0 -0.46662418747517459 0.040367454369455547 0 -0.47281195505366602 0.057661966932046449 0 -0.4584982921918625 0.053516102002706921 0 -0.46726329885682549 0.067949153023567896 0 -0.46662418747517459 0.040367454369455547 0 -0.4433590684786981 0.03424394313018192 0 -0.46662418747517459 0.040367454369455547 0 -0.4433590684786981 0.03424394313018192 0 -0.45994741819288371 0.021706205580531119 0 -0.4584982921918625 0.053516102002706921 0 -0.46662418747517459 0.040367454369455547 0 -0.4433590684786981 0.03424394313018192 0 -0.4433590684786981 0.03424394313018192 0 -0.44393262849027498 0.056060373741069709 0 -0.43108437969641772 0.043094290047631822 0 -0.4584982921918625 0.053516102002706921 0 -0.44393262849027498 0.056060373741069709 0 -0.45321847874658189 0.072154827688668793 0 -0.4584982921918625 0.053516102002706921 0 -0.4433590684786981 0.03424394313018192 0 -0.44393262849027498 0.056060373741069709 0 -0.45327064891058511 0.00304495679160946 0 -0.45994741819288371 0.021706205580531119 0 -0.47651431179380249 0.019427478476797391 0 -0.45327064891058511 0.00304495679160946 0 -0.45994741819288371 0.021706205580531119 0 -0.47651431179380249 0.019427478476797391 0 -0.45327064891058511 0.00304495679160946 0 -0.47651431179380249 0.019427478476797391 0 -0.46662418747517459 0.040367454369455547 0 -0.45994741819288371 0.021706205580531119 0 -0.46662418747517459 0.040367454369455547 0 -0.45994741819288371 0.021706205580531119 0 -0.45994741819288371 0.021706205580531119 0 -0.44417219079966908 0.0080725471881138849 0 -0.43495207936142088 0.017352680333440701 0 -0.4433590684786981 0.03424394313018192 0 -0.45994741819288371 0.021706205580531119 0 -0.43495207936142088 0.017352680333440701 0 -0.45327064891058511 0.00304495679160946 0 -0.45994741819288371 0.021706205580531119 0 -0.44417219079966908 0.0080725471881138849 0 -0.44366757214212588 -0.0037234520514396528 0 -0.45327064891058511 0.00304495679160946 0 -0.44417219079966908 0.0080725471881138849 0 -0.44366757214212588 -0.0037234520514396528 0 -0.44417219079966908 0.0080725471881138849 0 -0.42902323539132631 0.0019823452864290588 0 -0.42902323539132631 0.0019823452864290588 0 -0.41663897571736019 0.012372145848194819 0 -0.43495207936142088 0.017352680333440701 0 -0.44417219079966908 0.0080725471881138849 0 -0.42902323539132631 0.0019823452864290588 0 -0.43495207936142088 0.017352680333440701 0 -0.40801988157616897 -0.0055840168051370133 0 -0.41663897571736019 0.012372145848194819 0 -0.39682883048574619 0.02199692065162966 0 -0.40801988157616897 -0.0055840168051370133 0 -0.42902323539132631 0.0019823452864290588 0 -0.41663897571736019 0.012372145848194819 0 -0.42009394948222217 0.02812043189090593 0 -0.39682883048574619 0.02199692065162966 0 -0.41663897571736019 0.012372145848194819 0 -0.42009394948222217 0.02812043189090593 0 -0.39682883048574619 0.02199692065162966 0 -0.4433590684786981 0.03424394313018192 0 -0.42009394948222217 0.02812043189090593 0 -0.43495207936142088 0.017352680333440701 0 -0.4433590684786981 0.03424394313018192 0 -0.42009394948222217 0.02812043189090593 0 -0.41663897571736019 0.012372145848194819 0 -0.42009394948222217 0.02812043189090593 0 -0.43495207936142088 0.017352680333440701 0 -0.4433590684786981 0.03424394313018192 0 -0.42009394948222217 0.02812043189090593 0 -0.43108437969641772 0.043094290047631822 0 -0.43108437969641772 0.043094290047631822 0 -0.42532616283980063 0.047804438512569603 0 -0.42083289304589322 0.040817528728329597 0 -0.42009394948222217 0.02812043189090593 0 -0.43108437969641772 0.043094290047631822 0 -0.42083289304589322 0.040817528728329597 0 -0.44393262849027498 0.056060373741069709 0 -0.43306763397294251 0.054237528659298283 0 -0.43191629317040392 0.074278312734462684 0 -0.43306763397294251 0.054237528659298283 0 -0.4221173011816044 0.055446280831053428 0 -0.43191629317040392 0.074278312734462684 0 -0.4221173011816044 0.055446280831053428 0 -0.41860467559521508 0.056898562830420142 0 -0.43191629317040392 0.074278312734462684 0 -0.44393262849027498 0.056060373741069709 0 -0.43108437969641772 0.043094290047631822 0 -0.43306763397294251 0.054237528659298283 0 -0.43108437969641772 0.043094290047631822 0 -0.43306763397294251 0.054237528659298283 0 -0.42532616283980063 0.047804438512569603 0 -0.43306763397294251 0.054237528659298283 0 -0.42532616283980063 0.047804438512569603 0 -0.4221173011816044 0.055446280831053428 0 -0.42532616283980063 0.047804438512569603 0 -0.4221173011816044 0.055446280831053428 0 -0.418844433784481 0.048115915280819897 0 -0.41860467559521508 0.056898562830420142 0 -0.3960510533864614 0.066223274146421401 0 -0.4221173011816044 0.055446280831053428 0 -0.41860467559521508 0.056898562830420142 0 -0.4221173011816044 0.055446280831053428 0 -0.41860467559521508 0.056898562830420142 0 -0.418844433784481 0.048115915280819897 0 -0.41860467559521508 0.056898562830420142 0 -0.418844433784481 0.048115915280819897 0 -0.40744719439121679 0.042331269878290827 0 -0.41860467559521508 0.056898562830420142 0 -0.40744719439121679 0.042331269878290827 0 -0.41860467559521508 0.056898562830420142 0 -0.40744719439121679 0.042331269878290827 0 -0.40391879919769902 0.053884242093477031 0 -0.42009394948222217 0.02812043189090593 0 -0.40744719439121679 0.042331269878290827 0 -0.39628971318721973 0.02776397692616072 0 -0.42009394948222217 0.02812043189090593 0 -0.42083289304589322 0.040817528728329597 0 -0.40744719439121679 0.042331269878290827 0 -0.418844433784481 0.048115915280819897 0 -0.42083289304589322 0.040817528728329597 0 -0.40744719439121679 0.042331269878290827 0 -0.42532616283980063 0.047804438512569603 0 -0.418844433784481 0.048115915280819897 0 -0.42083289304589322 0.040817528728329597 0 -0.40744719439121679 0.042331269878290827 0 -0.39628971318721973 0.02776397692616072 0 -0.40744719439121679 0.042331269878290827 0 -0.39347904158017882 0.049940390906802058 0 -0.39043950465286581 0.03774375218368263 0 -0.40744719439121679 0.042331269878290827 0 -0.39043950465286581 0.03774375218368263 0 -0.39628971318721973 0.02776397692616072 0 -0.41860467559521508 0.056898562830420142 0 -0.40391879919769902 0.053884242093477031 0 -0.3960510533864614 0.066223274146421401 0 -0.40391879919769902 0.053884242093477031 0 -0.39347904158017882 0.049940390906802058 0 -0.3960510533864614 0.066223274146421401 0 -0.40744719439121679 0.042331269878290827 0 -0.40391879919769902 0.053884242093477031 0 -0.39347904158017882 0.049940390906802058 0 -0.39347904158017882 0.049940390906802058 0 -0.38155454120004317 0.054287033044786361 0 -0.3960510533864614 0.066223274146421401 0 -0.38155454120004317 0.054287033044786361 0 -0.37987359111232638 0.042726657548247719 0 -0.36370318070167962 0.048460228983828568 0 -0.39347904158017882 0.049940390906802058 0 -0.38155454120004317 0.054287033044786361 0 -0.37987359111232638 0.042726657548247719 0 -0.39043950465286581 0.03774375218368263 0 -0.37987359111232638 0.042726657548247719 0 -0.37310467998658048 0.033205643054502923 0 -0.39347904158017882 0.049940390906802058 0 -0.39043950465286581 0.03774375218368263 0 -0.37987359111232638 0.042726657548247719 0 -0.39043950465286581 0.03774375218368263 0 -0.39682883048574619 0.02199692065162966 0 -0.37310467998658048 0.033205643054502923 0 -0.39682883048574619 0.02199692065162966 0 -0.37158097687395047 0.0153515424189699 0 -0.37310467998658048 0.033205643054502923 0 -0.39682883048574619 0.02199692065162966 0 -0.37158097687395047 0.0153515424189699 0 -0.38485887469789321 -0.006265053940782743 0 -0.39682883048574619 0.02199692065162966 0 -0.37158097687395047 0.0153515424189699 0 -0.40801988157616897 -0.0055840168051370133 0 -0.38485887469789321 -0.006265053940782743 0 -0.39682883048574619 0.02199692065162966 0 -0.40801988157616897 -0.0055840168051370133 0 -0.39682883048574619 0.02199692065162966 0 -0.39043950465286581 0.03774375218368263 0 -0.39682883048574619 0.02199692065162966 0 -0.39043950465286581 0.03774375218368263 0 -0.39682883048574619 0.02199692065162966 0 -0.39628971318721973 0.02776397692616072 0 -0.42009394948222217 0.02812043189090593 0 -0.39682883048574619 0.02199692065162966 0 -0.39628971318721973 0.02776397692616072 0 -0.40592399802745782 0.098224846341659955 0 -0.3828431623919355 0.1015949094496669 0 -0.40128761833721011 0.081955636071747662 0 -0.40592399802745782 0.098224846341659955 0 -0.39931050979208671 0.1182757043989533 0 -0.3828431623919355 0.1015949094496669 0 -0.39931050979208671 0.1182757043989533 0 -0.38244713528919438 0.1241996252201293 0 -0.3828431623919355 0.1015949094496669 0 -0.38244713528919438 0.1241996252201293 0 -0.3828431623919355 0.1015949094496669 0 -0.36439870644666089 0.1212341828275862 0 -0.3828431623919355 0.1015949094496669 0 -0.40128761833721011 0.081955636071747662 0 -0.37349743117770789 0.075547985462423001 0 -0.38155454120004317 0.054287033044786361 0 -0.3960510533864614 0.066223274146421401 0 -0.37349743117770789 0.075547985462423001 0 -0.3960510533864614 0.066223274146421401 0 -0.37349743117770789 0.075547985462423001 0 -0.3960510533864614 0.066223274146421401 0 -0.40128761833721011 0.081955636071747662 0 -0.37349743117770789 0.075547985462423001 0 -0.3960510533864614 0.066223274146421401 0 -0.40128761833721011 0.081955636071747662 0 -0.41083371736751978 0.070040503391437067 0 -0.3828431623919355 0.1015949094496669 0 -0.40128761833721011 0.081955636071747662 0 -0.40592399802745782 0.098224846341659955 0 -0.40128761833721011 0.081955636071747662 0 -0.41362110527636081 0.082374028923920026 0 -0.40592399802745782 0.098224846341659955 0 -0.42090917186475091 0.092365640829029122 0 -0.41362110527636081 0.082374028923920026 0 -0.41860467559521508 0.056898562830420142 0 -0.41083371736751978 0.070040503391437067 0 -0.43191629317040392 0.074278312734462684 0 -0.41860467559521508 0.056898562830420142 0 -0.3960510533864614 0.066223274146421401 0 -0.41083371736751978 0.070040503391437067 0 -0.41362110527636081 0.082374028923920026 0 -0.41083371736751978 0.070040503391437067 0 -0.43191629317040392 0.074278312734462684 0 -0.40128761833721011 0.081955636071747662 0 -0.41362110527636081 0.082374028923920026 0 -0.41083371736751978 0.070040503391437067 0 -0.41860467559521508 0.056898562830420142 0 -0.43191629317040392 0.074278312734462684 0 -0.42090917186475091 0.092365640829029122 0 -0.41362110527636081 0.082374028923920026 0 -0.43191629317040392 0.074278312734462684 0 -0.42090917186475091 0.092365640829029122 0 -0.43191629317040392 0.074278312734462684 0 -0.44522791074559381 0.09165806263850429 0 -0.42090917186475091 0.092365640829029122 0 -0.43046020517667521 0.1047188208473277 0 -0.41750532729253093 0.1127622697909664 0 -0.42090917186475091 0.092365640829029122 0 -0.43046020517667521 0.1047188208473277 0 -0.44522791074559381 0.09165806263850429 0 -0.40592399802745782 0.098224846341659955 0 -0.42090917186475091 0.092365640829029122 0 -0.41750532729253093 0.1127622697909664 0 -0.41750532729253093 0.1127622697909664 0 -0.43257162568432511 0.12355777738738249 0 -0.41320524529068592 0.1368960367759364 0 -0.40592399802745782 0.098224846341659955 0 -0.39931050979208671 0.1182757043989533 0 -0.41750532729253093 0.1127622697909664 0 -0.39931050979208671 0.1182757043989533 0 -0.41750532729253093 0.1127622697909664 0 -0.41320524529068592 0.1368960367759364 0 -0.43046020517667521 0.1047188208473277 0 -0.43257162568432511 0.12355777738738249 0 -0.44277817607928288 0.1091066594026175 0 -0.43046020517667521 0.1047188208473277 0 -0.41750532729253093 0.1127622697909664 0 -0.43257162568432511 0.12355777738738249 0 -0.45089622782402122 0.1226167371315041 0 -0.44277817607928288 0.1091066594026175 0 -0.45853952832078387 0.1090378125425456 0 -0.43257162568432511 0.12355777738738249 0 -0.45089622782402122 0.1226167371315041 0 -0.44277817607928288 0.1091066594026175 0 -0.45853952832078387 0.1090378125425456 0 -0.44522791074559381 0.09165806263850429 0 -0.43046020517667521 0.1047188208473277 0 -0.44277817607928288 0.1091066594026175 0 -0.44522791074559381 0.09165806263850429 0 -0.44277817607928288 0.1091066594026175 0 -0.45853952832078387 0.1090378125425456 0 -0.44522791074559381 0.09165806263850429 0 -0.45853952832078387 0.1090378125425456 0 -0.44522791074559381 0.09165806263850429 0 -0.47010909887093411 0.088483560345654452 0 -0.45853952832078387 0.1090378125425456 0 -0.47010909887093411 0.088483560345654452 0 -0.45853952832078387 0.1090378125425456 0 -0.47209351792259402 0.12673400522167511 0 -0.45089622782402122 0.1226167371315041 0 -0.45853952832078387 0.1090378125425456 0 -0.47209351792259402 0.12673400522167511 0 -0.45089622782402122 0.1226167371315041 0 -0.45853952832078387 0.1090378125425456 0 -0.44393262849027498 0.056060373741069709 0 -0.43191629317040392 0.074278312734462684 0 -0.45321847874658189 0.072154827688668793 0 -0.43191629317040392 0.074278312734462684 0 -0.44522791074559381 0.09165806263850429 0 -0.43191629317040392 0.074278312734462684 0 -0.44522791074559381 0.09165806263850429 0 -0.45321847874658189 0.072154827688668793 0 -0.44522791074559381 0.09165806263850429 0 -0.45321847874658189 0.072154827688668793 0 -0.47010909887093411 0.088483560345654452 0 -0.45321847874658189 0.072154827688668793 0 -0.46726329885682549 0.067949153023567896 0 -0.47010909887093411 0.088483560345654452 0 -0.4584982921918625 0.053516102002706921 0 -0.45321847874658189 0.072154827688668793 0 -0.46726329885682549 0.067949153023567896 0 -0.46726329885682549 0.067949153023567896 0 -0.48167866942108339 0.067929308148762843 0 -0.47010909887093411 0.088483560345654452 0 -0.47281195505366602 0.057661966932046449 0 -0.46726329885682549 0.067949153023567896 0 -0.48167866942108339 0.067929308148762843 0 -0.48167866942108339 0.067929308148762843 0 -0.47010909887093411 0.088483560345654452 0 -0.48167866942108339 0.067929308148762843 0 -0.47010909887093411 0.088483560345654452 0 -0.4863899291577925 0.086490308171966943 0 -0.47010909887093411 0.088483560345654452 0 -0.4863899291577925 0.086490308171966943 0 -0.48061872243351428 0.10612840113659119 0 -0.4863899291577925 0.086490308171966943 0 -0.5 0.074690434906506287 0 -0.5 0.1002287123372993 0 -0.49328980217069363 0.060931714553400768 0 -0.48167866942108339 0.067929308148762843 0 -0.5 0.074690434906506287 0 -0.48167866942108339 0.067929308148762843 0 -0.4863899291577925 0.086490308171966943 0 -0.5 0.074690434906506287 0 -0.48061872243351428 0.10612840113659119 0 -0.5 0.12576698976809231 0 -0.47209351792259402 0.12673400522167511 0 -0.45853952832078387 0.1090378125425456 0 -0.48061872243351428 0.10612840113659119 0 -0.47209351792259402 0.12673400522167511 0 -0.45853952832078387 0.1090378125425456 0 -0.47010909887093411 0.088483560345654452 0 -0.48061872243351428 0.10612840113659119 0 -0.4863899291577925 0.086490308171966943 0 -0.48061872243351428 0.10612840113659119 0 -0.5 0.1002287123372993 0 -0.48061872243351428 0.10612840113659119 0 -0.5 0.1002287123372993 0 -0.5 0.12576698976809231 0 -0.5 0.12576698976809231 0 -0.48324002811898392 0.14307343191934349 0 -0.5 0.15130526719888529 0 -0.5 0.12576698976809231 0 -0.47209351792259402 0.12673400522167511 0 -0.48324002811898392 0.14307343191934349 0 -0.47209351792259402 0.12673400522167511 0 -0.48324002811898392 0.14307343191934349 0 -0.46587724345775888 0.14629055191489021 0 -0.48324002811898392 0.14307343191934349 0 -0.47822937921456682 0.16527034549317429 0 -0.46587724345775888 0.14629055191489021 0 -0.48324002811898392 0.14307343191934349 0 -0.5 0.15130526719888529 0 -0.47822937921456682 0.16527034549317429 0 -0.5 0.15130526719888529 0 -0.5 0.1768435446296783 0 -0.47822937921456682 0.16527034549317429 0 -0.5 0.1768435446296783 0 -0.47822937921456682 0.16527034549317429 0 -0.48045244448741442 0.19344482521834941 0 -0.47822937921456682 0.16527034549317429 0 -0.46090488897482962 0.18450782837622731 0 -0.48045244448741442 0.19344482521834941 0 -0.47822937921456682 0.16527034549317429 0 -0.45691590223102868 0.16557067200273101 0 -0.46090488897482962 0.18450782837622731 0 -0.47822937921456682 0.16527034549317429 0 -0.45691590223102868 0.16557067200273101 0 -0.46587724345775888 0.14629055191489021 0 -0.46090488897482962 0.18450782837622731 0 -0.44135733346224482 0.1755708315341051 0 -0.44067879750512862 0.19602711431800909 0 -0.46090488897482962 0.18450782837622731 0 -0.44135733346224482 0.1755708315341051 0 -0.45691590223102868 0.16557067200273101 0 -0.46090488897482962 0.18450782837622731 0 -0.44135733346224482 0.1755708315341051 0 -0.45691590223102868 0.16557067200273101 0 -0.44135733346224482 0.1755708315341051 0 -0.43821066604574349 0.15621380269525831 0 -0.43821066604574349 0.15621380269525831 0 -0.44325292732725768 0.13619566172046199 0 -0.46587724345775888 0.14629055191489021 0 -0.43821066604574349 0.15621380269525831 0 -0.46587724345775888 0.14629055191489021 0 -0.43257162568432511 0.12355777738738249 0 -0.45089622782402122 0.1226167371315041 0 -0.44325292732725768 0.13619566172046199 0 -0.45089622782402122 0.1226167371315041 0 -0.44325292732725768 0.13619566172046199 0 -0.45089622782402122 0.1226167371315041 0 -0.44325292732725768 0.13619566172046199 0 -0.45852569689628142 0.13313701962731189 0 -0.44325292732725768 0.13619566172046199 0 -0.45852569689628142 0.13313701962731189 0 -0.46587724345775888 0.14629055191489021 0 -0.45089622782402122 0.1226167371315041 0 -0.47209351792259402 0.12673400522167511 0 -0.45852569689628142 0.13313701962731189 0 -0.47209351792259402 0.12673400522167511 0 -0.45852569689628142 0.13313701962731189 0 -0.46587724345775888 0.14629055191489021 0 -0.45691590223102868 0.16557067200273101 0 -0.43821066604574349 0.15621380269525831 0 -0.46587724345775888 0.14629055191489021 0 -0.4766906091662621 0.2207066880856004 0 -0.46087805730186399 0.2442769255366096 0 -0.48217572555669991 0.25029396605485921 0 -0.5 0.2305326019969621 0 -0.5 0.25868338193345303 0 -0.48217572555669991 0.25029396605485921 0 -0.5 0.2305326019969621 0 -0.4766906091662621 0.2207066880856004 0 -0.48217572555669991 0.25029396605485921 0 -0.4766906091662621 0.2207066880856004 0 -0.48045244448741442 0.19344482521834941 0 -0.46190103350742617 0.20296769518509911 0 -0.5 0.2305326019969621 0 -0.4766906091662621 0.2207066880856004 0 -0.49999999999999922 0.20238182206047131 0 -0.4766906091662621 0.2207066880856004 0 -0.49999999999999922 0.20238182206047131 0 -0.48045244448741442 0.19344482521834941 0 -0.49999999999999922 0.20238182206047131 0 -0.48045244448741442 0.19344482521834941 0 -0.5 0.1768435446296783 0 -0.49999999999999922 0.20238182206047131 0 -0.48045244448741442 0.19344482521834941 0 -0.46090488897482962 0.18450782837622731 0 -0.48045244448741442 0.19344482521834941 0 -0.46090488897482962 0.18450782837622731 0 -0.48045244448741442 0.19344482521834941 0 -0.46190103350742617 0.20296769518509911 0 -0.46090488897482962 0.18450782837622731 0 -0.46190103350742617 0.20296769518509911 0 -0.44067879750512862 0.19602711431800909 0 -0.44067879750512862 0.19602711431800909 0 -0.45077842740349627 0.2201520199273094 0 -0.46190103350742617 0.20296769518509911 0 -0.44067879750512862 0.19602711431800909 0 -0.45077842740349627 0.2201520199273094 0 -0.44067879750512862 0.19602711431800909 0 -0.45077842740349627 0.2201520199273094 0 -0.42856451439274001 0.2093562472951718 0 -0.4766906091662621 0.2207066880856004 0 -0.46190103350742617 0.20296769518509911 0 -0.45077842740349627 0.2201520199273094 0 -0.45077842740349627 0.2201520199273094 0 -0.46087805730186399 0.2442769255366096 0 -0.4766906091662621 0.2207066880856004 0 -0.45077842740349627 0.2201520199273094 0 -0.46087805730186399 0.2442769255366096 0 -0.45077842740349627 0.2201520199273094 0 -0.44057175147848598 0.23923967503611829 0 -0.42737106223134802 0.2269697967323864 0 -0.44057175147848598 0.23923967503611829 0 -0.46087805730186399 0.2442769255366096 0 -0.44064366031254681 0.25883292783477407 0 -0.45077842740349627 0.2201520199273094 0 -0.44057175147848598 0.23923967503611829 0 -0.46087805730186399 0.2442769255366096 0 -0.4178674716704745 0.24859260188043569 0 -0.42737106223134802 0.2269697967323864 0 -0.4070156140997036 0.232582086713713 0 -0.44057175147848598 0.23923967503611829 0 -0.4178674716704745 0.24859260188043569 0 -0.44064366031254681 0.25883292783477407 0 -0.44057175147848598 0.23923967503611829 0 -0.4178674716704745 0.24859260188043569 0 -0.42737106223134802 0.2269697967323864 0 -0.45077842740349627 0.2201520199273094 0 -0.42737106223134802 0.2269697967323864 0 -0.42856451439274001 0.2093562472951718 0 -0.42737106223134802 0.2269697967323864 0 -0.4070156140997036 0.232582086713713 0 -0.40850654499327471 0.21329798617179649 0 -0.40850654499327471 0.21329798617179649 0 -0.42856451439274001 0.2093562472951718 0 -0.41548773983045251 0.1903343193263573 0 -0.42737106223134802 0.2269697967323864 0 -0.40850654499327471 0.21329798617179649 0 -0.42856451439274001 0.2093562472951718 0 -0.44067879750512862 0.19602711431800909 0 -0.42856451439274001 0.2093562472951718 0 -0.41548773983045251 0.1903343193263573 0 -0.41548773983045251 0.1903343193263573 0 -0.38922874937010382 0.2010666596882805 0 -0.38287751122171271 0.1760603042559945 0 -0.40850654499327471 0.21329798617179649 0 -0.41548773983045251 0.1903343193263573 0 -0.38922874937010382 0.2010666596882805 0 -0.38922874937010382 0.2010666596882805 0 -0.38287751122171271 0.1760603042559945 0 -0.37141185313106712 0.19494062480448121 0 -0.38922874937010382 0.2010666596882805 0 -0.37090803276211037 0.2116761130607675 0 -0.37141185313106712 0.19494062480448121 0 -0.38922874937010382 0.2010666596882805 0 -0.38556770841020271 0.22516649184971241 0 -0.37090803276211037 0.2116761130607675 0 -0.40850654499327471 0.21329798617179649 0 -0.38922874937010382 0.2010666596882805 0 -0.38556770841020271 0.22516649184971241 0 -0.4070156140997036 0.232582086713713 0 -0.40850654499327471 0.21329798617179649 0 -0.38556770841020271 0.22516649184971241 0 -0.39383175507615048 0.24673430455711989 0 -0.36979603848182652 0.24487600723380409 0 -0.38556770841020271 0.22516649184971241 0 -0.39383175507615048 0.24673430455711989 0 -0.36979603848182652 0.24487600723380409 0 -0.39383175507615048 0.24673430455711989 0 -0.36979603848182652 0.24487600723380409 0 -0.3800601359770836 0.25564484595707843 0 -0.4070156140997036 0.232582086713713 0 -0.38556770841020271 0.22516649184971241 0 -0.39383175507615048 0.24673430455711989 0 -0.4178674716704745 0.24859260188043569 0 -0.4070156140997036 0.232582086713713 0 -0.39383175507615048 0.24673430455711989 0 -0.4178674716704745 0.24859260188043569 0 -0.39383175507615048 0.24673430455711989 0 -0.41320524529068592 0.1368960367759364 0 -0.42755691059634809 0.1438000664109331 0 -0.4105440886337281 0.16613705347562641 0 -0.43257162568432511 0.12355777738738249 0 -0.41320524529068592 0.1368960367759364 0 -0.42755691059634809 0.1438000664109331 0 -0.43257162568432511 0.12355777738738249 0 -0.44325292732725768 0.13619566172046199 0 -0.42755691059634809 0.1438000664109331 0 -0.43821066604574349 0.15621380269525831 0 -0.42755691059634809 0.1438000664109331 0 -0.4105440886337281 0.16613705347562641 0 -0.43821066604574349 0.15621380269525831 0 -0.44325292732725768 0.13619566172046199 0 -0.42755691059634809 0.1438000664109331 0 -0.44135733346224482 0.1755708315341051 0 -0.43821066604574349 0.15621380269525831 0 -0.4105440886337281 0.16613705347562641 0 -0.43821066604574349 0.15621380269525831 0 -0.4105440886337281 0.16613705347562641 0 -0.44135733346224482 0.1755708315341051 0 -0.44067879750512862 0.19602711431800909 0 -0.41548773983045251 0.1903343193263573 0 -0.44135733346224482 0.1755708315341051 0 -0.41548773983045251 0.1903343193263573 0 -0.4105440886337281 0.16613705347562641 0 -0.41548773983045251 0.1903343193263573 0 -0.4105440886337281 0.16613705347562641 0 -0.38287751122171271 0.1760603042559945 0 -0.4105440886337281 0.16613705347562641 0 -0.38287751122171271 0.1760603042559945 0 -0.4105440886337281 0.16613705347562641 0 -0.38287751122171271 0.1760603042559945 0 -0.39221711619560379 0.15549059109051699 0 -0.38287751122171271 0.1760603042559945 0 -0.39221711619560379 0.15549059109051699 0 -0.37243397884595048 0.1472495613862331 0 -0.39221711619560379 0.15549059109051699 0 -0.39411947243213141 0.13685358375671691 0 -0.37243397884595048 0.1472495613862331 0 -0.41320524529068592 0.1368960367759364 0 -0.39221711619560379 0.15549059109051699 0 -0.39411947243213141 0.13685358375671691 0 -0.41320524529068592 0.1368960367759364 0 -0.4105440886337281 0.16613705347562641 0 -0.39221711619560379 0.15549059109051699 0 -0.39931050979208671 0.1182757043989533 0 -0.41320524529068592 0.1368960367759364 0 -0.39411947243213141 0.13685358375671691 0 -0.39931050979208671 0.1182757043989533 0 -0.38244713528919438 0.1241996252201293 0 -0.39411947243213141 0.13685358375671691 0 -0.38244713528919438 0.1241996252201293 0 -0.39411947243213141 0.13685358375671691 0 -0.37243397884595048 0.1472495613862331 0 -0.38244713528919438 0.1241996252201293 0 -0.37243397884595048 0.1472495613862331 0 -0.36439870644666089 0.1212341828275862 0 -0.3459542505013864 0.14087345620550551 0 -0.37243397884595048 0.1472495613862331 0 -0.36439870644666089 0.1212341828275862 0 -0.3459542505013864 0.14087345620550551 0 -0.36439870644666089 0.1212341828275862 0 -0.3459542505013864 0.14087345620550551 0 -0.37243397884595048 0.1472495613862331 0 -0.35354480155926599 0.16351199504570679 0 -0.38287751122171271 0.1760603042559945 0 -0.37243397884595048 0.1472495613862331 0 -0.35354480155926599 0.16351199504570679 0 -0.38287751122171271 0.1760603042559945 0 -0.35521093380969732 0.18598355503636249 0 -0.35354480155926599 0.16351199504570679 0 -0.38287751122171271 0.1760603042559945 0 -0.35521093380969732 0.18598355503636249 0 -0.38287751122171271 0.1760603042559945 0 -0.35521093380969732 0.18598355503636249 0 -0.37141185313106712 0.19494062480448121 0 -0.35521093380969732 0.18598355503636249 0 -0.35354480155926599 0.16351199504570679 0 -0.33583313302943579 0.17561064495494291 0 -0.35354480155926599 0.16351199504570679 0 -0.33583313302943579 0.17561064495494291 0 -0.32945983981277499 0.15376060535086861 0 -0.35521093380969732 0.18598355503636249 0 -0.33583313302943579 0.17561064495494291 0 -0.32754435639768192 0.19590680581673081 0 -0.31580975532149258 0.1715278167202432 0 -0.32754435639768192 0.19590680581673081 0 -0.31580975532149258 0.1715278167202432 0 -0.32754435639768192 0.19590680581673081 0 -0.30213231122994122 0.18830801107753661 0 -0.33583313302943579 0.17561064495494291 0 -0.31580975532149258 0.1715278167202432 0 -0.32754435639768192 0.19590680581673081 0 -0.33583313302943579 0.17561064495494291 0 -0.31580975532149258 0.1715278167202432 0 -0.32945983981277499 0.15376060535086861 0 -0.31580975532149258 0.1715278167202432 0 -0.316408976186418 0.15152519494454711 0 -0.32945983981277499 0.15376060535086861 0 -0.316408976186418 0.15152519494454711 0 -0.31451175745496862 0.13857620596136161 0 -0.32945983981277499 0.15376060535086861 0 -0.31451175745496862 0.13857620596136161 0 -0.32990175970401059 0.12822842922316299 0 -0.31311029200171292 0.1247724457694396 0 -0.31451175745496862 0.13857620596136161 0 -0.32990175970401059 0.12822842922316299 0 -0.32945983981277499 0.15376060535086861 0 -0.3459542505013864 0.14087345620550551 0 -0.32990175970401059 0.12822842922316299 0 -0.34276666178134457 0.1127328780662749 0 -0.3459542505013864 0.14087345620550551 0 -0.35354480155926599 0.16351199504570679 0 -0.32945983981277499 0.15376060535086861 0 -0.3459542505013864 0.14087345620550551 0 -0.32990175970401059 0.12822842922316299 0 -0.32945983981277499 0.15376060535086861 0 -0.34576032188750261 0.2430177099104871 0 -0.36979603848182652 0.24487600723380409 0 -0.35943176330833182 0.22804723608059979 0 -0.34576032188750261 0.2430177099104871 0 -0.36979603848182652 0.24487600723380409 0 -0.35668930213428429 0.25176810683765333 0 -0.34576032188750261 0.2430177099104871 0 -0.36979603848182652 0.24487600723380409 0 -0.34576032188750261 0.2430177099104871 0 -0.35668930213428429 0.25176810683765333 0 -0.38556770841020271 0.22516649184971241 0 -0.36979603848182652 0.24487600723380409 0 -0.35943176330833182 0.22804723608059979 0 -0.38556770841020271 0.22516649184971241 0 -0.35943176330833182 0.22804723608059979 0 -0.37090803276211037 0.2116761130607675 0 -0.34576032188750261 0.2430177099104871 0 -0.35943176330833182 0.22804723608059979 0 -0.34063805723499713 0.22310936582478191 0 -0.35943176330833182 0.22804723608059979 0 -0.35293883885677502 0.2063129139177505 0 -0.34063805723499713 0.22310936582478191 0 -0.35943176330833182 0.22804723608059979 0 -0.35293883885677502 0.2063129139177505 0 -0.37090803276211037 0.2116761130607675 0 -0.35293883885677502 0.2063129139177505 0 -0.37090803276211037 0.2116761130607675 0 -0.37141185313106712 0.19494062480448121 0 -0.35521093380969732 0.18598355503636249 0 -0.35293883885677502 0.2063129139177505 0 -0.37141185313106712 0.19494062480448121 0 -0.35521093380969732 0.18598355503636249 0 -0.35293883885677502 0.2063129139177505 0 -0.32754435639768192 0.19590680581673081 0 -0.35521093380969732 0.18598355503636249 0 -0.32754435639768192 0.19590680581673081 0 -0.32754435639768192 0.19590680581673081 0 -0.29948847043911753 0.2059696910116047 0 -0.32754435639768192 0.19590680581673081 0 -0.32262439616331101 0.22449370046104461 0 -0.29948847043911753 0.2059696910116047 0 -0.32754435639768192 0.19590680581673081 0 -0.34063805723499713 0.22310936582478191 0 -0.35293883885677502 0.2063129139177505 0 -0.32754435639768192 0.19590680581673081 0 -0.34063805723499713 0.22310936582478191 0 -0.32754435639768192 0.19590680581673081 0 -0.34063805723499713 0.22310936582478191 0 -0.32262439616331101 0.22449370046104461 0 -0.34576032188750261 0.2430177099104871 0 -0.34063805723499713 0.22310936582478191 0 -0.32262439616331101 0.22449370046104461 0 -0.34576032188750261 0.2430177099104871 0 -0.32262439616331101 0.22449370046104461 0 -0.32262439616331101 0.22449370046104461 0 -0.31675613276567488 0.24323027128106531 0 -0.30775894989116898 0.2347039152385143 0 -0.31675613276567488 0.24323027128106531 0 -0.3337651185026837 0.2420903127906579 0 -0.3259942009214159 0.2540923271119605 0 -0.32262439616331101 0.22449370046104461 0 -0.31675613276567488 0.24323027128106531 0 -0.3337651185026837 0.2420903127906579 0 -0.34576032188750261 0.2430177099104871 0 -0.32262439616331101 0.22449370046104461 0 -0.3337651185026837 0.2420903127906579 0 -0.3337651185026837 0.2420903127906579 0 -0.33766831174027923 0.25190742216087603 0 -0.3259942009214159 0.2540923271119605 0 -0.34576032188750261 0.2430177099104871 0 -0.3337651185026837 0.2420903127906579 0 -0.34576032188750261 0.2430177099104871 0 -0.3337651185026837 0.2420903127906579 0 -0.33766831174027923 0.25190742216087603 0 -0.29367258029158622 0.23600448089314821 0 -0.2788220018267038 0.24688355220206959 0 -0.29110970588793988 0.25613925754107048 0 -0.29367258029158622 0.23600448089314821 0 -0.27828121858129401 0.23045178511893599 0 -0.2788220018267038 0.24688355220206959 0 -0.29367258029158622 0.23600448089314821 0 -0.30217818509366878 0.2467752935355807 0 -0.29110970588793988 0.25613925754107048 0 -0.31675613276567488 0.24323027128106531 0 -0.30217818509366878 0.2467752935355807 0 -0.31059422902754291 0.25701610270224118 0 -0.31675613276567488 0.24323027128106531 0 -0.30217818509366878 0.2467752935355807 0 -0.30775894989116898 0.2347039152385143 0 -0.29367258029158622 0.23600448089314821 0 -0.30217818509366878 0.2467752935355807 0 -0.30775894989116898 0.2347039152385143 0 -0.32262439616331101 0.22449370046104461 0 -0.30775894989116898 0.2347039152385143 0 -0.30356345514160421 0.22301583002173281 0 -0.29367258029158622 0.23600448089314821 0 -0.30775894989116898 0.2347039152385143 0 -0.30356345514160421 0.22301583002173281 0 -0.29367258029158622 0.23600448089314821 0 -0.30356345514160421 0.22301583002173281 0 -0.28942102353585653 0.22212430834242219 0 -0.29367258029158622 0.23600448089314821 0 -0.28942102353585653 0.22212430834242219 0 -0.27828121858129401 0.23045178511893599 0 -0.29948847043911753 0.2059696910116047 0 -0.2713774302627916 0.2160523585281719 0 -0.28942102353585653 0.22212430834242219 0 -0.29948847043911753 0.2059696910116047 0 -0.2713774302627916 0.2160523585281719 0 -0.29948847043911753 0.2059696910116047 0 -0.28628345856967252 0.19539696668815659 0 -0.2713774302627916 0.2160523585281719 0 -0.30356345514160421 0.22301583002173281 0 -0.28942102353585653 0.22212430834242219 0 -0.29948847043911753 0.2059696910116047 0 -0.32262439616331101 0.22449370046104461 0 -0.30356345514160421 0.22301583002173281 0 -0.29948847043911753 0.2059696910116047 0 -0.32262439616331101 0.22449370046104461 0 -0.29948847043911753 0.2059696910116047 0 -0.32754435639768192 0.19590680581673081 0 -0.29948847043911753 0.2059696910116047 0 -0.30213231122994122 0.18830801107753661 0 -0.29948847043911753 0.2059696910116047 0 -0.30213231122994122 0.18830801107753661 0 -0.28628345856967252 0.19539696668815659 0 -0.30213231122994122 0.18830801107753661 0 -0.28628345856967252 0.19539696668815659 0 -0.28878635627731081 0.18457441100274191 0 -0.29948847043911753 0.2059696910116047 0 -0.28628345856967252 0.19539696668815659 0 -0.28628345856967252 0.19539696668815659 0 -0.28878635627731081 0.18457441100274191 0 -0.27779150406468639 0.18742436343848631 0 -0.2719048322161261 0.20028556930790059 0 -0.25868442527529367 0.1944791856907285 0 -0.27779150406468639 0.18742436343848631 0 -0.25868442527529367 0.1944791856907285 0 -0.27779150406468639 0.18742436343848631 0 -0.28628345856967252 0.19539696668815659 0 -0.2719048322161261 0.20028556930790059 0 -0.27779150406468639 0.18742436343848631 0 -0.25868442527529367 0.1944791856907285 0 -0.25290558257003232 0.2059153662565848 0 -0.23957734648590101 0.2015340079429708 0 -0.2719048322161261 0.20028556930790059 0 -0.25868442527529367 0.1944791856907285 0 -0.26290407683836758 0.20629351054825071 0 -0.25868442527529367 0.1944791856907285 0 -0.26290407683836758 0.20629351054825071 0 -0.25290558257003232 0.2059153662565848 0 -0.26290407683836758 0.20629351054825071 0 -0.25290558257003232 0.2059153662565848 0 -0.25882139574064988 0.21558550992665179 0 -0.25290558257003232 0.2059153662565848 0 -0.25882139574064988 0.21558550992665179 0 -0.2445406685099486 0.2116846171743218 0 -0.26290407683836758 0.20629351054825071 0 -0.25882139574064988 0.21558550992665179 0 -0.2713774302627916 0.2160523585281719 0 -0.2719048322161261 0.20028556930790059 0 -0.26290407683836758 0.20629351054825071 0 -0.2713774302627916 0.2160523585281719 0 -0.28628345856967252 0.19539696668815659 0 -0.2719048322161261 0.20028556930790059 0 -0.2713774302627916 0.2160523585281719 0 -0.28942102353585653 0.22212430834242219 0 -0.2713774302627916 0.2160523585281719 0 -0.27828121858129401 0.23045178511893599 0 -0.27828121858129401 0.23045178511893599 0 -0.26885074758489752 0.2270100260661255 0 -0.26840717558027749 0.24007666300691449 0 -0.2713774302627916 0.2160523585281719 0 -0.26885074758489752 0.2270100260661255 0 -0.25887615750702231 0.2270603743274747 0 -0.2713774302627916 0.2160523585281719 0 -0.27828121858129401 0.23045178511893599 0 -0.26885074758489752 0.2270100260661255 0 -0.2713774302627916 0.2160523585281719 0 -0.24326639008646531 0.22613502604473801 0 -0.25882139574064988 0.21558550992665179 0 -0.2713774302627916 0.2160523585281719 0 -0.24326639008646531 0.22613502604473801 0 -0.2713774302627916 0.2160523585281719 0 -0.25887615750702231 0.2270603743274747 0 -0.24326639008646531 0.22613502604473801 0 -0.25011857251462483 0.23304199510033061 0 -0.25887615750702231 0.2270603743274747 0 -0.24326639008646531 0.22613502604473801 0 -0.25011857251462483 0.23304199510033061 0 -0.25887615750702231 0.2270603743274747 0 -0.25852367428766532 0.23612268828481611 0 -0.26885074758489752 0.2270100260661255 0 -0.25887615750702231 0.2270603743274747 0 -0.25852367428766532 0.23612268828481611 0 -0.25852367428766532 0.23612268828481611 0 -0.25654248230236881 0.24794234615054991 0 -0.26840717558027749 0.24007666300691449 0 -0.26885074758489752 0.2270100260661255 0 -0.25852367428766532 0.23612268828481611 0 -0.26840717558027749 0.24007666300691449 0 -0.25011857251462483 0.23304199510033061 0 -0.25852367428766532 0.23612268828481611 0 -0.2483469102368013 0.2416047250575018 0 -0.25852367428766532 0.23612268828481611 0 -0.25654248230236881 0.24794234615054991 0 -0.2483469102368013 0.2416047250575018 0 -0.25654248230236881 0.24794234615054991 0 -0.26840717558027749 0.24007666300691449 0 -0.26681787323025352 0.25205751075495297 0 -0.27828121858129401 0.23045178511893599 0 -0.26840717558027749 0.24007666300691449 0 -0.2788220018267038 0.24688355220206959 0 -0.26840717558027749 0.24007666300691449 0 -0.2788220018267038 0.24688355220206959 0 -0.26681787323025352 0.25205751075495297 0 -0.29124668222022337 0.15020866927009 0 -0.28779622209632411 0.1421302549145039 0 -0.30407515424530318 0.14714882762375539 0 -0.28779622209632411 0.1421302549145039 0 -0.28722259610802958 0.13351348070280389 0 -0.30407515424530318 0.14714882762375539 0 -0.29124668222022337 0.15020866927009 0 -0.30407515424530318 0.14714882762375539 0 -0.29151932170997658 0.16198795839985519 0 -0.29124668222022337 0.15020866927009 0 -0.28159603082928969 0.1495676361422455 0 -0.29151932170997658 0.16198795839985519 0 -0.29124668222022337 0.15020866927009 0 -0.28159603082928969 0.1495676361422455 0 -0.28779622209632411 0.1421302549145039 0 -0.28159603082928969 0.1495676361422455 0 -0.28779622209632411 0.1421302549145039 0 -0.27746898202471082 0.13637318447544161 0 -0.28779622209632411 0.1421302549145039 0 -0.28722259610802958 0.13351348070280389 0 -0.27746898202471082 0.13637318447544161 0 -0.28722259610802958 0.13351348070280389 0 -0.29226962025468939 0.13222555643125089 0 -0.30407515424530318 0.14714882762375539 0 -0.29226962025468939 0.13222555643125089 0 -0.30407515424530318 0.14714882762375539 0 -0.29234055316911361 0.12276983852726769 0 -0.28722259610802958 0.13351348070280389 0 -0.28544017749631151 0.1254700788711765 0 -0.29226962025468939 0.13222555643125089 0 -0.28722259610802958 0.13351348070280389 0 -0.28544017749631151 0.1254700788711765 0 -0.27841010121023829 0.1259100655302231 0 -0.28544017749631151 0.1254700788711765 0 -0.29226962025468939 0.13222555643125089 0 -0.29234055316911361 0.12276983852726769 0 -0.31451175745496862 0.13857620596136161 0 -0.30407515424530318 0.14714882762375539 0 -0.29234055316911361 0.12276983852726769 0 -0.30407515424530318 0.14714882762375539 0 -0.29234055316911361 0.12276983852726769 0 -0.31451175745496862 0.13857620596136161 0 -0.29234055316911361 0.12276983852726769 0 -0.31311029200171292 0.1247724457694396 0 -0.31451175745496862 0.13857620596136161 0 -0.29234055316911361 0.12276983852726769 0 -0.316408976186418 0.15152519494454711 0 -0.31451175745496862 0.13857620596136161 0 -0.30407515424530318 0.14714882762375539 0 -0.31580975532149258 0.1715278167202432 0 -0.30407515424530318 0.14714882762375539 0 -0.29151932170997658 0.16198795839985519 0 -0.31580975532149258 0.1715278167202432 0 -0.29537837780579501 0.17629535431120469 0 -0.29151932170997658 0.16198795839985519 0 -0.31580975532149258 0.1715278167202432 0 -0.316408976186418 0.15152519494454711 0 -0.30407515424530318 0.14714882762375539 0 -0.31580975532149258 0.1715278167202432 0 -0.30407515424530318 0.14714882762375539 0 -0.31580975532149258 0.1715278167202432 0 -0.30213231122994122 0.18830801107753661 0 -0.29537837780579501 0.17629535431120469 0 -0.30213231122994122 0.18830801107753661 0 -0.29537837780579501 0.17629535431120469 0 -0.28878635627731081 0.18457441100274191 0 -0.29537837780579501 0.17629535431120469 0 -0.28234612971645889 0.17544735949832499 0 -0.28878635627731081 0.18457441100274191 0 -0.28234612971645889 0.17544735949832499 0 -0.28878635627731081 0.18457441100274191 0 -0.27779150406468639 0.18742436343848631 0 -0.28159603082928969 0.1495676361422455 0 -0.29151932170997658 0.16198795839985519 0 -0.27136979260127458 0.1646399994931447 0 -0.28234612971645889 0.17544735949832499 0 -0.29151932170997658 0.16198795839985519 0 -0.27136979260127458 0.1646399994931447 0 -0.29537837780579501 0.17629535431120469 0 -0.28234612971645889 0.17544735949832499 0 -0.29151932170997658 0.16198795839985519 0 -0.25868442527529367 0.1944791856907285 0 -0.27779150406468639 0.18742436343848631 0 -0.26972833327113321 0.1775850494299793 0 -0.28234612971645889 0.17544735949832499 0 -0.27779150406468639 0.18742436343848631 0 -0.26972833327113321 0.1775850494299793 0 -0.28234612971645889 0.17544735949832499 0 -0.27136979260127458 0.1646399994931447 0 -0.26972833327113321 0.1775850494299793 0 -0.27136979260127458 0.1646399994931447 0 -0.26972833327113321 0.1775850494299793 0 -0.25594996207948578 0.17584900181966229 0 -0.25868442527529367 0.1944791856907285 0 -0.26972833327113321 0.1775850494299793 0 -0.25594996207948578 0.17584900181966229 0 -0.25868442527529367 0.1944791856907285 0 -0.25594996207948578 0.17584900181966229 0 -0.24518116470478141 0.18644185592393681 0 -0.27136979260127458 0.1646399994931447 0 -0.25594996207948578 0.17584900181966229 0 -0.25546120793328753 0.1602216454260274 0 -0.25594996207948578 0.17584900181966229 0 -0.25546120793328753 0.1602216454260274 0 -0.23922518674812709 0.17190008703582821 0 -0.27136979260127458 0.1646399994931447 0 -0.25546120793328753 0.1602216454260274 0 -0.26802432658991521 0.14331470421497869 0 -0.25546120793328753 0.1602216454260274 0 -0.26802432658991521 0.14331470421497869 0 -0.24273677164763449 0.14540443456652299 0 -0.28159603082928969 0.1495676361422455 0 -0.27136979260127458 0.1646399994931447 0 -0.26802432658991521 0.14331470421497869 0 -0.27136979260127458 0.1646399994931447 0 -0.26802432658991521 0.14331470421497869 0 -0.28159603082928969 0.1495676361422455 0 -0.26802432658991521 0.14331470421497869 0 -0.27746898202471082 0.13637318447544161 0 -0.26802432658991521 0.14331470421497869 0 -0.26467886057855577 0.1219894089368128 0 -0.26802432658991521 0.14331470421497869 0 -0.27746898202471082 0.13637318447544161 0 -0.26467886057855577 0.1219894089368128 0 -0.28722259610802958 0.13351348070280389 0 -0.27841010121023829 0.1259100655302231 0 -0.27746898202471082 0.13637318447544161 0 -0.27841010121023829 0.1259100655302231 0 -0.27746898202471082 0.13637318447544161 0 -0.26467886057855577 0.1219894089368128 0 -0.26802432658991521 0.14331470421497869 0 -0.25542207884081181 0.13240433245388311 0 -0.26467886057855577 0.1219894089368128 0 -0.26802432658991521 0.14331470421497869 0 -0.25542207884081181 0.13240433245388311 0 -0.24273677164763449 0.14540443456652299 0 -0.2561522602211721 0.11035624559928579 0 -0.26467886057855577 0.1219894089368128 0 -0.24624835654714189 0.118908782097218 0 -0.2561522602211721 0.11035624559928579 0 -0.26467886057855577 0.1219894089368128 0 -0.2613333945671964 0.1006641136586468 0 -0.25542207884081181 0.13240433245388311 0 -0.26467886057855577 0.1219894089368128 0 -0.24624835654714189 0.118908782097218 0 -0.26467886057855577 0.1219894089368128 0 -0.2613333945671964 0.1006641136586468 0 -0.2561522602211721 0.11035624559928579 0 -0.24975994144664779 0.09241312962791276 0 -0.24624835654714189 0.118908782097218 0 -0.2561522602211721 0.11035624559928579 0 -0.2613333945671964 0.1006641136586468 0 -0.24975994144664779 0.09241312962791276 0 -0.2613333945671964 0.1006641136586468 0 -0.24975994144664779 0.09241312962791276 0 -0.2613333945671964 0.1006641136586468 0 -0.25957121678731648 0.089431310407630749 0 -0.24975994144664779 0.09241312962791276 0 -0.2613333945671964 0.1006641136586468 0 -0.25957121678731648 0.089431310407630749 0 -0.2613333945671964 0.1006641136586468 0 -0.2677140150966244 0.092948432089817429 0 -0.25957121678731648 0.089431310407630749 0 -0.2613333945671964 0.1006641136586468 0 -0.27291852617317891 0.099920323272956468 0 -0.2677140150966244 0.092948432089817429 0 -0.27291852617317891 0.099920323272956468 0 -0.27732393745212641 0.091190942441358516 0 -0.2677140150966244 0.092948432089817429 0 -0.2613333945671964 0.1006641136586468 0 -0.27683697386815492 0.1117169760929575 0 -0.2613333945671964 0.1006641136586468 0 -0.27291852617317891 0.099920323272956468 0 -0.27683697386815492 0.1117169760929575 0 -0.27291852617317891 0.099920323272956468 0 -0.27683697386815492 0.1117169760929575 0 -0.28159211042947951 0.1020884740435838 0 -0.27291852617317891 0.099920323272956468 0 -0.28159211042947951 0.1020884740435838 0 -0.27732393745212641 0.091190942441358516 0 -0.26467886057855577 0.1219894089368128 0 -0.2613333945671964 0.1006641136586468 0 -0.27683697386815492 0.1117169760929575 0 -0.26467886057855577 0.1219894089368128 0 -0.27683697386815492 0.1117169760929575 0 -0.27973073874467741 0.1200954314185962 0 -0.27841010121023829 0.1259100655302231 0 -0.26467886057855577 0.1219894089368128 0 -0.27973073874467741 0.1200954314185962 0 -0.28544017749631151 0.1254700788711765 0 -0.27841010121023829 0.1259100655302231 0 -0.27973073874467741 0.1200954314185962 0 -0.27683697386815492 0.1117169760929575 0 -0.29234055316911361 0.12276983852726769 0 -0.27683697386815492 0.1117169760929575 0 -0.27973073874467741 0.1200954314185962 0 -0.29234055316911361 0.12276983852726769 0 -0.28544017749631151 0.1254700788711765 0 -0.27973073874467741 0.1200954314185962 0 -0.29234055316911361 0.12276983852726769 0 -0.27683697386815492 0.1117169760929575 0 -0.29234055316911361 0.12276983852726769 0 -0.29157854723539622 0.1211867481240283 0 -0.29234055316911361 0.12276983852726769 0 -0.29157854723539622 0.1211867481240283 0 -0.3041213735496639 0.1173248100144092 0 -0.29234055316911361 0.12276983852726769 0 -0.29157854723539622 0.1211867481240283 0 -0.29157854723539622 0.1211867481240283 0 -0.28816178403274312 0.11408831910015781 0 -0.27683697386815492 0.1117169760929575 0 -0.29157854723539622 0.1211867481240283 0 -0.28816178403274312 0.11408831910015781 0 -0.28816178403274312 0.11408831910015781 0 -0.28159211042947951 0.1020884740435838 0 -0.29370736177931428 0.091246635442586363 0 -0.29157854723539622 0.1211867481240283 0 -0.28816178403274312 0.11408831910015781 0 -0.29370736177931428 0.091246635442586363 0 -0.29157854723539622 0.1211867481240283 0 -0.29370736177931428 0.091246635442586363 0 -0.27683697386815492 0.1117169760929575 0 -0.28816178403274312 0.11408831910015781 0 -0.28159211042947951 0.1020884740435838 0 -0.29157854723539622 0.1211867481240283 0 -0.30513657843771241 0.101800956164355 0 -0.29370736177931428 0.091246635442586363 0 -0.28159211042947951 0.1020884740435838 0 -0.29370736177931428 0.091246635442586363 0 -0.27732393745212641 0.091190942441358516 0 -0.29157854723539622 0.1211867481240283 0 -0.30513657843771241 0.101800956164355 0 -0.3041213735496639 0.1173248100144092 0 -0.29234055316911361 0.12276983852726769 0 -0.3041213735496639 0.1173248100144092 0 -0.31311029200171292 0.1247724457694396 0 -0.30513657843771241 0.101800956164355 0 -0.3041213735496639 0.1173248100144092 0 -0.31938176339054147 0.1132000580185267 0 -0.3041213735496639 0.1173248100144092 0 -0.31938176339054147 0.1132000580185267 0 -0.31311029200171292 0.1247724457694396 0 -0.29570346008562221 0.061370404495474082 0 -0.31364519567580718 0.082365160113531247 0 -0.32417033824182939 0.063116242046799775 0 -0.29370736177931428 0.091246635442586363 0 -0.29570346008562221 0.061370404495474082 0 -0.31364519567580718 0.082365160113531247 0 -0.30513657843771241 0.101800956164355 0 -0.29370736177931428 0.091246635442586363 0 -0.31364519567580718 0.082365160113531247 0 -0.29370736177931428 0.091246635442586363 0 -0.27718249591623523 0.075231532859718162 0 -0.27732393745212641 0.091190942441358516 0 -0.29370736177931428 0.091246635442586363 0 -0.29570346008562221 0.061370404495474082 0 -0.29370736177931428 0.091246635442586363 0 -0.27718249591623523 0.075231532859718162 0 -0.29570346008562221 0.061370404495474082 0 -0.27718249591623523 0.075231532859718162 0 -0.2674941510825663 0.060234722703477767 0 -0.29570346008562221 0.061370404495474082 0 -0.27718249591623523 0.075231532859718162 0 -0.26742300050330392 0.083535470668494552 0 -0.26512178122053809 0.072385913868576512 0 -0.27718249591623523 0.075231532859718162 0 -0.26512178122053809 0.072385913868576512 0 -0.2674941510825663 0.060234722703477767 0 -0.27718249591623523 0.075231532859718162 0 -0.27732393745212641 0.091190942441358516 0 -0.26742300050330392 0.083535470668494552 0 -0.27732393745212641 0.091190942441358516 0 -0.26742300050330392 0.083535470668494552 0 -0.2677140150966244 0.092948432089817429 0 -0.25299446161211869 0.068007989310433864 0 -0.24975994144664779 0.09241312962791276 0 -0.25783235709467051 0.079032014305447637 0 -0.25299446161211869 0.068007989310433864 0 -0.24975994144664779 0.09241312962791276 0 -0.26742300050330392 0.083535470668494552 0 -0.2677140150966244 0.092948432089817429 0 -0.25957121678731648 0.089431310407630749 0 -0.26742300050330392 0.083535470668494552 0 -0.25783235709467051 0.079032014305447637 0 -0.26512178122053809 0.072385913868576512 0 -0.26742300050330392 0.083535470668494552 0 -0.25957121678731648 0.089431310407630749 0 -0.25783235709467051 0.079032014305447637 0 -0.25957121678731648 0.089431310407630749 0 -0.25783235709467051 0.079032014305447637 0 -0.24975994144664779 0.09241312962791276 0 -0.26512178122053809 0.072385913868576512 0 -0.25299446161211869 0.068007989310433864 0 -0.2674941510825663 0.060234722703477767 0 -0.25783235709467051 0.079032014305447637 0 -0.26512178122053809 0.072385913868576512 0 -0.25299446161211869 0.068007989310433864 0 -0.25299446161211869 0.068007989310433864 0 -0.25632073375013392 0.04291056091006621 0 -0.2478510699036621 0.047134690305077498 0 -0.25299446161211869 0.068007989310433864 0 -0.25632073375013392 0.04291056091006621 0 -0.25299446161211869 0.068007989310433864 0 -0.26738886839737519 0.04395879899459023 0 -0.2674941510825663 0.060234722703477767 0 -0.25299446161211869 0.068007989310433864 0 -0.25632073375013392 0.04291056091006621 0 -0.26738886839737519 0.04395879899459023 0 -0.25299446161211869 0.068007989310433864 0 -0.26738886839737519 0.04395879899459023 0 -0.25632073375013392 0.04291056091006621 0 -0.26738886839737519 0.04395879899459023 0 -0.25964700588814971 0.017813132509698529 0 -0.25632073375013392 0.04291056091006621 0 -0.24639898478570879 0.038766985903960813 0 -0.2478510699036621 0.047134690305077498 0 -0.25632073375013392 0.04291056091006621 0 -0.25011764088669941 0.02697989722910352 0 -0.24639898478570879 0.038766985903960813 0 -0.26738886839737519 0.04395879899459023 0 -0.28161314221796963 0.01968710335779043 0 -0.28482441905157158 0.045092195076015043 0 -0.26738886839737519 0.04395879899459023 0 -0.28161314221796963 0.01968710335779043 0 -0.26738886839737519 0.04395879899459023 0 -0.2674941510825663 0.060234722703477767 0 -0.28482441905157158 0.045092195076015043 0 -0.26297327802616549 -0.007284295890669118 0 -0.25964700588814971 0.017813132509698529 0 -0.2740535381829538 0.002859602543604707 0 -0.24871960323422521 -0.0040779935892079214 0 -0.26297327802616549 -0.007284295890669118 0 -0.25964700588814971 0.017813132509698529 0 -0.26297327802616549 -0.007284295890669118 0 -0.25964700588814971 0.017813132509698529 0 -0.25632073375013392 0.04291056091006621 0 -0.25964700588814971 0.017813132509698529 0 -0.25011764088669941 0.02697989722910352 0 -0.25632073375013392 0.04291056091006621 0 -0.25964700588814971 0.017813132509698529 0 -0.26738886839737519 0.04395879899459023 0 -0.25964700588814971 0.017813132509698529 0 -0.28161314221796963 0.01968710335779043 0 -0.25964700588814971 0.017813132509698529 0 -0.2740535381829538 0.002859602543604707 0 -0.28161314221796963 0.01968710335779043 0 -0.29583741603856339 -0.0045845922790098536 0 -0.2740535381829538 0.002859602543604707 0 -0.28161314221796963 0.01968710335779043 0 -0.29583741603856339 -0.0045845922790098536 0 -0.28161314221796963 0.01968710335779043 0 -0.29583741603856339 -0.0045845922790098536 0 -0.28161314221796963 0.01968710335779043 0 -0.30362272910130572 0.015071065935376011 0 -0.28161314221796963 0.01968710335779043 0 -0.30362272910130572 0.015071065935376011 0 -0.29769955839193019 0.031494173548361787 0 -0.30362272910130572 0.015071065935376011 0 -0.29769955839193019 0.031494173548361787 0 -0.3218782592077063 0.026697859096088 0 -0.29583741603856339 -0.0045845922790098536 0 -0.30362272910130572 0.015071065935376011 0 -0.32108526965035911 0.002060785953649905 0 -0.2674941510825663 0.060234722703477767 0 -0.29570346008562221 0.061370404495474082 0 -0.28482441905157158 0.045092195076015043 0 -0.28161314221796963 0.01968710335779043 0 -0.28482441905157158 0.045092195076015043 0 -0.29769955839193019 0.031494173548361787 0 -0.29570346008562221 0.061370404495474082 0 -0.29769955839193019 0.031494173548361787 0 -0.29570346008562221 0.061370404495474082 0 -0.28482441905157158 0.045092195076015043 0 -0.29769955839193019 0.031494173548361787 0 -0.29570346008562221 0.061370404495474082 0 -0.29769955839193019 0.031494173548361787 0 -0.31325872883305722 0.046587726113792027 0 -0.29769955839193019 0.031494173548361787 0 -0.31325872883305722 0.046587726113792027 0 -0.3218782592077063 0.026697859096088 0 -0.29570346008562221 0.061370404495474082 0 -0.31325872883305722 0.046587726113792027 0 -0.32417033824182939 0.063116242046799775 0 -0.31325872883305722 0.046587726113792027 0 -0.33540189063302861 0.047388736750722332 0 -0.32417033824182939 0.063116242046799775 0 -0.31325872883305722 0.046587726113792027 0 -0.33540189063302861 0.047388736750722332 0 -0.3218782592077063 0.026697859096088 0 -0.33540189063302861 0.047388736750722332 0 -0.3218782592077063 0.026697859096088 0 -0.3509267554652265 0.03040484938267728 0 -0.33540189063302861 0.047388736750722332 0 -0.35038353159444852 0.065388771526327549 0 -0.32417033824182939 0.063116242046799775 0 -0.30362272910130572 0.015071065935376011 0 -0.32108526965035911 0.002060785953649905 0 -0.3218782592077063 0.026697859096088 0 -0.3218782592077063 0.026697859096088 0 -0.34633312326215482 0.0087061641863099039 0 -0.3509267554652265 0.03040484938267728 0 -0.32108526965035911 0.002060785953649905 0 -0.34633312326215482 0.0087061641863099039 0 -0.32108526965035911 0.002060785953649905 0 -0.3218782592077063 0.026697859096088 0 -0.34633312326215482 0.0087061641863099039 0 -0.34633312326215482 0.0087061641863099039 0 -0.37158097687395047 0.0153515424189699 0 -0.35999683847671909 -0.012408625360805579 0 -0.34633312326215482 0.0087061641863099039 0 -0.37158097687395047 0.0153515424189699 0 -0.34633312326215482 0.0087061641863099039 0 -0.3509267554652265 0.03040484938267728 0 -0.37158097687395047 0.0153515424189699 0 -0.3509267554652265 0.03040484938267728 0 -0.37158097687395047 0.0153515424189699 0 -0.37310467998658048 0.033205643054502923 0 -0.33540189063302861 0.047388736750722332 0 -0.36370318070167962 0.048460228983828568 0 -0.35038353159444852 0.065388771526327549 0 -0.33540189063302861 0.047388736750722332 0 -0.3509267554652265 0.03040484938267728 0 -0.36370318070167962 0.048460228983828568 0 -0.37987359111232638 0.042726657548247719 0 -0.37310467998658048 0.033205643054502923 0 -0.36370318070167962 0.048460228983828568 0 -0.3509267554652265 0.03040484938267728 0 -0.37310467998658048 0.033205643054502923 0 -0.36370318070167962 0.048460228983828568 0 -0.38155454120004317 0.054287033044786361 0 -0.36370318070167962 0.048460228983828568 0 -0.36784155453162448 0.061165022003685038 0 -0.36370318070167962 0.048460228983828568 0 -0.36784155453162448 0.061165022003685038 0 -0.35038353159444852 0.065388771526327549 0 -0.36784155453162448 0.061165022003685038 0 -0.37349743117770789 0.075547985462423001 0 -0.35038353159444852 0.065388771526327549 0 -0.38155454120004317 0.054287033044786361 0 -0.36784155453162448 0.061165022003685038 0 -0.37349743117770789 0.075547985462423001 0 -0.37349743117770789 0.075547985462423001 0 -0.35038353159444852 0.065388771526327549 0 -0.3509438089689545 0.084872696778424545 0 -0.35038353159444852 0.065388771526327549 0 -0.3509438089689545 0.084872696778424545 0 -0.333445349258987 0.078167520840418739 0 -0.37349743117770789 0.075547985462423001 0 -0.3509438089689545 0.084872696778424545 0 -0.36081428239478969 0.1013891129283626 0 -0.37349743117770789 0.075547985462423001 0 -0.3509438089689545 0.084872696778424545 0 -0.3828431623919355 0.1015949094496669 0 -0.37349743117770789 0.075547985462423001 0 -0.36081428239478969 0.1013891129283626 0 -0.3828431623919355 0.1015949094496669 0 -0.36081428239478969 0.1013891129283626 0 -0.36439870644666089 0.1212341828275862 0 -0.3828431623919355 0.1015949094496669 0 -0.36439870644666089 0.1212341828275862 0 -0.36081428239478969 0.1013891129283626 0 -0.36439870644666089 0.1212341828275862 0 -0.34276666178134457 0.1127328780662749 0 -0.3459542505013864 0.14087345620550551 0 -0.36439870644666089 0.1212341828275862 0 -0.34276666178134457 0.1127328780662749 0 -0.3509438089689545 0.084872696778424545 0 -0.36081428239478969 0.1013891129283626 0 -0.34276666178134457 0.1127328780662749 0 -0.34276666178134457 0.1127328780662749 0 -0.31938176339054147 0.1132000580185267 0 -0.32808387181389548 0.095094733737010634 0 -0.3509438089689545 0.084872696778424545 0 -0.34276666178134457 0.1127328780662749 0 -0.32808387181389548 0.095094733737010634 0 -0.32990175970401059 0.12822842922316299 0 -0.34276666178134457 0.1127328780662749 0 -0.31938176339054147 0.1132000580185267 0 -0.32990175970401059 0.12822842922316299 0 -0.31938176339054147 0.1132000580185267 0 -0.31311029200171292 0.1247724457694396 0 -0.30513657843771241 0.101800956164355 0 -0.31938176339054147 0.1132000580185267 0 -0.32808387181389548 0.095094733737010634 0 -0.32808387181389548 0.095094733737010634 0 -0.31364519567580718 0.082365160113531247 0 -0.333445349258987 0.078167520840418739 0 -0.30513657843771241 0.101800956164355 0 -0.32808387181389548 0.095094733737010634 0 -0.31364519567580718 0.082365160113531247 0 -0.31364519567580718 0.082365160113531247 0 -0.32417033824182939 0.063116242046799775 0 -0.333445349258987 0.078167520840418739 0 -0.35038353159444852 0.065388771526327549 0 -0.32417033824182939 0.063116242046799775 0 -0.333445349258987 0.078167520840418739 0 -0.3509438089689545 0.084872696778424545 0 -0.32808387181389548 0.095094733737010634 0 -0.333445349258987 0.078167520840418739 0 -0.41243932107201742 0.48508410512194883 0 -0.43017281174298672 0.5 0 -0.34498130892432338 0.50000000000000155 0 -0.378074167078991 0.47710847516297489 0 -0.41243932107201742 0.48508410512194883 0 -0.34498130892432338 0.50000000000000155 0 -0.39556188928894109 0.46991328556264911 0 -0.378074167078991 0.47710847516297489 0 -0.41243932107201742 0.48508410512194883 0 -0.39556188928894109 0.46991328556264911 0 -0.41005370557258097 0.46511704713897378 0 -0.41243932107201742 0.48508410512194883 0 -0.39556188928894109 0.46991328556264911 0 -0.378074167078991 0.47710847516297489 0 -0.38185403092472631 0.46046903355988072 0 -0.39681415542208481 0.44826445017703181 0 -0.3691168313735429 0.44869358970905188 0 -0.38185403092472631 0.46046903355988072 0 -0.39681415542208481 0.44826445017703181 0 -0.3691168313735429 0.44869358970905188 0 -0.39681415542208481 0.44826445017703181 0 -0.38220472950674328 0.43285739042239468 0 -0.3691168313735429 0.44869358970905188 0 -0.39681415542208481 0.44826445017703181 0 -0.39607094530208331 0.46094095410963382 0 -0.41005370557258097 0.46511704713897378 0 -0.39556188928894109 0.46991328556264911 0 -0.38185403092472631 0.46046903355988072 0 -0.39607094530208331 0.46094095410963382 0 -0.38185403092472631 0.46046903355988072 0 -0.39681415542208481 0.44826445017703181 0 -0.39607094530208331 0.46094095410963382 0 -0.39556188928894109 0.46991328556264911 0 -0.39607094530208331 0.46094095410963382 0 -0.41005370557258097 0.46511704713897378 0 -0.41005370557258097 0.46511704713897378 0 -0.42451147947062662 0.44783531064501148 0 -0.42759467031169851 0.47757387497952958 0 -0.39681415542208481 0.44826445017703181 0 -0.41005370557258097 0.46511704713897378 0 -0.42451147947062662 0.44783531064501148 0 -0.39681415542208481 0.44826445017703181 0 -0.42451147947062662 0.44783531064501148 0 -0.40107126945449789 0.42734472616511959 0 -0.39681415542208481 0.44826445017703181 0 -0.42451147947062662 0.44783531064501148 0 -0.43564062049140201 0.43816660827706411 0 -0.42451147947062662 0.44783531064501148 0 -0.44967431964708487 0.44744544014926629 0 -0.43564062049140201 0.43816660827706411 0 -0.42451147947062662 0.44783531064501148 0 -0.42526849945817052 0.42968250407153741 0 -0.42451147947062662 0.44783531064501148 0 -0.44967431964708487 0.44744544014926629 0 -0.42451147947062662 0.44783531064501148 0 -0.44319805221748398 0.45345129793102279 0 -0.43759193102936422 0.46357923544508389 0 -0.42451147947062662 0.44783531064501148 0 -0.42759467031169851 0.47757387497952958 0 -0.42451147947062662 0.44783531064501148 0 -0.42759467031169851 0.47757387497952958 0 -0.43759193102936422 0.46357923544508389 0 -0.42759467031169851 0.47757387497952958 0 -0.41243932107201742 0.48508410512194883 0 -0.44162621404801089 0.48648417582636261 0 -0.41005370557258097 0.46511704713897378 0 -0.42759467031169851 0.47757387497952958 0 -0.41243932107201742 0.48508410512194883 0 -0.41243932107201742 0.48508410512194883 0 -0.44162621404801089 0.48648417582636261 0 -0.41243932107201742 0.48508410512194883 0 -0.43017281174298672 0.5 0 -0.44162621404801089 0.48648417582636261 0 -0.43017281174298672 0.5 0 -0.47081310702400458 0.4878842465307765 0 -0.5 0.5 0 -0.43017281174298672 0.5 0 -0.44162621404801089 0.48648417582636261 0 -0.47081310702400458 0.4878842465307765 0 -0.42759467031169851 0.47757387497952958 0 -0.44162621404801089 0.48648417582636261 0 -0.45015133009734343 0.47465598876030918 0 -0.42759467031169851 0.47757387497952958 0 -0.45015133009734343 0.47465598876030918 0 -0.43759193102936422 0.46357923544508389 0 -0.45015133009734343 0.47465598876030918 0 -0.45783982609035362 0.46870353854139818 0 -0.44935800685203892 0.46364400178695647 0 -0.44162621404801089 0.48648417582636261 0 -0.45015133009734343 0.47465598876030918 0 -0.47081310702400458 0.4878842465307765 0 -0.45015133009734343 0.47465598876030918 0 -0.46623555532593342 0.47472284821205679 0 -0.47081310702400458 0.4878842465307765 0 -0.45015133009734343 0.47465598876030918 0 -0.46623555532593342 0.47472284821205679 0 -0.45783982609035362 0.46870353854139818 0 -0.44162621404801089 0.48648417582636261 0 -0.47081310702400458 0.4878842465307765 0 -0.46623555532593342 0.47472284821205679 0 -0.47081310702400458 0.4878842465307765 0 -0.48585567440613969 0.47922158082141608 0 -0.46623555532593342 0.47472284821205679 0 -0.48585567440613969 0.47922158082141608 0 -0.47159902610874238 0.46130507116933278 0 -0.48585567440613969 0.47922158082141608 0 -0.50000000000000067 0.46915884440764299 0 -0.47159902610874238 0.46130507116933278 0 -0.48585567440613969 0.47922158082141608 0 -0.50000000000000067 0.46915884440764299 0 -0.49999999999999839 0.48928431723519028 0 -0.47081310702400458 0.4878842465307765 0 -0.5 0.5 0 -0.49999999999999839 0.48928431723519028 0 -0.47081310702400458 0.4878842465307765 0 -0.49999999999999839 0.48928431723519028 0 -0.47081310702400458 0.4878842465307765 0 -0.48585567440613969 0.47922158082141608 0 -0.49999999999999839 0.48928431723519028 0 -0.50000000000000155 0.44666569915777571 0 -0.47483715982354319 0.447055569653521 0 -0.48046844558178181 0.42712340665522103 0 -0.50000000000000155 0.44666569915777571 0 -0.47483715982354319 0.447055569653521 0 -0.50000000000000155 0.44666569915777571 0 -0.48660904648307179 0.45604629609706809 0 -0.47483715982354319 0.447055569653521 0 -0.50000000000000067 0.46915884440764299 0 -0.50000000000000155 0.44666569915777571 0 -0.48660904648307179 0.45604629609706809 0 -0.50000000000000067 0.46915884440764299 0 -0.47159902610874238 0.46130507116933278 0 -0.50000000000000067 0.46915884440764299 0 -0.48660904648307179 0.45604629609706809 0 -0.47159902610874238 0.46130507116933278 0 -0.48660904648307179 0.45604629609706809 0 -0.47159902610874238 0.46130507116933278 0 -0.47483715982354319 0.447055569653521 0 -0.47159902610874238 0.46130507116933278 0 -0.47483715982354319 0.447055569653521 0 -0.44967431964708487 0.44744544014926629 0 -0.47483715982354319 0.447055569653521 0 -0.44967431964708487 0.44744544014926629 0 -0.46152482071272022 0.42396497655288712 0 -0.47483715982354319 0.447055569653521 0 -0.44967431964708487 0.44744544014926629 0 -0.47159902610874238 0.46130507116933278 0 -0.44319805221748398 0.45345129793102279 0 -0.44967431964708487 0.44744544014926629 0 -0.47159902610874238 0.46130507116933278 0 -0.45783982609035362 0.46870353854139818 0 -0.44935800685203892 0.46364400178695647 0 -0.47159902610874238 0.46130507116933278 0 -0.44935800685203892 0.46364400178695647 0 -0.44319805221748398 0.45345129793102279 0 -0.47159902610874238 0.46130507116933278 0 -0.44319805221748398 0.45345129793102279 0 -0.46623555532593342 0.47472284821205679 0 -0.47159902610874238 0.46130507116933278 0 -0.45783982609035362 0.46870353854139818 0 -0.45015133009734343 0.47465598876030918 0 -0.44935800685203892 0.46364400178695647 0 -0.43759193102936422 0.46357923544508389 0 -0.44935800685203892 0.46364400178695647 0 -0.44319805221748398 0.45345129793102279 0 -0.43759193102936422 0.46357923544508389 0 -0.43564062049140201 0.43816660827706411 0 -0.44967431964708487 0.44744544014926629 0 -0.44310818338972591 0.4277031782424412 0 -0.42451147947062662 0.44783531064501148 0 -0.44319805221748398 0.45345129793102279 0 -0.44967431964708487 0.44744544014926629 0 -0.44967431964708487 0.44744544014926629 0 -0.44310818338972591 0.4277031782424412 0 -0.46152482071272022 0.42396497655288712 0 -0.44310818338972591 0.4277031782424412 0 -0.44909750917251429 0.41521973920343141 0 -0.46152482071272022 0.42396497655288712 0 -0.44310818338972591 0.4277031782424412 0 -0.43763201273079999 0.41070704093857069 0 -0.44909750917251429 0.41521973920343141 0 -0.43763201273079999 0.41070704093857069 0 -0.44909750917251429 0.41521973920343141 0 -0.44683109493707568 0.40310836352607632 0 -0.44909750917251429 0.41521973920343141 0 -0.45882774969176882 0.40335462690365492 0 -0.44683109493707568 0.40310836352607632 0 -0.46152482071272022 0.42396497655288712 0 -0.47663778434226739 0.40466466451434369 0 -0.45882774969176882 0.40335462690365492 0 -0.44909750917251429 0.41521973920343141 0 -0.46152482071272022 0.42396497655288712 0 -0.45882774969176882 0.40335462690365492 0 -0.47483715982354319 0.447055569653521 0 -0.46152482071272022 0.42396497655288712 0 -0.48046844558178181 0.42712340665522103 0 -0.46152482071272022 0.42396497655288712 0 -0.48046844558178181 0.42712340665522103 0 -0.47663778434226739 0.40466466451434369 0 -0.48046844558178181 0.42712340665522103 0 -0.5 0.4187132252473374 0 -0.47663778434226739 0.40466466451434369 0 -0.50000000000000155 0.44666569915777571 0 -0.48046844558178181 0.42712340665522103 0 -0.5 0.4187132252473374 0 -0.5 0.39076075133689908 0 -0.47738260747938688 0.38355570025050523 0 -0.48316273409446647 0.36473836765122392 0 -0.5 0.39076075133689908 0 -0.47663778434226739 0.40466466451434369 0 -0.47738260747938688 0.38355570025050523 0 -0.5 0.4187132252473374 0 -0.5 0.39076075133689908 0 -0.47663778434226739 0.40466466451434369 0 -0.47663778434226739 0.40466466451434369 0 -0.47738260747938688 0.38355570025050523 0 -0.46583382714114518 0.38999500547001809 0 -0.47738260747938688 0.38355570025050523 0 -0.46583382714114518 0.38999500547001809 0 -0.4663254681888726 0.36666845787598218 0 -0.44999552600343062 0.39173157780560469 0 -0.45665855824840662 0.36777659553231312 0 -0.4663254681888726 0.36666845787598218 0 -0.46583382714114518 0.38999500547001809 0 -0.44999552600343062 0.39173157780560469 0 -0.4663254681888726 0.36666845787598218 0 -0.44999552600343062 0.39173157780560469 0 -0.4663254681888726 0.36666845787598218 0 -0.44999552600343062 0.39173157780560469 0 -0.45665855824840662 0.36777659553231312 0 -0.46583382714114518 0.38999500547001809 0 -0.45882774969176882 0.40335462690365492 0 -0.44999552600343062 0.39173157780560469 0 -0.47663778434226739 0.40466466451434369 0 -0.46583382714114518 0.38999500547001809 0 -0.45882774969176882 0.40335462690365492 0 -0.43763201273079999 0.41070704093857069 0 -0.44999552600343062 0.39173157780560469 0 -0.43763201273079999 0.41070704093857069 0 -0.44999552600343062 0.39173157780560469 0 -0.43477851133476342 0.39533236306559499 0 -0.43763201273079999 0.41070704093857069 0 -0.44683109493707568 0.40310836352607632 0 -0.44999552600343062 0.39173157780560469 0 -0.45882774969176882 0.40335462690365492 0 -0.44683109493707568 0.40310836352607632 0 -0.44999552600343062 0.39173157780560469 0 -0.44683109493707568 0.40310836352607632 0 -0.44999552600343062 0.39173157780560469 0 -0.44999552600343062 0.39173157780560469 0 -0.44362821082605169 0.37988517939320621 0 -0.45158349353155852 0.36835836057985388 0 -0.44999552600343062 0.39173157780560469 0 -0.45158349353155852 0.36835836057985388 0 -0.45665855824840662 0.36777659553231312 0 -0.44999552600343062 0.39173157780560469 0 -0.44362821082605169 0.37988517939320621 0 -0.43477851133476342 0.39533236306559499 0 -0.42970453393634189 0.38309046607745878 0 -0.416686326583803 0.37235869419549011 0 -0.43413491005768079 0.37035852738767178 0 -0.42970453393634189 0.38309046607745878 0 -0.41929471087941073 0.39751756634533059 0 -0.416686326583803 0.37235869419549011 0 -0.44362821082605169 0.37988517939320621 0 -0.42970453393634189 0.38309046607745878 0 -0.43413491005768079 0.37035852738767178 0 -0.44362821082605169 0.37988517939320621 0 -0.42970453393634189 0.38309046607745878 0 -0.43477851133476342 0.39533236306559499 0 -0.41929471087941073 0.39751756634533059 0 -0.40481594634516471 0.38838250342542158 0 -0.416686326583803 0.37235869419549011 0 -0.41929471087941073 0.39751756634533059 0 -0.416686326583803 0.37235869419549011 0 -0.41929471087941073 0.39751756634533059 0 -0.40481594634516471 0.38838250342542158 0 -0.40342004388724823 0.40610022749272601 0 -0.43763201273079999 0.41070704093857069 0 -0.41929471087941073 0.39751756634533059 0 -0.43477851133476342 0.39533236306559499 0 -0.42970453393634189 0.38309046607745878 0 -0.41929471087941073 0.39751756634533059 0 -0.43477851133476342 0.39533236306559499 0 -0.43763201273079999 0.41070704093857069 0 -0.42526849945817052 0.42968250407153741 0 -0.42190309517501873 0.422676438495171 0 -0.43763201273079999 0.41070704093857069 0 -0.41929471087941073 0.39751756634533059 0 -0.42190309517501873 0.422676438495171 0 -0.43763201273079999 0.41070704093857069 0 -0.42526849945817052 0.42968250407153741 0 -0.43564062049140201 0.43816660827706411 0 -0.44310818338972591 0.4277031782424412 0 -0.42526849945817052 0.42968250407153741 0 -0.44310818338972591 0.4277031782424412 0 -0.43763201273079999 0.41070704093857069 0 -0.42526849945817052 0.42968250407153741 0 -0.42451147947062662 0.44783531064501148 0 -0.42190309517501873 0.422676438495171 0 -0.42451147947062662 0.44783531064501148 0 -0.42526849945817052 0.42968250407153741 0 -0.42190309517501873 0.422676438495171 0 -0.42451147947062662 0.44783531064501148 0 -0.42190309517501873 0.422676438495171 0 -0.40107126945449789 0.42734472616511959 0 -0.41929471087941073 0.39751756634533059 0 -0.42190309517501873 0.422676438495171 0 -0.40342004388724823 0.40610022749272601 0 -0.41929471087941073 0.39751756634533059 0 -0.42190309517501873 0.422676438495171 0 -0.42190309517501873 0.422676438495171 0 -0.40107126945449789 0.42734472616511959 0 -0.40342004388724823 0.40610022749272601 0 -0.40107126945449789 0.42734472616511959 0 -0.38170962224127192 0.41187051275180431 0 -0.40342004388724823 0.40610022749272601 0 -0.39681415542208481 0.44826445017703181 0 -0.40107126945449789 0.42734472616511959 0 -0.38220472950674328 0.43285739042239468 0 -0.40107126945449789 0.42734472616511959 0 -0.38220472950674328 0.43285739042239468 0 -0.38170962224127192 0.41187051275180431 0 -0.38220472950674328 0.43285739042239468 0 -0.38170962224127192 0.41187051275180431 0 -0.3623117690423191 0.42811367330896583 0 -0.38170962224127192 0.41187051275180431 0 -0.38886328153102828 0.39118485432906919 0 -0.37160749487881228 0.39270695931296012 0 -0.38886328153102828 0.39118485432906919 0 -0.3958153688443336 0.37475117476449238 0 -0.37494441110486432 0.37714365533349459 0 -0.38886328153102828 0.39118485432906919 0 -0.37494441110486432 0.37714365533349459 0 -0.37160749487881228 0.39270695931296012 0 -0.3958153688443336 0.37475117476449238 0 -0.37494441110486432 0.37714365533349459 0 -0.38886328153102828 0.39118485432906919 0 -0.40481594634516471 0.38838250342542158 0 -0.3958153688443336 0.37475117476449238 0 -0.40481594634516471 0.38838250342542158 0 -0.3958153688443336 0.37475117476449238 0 -0.416686326583803 0.37235869419549011 0 -0.38170962224127192 0.41187051275180431 0 -0.38886328153102828 0.39118485432906919 0 -0.40342004388724823 0.40610022749272601 0 -0.38886328153102828 0.39118485432906919 0 -0.40481594634516471 0.38838250342542158 0 -0.40342004388724823 0.40610022749272601 0 -0.39045160135311929 0.35268342407278952 0 -0.40864067534698201 0.33925706815793699 0 -0.39045160135311929 0.35268342407278952 0 -0.40864067534698201 0.33925706815793699 0 -0.41512724002854368 0.35732070329041232 0 -0.40361124677119031 0.36567017709670041 0 -0.39045160135311929 0.35268342407278952 0 -0.41512724002854368 0.35732070329041232 0 -0.40361124677119031 0.36567017709670041 0 -0.3958153688443336 0.37475117476449238 0 -0.416686326583803 0.37235869419549011 0 -0.40361124677119031 0.36567017709670041 0 -0.38457880094209951 0.36895906347804552 0 -0.39045160135311929 0.35268342407278952 0 -0.40361124677119031 0.36567017709670041 0 -0.3958153688443336 0.37475117476449238 0 -0.38457880094209951 0.36895906347804552 0 -0.38457880094209951 0.36895906347804552 0 -0.39045160135311929 0.35268342407278952 0 -0.37226252735925658 0.36610977998764199 0 -0.39045160135311929 0.35268342407278952 0 -0.37226252735925658 0.36610977998764199 0 -0.3958153688443336 0.37475117476449238 0 -0.38457880094209951 0.36895906347804552 0 -0.37494441110486432 0.37714365533349459 0 -0.38457880094209951 0.36895906347804552 0 -0.37226252735925658 0.36610977998764199 0 -0.37494441110486432 0.37714365533349459 0 -0.39045160135311929 0.35268342407278952 0 -0.37127954351941572 0.34916240377925312 0 -0.37226252735925658 0.36610977998764199 0 -0.39045160135311929 0.35268342407278952 0 -0.37899652861451177 0.33239336013233117 0 -0.37127954351941572 0.34916240377925312 0 -0.39045160135311929 0.35268342407278952 0 -0.37899652861451177 0.33239336013233117 0 -0.3944825356043874 0.33579708965077948 0 -0.37899652861451177 0.33239336013233117 0 -0.40045644996042051 0.3207408679639166 0 -0.38306414714844939 0.31006768725441353 0 -0.37899652861451177 0.33239336013233117 0 -0.38306414714844939 0.31006768725441353 0 -0.36858999563224049 0.31841924705142421 0 -0.39045160135311929 0.35268342407278952 0 -0.3944825356043874 0.33579708965077948 0 -0.40864067534698201 0.33925706815793699 0 -0.37899652861451177 0.33239336013233117 0 -0.40045644996042051 0.3207408679639166 0 -0.3944825356043874 0.33579708965077948 0 -0.40045644996042051 0.3207408679639166 0 -0.3944825356043874 0.33579708965077948 0 -0.40864067534698201 0.33925706815793699 0 -0.40864067534698201 0.33925706815793699 0 -0.4268297493408445 0.32583071224308441 0 -0.40864067534698201 0.33925706815793699 0 -0.41355749492670751 0.3237293555425651 0 -0.4268297493408445 0.32583071224308441 0 -0.40864067534698201 0.33925706815793699 0 -0.4268297493408445 0.32583071224308441 0 -0.42348860781157049 0.34604891681357108 0 -0.40045644996042051 0.3207408679639166 0 -0.41355749492670751 0.3237293555425651 0 -0.41828518704459799 0.31115090713050569 0 -0.40045644996042051 0.3207408679639166 0 -0.41828518704459799 0.31115090713050569 0 -0.40055350609195273 0.30637257862856049 0 -0.40045644996042051 0.3207408679639166 0 -0.40864067534698201 0.33925706815793699 0 -0.41355749492670751 0.3237293555425651 0 -0.41355749492670751 0.3237293555425651 0 -0.4268297493408445 0.32583071224308441 0 -0.41828518704459799 0.31115090713050569 0 -0.4268297493408445 0.32583071224308441 0 -0.43044414599989611 0.30740817964886491 0 -0.41828518704459799 0.31115090713050569 0 -0.4268297493408445 0.32583071224308441 0 -0.43709634356477661 0.31825237438320281 0 -0.43044414599989611 0.30740817964886491 0 -0.4268297493408445 0.32583071224308441 0 -0.41828518704459799 0.31115090713050569 0 -0.4268297493408445 0.32583071224308441 0 -0.43709634356477661 0.31825237438320281 0 -0.4268297493408445 0.32583071224308441 0 -0.43709634356477661 0.31825237438320281 0 -0.43732986870894569 0.3293474340043786 0 -0.4268297493408445 0.32583071224308441 0 -0.44102563623230301 0.35021965643258712 0 -0.4268297493408445 0.32583071224308441 0 -0.42348860781157049 0.34604891681357108 0 -0.44102563623230301 0.35021965643258712 0 -0.4268297493408445 0.32583071224308441 0 -0.43732986870894569 0.3293474340043786 0 -0.44102563623230301 0.35021965643258712 0 -0.42581973810917961 0.35761644394383429 0 -0.42348860781157049 0.34604891681357108 0 -0.44102563623230301 0.35021965643258712 0 -0.42581973810917961 0.35761644394383429 0 -0.43111727906729741 0.36340937576485022 0 -0.44102563623230301 0.35021965643258712 0 -0.40864067534698201 0.33925706815793699 0 -0.42348860781157049 0.34604891681357108 0 -0.41512724002854368 0.35732070329041232 0 -0.42581973810917961 0.35761644394383429 0 -0.42348860781157049 0.34604891681357108 0 -0.41512724002854368 0.35732070329041232 0 -0.3958153688443336 0.37475117476449238 0 -0.416686326583803 0.37235869419549011 0 -0.40361124677119031 0.36567017709670041 0 -0.41512724002854368 0.35732070329041232 0 -0.416686326583803 0.37235869419549011 0 -0.41512724002854368 0.35732070329041232 0 -0.416686326583803 0.37235869419549011 0 -0.42581973810917961 0.35761644394383429 0 -0.41512724002854368 0.35732070329041232 0 -0.416686326583803 0.37235869419549011 0 -0.416686326583803 0.37235869419549011 0 -0.43413491005768079 0.37035852738767178 0 -0.416686326583803 0.37235869419549011 0 -0.43111727906729741 0.36340937576485022 0 -0.43413491005768079 0.37035852738767178 0 -0.43111727906729741 0.36340937576485022 0 -0.43791978435352058 0.36649355686466722 0 -0.44102563623230301 0.35021965643258712 0 -0.42581973810917961 0.35761644394383429 0 -0.416686326583803 0.37235869419549011 0 -0.43111727906729741 0.36340937576485022 0 -0.43111727906729741 0.36340937576485022 0 -0.43413491005768079 0.37035852738767178 0 -0.43791978435352058 0.36649355686466722 0 -0.43413491005768079 0.37035852738767178 0 -0.43791978435352058 0.36649355686466722 0 -0.45158349353155852 0.36835836057985388 0 -0.44362821082605169 0.37988517939320621 0 -0.43413491005768079 0.37035852738767178 0 -0.45158349353155852 0.36835836057985388 0 -0.43413491005768079 0.37035852738767178 0 -0.45158349353155852 0.36835836057985388 0 -0.43791978435352058 0.36649355686466722 0 -0.45158349353155852 0.36835836057985388 0 -0.44102563623230301 0.35021965643258712 0 -0.43791978435352058 0.36649355686466722 0 -0.44102563623230301 0.35021965643258712 0 -0.45158349353155852 0.36835836057985388 0 -0.44102563623230301 0.35021965643258712 0 -0.45272100407410931 0.35486968110082712 0 -0.45158349353155852 0.36835836057985388 0 -0.44102563623230301 0.35021965643258712 0 -0.44102563623230301 0.35021965643258712 0 -0.45272100407410931 0.35486968110082712 0 -0.45233657014073742 0.33966217775839702 0 -0.45665855824840662 0.36777659553231312 0 -0.46464787934125318 0.33905332989010911 0 -0.45272100407410931 0.35486968110082712 0 -0.45665855824840662 0.36777659553231312 0 -0.46464787934125318 0.33905332989010911 0 -0.45272100407410931 0.35486968110082712 0 -0.46464787934125318 0.33905332989010911 0 -0.45233657014073742 0.33966217775839702 0 -0.45665855824840662 0.36777659553231312 0 -0.4663254681888726 0.36666845787598218 0 -0.46464787934125318 0.33905332989010911 0 -0.45158349353155852 0.36835836057985388 0 -0.45665855824840662 0.36777659553231312 0 -0.45158349353155852 0.36835836057985388 0 -0.45272100407410931 0.35486968110082712 0 -0.45665855824840662 0.36777659553231312 0 -0.45665855824840662 0.36777659553231312 0 -0.4663254681888726 0.36666845787598218 0 -0.4663254681888726 0.36666845787598218 0 -0.48316273409446647 0.36473836765122392 0 -0.47755031212591659 0.34944061918613389 0 -0.4663254681888726 0.36666845787598218 0 -0.48316273409446647 0.36473836765122392 0 -0.47738260747938688 0.38355570025050523 0 -0.4663254681888726 0.36666845787598218 0 -0.48316273409446647 0.36473836765122392 0 -0.4663254681888726 0.36666845787598218 0 -0.47755031212591659 0.34944061918613389 0 -0.46464787934125318 0.33905332989010911 0 -0.4663254681888726 0.36666845787598218 0 -0.47755031212591659 0.34944061918613389 0 -0.48316273409446647 0.36473836765122392 0 -0.47755031212591659 0.34944061918613389 0 -0.48989764045668061 0.34961933087531161 0 -0.48989764045668061 0.34961933087531161 0 -0.50000000000005962 0.3628082774264606 0 -0.5 0.33889660961644791 0 -0.47755031212591659 0.34944061918613389 0 -0.48989764045668061 0.34961933087531161 0 -0.48877515606295968 0.33221278049628489 0 -0.48316273409446647 0.36473836765122392 0 -0.48989764045668061 0.34961933087531161 0 -0.50000000000005962 0.3628082774264606 0 -0.48316273409446647 0.36473836765122392 0 -0.50000000000005962 0.3628082774264606 0 -0.5 0.39076075133689908 0 -0.48316273409446647 0.36473836765122392 0 -0.50000000000005962 0.3628082774264606 0 -0.50000000000000167 0.31498494180643521 0 -0.48877515606295968 0.33221278049628489 0 -0.50000000000000167 0.31498494180643521 0 -0.48877515606295968 0.33221278049628489 0 -0.47263720043410329 0.31033006424790599 0 -0.50000000000000167 0.31498494180643521 0 -0.5 0.33889660961644791 0 -0.48877515606295968 0.33221278049628489 0 -0.48989764045668061 0.34961933087531161 0 -0.5 0.33889660961644791 0 -0.48877515606295968 0.33221278049628489 0 -0.47755031212591659 0.34944061918613389 0 -0.48877515606295968 0.33221278049628489 0 -0.47755031212591659 0.34944061918613389 0 -0.48877515606295968 0.33221278049628489 0 -0.46464787934125318 0.33905332989010911 0 -0.48877515606295968 0.33221278049628489 0 -0.46464787934125318 0.33905332989010911 0 -0.47263720043410329 0.31033006424790599 0 -0.45830078430371812 0.32564093181158471 0 -0.46464787934125318 0.33905332989010911 0 -0.47263720043410329 0.31033006424790599 0 -0.45830078430371812 0.32564093181158471 0 -0.45634751292085779 0.31449475903477192 0 -0.47263720043410329 0.31033006424790599 0 -0.46464787934125318 0.33905332989010911 0 -0.47263720043410329 0.31033006424790599 0 -0.45830078430371812 0.32564093181158471 0 -0.45634751292085779 0.31449475903477192 0 -0.44581810195804761 0.32510831400904228 0 -0.45830078430371812 0.32564093181158471 0 -0.46464787934125318 0.33905332989010911 0 -0.45233657014073742 0.33966217775839702 0 -0.43732986870894569 0.3293474340043786 0 -0.44102563623230301 0.35021965643258712 0 -0.44581810195804761 0.32510831400904228 0 -0.44102563623230301 0.35021965643258712 0 -0.45233657014073742 0.33966217775839702 0 -0.44581810195804761 0.32510831400904228 0 -0.44102563623230301 0.35021965643258712 0 -0.44581810195804761 0.32510831400904228 0 -0.45830078430371812 0.32564093181158471 0 -0.45233657014073742 0.33966217775839702 0 -0.44581810195804761 0.32510831400904228 0 -0.45634751292085779 0.31449475903477192 0 -0.44581810195804761 0.32510831400904228 0 -0.45061056768379198 0.29999697158549748 0 -0.44581810195804761 0.32510831400904228 0 -0.45061056768379198 0.29999697158549748 0 -0.43709634356477661 0.31825237438320281 0 -0.44581810195804761 0.32510831400904228 0 -0.45061056768379198 0.29999697158549748 0 -0.43709634356477661 0.31825237438320281 0 -0.43732986870894569 0.3293474340043786 0 -0.44581810195804761 0.32510831400904228 0 -0.43709634356477661 0.31825237438320281 0 -0.45061056768379198 0.29999697158549748 0 -0.43044414599989611 0.30740817964886491 0 -0.45061056768379198 0.29999697158549748 0 -0.44141641186568947 0.28335848044653911 0 -0.45540303340953642 0.27488562916195258 0 -0.45061056768379198 0.29999697158549748 0 -0.45540303340953642 0.27488562916195258 0 -0.45061056768379198 0.29999697158549748 0 -0.44141641186568947 0.28335848044653911 0 -0.42739971700312768 0.29359138266606022 0 -0.45061056768379198 0.29999697158549748 0 -0.47058828708747308 0.28941420173905102 0 -0.45540303340953642 0.27488562916195258 0 -0.45634751292085779 0.31449475903477192 0 -0.45061056768379198 0.29999697158549748 0 -0.47263720043410329 0.31033006424790599 0 -0.45061056768379198 0.29999697158549748 0 -0.47263720043410329 0.31033006424790599 0 -0.47058828708747308 0.28941420173905102 0 -0.47263720043410329 0.31033006424790599 0 -0.47058828708747308 0.28941420173905102 0 -0.48831712650880149 0.30090955183819118 0 -0.47058828708747308 0.28941420173905102 0 -0.48831712650880149 0.30090955183819118 0 -0.48534313772553439 0.27575618243023481 0 -0.5 0.28683416186994409 0 -0.48831712650880149 0.30090955183819118 0 -0.48534313772553439 0.27575618243023481 0 -0.50000000000000167 0.31498494180643521 0 -0.5 0.28683416186994409 0 -0.48831712650880149 0.30090955183819118 0 -0.50000000000000167 0.31498494180643521 0 -0.47263720043410329 0.31033006424790599 0 -0.48831712650880149 0.30090955183819118 0 -0.5 0.25868338193345303 0 -0.48534313772553439 0.27575618243023481 0 -0.48217572555669991 0.25029396605485921 0 -0.5 0.28683416186994409 0 -0.5 0.25868338193345303 0 -0.48534313772553439 0.27575618243023481 0 -0.47058828708747308 0.28941420173905102 0 -0.48534313772553439 0.27575618243023481 0 -0.4709776872002317 0.26840183114590987 0 -0.48534313772553439 0.27575618243023481 0 -0.4709776872002317 0.26840183114590987 0 -0.48217572555669991 0.25029396605485921 0 -0.46087805730186399 0.2442769255366096 0 -0.4709776872002317 0.26840183114590987 0 -0.48217572555669991 0.25029396605485921 0 -0.46087805730186399 0.2442769255366096 0 -0.4709776872002317 0.26840183114590987 0 -0.45687271841111199 0.26016587859611129 0 -0.46087805730186399 0.2442769255366096 0 -0.4709776872002317 0.26840183114590987 0 -0.47058828708747308 0.28941420173905102 0 -0.4709776872002317 0.26840183114590987 0 -0.45540303340953642 0.27488562916195258 0 -0.4709776872002317 0.26840183114590987 0 -0.45687271841111199 0.26016587859611129 0 -0.45540303340953642 0.27488562916195258 0 -0.44141641186568947 0.28335848044653911 0 -0.45540303340953642 0.27488562916195258 0 -0.44064366031254681 0.25883292783477407 0 -0.45687271841111199 0.26016587859611129 0 -0.45540303340953642 0.27488562916195258 0 -0.44064366031254681 0.25883292783477407 0 -0.46087805730186399 0.2442769255366096 0 -0.45687271841111199 0.26016587859611129 0 -0.44064366031254681 0.25883292783477407 0 -0.4178674716704745 0.24859260188043569 0 -0.44064366031254681 0.25883292783477407 0 -0.4156438445103437 0.26428180949398278 0 -0.4178674716704745 0.24859260188043569 0 -0.39383175507615048 0.24673430455711989 0 -0.4156438445103437 0.26428180949398278 0 -0.4156438445103437 0.26428180949398278 0 -0.41369854419644742 0.28138534396616949 0 -0.40095425801461337 0.27140254451730872 0 -0.4156438445103437 0.26428180949398278 0 -0.42768719517170167 0.27517563508410642 0 -0.41369854419644742 0.28138534396616949 0 -0.44064366031254681 0.25883292783477407 0 -0.4156438445103437 0.26428180949398278 0 -0.42768719517170167 0.27517563508410642 0 -0.44141641186568947 0.28335848044653911 0 -0.44064366031254681 0.25883292783477407 0 -0.42768719517170167 0.27517563508410642 0 -0.42768719517170167 0.27517563508410642 0 -0.42739971700312768 0.29359138266606022 0 -0.41369854419644742 0.28138534396616949 0 -0.44141641186568947 0.28335848044653911 0 -0.42768719517170167 0.27517563508410642 0 -0.42739971700312768 0.29359138266606022 0 -0.42739971700312768 0.29359138266606022 0 -0.43044414599989611 0.30740817964886491 0 -0.41828518704459799 0.31115090713050569 0 -0.45061056768379198 0.29999697158549748 0 -0.42739971700312768 0.29359138266606022 0 -0.43044414599989611 0.30740817964886491 0 -0.41828518704459799 0.31115090713050569 0 -0.40974062474835282 0.29647110201792631 0 -0.40055350609195273 0.30637257862856049 0 -0.42739971700312768 0.29359138266606022 0 -0.41828518704459799 0.31115090713050569 0 -0.40974062474835282 0.29647110201792631 0 -0.41828518704459799 0.31115090713050569 0 -0.40974062474835282 0.29647110201792631 0 -0.42739971700312768 0.29359138266606022 0 -0.40974062474835282 0.29647110201792631 0 -0.41369854419644742 0.28138534396616949 0 -0.40974062474835282 0.29647110201792631 0 -0.41369854419644742 0.28138534396616949 0 -0.4014248202584858 0.28449728805593988 0 -0.40974062474835282 0.29647110201792631 0 -0.4014248202584858 0.28449728805593988 0 -0.39122112155794292 0.29343232877604059 0 -0.4014248202584858 0.28449728805593988 0 -0.39122112155794292 0.29343232877604059 0 -0.39150955277507249 0.27979512100225429 0 -0.40974062474835282 0.29647110201792631 0 -0.39122112155794292 0.29343232877604059 0 -0.40055350609195273 0.30637257862856049 0 -0.39122112155794292 0.29343232877604059 0 -0.40055350609195273 0.30637257862856049 0 -0.38306414714844939 0.31006768725441353 0 -0.40045644996042051 0.3207408679639166 0 -0.40055350609195273 0.30637257862856049 0 -0.38306414714844939 0.31006768725441353 0 -0.39122112155794292 0.29343232877604059 0 -0.38306414714844939 0.31006768725441353 0 -0.37683359765921881 0.29604502953502632 0 -0.38306414714844939 0.31006768725441353 0 -0.37683359765921881 0.29604502953502632 0 -0.36904735906117692 0.30491268756979178 0 -0.39122112155794292 0.29343232877604059 0 -0.37753665926117341 0.28145968092078372 0 -0.39150955277507249 0.27979512100225429 0 -0.39122112155794292 0.29343232877604059 0 -0.37683359765921881 0.29604502953502632 0 -0.37753665926117341 0.28145968092078372 0 -0.37753665926117341 0.28145968092078372 0 -0.38618424125775008 0.26731162788285012 0 -0.37042850909260733 0.26365744415453929 0 -0.37753665926117341 0.28145968092078372 0 -0.38618424125775008 0.26731162788285012 0 -0.39150955277507249 0.27979512100225429 0 -0.38618424125775008 0.26731162788285012 0 -0.3800601359770836 0.25564484595707843 0 -0.37042850909260733 0.26365744415453929 0 -0.39383175507615048 0.24673430455711989 0 -0.38618424125775008 0.26731162788285012 0 -0.3800601359770836 0.25564484595707843 0 -0.39383175507615048 0.24673430455711989 0 -0.38618424125775008 0.26731162788285012 0 -0.40095425801461337 0.27140254451730872 0 -0.39383175507615048 0.24673430455711989 0 -0.4156438445103437 0.26428180949398278 0 -0.40095425801461337 0.27140254451730872 0 -0.41369854419644742 0.28138534396616949 0 -0.4014248202584858 0.28449728805593988 0 -0.40095425801461337 0.27140254451730872 0 -0.4014248202584858 0.28449728805593988 0 -0.40095425801461337 0.27140254451730872 0 -0.39150955277507249 0.27979512100225429 0 -0.38618424125775008 0.26731162788285012 0 -0.40095425801461337 0.27140254451730872 0 -0.39150955277507249 0.27979512100225429 0 -0.35624264216159851 0.26692392367329132 0 -0.34958313212897801 0.28068732799209711 0 -0.36348844495546823 0.27725170446421432 0 -0.35624264216159851 0.26692392367329132 0 -0.34958313212897801 0.28068732799209711 0 -0.34460555929745962 0.26921893705496852 0 -0.35624264216159851 0.26692392367329132 0 -0.34460555929745962 0.26921893705496852 0 -0.34697734082226322 0.25750955995071401 0 -0.34576032188750261 0.2430177099104871 0 -0.34697734082226322 0.25750955995071401 0 -0.35668930213428429 0.25176810683765333 0 -0.35624264216159851 0.26692392367329132 0 -0.34697734082226322 0.25750955995071401 0 -0.35668930213428429 0.25176810683765333 0 -0.36979603848182652 0.24487600723380409 0 -0.3800601359770836 0.25564484595707843 0 -0.37042850909260733 0.26365744415453929 0 -0.36979603848182652 0.24487600723380409 0 -0.35668930213428429 0.25176810683765333 0 -0.37042850909260733 0.26365744415453929 0 -0.35624264216159851 0.26692392367329132 0 -0.35668930213428429 0.25176810683765333 0 -0.37042850909260733 0.26365744415453929 0 -0.37753665926117341 0.28145968092078372 0 -0.37042850909260733 0.26365744415453929 0 -0.36348844495546823 0.27725170446421432 0 -0.35624264216159851 0.26692392367329132 0 -0.37042850909260733 0.26365744415453929 0 -0.36348844495546823 0.27725170446421432 0 -0.37753665926117341 0.28145968092078372 0 -0.36348844495546823 0.27725170446421432 0 -0.36237945001730981 0.29167961246987761 0 -0.37683359765921881 0.29604502953502632 0 -0.37753665926117341 0.28145968092078372 0 -0.36237945001730981 0.29167961246987761 0 -0.36237945001730981 0.29167961246987761 0 -0.36904735906117692 0.30491268756979178 0 -0.35436960484866598 0.30835186153821742 0 -0.38306414714844939 0.31006768725441353 0 -0.36904735906117692 0.30491268756979178 0 -0.36858999563224049 0.31841924705142421 0 -0.37683359765921881 0.29604502953502632 0 -0.36237945001730981 0.29167961246987761 0 -0.36904735906117692 0.30491268756979178 0 -0.36904735906117692 0.30491268756979178 0 -0.35436960484866598 0.30835186153821742 0 -0.36858999563224049 0.31841924705142421 0 -0.36237945001730981 0.29167961246987761 0 -0.35436960484866598 0.30835186153821742 0 -0.34631958848915712 0.29533466071809961 0 -0.35436960484866598 0.30835186153821742 0 -0.34631958848915712 0.29533466071809961 0 -0.33979220454979142 0.31071345061811501 0 -0.34958313212897801 0.28068732799209711 0 -0.36237945001730981 0.29167961246987761 0 -0.34631958848915712 0.29533466071809961 0 -0.34958313212897801 0.28068732799209711 0 -0.36348844495546823 0.27725170446421432 0 -0.36237945001730981 0.29167961246987761 0 -0.34958313212897801 0.28068732799209711 0 -0.34631958848915712 0.29533466071809961 0 -0.34022236290331259 0.28689350219970022 0 -0.34022236290331259 0.28689350219970022 0 -0.33263584364497112 0.29376382242241761 0 -0.33235088735014412 0.27778819766618668 0 -0.34958313212897801 0.28068732799209711 0 -0.34022236290331259 0.28689350219970022 0 -0.33235088735014412 0.27778819766618668 0 -0.34631958848915712 0.29533466071809961 0 -0.34022236290331259 0.28689350219970022 0 -0.33263584364497112 0.29376382242241761 0 -0.34631958848915712 0.29533466071809961 0 -0.33263584364497112 0.29376382242241761 0 -0.33979220454979142 0.31071345061811501 0 -0.33263584364497112 0.29376382242241761 0 -0.33979220454979142 0.31071345061811501 0 -0.32225152494696357 0.30519136294451632 0 -0.33979220454979142 0.31071345061811501 0 -0.32225152494696357 0.30519136294451632 0 -0.32050500863926162 0.32143421940170591 0 -0.32225152494696357 0.30519136294451632 0 -0.31600986614681509 0.28598559706135068 0 -0.3059242016741931 0.30419429933517872 0 -0.32225152494696357 0.30519136294451632 0 -0.3059242016741931 0.30419429933517872 0 -0.32050500863926162 0.32143421940170591 0 -0.33263584364497112 0.29376382242241761 0 -0.31600986614681509 0.28598559706135068 0 -0.33235088735014412 0.27778819766618668 0 -0.33263584364497112 0.29376382242241761 0 -0.32225152494696357 0.30519136294451632 0 -0.31600986614681509 0.28598559706135068 0 -0.31600986614681509 0.28598559706135068 0 -0.32068951940444029 0.26790089084751378 0 -0.33235088735014412 0.27778819766618668 0 -0.31600986614681509 0.28598559706135068 0 -0.32068951940444029 0.26790089084751378 0 -0.30415111502286041 0.27175037667304741 0 -0.34958313212897801 0.28068732799209711 0 -0.34460555929745962 0.26921893705496852 0 -0.33235088735014412 0.27778819766618668 0 -0.32068951940444029 0.26790089084751378 0 -0.33235088735014412 0.27778819766618668 0 -0.3350767586176196 0.26297647451005662 0 -0.34460555929745962 0.26921893705496852 0 -0.33235088735014412 0.27778819766618668 0 -0.3350767586176196 0.26297647451005662 0 -0.34576032188750261 0.2430177099104871 0 -0.34697734082226322 0.25750955995071401 0 -0.33766831174027923 0.25190742216087603 0 -0.34697734082226322 0.25750955995071401 0 -0.33766831174027923 0.25190742216087603 0 -0.3350767586176196 0.26297647451005662 0 -0.34460555929745962 0.26921893705496852 0 -0.34697734082226322 0.25750955995071401 0 -0.3350767586176196 0.26297647451005662 0 -0.33766831174027923 0.25190742216087603 0 -0.3350767586176196 0.26297647451005662 0 -0.3259942009214159 0.2540923271119605 0 -0.32068951940444029 0.26790089084751378 0 -0.3350767586176196 0.26297647451005662 0 -0.3259942009214159 0.2540923271119605 0 -0.32068951940444029 0.26790089084751378 0 -0.3259942009214159 0.2540923271119605 0 -0.31059422902754291 0.25701610270224118 0 -0.31675613276567488 0.24323027128106531 0 -0.3259942009214159 0.2540923271119605 0 -0.31059422902754291 0.25701610270224118 0 -0.31059422902754291 0.25701610270224118 0 -0.30415111502286041 0.27175037667304741 0 -0.29110970588793988 0.25613925754107048 0 -0.32068951940444029 0.26790089084751378 0 -0.31059422902754291 0.25701610270224118 0 -0.30415111502286041 0.27175037667304741 0 -0.30217818509366878 0.2467752935355807 0 -0.31059422902754291 0.25701610270224118 0 -0.29110970588793988 0.25613925754107048 0 -0.30415111502286041 0.27175037667304741 0 -0.28563661865709172 0.27624293320277571 0 -0.30156515401869721 0.28719965839772971 0 -0.30415111502286041 0.27175037667304741 0 -0.28563661865709172 0.27624293320277571 0 -0.29110970588793988 0.25613925754107048 0 -0.28563661865709172 0.27624293320277571 0 -0.29110970588793988 0.25613925754107048 0 -0.27310944347268512 0.26507655227474569 0 -0.2788220018267038 0.24688355220206959 0 -0.27310944347268512 0.26507655227474569 0 -0.26681787323025352 0.25205751075495297 0 -0.27310944347268512 0.26507655227474569 0 -0.26681787323025352 0.25205751075495297 0 -0.25720826296923222 0.26030844014048549 0 -0.2788220018267038 0.24688355220206959 0 -0.29110970588793988 0.25613925754107048 0 -0.27310944347268512 0.26507655227474569 0 -0.28563661865709172 0.27624293320277571 0 -0.27310944347268512 0.26507655227474569 0 -0.26811218076419141 0.28451072254818283 0 -0.27310944347268512 0.26507655227474569 0 -0.2592517531347957 0.27209140955001893 0 -0.26811218076419141 0.28451072254818283 0 -0.27310944347268512 0.26507655227474569 0 -0.2592517531347957 0.27209140955001893 0 -0.25720826296923222 0.26030844014048549 0 -0.2592517531347957 0.27209140955001893 0 -0.26811218076419141 0.28451072254818283 0 -0.24630518530193979 0.28228024887108583 0 -0.2592517531347957 0.27209140955001893 0 -0.24630518530193979 0.28228024887108583 0 -0.24640150770589969 0.26895924206875887 0 -0.2592517531347957 0.27209140955001893 0 -0.25720826296923222 0.26030844014048549 0 -0.24640150770589969 0.26895924206875887 0 -0.25654248230236881 0.24794234615054991 0 -0.25720826296923222 0.26030844014048549 0 -0.23890969400241849 0.2552092714717491 0 -0.25654248230236881 0.24794234615054991 0 -0.26681787323025352 0.25205751075495297 0 -0.25720826296923222 0.26030844014048549 0 -0.27170755469338648 0.30251000137415668 0 -0.25660522254022211 0.31349603112584118 0 -0.24779582667689801 0.29879862025807941 0 -0.26811218076419141 0.28451072254818283 0 -0.24630518530193979 0.28228024887108583 0 -0.24779582667689801 0.29879862025807941 0 -0.26811218076419141 0.28451072254818283 0 -0.27170755469338648 0.30251000137415668 0 -0.24779582667689801 0.29879862025807941 0 -0.26811218076419141 0.28451072254818283 0 -0.27170755469338648 0.30251000137415668 0 -0.28767960465644321 0.29247720304046548 0 -0.28563661865709172 0.27624293320277571 0 -0.26811218076419141 0.28451072254818283 0 -0.28767960465644321 0.29247720304046548 0 -0.27170755469338648 0.30251000137415668 0 -0.27978905663688203 0.31886633809321802 0 -0.25660522254022211 0.31349603112584118 0 -0.27170755469338648 0.30251000137415668 0 -0.28941460447016032 0.30771777946374301 0 -0.27978905663688203 0.31886633809321802 0 -0.28941460447016032 0.30771777946374301 0 -0.28767960465644321 0.29247720304046548 0 -0.3059242016741931 0.30419429933517872 0 -0.27170755469338648 0.30251000137415668 0 -0.28941460447016032 0.30771777946374301 0 -0.28767960465644321 0.29247720304046548 0 -0.28563661865709172 0.27624293320277571 0 -0.28767960465644321 0.29247720304046548 0 -0.30156515401869721 0.28719965839772971 0 -0.28767960465644321 0.29247720304046548 0 -0.30156515401869721 0.28719965839772971 0 -0.3059242016741931 0.30419429933517872 0 -0.31600986614681509 0.28598559706135068 0 -0.30156515401869721 0.28719965839772971 0 -0.3059242016741931 0.30419429933517872 0 -0.31600986614681509 0.28598559706135068 0 -0.30415111502286041 0.27175037667304741 0 -0.30156515401869721 0.28719965839772971 0 -0.28941460447016032 0.30771777946374301 0 -0.3059242016741931 0.30419429933517872 0 -0.29789820909539161 0.32441314964172391 0 -0.3059242016741931 0.30419429933517872 0 -0.29789820909539161 0.32441314964172391 0 -0.32050500863926162 0.32143421940170591 0 -0.29789820909539161 0.32441314964172391 0 -0.31097585248077031 0.33933499786898053 0 -0.29594269831042802 0.348020880981943 0 -0.29789820909539161 0.32441314964172391 0 -0.31097585248077031 0.33933499786898053 0 -0.32050500863926162 0.32143421940170591 0 -0.29789820909539161 0.32441314964172391 0 -0.27977059946285349 0.33766830524317298 0 -0.29594269831042802 0.348020880981943 0 -0.29789820909539161 0.32441314964172391 0 -0.27978905663688203 0.31886633809321802 0 -0.27977059946285349 0.33766830524317298 0 -0.28941460447016032 0.30771777946374301 0 -0.29789820909539161 0.32441314964172391 0 -0.27978905663688203 0.31886633809321802 0 -0.27978905663688203 0.31886633809321802 0 -0.26526726925086541 0.32882955429235827 0 -0.25660522254022211 0.31349603112584118 0 -0.27978905663688203 0.31886633809321802 0 -0.25660522254022211 0.31349603112584118 0 -0.27977059946285349 0.33766830524317298 0 -0.26526726925086541 0.32882955429235827 0 -0.26216581938548222 0.3461653264023048 0 -0.27978905663688203 0.31886633809321802 0 -0.27977059946285349 0.33766830524317298 0 -0.26526726925086541 0.32882955429235827 0 -0.26216581938548222 0.3461653264023048 0 -0.24612677491409371 0.35319075287423141 0 -0.2447481306184201 0.33170364097804639 0 -0.26526726925086541 0.32882955429235827 0 -0.26216581938548222 0.3461653264023048 0 -0.2447481306184201 0.33170364097804639 0 -0.26526726925086541 0.32882955429235827 0 -0.25660522254022211 0.31349603112584118 0 -0.2447481306184201 0.33170364097804639 0 -0.26024848530979072 0.3703699593034655 0 -0.26216581938548222 0.3461653264023048 0 -0.24612677491409371 0.35319075287423141 0 -0.27977059946285349 0.33766830524317298 0 -0.26216581938548222 0.3461653264023048 0 -0.2775605440980724 0.35971458204749029 0 -0.26024848530979072 0.3703699593034655 0 -0.26216581938548222 0.3461653264023048 0 -0.2775605440980724 0.35971458204749029 0 -0.26024848530979072 0.3703699593034655 0 -0.2775605440980724 0.35971458204749029 0 -0.27832114180492618 0.38821977829820192 0 -0.2775605440980724 0.35971458204749029 0 -0.29418910507965151 0.36985584651121961 0 -0.27832114180492618 0.38821977829820192 0 -0.27977059946285349 0.33766830524317298 0 -0.2775605440980724 0.35971458204749029 0 -0.29594269831042802 0.348020880981943 0 -0.2775605440980724 0.35971458204749029 0 -0.29418910507965151 0.36985584651121961 0 -0.29594269831042802 0.348020880981943 0 -0.29418910507965151 0.36985584651121961 0 -0.29594269831042802 0.348020880981943 0 -0.3132502477365236 0.35987069613130118 0 -0.31097585248077031 0.33933499786898053 0 -0.29594269831042802 0.348020880981943 0 -0.3132502477365236 0.35987069613130118 0 -0.29418910507965151 0.36985584651121961 0 -0.3132502477365236 0.35987069613130118 0 -0.30750428779507022 0.3848744545907164 0 -0.32318486512581951 0.37198731964308679 0 -0.3132502477365236 0.35987069613130118 0 -0.33529749118647018 0.36167499696709859 0 -0.32318486512581951 0.37198731964308679 0 -0.3132502477365236 0.35987069613130118 0 -0.30750428779507022 0.3848744545907164 0 -0.32318486512581951 0.37198731964308679 0 -0.33529749118647018 0.36167499696709859 0 -0.3366874337852136 0.38152913088322882 0 -0.33529749118647018 0.36167499696709859 0 -0.34483811867601633 0.37089436549804788 0 -0.3366874337852136 0.38152913088322882 0 -0.33529749118647018 0.36167499696709859 0 -0.3366874337852136 0.38152913088322882 0 -0.33529749118647018 0.36167499696709859 0 -0.34297858975908768 0.34676041194156448 0 -0.32728309862224658 0.34293604318822829 0 -0.31097585248077031 0.33933499786898053 0 -0.3132502477365236 0.35987069613130118 0 -0.32728309862224658 0.34293604318822829 0 -0.3132502477365236 0.35987069613130118 0 -0.33529749118647018 0.36167499696709859 0 -0.32728309862224658 0.34293604318822829 0 -0.31097585248077031 0.33933499786898053 0 -0.32728309862224658 0.34293604318822829 0 -0.32050500863926162 0.32143421940170591 0 -0.33979220454979142 0.31071345061811501 0 -0.32050500863926162 0.32143421940170591 0 -0.34060313133925868 0.33026867051627418 0 -0.34297858975908768 0.34676041194156448 0 -0.32728309862224658 0.34293604318822829 0 -0.34060313133925868 0.33026867051627418 0 -0.32728309862224658 0.34293604318822829 0 -0.32050500863926162 0.32143421940170591 0 -0.34060313133925868 0.33026867051627418 0 -0.34060313133925868 0.33026867051627418 0 -0.35814980271231822 0.33726074914914639 0 -0.3530404294993934 0.32156915890519328 0 -0.34297858975908768 0.34676041194156448 0 -0.34060313133925868 0.33026867051627418 0 -0.35814980271231822 0.33726074914914639 0 -0.33979220454979142 0.31071345061811501 0 -0.34060313133925868 0.33026867051627418 0 -0.3530404294993934 0.32156915890519328 0 -0.35436960484866598 0.30835186153821742 0 -0.33979220454979142 0.31071345061811501 0 -0.3530404294993934 0.32156915890519328 0 -0.35436960484866598 0.30835186153821742 0 -0.3530404294993934 0.32156915890519328 0 -0.36858999563224049 0.31841924705142421 0 -0.35814980271231822 0.33726074914914639 0 -0.3530404294993934 0.32156915890519328 0 -0.36858999563224049 0.31841924705142421 0 -0.37899652861451177 0.33239336013233117 0 -0.35814980271231822 0.33726074914914639 0 -0.36858999563224049 0.31841924705142421 0 -0.37899652861451177 0.33239336013233117 0 -0.35814980271231822 0.33726074914914639 0 -0.37127954351941572 0.34916240377925312 0 -0.37127954351941572 0.34916240377925312 0 -0.37226252735925658 0.36610977998764199 0 -0.3541708873106903 0.36063432134297169 0 -0.35814980271231822 0.33726074914914639 0 -0.37127954351941572 0.34916240377925312 0 -0.3541708873106903 0.36063432134297169 0 -0.37226252735925658 0.36610977998764199 0 -0.35407345336539492 0.37953613590249557 0 -0.37494441110486432 0.37714365533349459 0 -0.37226252735925658 0.36610977998764199 0 -0.35407345336539492 0.37953613590249557 0 -0.37226252735925658 0.36610977998764199 0 -0.3541708873106903 0.36063432134297169 0 -0.35407345336539492 0.37953613590249557 0 -0.33529749118647018 0.36167499696709859 0 -0.34483811867601633 0.37089436549804788 0 -0.3541708873106903 0.36063432134297169 0 -0.34483811867601633 0.37089436549804788 0 -0.3541708873106903 0.36063432134297169 0 -0.35407345336539492 0.37953613590249557 0 -0.34297858975908768 0.34676041194156448 0 -0.35814980271231822 0.33726074914914639 0 -0.3541708873106903 0.36063432134297169 0 -0.33529749118647018 0.36167499696709859 0 -0.34297858975908768 0.34676041194156448 0 -0.3541708873106903 0.36063432134297169 0 -0.35844670615150231 0.40379963824793552 0 -0.35407345336539492 0.37953613590249557 0 -0.33740906671120569 0.39183703623405147 0 -0.35844670615150231 0.40379963824793552 0 -0.339414287018103 0.42047988273756298 0 -0.33740906671120569 0.39183703623405147 0 -0.35407345336539492 0.37953613590249557 0 -0.3366874337852136 0.38152913088322882 0 -0.35407345336539492 0.37953613590249557 0 -0.33740906671120569 0.39183703623405147 0 -0.34483811867601633 0.37089436549804788 0 -0.35407345336539492 0.37953613590249557 0 -0.3366874337852136 0.38152913088322882 0 -0.35407345336539492 0.37953613590249557 0 -0.37494441110486432 0.37714365533349459 0 -0.37160749487881228 0.39270695931296012 0 -0.35407345336539492 0.37953613590249557 0 -0.37494441110486432 0.37714365533349459 0 -0.38170962224127192 0.41187051275180431 0 -0.35844670615150231 0.40379963824793552 0 -0.37160749487881228 0.39270695931296012 0 -0.35844670615150231 0.40379963824793552 0 -0.35407345336539492 0.37953613590249557 0 -0.37160749487881228 0.39270695931296012 0 -0.38170962224127192 0.41187051275180431 0 -0.35844670615150231 0.40379963824793552 0 -0.3623117690423191 0.42811367330896583 0 -0.38220472950674328 0.43285739042239468 0 -0.3623117690423191 0.42811367330896583 0 -0.3691168313735429 0.44869358970905188 0 -0.3623117690423191 0.42811367330896583 0 -0.339414287018103 0.42047988273756298 0 -0.34141950732500109 0.44912272924107433 0 -0.35844670615150231 0.40379963824793552 0 -0.3623117690423191 0.42811367330896583 0 -0.339414287018103 0.42047988273756298 0 -0.339414287018103 0.42047988273756298 0 -0.33026705170019421 0.40734153885390068 0 -0.33740906671120569 0.39183703623405147 0 -0.339414287018103 0.42047988273756298 0 -0.33026705170019421 0.40734153885390068 0 -0.32557878789449429 0.41715847467586242 0 -0.339414287018103 0.42047988273756298 0 -0.33589137862375179 0.4402560127297932 0 -0.34141950732500109 0.44912272924107433 0 -0.339414287018103 0.42047988273756298 0 -0.34141950732500109 0.44912272924107433 0 -0.339414287018103 0.42047988273756298 0 -0.32894276260193589 0.42890161816084832 0 -0.33589137862375179 0.4402560127297932 0 -0.339414287018103 0.42047988273756298 0 -0.32894276260193589 0.42890161816084832 0 -0.32557878789449429 0.41715847467586242 0 -0.32894276260193589 0.42890161816084832 0 -0.32224500618143498 0.43874531441988263 0 -0.33589137862375179 0.4402560127297932 0 -0.32894276260193589 0.42890161816084832 0 -0.32029978443326851 0.42768180537680628 0 -0.32224500618143498 0.43874531441988263 0 -0.32894276260193589 0.42890161816084832 0 -0.32029978443326851 0.42768180537680628 0 -0.32557878789449429 0.41715847467586242 0 -0.32029978443326851 0.42768180537680628 0 -0.31069996627040342 0.41861365717112131 0 -0.31134610440991939 0.4339107914155515 0 -0.32029978443326851 0.42768180537680628 0 -0.31134610440991939 0.4339107914155515 0 -0.32224500618143498 0.43874531441988263 0 -0.33026705170019421 0.40734153885390068 0 -0.32557878789449429 0.41715847467586242 0 -0.31783655095641827 0.40628458660201039 0 -0.32029978443326851 0.42768180537680628 0 -0.32557878789449429 0.41715847467586242 0 -0.31069996627040342 0.41861365717112131 0 -0.32557878789449429 0.41715847467586242 0 -0.31783655095641827 0.40628458660201039 0 -0.31069996627040342 0.41861365717112131 0 -0.32559335217903179 0.40055886499514221 0 -0.30475563143990853 0.40394826610756829 0 -0.314566472235633 0.39549919037692571 0 -0.32559335217903179 0.40055886499514221 0 -0.3366874337852136 0.38152913088322882 0 -0.31783655095641827 0.40628458660201039 0 -0.32559335217903179 0.40055886499514221 0 -0.30475563143990853 0.40394826610756829 0 -0.314566472235633 0.39549919037692571 0 -0.32559335217903179 0.40055886499514221 0 -0.30475563143990853 0.40394826610756829 0 -0.33026705170019421 0.40734153885390068 0 -0.31783655095641827 0.40628458660201039 0 -0.32559335217903179 0.40055886499514221 0 -0.31783655095641827 0.40628458660201039 0 -0.32559335217903179 0.40055886499514221 0 -0.32559335217903179 0.40055886499514221 0 -0.33740906671120569 0.39183703623405147 0 -0.3366874337852136 0.38152913088322882 0 -0.33026705170019421 0.40734153885390068 0 -0.32559335217903179 0.40055886499514221 0 -0.33740906671120569 0.39183703623405147 0 -0.339414287018103 0.42047988273756298 0 -0.33740906671120569 0.39183703623405147 0 -0.32559335217903179 0.40055886499514221 0 -0.33740906671120569 0.39183703623405147 0 -0.35407345336539492 0.37953613590249557 0 -0.33740906671120569 0.39183703623405147 0 -0.3366874337852136 0.38152913088322882 0 -0.33740906671120569 0.39183703623405147 0 -0.3366874337852136 0.38152913088322882 0 -0.32318486512581951 0.37198731964308679 0 -0.3366874337852136 0.38152913088322882 0 -0.30750428779507022 0.3848744545907164 0 -0.314566472235633 0.39549919037692571 0 -0.3366874337852136 0.38152913088322882 0 -0.30750428779507022 0.3848744545907164 0 -0.3366874337852136 0.38152913088322882 0 -0.30750428779507022 0.3848744545907164 0 -0.30750428779507022 0.3848744545907164 0 -0.30359365076288641 0.39105642379191341 0 -0.29177707249975249 0.39439764141422018 0 -0.314566472235633 0.39549919037692571 0 -0.30750428779507022 0.3848744545907164 0 -0.30359365076288641 0.39105642379191341 0 -0.30475563143990853 0.40394826610756829 0 -0.30359365076288641 0.39105642379191341 0 -0.2839885134091592 0.40743331475793632 0 -0.314566472235633 0.39549919037692571 0 -0.30475563143990853 0.40394826610756829 0 -0.30359365076288641 0.39105642379191341 0 -0.30359365076288641 0.39105642379191341 0 -0.2839885134091592 0.40743331475793632 0 -0.30475563143990853 0.40394826610756829 0 -0.2839885134091592 0.40743331475793632 0 -0.30359365076288641 0.39105642379191341 0 -0.29177707249975249 0.39439764141422018 0 -0.2839885134091592 0.40743331475793632 0 -0.29177707249975249 0.39439764141422018 0 -0.28374783411604471 0.39844565432958068 0 -0.27832114180492618 0.38821977829820192 0 -0.29177707249975249 0.39439764141422018 0 -0.28374783411604471 0.39844565432958068 0 -0.2839885134091592 0.40743331475793632 0 -0.28374783411604471 0.39844565432958068 0 -0.27813671337326012 0.40059815276356142 0 -0.2839885134091592 0.40743331475793632 0 -0.30750428779507022 0.3848744545907164 0 -0.29177707249975249 0.39439764141422018 0 -0.27832114180492618 0.38821977829820192 0 -0.29418910507965151 0.36985584651121961 0 -0.30750428779507022 0.3848744545907164 0 -0.27832114180492618 0.38821977829820192 0 -0.30750428779507022 0.3848744545907164 0 -0.27832114180492618 0.38821977829820192 0 -0.26775305172768948 0.3980157195655708 0 -0.2578675454450472 0.40077020676184522 0 -0.27514309119780472 0.40891771556376533 0 -0.27832114180492618 0.38821977829820192 0 -0.27813671337326012 0.40059815276356142 0 -0.26775305172768948 0.3980157195655708 0 -0.2578675454450472 0.40077020676184522 0 -0.27514309119780472 0.40891771556376533 0 -0.28374783411604471 0.39844565432958068 0 -0.27832114180492618 0.38821977829820192 0 -0.27813671337326012 0.40059815276356142 0 -0.27813671337326012 0.40059815276356142 0 -0.27514309119780472 0.40891771556376533 0 -0.2839885134091592 0.40743331475793632 0 -0.27813671337326012 0.40059815276356142 0 -0.26775305172768948 0.3980157195655708 0 -0.27514309119780472 0.40891771556376533 0 -0.26775305172768948 0.3980157195655708 0 -0.2578675454450472 0.40077020676184522 0 -0.24913799581478269 0.39156510200568828 0 -0.27832114180492618 0.38821977829820192 0 -0.26775305172768948 0.3980157195655708 0 -0.24913799581478269 0.39156510200568828 0 -0.2578675454450472 0.40077020676184522 0 -0.27175481544075292 0.4094863214645319 0 -0.25138894679653978 0.39670402176288438 0 -0.25799899758709022 0.41179476379988972 0 -0.24502064870914461 0.40440191990292279 0 -0.25138894679653978 0.39670402176288438 0 -0.25799899758709022 0.41179476379988972 0 -0.2578675454450472 0.40077020676184522 0 -0.25138894679653978 0.39670402176288438 0 -0.25799899758709022 0.41179476379988972 0 -0.2578675454450472 0.40077020676184522 0 -0.25138894679653978 0.39670402176288438 0 -0.2578675454450472 0.40077020676184522 0 -0.25138894679653978 0.39670402176288438 0 -0.24913799581478269 0.39156510200568828 0 -0.25138894679653978 0.39670402176288438 0 -0.24913799581478269 0.39156510200568828 0 -0.26024848530979072 0.3703699593034655 0 -0.27832114180492618 0.38821977829820192 0 -0.24913799581478269 0.39156510200568828 0 -0.27832114180492618 0.38821977829820192 0 -0.24913799581478269 0.39156510200568828 0 -0.26356239645684371 0.42449600012206562 0 -0.24586107928910189 0.43928256019460898 0 -0.26356239645684371 0.42449600012206562 0 -0.24586107928910189 0.43928256019460898 0 -0.2494440366010621 0.42572282038709919 0 -0.26356239645684371 0.42449600012206562 0 -0.25421330052887658 0.41890509318774832 0 -0.2494440366010621 0.42572282038709919 0 -0.25421330052887658 0.41890509318774832 0 -0.24696442795170381 0.41364653793428319 0 -0.2494440366010621 0.42572282038709919 0 -0.25421330052887658 0.41890509318774832 0 -0.25799899758709022 0.41179476379988972 0 -0.24696442795170381 0.41364653793428319 0 -0.25799899758709022 0.41179476379988972 0 -0.24696442795170381 0.41364653793428319 0 -0.25799899758709022 0.41179476379988972 0 -0.27175481544075292 0.4094863214645319 0 -0.2578675454450472 0.40077020676184522 0 -0.25799899758709022 0.41179476379988972 0 -0.27175481544075292 0.4094863214645319 0 -0.26356239645684371 0.42449600012206562 0 -0.25799899758709022 0.41179476379988972 0 -0.26356239645684371 0.42449600012206562 0 -0.25421330052887658 0.41890509318774832 0 -0.25799899758709022 0.41179476379988972 0 -0.26356239645684371 0.42449600012206562 0 -0.25799899758709022 0.41179476379988972 0 -0.26712221061243852 0.41505411598845199 0 -0.26356239645684371 0.42449600012206562 0 -0.27733678199764378 0.41298975020116879 0 -0.26356239645684371 0.42449600012206562 0 -0.27733678199764378 0.41298975020116879 0 -0.27984377285705542 0.41943735844217378 0 -0.26356239645684371 0.42449600012206562 0 -0.26712221061243852 0.41505411598845199 0 -0.27733678199764378 0.41298975020116879 0 -0.2578675454450472 0.40077020676184522 0 -0.27175481544075292 0.4094863214645319 0 -0.27514309119780472 0.40891771556376533 0 -0.25799899758709022 0.41179476379988972 0 -0.26712221061243852 0.41505411598845199 0 -0.27175481544075292 0.4094863214645319 0 -0.26712221061243852 0.41505411598845199 0 -0.27175481544075292 0.4094863214645319 0 -0.27733678199764378 0.41298975020116879 0 -0.27514309119780472 0.40891771556376533 0 -0.2839885134091592 0.40743331475793632 0 -0.27514309119780472 0.40891771556376533 0 -0.27966083909449652 0.41104837998849131 0 -0.2839885134091592 0.40743331475793632 0 -0.27175481544075292 0.4094863214645319 0 -0.27514309119780472 0.40891771556376533 0 -0.27175481544075292 0.4094863214645319 0 -0.27514309119780472 0.40891771556376533 0 -0.27733678199764378 0.41298975020116879 0 -0.27175481544075292 0.4094863214645319 0 -0.27733678199764378 0.41298975020116879 0 -0.27733678199764378 0.41298975020116879 0 -0.27966083909449652 0.41104837998849131 0 -0.28129754649380151 0.41508522022680039 0 -0.27514309119780472 0.40891771556376533 0 -0.27733678199764378 0.41298975020116879 0 -0.27966083909449652 0.41104837998849131 0 -0.27733678199764378 0.41298975020116879 0 -0.27966083909449652 0.41104837998849131 0 -0.27514309119780472 0.40891771556376533 0 -0.27966083909449652 0.41104837998849131 0 -0.27733678199764378 0.41298975020116879 0 -0.27984377285705542 0.41943735844217378 0 -0.28129754649380151 0.41508522022680039 0 -0.26356239645684371 0.42449600012206562 0 -0.28007807928828971 0.43075051033505413 0 -0.27480151524739432 0.45015490165939392 0 -0.26356239645684371 0.42449600012206562 0 -0.27984377285705542 0.41943735844217378 0 -0.28007807928828971 0.43075051033505413 0 -0.26356239645684371 0.42449600012206562 0 -0.27480151524739432 0.45015490165939392 0 -0.29032205070280082 0.4236693574536628 0 -0.29832317042842038 0.41347249589169499 0 -0.30064335527773012 0.42926110027814812 0 -0.28007807928828971 0.43075051033505413 0 -0.29032205070280082 0.4236693574536628 0 -0.28999862548914318 0.43670721559163522 0 -0.27984377285705542 0.41943735844217378 0 -0.28007807928828971 0.43075051033505413 0 -0.29032205070280082 0.4236693574536628 0 -0.29032205070280082 0.4236693574536628 0 -0.28999862548914318 0.43670721559163522 0 -0.30064335527773012 0.42926110027814812 0 -0.30475563143990853 0.40394826610756829 0 -0.2839885134091592 0.40743331475793632 0 -0.29832317042842038 0.41347249589169499 0 -0.27966083909449652 0.41104837998849131 0 -0.2839885134091592 0.40743331475793632 0 -0.27966083909449652 0.41104837998849131 0 -0.2839885134091592 0.40743331475793632 0 -0.28687181669834783 0.41444922788867788 0 -0.27966083909449652 0.41104837998849131 0 -0.28687181669834783 0.41444922788867788 0 -0.27966083909449652 0.41104837998849131 0 -0.28687181669834783 0.41444922788867788 0 -0.28129754649380151 0.41508522022680039 0 -0.27984377285705542 0.41943735844217378 0 -0.29032205070280082 0.4236693574536628 0 -0.28687181669834783 0.41444922788867788 0 -0.27984377285705542 0.41943735844217378 0 -0.28687181669834783 0.41444922788867788 0 -0.28129754649380151 0.41508522022680039 0 -0.29032205070280082 0.4236693574536628 0 -0.28687181669834783 0.41444922788867788 0 -0.29832317042842038 0.41347249589169499 0 -0.2839885134091592 0.40743331475793632 0 -0.28687181669834783 0.41444922788867788 0 -0.29832317042842038 0.41347249589169499 0 -0.29832317042842038 0.41347249589169499 0 -0.31069996627040342 0.41861365717112131 0 -0.30064335527773012 0.42926110027814812 0 -0.30475563143990853 0.40394826610756829 0 -0.29832317042842038 0.41347249589169499 0 -0.31069996627040342 0.41861365717112131 0 -0.31783655095641827 0.40628458660201039 0 -0.30475563143990853 0.40394826610756829 0 -0.31069996627040342 0.41861365717112131 0 -0.31069996627040342 0.41861365717112131 0 -0.30064335527773012 0.42926110027814812 0 -0.31134610440991939 0.4339107914155515 0 -0.28999862548914318 0.43670721559163522 0 -0.30064335527773012 0.42926110027814812 0 -0.30414812692949977 0.44970020823191748 0 -0.30064335527773012 0.42926110027814812 0 -0.31134610440991939 0.4339107914155515 0 -0.30414812692949977 0.44970020823191748 0 -0.30414812692949977 0.44970020823191748 0 -0.29667309209226372 0.46393126440182408 0 -0.31450938790470118 0.46396544834397979 0 -0.29667309209226372 0.46393126440182408 0 -0.30744275467276427 0.47558255707591629 0 -0.31450938790470118 0.46396544834397979 0 -0.29667309209226372 0.46393126440182408 0 -0.27480151524739432 0.45015490165939392 0 -0.2832101322529294 0.46935176929918088 0 -0.30414812692949977 0.44970020823191748 0 -0.29667309209226372 0.46393126440182408 0 -0.27480151524739432 0.45015490165939392 0 -0.30414812692949977 0.44970020823191748 0 -0.27480151524739432 0.45015490165939392 0 -0.28999862548914318 0.43670721559163522 0 -0.30414812692949977 0.44970020823191748 0 -0.27480151524739432 0.45015490165939392 0 -0.28007807928828971 0.43075051033505413 0 -0.28999862548914318 0.43670721559163522 0 -0.27480151524739432 0.45015490165939392 0 -0.27480151524739432 0.45015490165939392 0 -0.2691109566324642 0.4669719423792531 0 -0.2832101322529294 0.46935176929918088 0 -0.27480151524739432 0.45015490165939392 0 -0.2691109566324642 0.4669719423792531 0 -0.25524466154051773 0.45045791356887982 0 -0.27480151524739432 0.45015490165939392 0 -0.2832101322529294 0.46935176929918088 0 -0.2691109566324642 0.4669719423792531 0 -0.25524466154051773 0.45045791356887982 0 -0.2691109566324642 0.4669719423792531 0 -0.25255929397980348 0.46010590210588131 0 -0.25524466154051773 0.45045791356887982 0 -0.2691109566324642 0.4669719423792531 0 -0.25255929397980348 0.46010590210588131 0 -0.25219420533222892 0.47105905712232082 0 -0.25255929397980348 0.46010590210588131 0 -0.25524466154051773 0.45045791356887982 0 -0.24697958940160589 0.45058597175903659 0 -0.25524466154051773 0.45045791356887982 0 -0.24697958940160589 0.45058597175903659 0 -0.26356239645684371 0.42449600012206562 0 -0.25524466154051773 0.45045791356887982 0 -0.24586107928910189 0.43928256019460898 0 -0.26356239645684371 0.42449600012206562 0 -0.27480151524739432 0.45015490165939392 0 -0.25524466154051773 0.45045791356887982 0 -0.27480151524739432 0.45015490165939392 0 -0.25524466154051773 0.45045791356887982 0 -0.25524466154051773 0.45045791356887982 0 -0.24586107928910189 0.43928256019460898 0 -0.26273624075647811 0.48115970348304321 0 -0.26680625310088207 0.5 0 -0.24259253699240529 0.48428154672401502 0 -0.26273624075647811 0.48115970348304321 0 -0.25219420533222892 0.47105905712232082 0 -0.24259253699240529 0.48428154672401502 0 -0.2691109566324642 0.4669719423792531 0 -0.26273624075647811 0.48115970348304321 0 -0.25219420533222892 0.47105905712232082 0 -0.2691109566324642 0.4669719423792531 0 -0.28297725172440991 0.483485971189627 0 -0.2691109566324642 0.4669719423792531 0 -0.26273624075647811 0.48115970348304321 0 -0.28297725172440991 0.483485971189627 0 -0.2691109566324642 0.4669719423792531 0 -0.28297725172440991 0.483485971189627 0 -0.2832101322529294 0.46935176929918088 0 -0.26273624075647811 0.48115970348304321 0 -0.26680625310088207 0.5 0 -0.28297725172440991 0.483485971189627 0 -0.26680625310088207 0.5 0 -0.29684354681635589 0.50000000000000056 0 -0.28297725172440991 0.483485971189627 0 -0.29161874925846348 0.48854863693896849 0 -0.29684354681635589 0.50000000000000056 0 -0.28297725172440991 0.483485971189627 0 -0.29684354681635589 0.50000000000000056 0 -0.28297725172440991 0.483485971189627 0 -0.29161874925846348 0.48854863693896849 0 -0.2832101322529294 0.46935176929918088 0 -0.29161874925846348 0.48854863693896849 0 -0.2832101322529294 0.46935176929918088 0 -0.29561775255046119 0.47608209604421742 0 -0.29161874925846348 0.48854863693896849 0 -0.28297725172440991 0.483485971189627 0 -0.2832101322529294 0.46935176929918088 0 -0.29161874925846348 0.48854863693896849 0 -0.29561775255046119 0.47608209604421742 0 -0.30277828405113438 0.48602893564542388 0 -0.29667309209226372 0.46393126440182408 0 -0.2832101322529294 0.46935176929918088 0 -0.29561775255046119 0.47608209604421742 0 -0.29667309209226372 0.46393126440182408 0 -0.29561775255046119 0.47608209604421742 0 -0.30744275467276427 0.47558255707591629 0 -0.29561775255046119 0.47608209604421742 0 -0.30744275467276427 0.47558255707591629 0 -0.30277828405113438 0.48602893564542388 0 -0.30744275467276427 0.47558255707591629 0 -0.31214078893370067 0.48469793586647292 0 -0.31709999015770157 0.47621880861095178 0 -0.30744275467276427 0.47558255707591629 0 -0.30277828405113438 0.48602893564542388 0 -0.31214078893370067 0.48469793586647292 0 -0.29684354681635589 0.50000000000000056 0 -0.30835152980431868 0.49602008388634838 0 -0.31996337402596192 0.50000000000000044 0 -0.29684354681635589 0.50000000000000056 0 -0.30277828405113438 0.48602893564542388 0 -0.30835152980431868 0.49602008388634838 0 -0.29161874925846348 0.48854863693896849 0 -0.29684354681635589 0.50000000000000056 0 -0.30277828405113438 0.48602893564542388 0 -0.30277828405113438 0.48602893564542388 0 -0.31214078893370067 0.48469793586647292 0 -0.30835152980431868 0.49602008388634838 0 -0.30835152980431868 0.49602008388634838 0 -0.32290051131713648 0.48898315907322282 0 -0.30835152980431868 0.49602008388634838 0 -0.31996337402596192 0.50000000000000044 0 -0.32290051131713648 0.48898315907322282 0 -0.31996337402596192 0.50000000000000044 0 -0.32290051131713648 0.48898315907322282 0 -0.3361449139042979 0.49007414610048528 0 -0.31214078893370067 0.48469793586647292 0 -0.30835152980431868 0.49602008388634838 0 -0.32290051131713648 0.48898315907322282 0 -0.31996337402596192 0.50000000000000044 0 -0.32290051131713648 0.48898315907322282 0 -0.31996337402596192 0.50000000000000044 0 -0.3361449139042979 0.49007414610048528 0 -0.34498130892432338 0.50000000000000155 0 -0.32290051131713648 0.48898315907322282 0 -0.3361449139042979 0.49007414610048528 0 -0.34351212101387768 0.4790139150003232 0 -0.3361449139042979 0.49007414610048528 0 -0.34351212101387768 0.4790139150003232 0 -0.34498130892432338 0.50000000000000155 0 -0.32290051131713648 0.48898315907322282 0 -0.34351212101387768 0.4790139150003232 0 -0.32819762496437249 0.4691143369388312 0 -0.32290051131713648 0.48898315907322282 0 -0.34351212101387768 0.4790139150003232 0 -0.32290051131713648 0.48898315907322282 0 -0.32819762496437249 0.4691143369388312 0 -0.31709999015770157 0.47621880861095178 0 -0.32290051131713648 0.48898315907322282 0 -0.32819762496437249 0.4691143369388312 0 -0.31214078893370067 0.48469793586647292 0 -0.32290051131713648 0.48898315907322282 0 -0.31709999015770157 0.47621880861095178 0 -0.30744275467276427 0.47558255707591629 0 -0.31709999015770157 0.47621880861095178 0 -0.31450938790470118 0.46396544834397979 0 -0.32819762496437249 0.4691143369388312 0 -0.31709999015770157 0.47621880861095178 0 -0.31450938790470118 0.46396544834397979 0 -0.30414812692949977 0.44970020823191748 0 -0.31450938790470118 0.46396544834397979 0 -0.33349473861160528 0.44924551480443892 0 -0.32819762496437249 0.4691143369388312 0 -0.31450938790470118 0.46396544834397979 0 -0.33349473861160528 0.44924551480443892 0 -0.30414812692949977 0.44970020823191748 0 -0.32224500618143498 0.43874531441988263 0 -0.33349473861160528 0.44924551480443892 0 -0.31134610440991939 0.4339107914155515 0 -0.30414812692949977 0.44970020823191748 0 -0.32224500618143498 0.43874531441988263 0 -0.30414812692949977 0.44970020823191748 0 -0.33349473861160528 0.44924551480443892 0 -0.33589137862375179 0.4402560127297932 0 -0.33349473861160528 0.44924551480443892 0 -0.32224500618143498 0.43874531441988263 0 -0.33589137862375179 0.4402560127297932 0 -0.33349473861160528 0.44924551480443892 0 -0.33349473861160528 0.44924551480443892 0 -0.34141950732500109 0.44912272924107433 0 -0.33589137862375179 0.4402560127297932 0 -0.33349473861160528 0.44924551480443892 0 -0.34141950732500109 0.44912272924107433 0 -0.34351212101387768 0.4790139150003232 0 -0.32819762496437249 0.4691143369388312 0 -0.34141950732500109 0.44912272924107433 0 -0.32819762496437249 0.4691143369388312 0 -0.33349473861160528 0.44924551480443892 0 -0.34141950732500109 0.44912272924107433 0 -0.32819762496437249 0.4691143369388312 0 -0.33349473861160528 0.44924551480443892 0 -0.34351212101387768 0.4790139150003232 0 -0.34141950732500109 0.44912272924107433 0 -0.34141950732500109 0.44912272924107433 0 -0.3691168313735429 0.44869358970905188 0 -0.36268307596930072 0.46974147428009932 0 -0.34351212101387768 0.4790139150003232 0 -0.34141950732500109 0.44912272924107433 0 -0.36268307596930072 0.46974147428009932 0 -0.34141950732500109 0.44912272924107433 0 -0.3691168313735429 0.44869358970905188 0 -0.3623117690423191 0.42811367330896583 0 -0.34141950732500109 0.44912272924107433 0 -0.3691168313735429 0.44869358970905188 0 -0.38185403092472631 0.46046903355988072 0 -0.3691168313735429 0.44869358970905188 0 -0.36268307596930072 0.46974147428009932 0 -0.38185403092472631 0.46046903355988072 0 -0.36268307596930072 0.46974147428009932 0 -0.378074167078991 0.47710847516297489 0 -0.36268307596930072 0.46974147428009932 0 -0.34498130892432338 0.50000000000000155 0 -0.378074167078991 0.47710847516297489 0 -0.38185403092472631 0.46046903355988072 0 -0.36268307596930072 0.46974147428009932 0 -0.34351212101387768 0.4790139150003232 0 -0.34498130892432338 0.50000000000000155 0 -0.34351212101387768 0.4790139150003232 0 -0.36268307596930072 0.46974147428009932 0 -0.34498130892432338 0.50000000000000155 0 -0.34351212101387768 0.4790139150003232 0 -0.36268307596930072 0.46974147428009932 0 -0.1463040127391472 0.46995028449659199 0 -0.14665707823898669 0.5 0 -0.16708803338487249 0.48437247475292072 0 -0.14665707823898669 0.5 0 -0.1226249472228496 0.47589201616063281 0 -0.11661978452351281 0.5 0 -0.1463040127391472 0.46995028449659199 0 -0.14665707823898669 0.5 0 -0.1226249472228496 0.47589201616063281 0 -0.1463040127391472 0.46995028449659199 0 -0.12995853342774449 0.45639030594032159 0 -0.1226249472228496 0.47589201616063281 0 -0.12995853342774449 0.45639030594032159 0 -0.12977079363683691 0.43907038919481872 0 -0.14674425721545831 0.4454804271149394 0 -0.1463040127391472 0.46995028449659199 0 -0.12995853342774449 0.45639030594032159 0 -0.14674425721545831 0.4454804271149394 0 -0.1463040127391472 0.46995028449659199 0 -0.14674425721545831 0.4454804271149394 0 -0.1645635821040918 0.45686125184834142 0 -0.14674425721545831 0.4454804271149394 0 -0.1645635821040918 0.45686125184834142 0 -0.16203913082331101 0.42935002894376201 0 -0.1645635821040918 0.45686125184834142 0 -0.16203913082331101 0.42935002894376201 0 -0.1645635821040918 0.45686125184834142 0 -0.1835209699087629 0.45058204633875493 0 -0.16203913082331101 0.42935002894376201 0 -0.1645635821040918 0.45686125184834142 0 -0.1835209699087629 0.45058204633875493 0 -0.18003915241587881 0.46990128730738051 0 -0.18003915241587881 0.46990128730738051 0 -0.16708803338487249 0.48437247475292072 0 -0.1852697032049308 0.48528982996976022 0 -0.1645635821040918 0.45686125184834142 0 -0.18003915241587881 0.46990128730738051 0 -0.16708803338487249 0.48437247475292072 0 -0.1645635821040918 0.45686125184834142 0 -0.16708803338487249 0.48437247475292072 0 -0.1463040127391472 0.46995028449659199 0 -0.1645635821040918 0.45686125184834142 0 -0.16708803338487249 0.48437247475292072 0 -0.14665707823898669 0.5 0 -0.16708803338487249 0.48437247475292072 0 -0.1766943719544605 0.5 0 -0.16708803338487249 0.48437247475292072 0 -0.1766943719544605 0.5 0 -0.1852697032049308 0.48528982996976022 0 -0.1852697032049308 0.48528982996976022 0 -0.199753473476736 0.47240083362712498 0 -0.20673166566993431 0.5 0 -0.1766943719544605 0.5 0 -0.1852697032049308 0.48528982996976022 0 -0.20673166566993431 0.5 0 -0.18003915241587881 0.46990128730738051 0 -0.1852697032049308 0.48528982996976022 0 -0.199753473476736 0.47240083362712498 0 -0.199753473476736 0.47240083362712498 0 -0.22213965908450289 0.48500700294272642 0 -0.22298761142243911 0.46639217953704398 0 -0.199753473476736 0.47240083362712498 0 -0.20673166566993431 0.5 0 -0.22213965908450289 0.48500700294272642 0 -0.20673166566993431 0.5 0 -0.22213965908450289 0.48500700294272642 0 -0.23676895938540821 0.5 0 -0.22213965908450289 0.48500700294272642 0 -0.24259253699240529 0.48428154672401502 0 -0.23676895938540821 0.5 0 -0.24259253699240529 0.48428154672401502 0 -0.22298761142243911 0.46639217953704398 0 -0.22213965908450289 0.48500700294272642 0 -0.24259253699240529 0.48428154672401502 0 -0.22298761142243911 0.46639217953704398 0 -0.25219420533222892 0.47105905712232082 0 -0.24259253699240529 0.48428154672401502 0 -0.2392670569922003 0.46145462569991641 0 -0.24259253699240529 0.48428154672401502 0 -0.2392670569922003 0.46145462569991641 0 -0.22298761142243911 0.46639217953704398 0 -0.26680625310088207 0.5 0 -0.24259253699240529 0.48428154672401502 0 -0.23676895938540821 0.5 0 -0.23628948349456269 0.44727806554964378 0 -0.24697958940160589 0.45058597175903659 0 -0.2392670569922003 0.46145462569991641 0 -0.23628948349456269 0.44727806554964378 0 -0.24586107928910189 0.43928256019460898 0 -0.23628948349456269 0.44727806554964378 0 -0.24586107928910189 0.43928256019460898 0 -0.2357174140740875 0.43686629174287711 0 -0.25524466154051773 0.45045791356887982 0 -0.24586107928910189 0.43928256019460898 0 -0.24697958940160589 0.45058597175903659 0 -0.23628948349456269 0.44727806554964378 0 -0.24586107928910189 0.43928256019460898 0 -0.24697958940160589 0.45058597175903659 0 -0.25255929397980348 0.46010590210588131 0 -0.24697958940160589 0.45058597175903659 0 -0.2392670569922003 0.46145462569991641 0 -0.25255929397980348 0.46010590210588131 0 -0.25219420533222892 0.47105905712232082 0 -0.2392670569922003 0.46145462569991641 0 -0.23628948349456269 0.44727806554964378 0 -0.2392670569922003 0.46145462569991641 0 -0.22499810434977699 0.45177676187442323 0 -0.2392670569922003 0.46145462569991641 0 -0.22298761142243911 0.46639217953704398 0 -0.22499810434977699 0.45177676187442323 0 -0.23628948349456269 0.44727806554964378 0 -0.22499810434977699 0.45177676187442323 0 -0.2230636839872103 0.43525612623543852 0 -0.23628948349456269 0.44727806554964378 0 -0.2230636839872103 0.43525612623543852 0 -0.2357174140740875 0.43686629174287711 0 -0.22499810434977699 0.45177676187442323 0 -0.20338268585247299 0.44850281235007328 0 -0.2230636839872103 0.43525612623543852 0 -0.199753473476736 0.47240083362712498 0 -0.22298761142243911 0.46639217953704398 0 -0.20338268585247299 0.44850281235007328 0 -0.22298761142243911 0.46639217953704398 0 -0.20338268585247299 0.44850281235007328 0 -0.22298761142243911 0.46639217953704398 0 -0.22499810434977699 0.45177676187442323 0 -0.20338268585247299 0.44850281235007328 0 -0.1835209699087629 0.45058204633875493 0 -0.199753473476736 0.47240083362712498 0 -0.20338268585247299 0.44850281235007328 0 -0.1835209699087629 0.45058204633875493 0 -0.18003915241587881 0.46990128730738051 0 -0.199753473476736 0.47240083362712498 0 -0.1835209699087629 0.45058204633875493 0 -0.20338268585247299 0.44850281235007328 0 -0.18377776028250681 0.43061344516310252 0 -0.20338268585247299 0.44850281235007328 0 -0.18377776028250681 0.43061344516310252 0 -0.19003047925724001 0.41583253168645279 0 -0.20530003066306129 0.42459523633101143 0 -0.18377776028250681 0.43061344516310252 0 -0.20338268585247299 0.44850281235007328 0 -0.20530003066306129 0.42459523633101143 0 -0.18377776028250681 0.43061344516310252 0 -0.19003047925724001 0.41583253168645279 0 -0.20382656384682049 0.40970668363424428 0 -0.18649613136397949 0.39874586703695358 0 -0.19003047925724001 0.41583253168645279 0 -0.20382656384682049 0.40970668363424428 0 -0.20530003066306129 0.42459523633101143 0 -0.20382656384682049 0.40970668363424428 0 -0.2243236135621465 0.41363257026153938 0 -0.21347758318541499 0.39565292803472568 0 -0.20382656384682049 0.40970668363424428 0 -0.20530003066306129 0.42459523633101143 0 -0.2243236135621465 0.41363257026153938 0 -0.20530003066306129 0.42459523633101143 0 -0.2230636839872103 0.43525612623543852 0 -0.2243236135621465 0.41363257026153938 0 -0.20338268585247299 0.44850281235007328 0 -0.20530003066306129 0.42459523633101143 0 -0.2230636839872103 0.43525612623543852 0 -0.2230636839872103 0.43525612623543852 0 -0.2243236135621465 0.41363257026153938 0 -0.23509234642562421 0.42645756522807421 0 -0.2230636839872103 0.43525612623543852 0 -0.2357174140740875 0.43686629174287711 0 -0.23509234642562421 0.42645756522807421 0 -0.2243236135621465 0.41363257026153938 0 -0.23672076602477041 0.41606014457259771 0 -0.23449434574000519 0.40599234828976039 0 -0.2243236135621465 0.41363257026153938 0 -0.23672076602477041 0.41606014457259771 0 -0.23509234642562421 0.42645756522807421 0 -0.2243236135621465 0.41363257026153938 0 -0.23509234642562421 0.42645756522807421 0 -0.23672076602477041 0.41606014457259771 0 -0.24696442795170381 0.41364653793428319 0 -0.23449434574000519 0.40599234828976039 0 -0.24696442795170381 0.41364653793428319 0 -0.24502064870914461 0.40440191990292279 0 -0.23449434574000519 0.40599234828976039 0 -0.25799899758709022 0.41179476379988972 0 -0.24696442795170381 0.41364653793428319 0 -0.24502064870914461 0.40440191990292279 0 -0.23672076602477041 0.41606014457259771 0 -0.24696442795170381 0.41364653793428319 0 -0.2494440366010621 0.42572282038709919 0 -0.24586107928910189 0.43928256019460898 0 -0.2494440366010621 0.42572282038709919 0 -0.23509234642562421 0.42645756522807421 0 -0.24586107928910189 0.43928256019460898 0 -0.2357174140740875 0.43686629174287711 0 -0.23509234642562421 0.42645756522807421 0 -0.24586107928910189 0.43928256019460898 0 -0.23509234642562421 0.42645756522807421 0 -0.23672076602477041 0.41606014457259771 0 -0.2494440366010621 0.42572282038709919 0 -0.23509234642562421 0.42645756522807421 0 -0.24411802937363289 0.39214055102519668 0 -0.2404590350068502 0.39255998903249562 0 -0.22101084068535989 0.37763770726065848 0 -0.26024848530979072 0.3703699593034655 0 -0.24913799581478269 0.39156510200568828 0 -0.23941288544781261 0.36936268080203799 0 -0.24913799581478269 0.39156510200568828 0 -0.23941288544781261 0.36936268080203799 0 -0.23661648006544631 0.38111958191283207 0 -0.24913799581478269 0.39156510200568828 0 -0.23941288544781261 0.36936268080203799 0 -0.23661648006544631 0.38111958191283207 0 -0.24913799581478269 0.39156510200568828 0 -0.24411802937363289 0.39214055102519668 0 -0.24913799581478269 0.39156510200568828 0 -0.24411802937363289 0.39214055102519668 0 -0.25138894679653978 0.39670402176288438 0 -0.24502064870914461 0.40440191990292279 0 -0.2404590350068502 0.39255998903249562 0 -0.25138894679653978 0.39670402176288438 0 -0.2404590350068502 0.39255998903249562 0 -0.25138894679653978 0.39670402176288438 0 -0.24913799581478269 0.39156510200568828 0 -0.24411802937363289 0.39214055102519668 0 -0.25138894679653978 0.39670402176288438 0 -0.24411802937363289 0.39214055102519668 0 -0.25138894679653978 0.39670402176288438 0 -0.24411802937363289 0.39214055102519668 0 -0.2404590350068502 0.39255998903249562 0 -0.24411802937363289 0.39214055102519668 0 -0.2404590350068502 0.39255998903249562 0 -0.24502064870914461 0.40440191990292279 0 -0.23449434574000519 0.40599234828976039 0 -0.2404590350068502 0.39255998903249562 0 -0.23449434574000519 0.40599234828976039 0 -0.2404590350068502 0.39255998903249562 0 -0.21347758318541499 0.39565292803472568 0 -0.2243236135621465 0.41363257026153938 0 -0.23449434574000519 0.40599234828976039 0 -0.21347758318541499 0.39565292803472568 0 -0.2404590350068502 0.39255998903249562 0 -0.21347758318541499 0.39565292803472568 0 -0.2404590350068502 0.39255998903249562 0 -0.221085804139599 0.38342316804451643 0 -0.22101084068535989 0.37763770726065848 0 -0.23661648006544631 0.38111958191283207 0 -0.24411802937363289 0.39214055102519668 0 -0.22101084068535989 0.37763770726065848 0 -0.2404590350068502 0.39255998903249562 0 -0.221085804139599 0.38342316804451643 0 -0.21347758318541499 0.39565292803472568 0 -0.2404590350068502 0.39255998903249562 0 -0.221085804139599 0.38342316804451643 0 -0.24411802937363289 0.39214055102519668 0 -0.22101084068535989 0.37763770726065848 0 -0.23661648006544631 0.38111958191283207 0 -0.22101084068535989 0.37763770726065848 0 -0.23065118581439151 0.37351301940004261 0 -0.221085804139599 0.38342316804451643 0 -0.20842966453144809 0.38455749837150821 0 -0.2017125732723469 0.37428634705653913 0 -0.221085804139599 0.38342316804451643 0 -0.22101084068535989 0.37763770726065848 0 -0.2017125732723469 0.37428634705653913 0 -0.221085804139599 0.38342316804451643 0 -0.2017125732723469 0.37428634705653913 0 -0.221085804139599 0.38342316804451643 0 -0.20842966453144809 0.38455749837150821 0 -0.21347758318541499 0.39565292803472568 0 -0.20842966453144809 0.38455749837150821 0 -0.21347758318541499 0.39565292803472568 0 -0.1995464564716016 0.38646210363214928 0 -0.20842966453144809 0.38455749837150821 0 -0.1995464564716016 0.38646210363214928 0 -0.2017125732723469 0.37428634705653913 0 -0.20382656384682049 0.40970668363424428 0 -0.21347758318541499 0.39565292803472568 0 -0.18649613136397949 0.39874586703695358 0 -0.21347758318541499 0.39565292803472568 0 -0.1995464564716016 0.38646210363214928 0 -0.18649613136397949 0.39874586703695358 0 -0.21347758318541499 0.39565292803472568 0 -0.18649613136397949 0.39874586703695358 0 -0.1995464564716016 0.38646210363214928 0 -0.18761633000481839 0.37906787766101968 0 -0.18649613136397949 0.39874586703695358 0 -0.1995464564716016 0.38646210363214928 0 -0.18761633000481839 0.37906787766101968 0 -0.2017125732723469 0.37428634705653913 0 -0.18761633000481839 0.37906787766101968 0 -0.17283928971787549 0.38085846123544009 0 -0.18233934240509489 0.36514952606856171 0 -0.18761633000481839 0.37906787766101968 0 -0.17283928971787549 0.38085846123544009 0 -0.18649613136397949 0.39874586703695358 0 -0.17283928971787549 0.38085846123544009 0 -0.15662938306608731 0.37961534121847917 0 -0.15865942783827849 0.39251835669863772 0 -0.15951467954254381 0.40183880603918121 0 -0.15865942783827849 0.39251835669863772 0 -0.18649613136397949 0.39874586703695358 0 -0.15951467954254381 0.40183880603918121 0 -0.15865942783827849 0.39251835669863772 0 -0.17283928971787549 0.38085846123544009 0 -0.15865942783827849 0.39251835669863772 0 -0.18649613136397949 0.39874586703695358 0 -0.15951467954254381 0.40183880603918121 0 -0.18649613136397949 0.39874586703695358 0 -0.17506847404612161 0.41485366263185569 0 -0.15951467954254381 0.40183880603918121 0 -0.18649613136397949 0.39874586703695358 0 -0.19003047925724001 0.41583253168645279 0 -0.18649613136397949 0.39874586703695358 0 -0.17506847404612161 0.41485366263185569 0 -0.19003047925724001 0.41583253168645279 0 -0.17506847404612161 0.41485366263185569 0 -0.18377776028250681 0.43061344516310252 0 -0.17506847404612161 0.41485366263185569 0 -0.18377776028250681 0.43061344516310252 0 -0.16203913082331101 0.42935002894376201 0 -0.1835209699087629 0.45058204633875493 0 -0.18377776028250681 0.43061344516310252 0 -0.16203913082331101 0.42935002894376201 0 -0.15951467954254381 0.40183880603918121 0 -0.16203913082331101 0.42935002894376201 0 -0.15951467954254381 0.40183880603918121 0 -0.17506847404612161 0.41485366263185569 0 -0.16203913082331101 0.42935002894376201 0 -0.15951467954254381 0.40183880603918121 0 -0.16203913082331101 0.42935002894376201 0 -0.14115691126755589 0.42392576984205288 0 -0.15951467954254381 0.40183880603918121 0 -0.14115691126755589 0.42392576984205288 0 -0.13066566531432561 0.40514582753946249 0 -0.14674425721545831 0.4454804271149394 0 -0.16203913082331101 0.42935002894376201 0 -0.14115691126755589 0.42392576984205288 0 -0.12977079363683691 0.43907038919481872 0 -0.14115691126755589 0.42392576984205288 0 -0.1160836341082873 0.42448770314428969 0 -0.12977079363683691 0.43907038919481872 0 -0.14674425721545831 0.4454804271149394 0 -0.14115691126755589 0.42392576984205288 0 -0.14115691126755589 0.42392576984205288 0 -0.13066566531432561 0.40514582753946249 0 -0.1160836341082873 0.42448770314428969 0 -0.13066566531432561 0.40514582753946249 0 -0.14503122231730059 0.38843664951969908 0 -0.120758474690823 0.379867519792427 0 -0.14503122231730059 0.38843664951969908 0 -0.1439597034517455 0.37163404583000692 0 -0.120758474690823 0.379867519792427 0 -0.1439597034517455 0.37163404583000692 0 -0.120758474690823 0.379867519792427 0 -0.15662938306608731 0.37961534121847917 0 -0.14503122231730059 0.38843664951969908 0 -0.1439597034517455 0.37163404583000692 0 -0.15662938306608731 0.37961534121847917 0 -0.15865942783827849 0.39251835669863772 0 -0.14503122231730059 0.38843664951969908 0 -0.15951467954254381 0.40183880603918121 0 -0.15865942783827849 0.39251835669863772 0 -0.14503122231730059 0.38843664951969908 0 -0.15951467954254381 0.40183880603918121 0 -0.13066566531432561 0.40514582753946249 0 -0.15951467954254381 0.40183880603918121 0 -0.13066566531432561 0.40514582753946249 0 -0.14503122231730059 0.38843664951969908 0 -0.15056710139065549 0.35344684995841991 0 -0.1439597034517455 0.37163404583000692 0 -0.1290972904713337 0.35924150358891138 0 -0.1439597034517455 0.37163404583000692 0 -0.16716093221266801 0.36340057186758679 0 -0.15662938306608731 0.37961534121847917 0 -0.1439597034517455 0.37163404583000692 0 -0.16716093221266801 0.36340057186758679 0 -0.15056710139065549 0.35344684995841991 0 -0.1439597034517455 0.37163404583000692 0 -0.16716093221266801 0.36340057186758679 0 -0.1439597034517455 0.37163404583000692 0 -0.1290972904713337 0.35924150358891138 0 -0.120758474690823 0.379867519792427 0 -0.15056710139065549 0.35344684995841991 0 -0.1290972904713337 0.35924150358891138 0 -0.13262596489288281 0.34092667502800228 0 -0.1290972904713337 0.35924150358891138 0 -0.13262596489288281 0.34092667502800228 0 -0.11690141705398779 0.34688146143841359 0 -0.13262596489288281 0.34092667502800228 0 -0.1285820859322612 0.31962633220251518 0 -0.15168927462053469 0.33412917596705288 0 -0.13262596489288281 0.34092667502800228 0 -0.1285820859322612 0.31962633220251518 0 -0.1209512604642947 0.33425720415068261 0 -0.1285820859322612 0.31962633220251518 0 -0.13762962224453201 0.31400234578622133 0 -0.15168927462053469 0.33412917596705288 0 -0.1285820859322612 0.31962633220251518 0 -0.15168927462053469 0.33412917596705288 0 -0.1285820859322612 0.31962633220251518 0 -0.13762962224453201 0.31400234578622133 0 -0.13762962224453201 0.31400234578622133 0 -0.15440641795647411 0.31623323545438931 0 -0.15168927462053469 0.33412917596705288 0 -0.15056710139065549 0.35344684995841991 0 -0.13262596489288281 0.34092667502800228 0 -0.15168927462053469 0.33412917596705288 0 -0.15168927462053469 0.33412917596705288 0 -0.17139663416470349 0.32546972036017607 0 -0.17479646330880991 0.34863201973158808 0 -0.15168927462053469 0.33412917596705288 0 -0.17479646330880991 0.34863201973158808 0 -0.15440641795647411 0.31623323545438931 0 -0.15168927462053469 0.33412917596705288 0 -0.17139663416470349 0.32546972036017607 0 -0.15440641795647411 0.31623323545438931 0 -0.17139663416470349 0.32546972036017607 0 -0.1644166530425816 0.30785219434675132 0 -0.17139663416470349 0.32546972036017607 0 -0.18134231851663629 0.31103765370691361 0 -0.1644166530425816 0.30785219434675132 0 -0.17139663416470349 0.32546972036017607 0 -0.19311487969396071 0.3247994596681425 0 -0.18134231851663629 0.31103765370691361 0 -0.17139663416470349 0.32546972036017607 0 -0.18612385047582389 0.33764625443435847 0 -0.19311487969396071 0.3247994596681425 0 -0.17139663416470349 0.32546972036017607 0 -0.18612385047582389 0.33764625443435847 0 -0.17479646330880991 0.34863201973158808 0 -0.17479646330880991 0.34863201973158808 0 -0.18233934240509489 0.36514952606856171 0 -0.1979036519970849 0.36313486349612328 0 -0.17479646330880991 0.34863201973158808 0 -0.1979036519970849 0.36313486349612328 0 -0.17479646330880991 0.34863201973158808 0 -0.16716093221266801 0.36340057186758679 0 -0.18233934240509489 0.36514952606856171 0 -0.18612385047582389 0.33764625443435847 0 -0.17479646330880991 0.34863201973158808 0 -0.19306845086387719 0.34897419199554469 0 -0.15056710139065549 0.35344684995841991 0 -0.15168927462053469 0.33412917596705288 0 -0.17479646330880991 0.34863201973158808 0 -0.15056710139065549 0.35344684995841991 0 -0.17479646330880991 0.34863201973158808 0 -0.16716093221266801 0.36340057186758679 0 -0.17283928971787549 0.38085846123544009 0 -0.15662938306608731 0.37961534121847917 0 -0.16716093221266801 0.36340057186758679 0 -0.17283928971787549 0.38085846123544009 0 -0.16716093221266801 0.36340057186758679 0 -0.18233934240509489 0.36514952606856171 0 -0.18761633000481839 0.37906787766101968 0 -0.18233934240509489 0.36514952606856171 0 -0.2017125732723469 0.37428634705653913 0 -0.18233934240509489 0.36514952606856171 0 -0.2017125732723469 0.37428634705653913 0 -0.18233934240509489 0.36514952606856171 0 -0.1979036519970849 0.36313486349612328 0 -0.2017125732723469 0.37428634705653913 0 -0.17479646330880991 0.34863201973158808 0 -0.1979036519970849 0.36313486349612328 0 -0.19306845086387719 0.34897419199554469 0 -0.1979036519970849 0.36313486349612328 0 -0.19306845086387719 0.34897419199554469 0 -0.2053540294960812 0.35175343995483582 0 -0.19306845086387719 0.34897419199554469 0 -0.2053540294960812 0.35175343995483582 0 -0.20348954013057671 0.34237881836723272 0 -0.1979036519970849 0.36313486349612328 0 -0.2053540294960812 0.35175343995483582 0 -0.21580502447803679 0.35769952956772388 0 -0.2053540294960812 0.35175343995483582 0 -0.2142167156685359 0.3434639954892883 0 -0.20348954013057671 0.34237881836723272 0 -0.2053540294960812 0.35175343995483582 0 -0.21580502447803679 0.35769952956772388 0 -0.2142167156685359 0.3434639954892883 0 -0.22101084068535989 0.37763770726065848 0 -0.1979036519970849 0.36313486349612328 0 -0.22101084068535989 0.37763770726065848 0 -0.1979036519970849 0.36313486349612328 0 -0.21507101355485719 0.36610105198728682 0 -0.22101084068535989 0.37763770726065848 0 -0.1979036519970849 0.36313486349612328 0 -0.2017125732723469 0.37428634705653913 0 -0.1979036519970849 0.36313486349612328 0 -0.21580502447803679 0.35769952956772388 0 -0.21507101355485719 0.36610105198728682 0 -0.22101084068535989 0.37763770726065848 0 -0.23065118581439151 0.37351301940004261 0 -0.22556453705894711 0.36593210762464162 0 -0.22101084068535989 0.37763770726065848 0 -0.21507101355485719 0.36610105198728682 0 -0.22556453705894711 0.36593210762464162 0 -0.22556453705894711 0.36593210762464162 0 -0.2296877750808427 0.34716025959838759 0 -0.23941288544781261 0.36936268080203799 0 -0.23065118581439151 0.37351301940004261 0 -0.22556453705894711 0.36593210762464162 0 -0.23941288544781261 0.36936268080203799 0 -0.21580502447803679 0.35769952956772388 0 -0.21507101355485719 0.36610105198728682 0 -0.22556453705894711 0.36593210762464162 0 -0.21580502447803679 0.35769952956772388 0 -0.22556453705894711 0.36593210762464162 0 -0.2296877750808427 0.34716025959838759 0 -0.21580502447803679 0.35769952956772388 0 -0.2296877750808427 0.34716025959838759 0 -0.2142167156685359 0.3434639954892883 0 -0.2296877750808427 0.34716025959838759 0 -0.23941288544781261 0.36936268080203799 0 -0.2296877750808427 0.34716025959838759 0 -0.24612677491409371 0.35319075287423141 0 -0.23941288544781261 0.36936268080203799 0 -0.2296877750808427 0.34716025959838759 0 -0.24612677491409371 0.35319075287423141 0 -0.2447481306184201 0.33170364097804639 0 -0.26024848530979072 0.3703699593034655 0 -0.24612677491409371 0.35319075287423141 0 -0.23941288544781261 0.36936268080203799 0 -0.23661648006544631 0.38111958191283207 0 -0.23065118581439151 0.37351301940004261 0 -0.23941288544781261 0.36936268080203799 0 -0.25660522254022211 0.31349603112584118 0 -0.2447481306184201 0.33170364097804639 0 -0.23342138844356219 0.3081257241584644 0 -0.2296877750808427 0.34716025959838759 0 -0.2199626647138728 0.32495783839473708 0 -0.2296877750808427 0.34716025959838759 0 -0.2199626647138728 0.32495783839473708 0 -0.2142167156685359 0.3434639954892883 0 -0.2296877750808427 0.34716025959838759 0 -0.2447481306184201 0.33170364097804639 0 -0.2199626647138728 0.32495783839473708 0 -0.2447481306184201 0.33170364097804639 0 -0.2199626647138728 0.32495783839473708 0 -0.23342138844356219 0.3081257241584644 0 -0.2199626647138728 0.32495783839473708 0 -0.20501882120596079 0.31855438066048958 0 -0.2102375543469025 0.30275541719108701 0 -0.2199626647138728 0.32495783839473708 0 -0.2102375543469025 0.30275541719108701 0 -0.2199626647138728 0.32495783839473708 0 -0.20501882120596079 0.31855438066048958 0 -0.20551302569029881 0.32935616499297538 0 -0.2199626647138728 0.32495783839473708 0 -0.2142167156685359 0.3434639954892883 0 -0.20551302569029881 0.32935616499297538 0 -0.2142167156685359 0.3434639954892883 0 -0.20551302569029881 0.32935616499297538 0 -0.20348954013057671 0.34237881836723272 0 -0.20551302569029881 0.32935616499297538 0 -0.20348954013057671 0.34237881836723272 0 -0.19311487969396071 0.3247994596681425 0 -0.18612385047582389 0.33764625443435847 0 -0.19306845086387719 0.34897419199554469 0 -0.20348954013057671 0.34237881836723272 0 -0.18612385047582389 0.33764625443435847 0 -0.20348954013057671 0.34237881836723272 0 -0.19311487969396071 0.3247994596681425 0 -0.20501882120596079 0.31855438066048958 0 -0.19311487969396071 0.3247994596681425 0 -0.19626598158476941 0.31090302305550582 0 -0.20501882120596079 0.31855438066048958 0 -0.20551302569029881 0.32935616499297538 0 -0.19311487969396071 0.3247994596681425 0 -0.19311487969396071 0.3247994596681425 0 -0.19626598158476941 0.31090302305550582 0 -0.18134231851663629 0.31103765370691361 0 -0.18816989864042211 0.29764366196112513 0 -0.19626598158476941 0.31090302305550582 0 -0.18134231851663629 0.31103765370691361 0 -0.18816989864042211 0.29764366196112513 0 -0.2102375543469025 0.30275541719108701 0 -0.18816989864042211 0.29764366196112513 0 -0.19626598158476941 0.31090302305550582 0 -0.2102375543469025 0.30275541719108701 0 -0.18816989864042211 0.29764366196112513 0 -0.19888532149202851 0.29367703316029459 0 -0.2102375543469025 0.30275541719108701 0 -0.19888532149202851 0.29367703316029459 0 -0.21110872248603521 0.28469234648091452 0 -0.1948118653506036 0.28000077038320392 0 -0.18816989864042211 0.29764366196112513 0 -0.19888532149202851 0.29367703316029459 0 -0.1948118653506036 0.28000077038320392 0 -0.19888532149202851 0.29367703316029459 0 -0.21110872248603521 0.28469234648091452 0 -0.20877082857603979 0.29940688312554509 0 -0.21110872248603521 0.28469234648091452 0 -0.20877082857603979 0.29940688312554509 0 -0.2243450917342473 0.29458053512295529 0 -0.20501882120596079 0.31855438066048958 0 -0.19626598158476941 0.31090302305550582 0 -0.2102375543469025 0.30275541719108701 0 -0.19888532149202851 0.29367703316029459 0 -0.20877082857603979 0.29940688312554509 0 -0.2102375543469025 0.30275541719108701 0 -0.20877082857603979 0.29940688312554509 0 -0.2102375543469025 0.30275541719108701 0 -0.20877082857603979 0.29940688312554509 0 -0.2102375543469025 0.30275541719108701 0 -0.2243450917342473 0.29458053512295529 0 -0.2102375543469025 0.30275541719108701 0 -0.23342138844356219 0.3081257241584644 0 -0.2243450917342473 0.29458053512295529 0 -0.2199626647138728 0.32495783839473708 0 -0.2102375543469025 0.30275541719108701 0 -0.23342138844356219 0.3081257241584644 0 -0.2102375543469025 0.30275541719108701 0 -0.23342138844356219 0.3081257241584644 0 -0.2243450917342473 0.29458053512295529 0 -0.24630518530193979 0.28228024887108583 0 -0.2303326431211121 0.27490684031045559 0 -0.21110872248603521 0.28469234648091452 0 -0.2243450917342473 0.29458053512295529 0 -0.2303326431211121 0.27490684031045559 0 -0.2243450917342473 0.29458053512295529 0 -0.24630518530193979 0.28228024887108583 0 -0.24779582667689801 0.29879862025807941 0 -0.25660522254022211 0.31349603112584118 0 -0.23342138844356219 0.3081257241584644 0 -0.24779582667689801 0.29879862025807941 0 -0.23342138844356219 0.3081257241584644 0 -0.2243450917342473 0.29458053512295529 0 -0.24779582667689801 0.29879862025807941 0 -0.25660522254022211 0.31349603112584118 0 -0.23342138844356219 0.3081257241584644 0 -0.25720826296923222 0.26030844014048549 0 -0.23890969400241849 0.2552092714717491 0 -0.24640150770589969 0.26895924206875887 0 -0.23890969400241849 0.2552092714717491 0 -0.24640150770589969 0.26895924206875887 0 -0.2303326431211121 0.27490684031045559 0 -0.24630518530193979 0.28228024887108583 0 -0.24640150770589969 0.26895924206875887 0 -0.2303326431211121 0.27490684031045559 0 -0.2303326431211121 0.27490684031045559 0 -0.22397017858154419 0.25378571841630942 0 -0.20950658464217969 0.26558201678303212 0 -0.23890969400241849 0.2552092714717491 0 -0.2303326431211121 0.27490684031045559 0 -0.22397017858154419 0.25378571841630942 0 -0.22397017858154419 0.25378571841630942 0 -0.20950658464217969 0.26558201678303212 0 -0.21515534991013979 0.23621769356130559 0 -0.20950658464217969 0.26558201678303212 0 -0.20205513456322161 0.25178325309228428 0 -0.21515534991013979 0.23621769356130559 0 -0.20950658464217969 0.26558201678303212 0 -0.21515534991013979 0.23621769356130559 0 -0.21110872248603521 0.28469234648091452 0 -0.2303326431211121 0.27490684031045559 0 -0.20950658464217969 0.26558201678303212 0 -0.21110872248603521 0.28469234648091452 0 -0.20950658464217969 0.26558201678303212 0 -0.1948118653506036 0.28000077038320392 0 -0.20950658464217969 0.26558201678303212 0 -0.1948118653506036 0.28000077038320392 0 -0.1942146469821355 0.25985776193562099 0 -0.1948118653506036 0.28000077038320392 0 -0.1942146469821355 0.25985776193562099 0 -0.18394990849736209 0.27104735856483181 0 -0.20950658464217969 0.26558201678303212 0 -0.20205513456322161 0.25178325309228428 0 -0.1942146469821355 0.25985776193562099 0 -0.1942146469821355 0.25985776193562099 0 -0.18022676601160781 0.25971411722105892 0 -0.18934395671843121 0.24547554008917871 0 -0.20205513456322161 0.25178325309228428 0 -0.1942146469821355 0.25985776193562099 0 -0.18934395671843121 0.24547554008917871 0 -0.18022676601160781 0.25971411722105892 0 -0.1635325635267233 0.25473338661705341 0 -0.18934395671843121 0.24547554008917871 0 -0.16640709793714159 0.25178510800628517 0 -0.1635325635267233 0.25473338661705341 0 -0.18934395671843121 0.24547554008917871 0 -0.1635325635267233 0.25473338661705341 0 -0.18934395671843121 0.24547554008917871 0 -0.1942146469821355 0.25985776193562099 0 -0.18022676601160781 0.25971411722105892 0 -0.18394990849736209 0.27104735856483181 0 -0.16640709793714159 0.25178510800628517 0 -0.1635325635267233 0.25473338661705341 0 -0.1416660054735496 0.26147643959154859 0 -0.18022676601160781 0.25971411722105892 0 -0.1635325635267233 0.25473338661705341 0 -0.1700927543333868 0.26745653889860938 0 -0.1635325635267233 0.25473338661705341 0 -0.15630436576957249 0.26783384057365073 0 -0.1700927543333868 0.26745653889860938 0 -0.16122559381220711 0.27830335767223202 0 -0.1700927543333868 0.26745653889860938 0 -0.17606928005684469 0.28401231821137418 0 -0.16122559381220711 0.27830335767223202 0 -0.15630436576957249 0.26783384057365073 0 -0.1700927543333868 0.26745653889860938 0 -0.1948118653506036 0.28000077038320392 0 -0.18394990849736209 0.27104735856483181 0 -0.17606928005684469 0.28401231821137418 0 -0.1700927543333868 0.26745653889860938 0 -0.18394990849736209 0.27104735856483181 0 -0.17606928005684469 0.28401231821137418 0 -0.18022676601160781 0.25971411722105892 0 -0.1700927543333868 0.26745653889860938 0 -0.18394990849736209 0.27104735856483181 0 -0.18816989864042211 0.29764366196112513 0 -0.1948118653506036 0.28000077038320392 0 -0.17606928005684469 0.28401231821137418 0 -0.18816989864042211 0.29764366196112513 0 -0.17606928005684469 0.28401231821137418 0 -0.17409632809297379 0.2986214039847524 0 -0.18134231851663629 0.31103765370691361 0 -0.17409632809297379 0.2986214039847524 0 -0.1644166530425816 0.30785219434675132 0 -0.18816989864042211 0.29764366196112513 0 -0.18134231851663629 0.31103765370691361 0 -0.17409632809297379 0.2986214039847524 0 -0.1644166530425816 0.30785219434675132 0 -0.16048349020838429 0.29256119169759781 0 -0.14689990571001879 0.29971274081174482 0 -0.17409632809297379 0.2986214039847524 0 -0.1644166530425816 0.30785219434675132 0 -0.16048349020838429 0.29256119169759781 0 -0.16122559381220711 0.27830335767223202 0 -0.17606928005684469 0.28401231821137418 0 -0.16048349020838429 0.29256119169759781 0 -0.17606928005684469 0.28401231821137418 0 -0.17409632809297379 0.2986214039847524 0 -0.16048349020838429 0.29256119169759781 0 -0.16122559381220711 0.27830335767223202 0 -0.16048349020838429 0.29256119169759781 0 -0.14500491170199559 0.27719948008881018 0 -0.16048349020838429 0.29256119169759781 0 -0.14689990571001879 0.29971274081174482 0 -0.14500491170199559 0.27719948008881018 0 -0.14689990571001879 0.29971274081174482 0 -0.1344265674828477 0.28905460819995221 0 -0.14500491170199559 0.27719948008881018 0 -0.13762962224453201 0.31400234578622133 0 -0.15440641795647411 0.31623323545438931 0 -0.14689990571001879 0.29971274081174482 0 -0.15440641795647411 0.31623323545438931 0 -0.1644166530425816 0.30785219434675132 0 -0.14689990571001879 0.29971274081174482 0 -0.1285820859322612 0.31962633220251518 0 -0.13762962224453201 0.31400234578622133 0 -0.12624963853575569 0.30282393446501837 0 -0.13762962224453201 0.31400234578622133 0 -0.14689990571001879 0.29971274081174482 0 -0.13630143349328849 0.30139840731573408 0 -0.13762962224453201 0.31400234578622133 0 -0.13630143349328849 0.30139840731573408 0 -0.12624963853575569 0.30282393446501837 0 -0.13630143349328849 0.30139840731573408 0 -0.12624963853575569 0.30282393446501837 0 -0.1344265674828477 0.28905460819995221 0 -0.12624963853575569 0.30282393446501837 0 -0.1344265674828477 0.28905460819995221 0 -0.1171588836187393 0.29008528626871172 0 -0.14689990571001879 0.29971274081174482 0 -0.13630143349328849 0.30139840731573408 0 -0.1344265674828477 0.28905460819995221 0 -0.1344265674828477 0.28905460819995221 0 -0.14500491170199559 0.27719948008881018 0 -0.1169249130099576 0.27116777117681201 0 -0.1416660054735496 0.26147643959154859 0 -0.1169249130099576 0.27116777117681201 0 -0.1416660054735496 0.26147643959154859 0 -0.14500491170199559 0.27719948008881018 0 -0.1169249130099576 0.27116777117681201 0 -0.1416660054735496 0.26147643959154859 0 -0.12482003396909221 0.25114211634600742 0 -0.1454021730550242 0.2477900580711265 0 -0.1416660054735496 0.26147643959154859 0 -0.12482003396909221 0.25114211634600742 0 -0.1169249130099576 0.27116777117681201 0 -0.16640709793714159 0.25178510800628517 0 -0.1416660054735496 0.26147643959154859 0 -0.1635325635267233 0.25473338661705341 0 -0.15630436576957249 0.26783384057365073 0 -0.1416660054735496 0.26147643959154859 0 -0.16640709793714159 0.25178510800628517 0 -0.1416660054735496 0.26147643959154859 0 -0.1454021730550242 0.2477900580711265 0 -0.16122559381220711 0.27830335767223202 0 -0.15630436576957249 0.26783384057365073 0 -0.14500491170199559 0.27719948008881018 0 -0.15630436576957249 0.26783384057365073 0 -0.1416660054735496 0.26147643959154859 0 -0.14500491170199559 0.27719948008881018 0 -0.1004403613419224 0.26585836479791702 0 -0.1024735894668701 0.282102976649661 0 -0.089350011498297549 0.27282927673882212 0 -0.1004403613419224 0.26585836479791702 0 -0.1169249130099576 0.27116777117681201 0 -0.1024735894668701 0.282102976649661 0 -0.1004403613419224 0.26585836479791702 0 -0.09620545477027273 0.25483607137557501 0 -0.090946640045185614 0.26103686098013329 0 -0.1004403613419224 0.26585836479791702 0 -0.106741559260951 0.25317723186649882 0 -0.1169249130099576 0.27116777117681201 0 -0.1004403613419224 0.26585836479791702 0 -0.09620545477027273 0.25483607137557501 0 -0.106741559260951 0.25317723186649882 0 -0.09620545477027273 0.25483607137557501 0 -0.106741559260951 0.25317723186649882 0 -0.095237997476510378 0.24369107460290629 0 -0.106741559260951 0.25317723186649882 0 -0.12482003396909221 0.25114211634600742 0 -0.1169249130099576 0.27116777117681201 0 -0.1169249130099576 0.27116777117681201 0 -0.1171588836187393 0.29008528626871172 0 -0.1024735894668701 0.282102976649661 0 -0.1344265674828477 0.28905460819995221 0 -0.1169249130099576 0.27116777117681201 0 -0.1171588836187393 0.29008528626871172 0 -0.1285820859322612 0.31962633220251518 0 -0.12624963853575569 0.30282393446501837 0 -0.1057197095982655 0.30527714085211483 0 -0.12624963853575569 0.30282393446501837 0 -0.1171588836187393 0.29008528626871172 0 -0.1057197095982655 0.30527714085211483 0 -0.1285820859322612 0.31962633220251518 0 -0.1057197095982655 0.30527714085211483 0 -0.1057197095982655 0.30527714085211483 0 -0.082857333264271388 0.29092794950171191 0 -0.1171588836187393 0.29008528626871172 0 -0.1057197095982655 0.30527714085211483 0 -0.1024735894668701 0.282102976649661 0 -0.1057197095982655 0.30527714085211483 0 -0.1024735894668701 0.282102976649661 0 -0.082857333264271388 0.29092794950171191 0 -0.1024735894668701 0.282102976649661 0 -0.082857333264271388 0.29092794950171191 0 -0.089350011498297549 0.27282927673882212 0 -0.082857333264271388 0.29092794950171191 0 -0.073200861516193289 0.30625372060589512 0 -0.091617542507726121 0.31540738968816789 0 -0.1057197095982655 0.30527714085211483 0 -0.082857333264271388 0.29092794950171191 0 -0.091617542507726121 0.31540738968816789 0 -0.073200861516193289 0.30625372060589512 0 -0.06054487518405012 0.29485890056366021 0 -0.056373579938761922 0.31148407157542118 0 -0.082857333264271388 0.29092794950171191 0 -0.073200861516193289 0.30625372060589512 0 -0.06054487518405012 0.29485890056366021 0 -0.082857333264271388 0.29092794950171191 0 -0.059994956930278023 0.27657875815130761 0 -0.082857333264271388 0.29092794950171191 0 -0.059994956930278023 0.27657875815130761 0 -0.06054487518405012 0.29485890056366021 0 -0.082857333264271388 0.29092794950171191 0 -0.071406673801664669 0.27461838112121761 0 -0.059994956930278023 0.27657875815130761 0 -0.082857333264271388 0.29092794950171191 0 -0.071406673801664669 0.27461838112121761 0 -0.080046681495921562 0.27674801397143728 0 -0.07263166394277798 0.26476253730223759 0 -0.059994956930278023 0.27657875815130761 0 -0.072094490764828392 0.26318992429816129 0 -0.05857118242373268 0.27568514969452163 0 -0.071406673801664669 0.27461838112121761 0 -0.07263166394277798 0.26476253730223759 0 -0.059994956930278023 0.27657875815130761 0 -0.072094490764828392 0.26318992429816129 0 -0.05857118242373268 0.27568514969452163 0 -0.060001075490807632 0.26672011371211768 0 -0.07263166394277798 0.26476253730223759 0 -0.072094490764828392 0.26318992429816129 0 -0.05857118242373268 0.27568514969452163 0 -0.07263166394277798 0.26476253730223759 0 -0.059994956930278023 0.27657875815130761 0 -0.05857118242373268 0.27568514969452163 0 -0.071406673801664669 0.27461838112121761 0 -0.078524776596185564 0.26920476482511219 0 -0.07263166394277798 0.26476253730223759 0 -0.078524776596185564 0.26920476482511219 0 -0.079209018086475513 0.26403426834450711 0 -0.07263166394277798 0.26476253730223759 0 -0.071406673801664669 0.27461838112121761 0 -0.080046681495921562 0.27674801397143728 0 -0.078524776596185564 0.26920476482511219 0 -0.082857333264271388 0.29092794950171191 0 -0.080046681495921562 0.27674801397143728 0 -0.089350011498297549 0.27282927673882212 0 -0.080046681495921562 0.27674801397143728 0 -0.078524776596185564 0.26920476482511219 0 -0.089350011498297549 0.27282927673882212 0 -0.078524776596185564 0.26920476482511219 0 -0.089350011498297549 0.27282927673882212 0 -0.083934869965011497 0.2639578605436253 0 -0.078524776596185564 0.26920476482511219 0 -0.083934869965011497 0.2639578605436253 0 -0.079209018086475513 0.26403426834450711 0 -0.089350011498297549 0.27282927673882212 0 -0.090946640045185614 0.26103686098013329 0 -0.083934869965011497 0.2639578605436253 0 -0.1004403613419224 0.26585836479791702 0 -0.089350011498297549 0.27282927673882212 0 -0.090946640045185614 0.26103686098013329 0 -0.09620545477027273 0.25483607137557501 0 -0.089439320898220445 0.25230245455238071 0 -0.095237997476510378 0.24369107460290629 0 -0.089439320898220445 0.25230245455238071 0 -0.090946640045185614 0.26103686098013329 0 -0.086202157441140154 0.25816835737933558 0 -0.09620545477027273 0.25483607137557501 0 -0.089439320898220445 0.25230245455238071 0 -0.090946640045185614 0.26103686098013329 0 -0.089439320898220445 0.25230245455238071 0 -0.086202157441140154 0.25816835737933558 0 -0.085268370955278228 0.25294631645316801 0 -0.089439320898220445 0.25230245455238071 0 -0.085617799105924666 0.25069469890180152 0 -0.085268370955278228 0.25294631645316801 0 -0.090946640045185614 0.26103686098013329 0 -0.086202157441140154 0.25816835737933558 0 -0.083934869965011497 0.2639578605436253 0 -0.086202157441140154 0.25816835737933558 0 -0.083934869965011497 0.2639578605436253 0 -0.081421585342004998 0.26059829436737098 0 -0.081421585342004998 0.26059829436737098 0 -0.085268370955278228 0.25294631645316801 0 -0.07263166394277798 0.26476253730223759 0 -0.085268370955278228 0.25294631645316801 0 -0.07263166394277798 0.26476253730223759 0 -0.083934869965011497 0.2639578605436253 0 -0.079209018086475513 0.26403426834450711 0 -0.081421585342004998 0.26059829436737098 0 -0.085617799105924666 0.25069469890180152 0 -0.085268370955278228 0.25294631645316801 0 -0.072094490764828392 0.26318992429816129 0 -0.085617799105924666 0.25069469890180152 0 -0.079065520241485915 0.25100537302428427 0 -0.075644370570544267 0.25585658612223777 0 -0.085617799105924666 0.25069469890180152 0 -0.072094490764828392 0.26318992429816129 0 -0.086202157441140154 0.25816835737933558 0 -0.081421585342004998 0.26059829436737098 0 -0.085268370955278228 0.25294631645316801 0 -0.079065520241485915 0.25100537302428427 0 -0.07427874433702801 0.25393861420498642 0 -0.075135886009683822 0.24985715318892979 0 -0.079065520241485915 0.25100537302428427 0 -0.07427874433702801 0.25393861420498642 0 -0.075644370570544267 0.25585658612223777 0 -0.085617799105924666 0.25069469890180152 0 -0.075644370570544267 0.25585658612223777 0 -0.072094490764828392 0.26318992429816129 0 -0.07427874433702801 0.25393861420498642 0 -0.075644370570544267 0.25585658612223777 0 -0.071077371186762439 0.25688595538282888 0 -0.07427874433702801 0.25393861420498642 0 -0.071077371186762439 0.25688595538282888 0 -0.069477213224122786 0.25212352833607982 0 -0.075644370570544267 0.25585658612223777 0 -0.071077371186762439 0.25688595538282888 0 -0.071732297787236235 0.25942495092136508 0 -0.07427874433702801 0.25393861420498642 0 -0.069477213224122786 0.25212352833607982 0 -0.075135886009683822 0.24985715318892979 0 -0.079209018086475513 0.26403426834450711 0 -0.081421585342004998 0.26059829436737098 0 -0.07263166394277798 0.26476253730223759 0 -0.085268370955278228 0.25294631645316801 0 -0.07263166394277798 0.26476253730223759 0 -0.072094490764828392 0.26318992429816129 0 -0.075644370570544267 0.25585658612223777 0 -0.071732297787236235 0.25942495092136508 0 -0.072094490764828392 0.26318992429816129 0 -0.071077371186762439 0.25688595538282888 0 -0.071732297787236235 0.25942495092136508 0 -0.069411156795765802 0.2599726462606482 0 -0.071732297787236235 0.25942495092136508 0 -0.072094490764828392 0.26318992429816129 0 -0.069411156795765802 0.2599726462606482 0 -0.072094490764828392 0.26318992429816129 0 -0.065488825472158591 0.26168125526568459 0 -0.060001075490807632 0.26672011371211768 0 -0.069411156795765802 0.2599726462606482 0 -0.065488825472158591 0.26168125526568459 0 -0.065898753814250616 0.25579333114418329 0 -0.072094490764828392 0.26318992429816129 0 -0.069411156795765802 0.2599726462606482 0 -0.065488825472158591 0.26168125526568459 0 -0.065488825472158591 0.26168125526568459 0 -0.065898753814250616 0.25579333114418329 0 -0.059405319268608002 0.2576922090059604 0 -0.069477213224122786 0.25212352833607982 0 -0.065898753814250616 0.25579333114418329 0 -0.060155289290419377 0.2492581413369018 0 -0.071077371186762439 0.25688595538282888 0 -0.069411156795765802 0.2599726462606482 0 -0.065898753814250616 0.25579333114418329 0 -0.071077371186762439 0.25688595538282888 0 -0.069477213224122786 0.25212352833607982 0 -0.065898753814250616 0.25579333114418329 0 -0.059405319268608002 0.2576922090059604 0 -0.050473894944840447 0.25505037615492249 0 -0.060155289290419377 0.2492581413369018 0 -0.065898753814250616 0.25579333114418329 0 -0.059405319268608002 0.2576922090059604 0 -0.060155289290419377 0.2492581413369018 0 -0.065488825472158591 0.26168125526568459 0 -0.059405319268608002 0.2576922090059604 0 -0.060354218885658513 0.2628401218640779 0 -0.059405319268608002 0.2576922090059604 0 -0.054910962756912617 0.26249985887375182 0 -0.050473894944840447 0.25505037615492249 0 -0.065488825472158591 0.26168125526568459 0 -0.060354218885658513 0.2628401218640779 0 -0.060001075490807632 0.26672011371211768 0 -0.060354218885658513 0.2628401218640779 0 -0.054910962756912617 0.26249985887375182 0 -0.060001075490807632 0.26672011371211768 0 -0.059405319268608002 0.2576922090059604 0 -0.060354218885658513 0.2628401218640779 0 -0.054910962756912617 0.26249985887375182 0 -0.054910962756912617 0.26249985887375182 0 -0.050473894944840447 0.25505037615492249 0 -0.047992931262780252 0.26643446308280289 0 -0.054910962756912617 0.26249985887375182 0 -0.054418321830847577 0.26784047595086069 0 -0.047992931262780252 0.26643446308280289 0 -0.059994956930278023 0.27657875815130761 0 -0.05857118242373268 0.27568514969452163 0 -0.05857118242373268 0.27568514969452163 0 -0.057361286105882953 0.27120684665955003 0 -0.060001075490807632 0.26672011371211768 0 -0.057361286105882953 0.27120684665955003 0 -0.054418321830847577 0.26784047595086069 0 -0.053423417138090033 0.27126272492492348 0 -0.05857118242373268 0.27568514969452163 0 -0.057361286105882953 0.27120684665955003 0 -0.053423417138090033 0.27126272492492348 0 -0.054910962756912617 0.26249985887375182 0 -0.060001075490807632 0.26672011371211768 0 -0.054418321830847577 0.26784047595086069 0 -0.057361286105882953 0.27120684665955003 0 -0.060001075490807632 0.26672011371211768 0 -0.054418321830847577 0.26784047595086069 0 -0.05857118242373268 0.27568514969452163 0 -0.04907957960004658 0.27323236214651347 0 -0.053423417138090033 0.27126272492492348 0 -0.054418321830847577 0.26784047595086069 0 -0.047992931262780252 0.26643446308280289 0 -0.053423417138090033 0.27126272492492348 0 -0.047992931262780252 0.26643446308280289 0 -0.04907957960004658 0.27323236214651347 0 -0.053423417138090033 0.27126272492492348 0 -0.05857118242373268 0.27568514969452163 0 -0.04907957960004658 0.27323236214651347 0 -0.048106430332227799 0.27762001101374462 0 -0.037721560864408449 0.27046559963163153 0 -0.021817306850607159 0.27315750721672 0 -0.039764129653318381 0.29306243323196818 0 -0.048106430332227799 0.27762001101374462 0 -0.037721560864408449 0.27046559963163153 0 -0.039764129653318381 0.29306243323196818 0 -0.04907957960004658 0.27323236214651347 0 -0.048106430332227799 0.27762001101374462 0 -0.037721560864408449 0.27046559963163153 0 -0.047992931262780252 0.26643446308280289 0 -0.04907957960004658 0.27323236214651347 0 -0.037721560864408449 0.27046559963163153 0 -0.047992931262780252 0.26643446308280289 0 -0.037721560864408449 0.27046559963163153 0 -0.036353893942215387 0.25409255585965079 0 -0.037721560864408449 0.27046559963163153 0 -0.036353893942215387 0.25409255585965079 0 -0.020936654409663649 0.25565986487002079 0 -0.050473894944840447 0.25505037615492249 0 -0.036353893942215387 0.25409255585965079 0 -0.044594207894327727 0.24188732741784091 0 -0.050473894944840447 0.25505037615492249 0 -0.047992931262780252 0.26643446308280289 0 -0.036353893942215387 0.25409255585965079 0 -0.037721560864408449 0.27046559963163153 0 -0.020936654409663649 0.25565986487002079 0 -0.021817306850607159 0.27315750721672 0 -0.021817306850607159 0.27315750721672 0 -0.0045653944237659403 0.27106774986792348 0 -0.003870484047894238 0.25325258120147331 0 -0.0045653944237659403 0.27106774986792348 0 -0.0064647886647679594 0.28727353837947239 0 0.0039125193680558971 0.27831308366147178 0 -0.021817306850607159 0.27315750721672 0 -0.0045653944237659403 0.27106774986792348 0 -0.0064647886647679594 0.28727353837947239 0 -0.021817306850607159 0.27315750721672 0 -0.003870484047894238 0.25325258120147331 0 -0.0045653944237659403 0.27106774986792348 0 -0.003870484047894238 0.25325258120147331 0 0.0068480974455401916 0.26366255629670587 0 -0.020936654409663649 0.25565986487002079 0 -0.003870484047894238 0.25325258120147331 0 -0.001870537191094847 0.24783164157960649 0 -0.020936654409663649 0.25565986487002079 0 -0.021817306850607159 0.27315750721672 0 -0.003870484047894238 0.25325258120147331 0 -0.013868191632293201 0.300315567009516 0 -0.0088254007675241507 0.3104834745808136 0 -0.00098271012149963666 0.30301770253450322 0 -0.013868191632293201 0.300315567009516 0 -0.0088254007675241507 0.3104834745808136 0 -0.022493862441402921 0.30901976231337791 0 -0.0088254007675241507 0.3104834745808136 0 -0.00098271012149963666 0.30301770253450322 0 -0.00091589086326776211 0.31522573641359419 0 -0.013868191632293201 0.300315567009516 0 -0.00098271012149963666 0.30301770253450322 0 -0.0064647886647679594 0.28727353837947239 0 -0.013868191632293201 0.300315567009516 0 -0.0064647886647679594 0.28727353837947239 0 -0.01939950582363021 0.29103795640948588 0 -0.021817306850607159 0.27315750721672 0 -0.039764129653318381 0.29306243323196818 0 -0.021817306850607159 0.27315750721672 0 -0.0064647886647679594 0.28727353837947239 0 -0.01939950582363021 0.29103795640948588 0 -0.021817306850607159 0.27315750721672 0 -0.028536338426933889 0.29410165166818369 0 -0.039764129653318381 0.29306243323196818 0 -0.021817306850607159 0.27315750721672 0 -0.01939950582363021 0.29103795640948588 0 -0.028536338426933889 0.29410165166818369 0 -0.013868191632293201 0.300315567009516 0 -0.01939950582363021 0.29103795640948588 0 -0.021579837256222409 0.298775140838971 0 -0.01939950582363021 0.29103795640948588 0 -0.028536338426933889 0.29410165166818369 0 -0.021579837256222409 0.298775140838971 0 -0.022493862441402921 0.30901976231337791 0 -0.039764129653318381 0.29306243323196818 0 -0.028536338426933889 0.29410165166818369 0 -0.021579837256222409 0.298775140838971 0 -0.022493862441402921 0.30901976231337791 0 -0.022493862441402921 0.30901976231337791 0 -0.027345775235421751 0.30710806780976491 0 -0.039764129653318381 0.29306243323196818 0 -0.028536338426933889 0.29410165166818369 0 -0.022493862441402921 0.30901976231337791 0 -0.039764129653318381 0.29306243323196818 0 -0.013868191632293201 0.300315567009516 0 -0.021579837256222409 0.298775140838971 0 -0.022493862441402921 0.30901976231337791 0 -0.022493862441402921 0.30901976231337791 0 -0.027345775235421751 0.30710806780976491 0 -0.01373692268703003 0.31983331395618197 0 -0.027345775235421751 0.30710806780976491 0 -0.032577756228225389 0.31387405599338558 0 -0.0268486916354908 0.31477554500333571 0 -0.027345775235421751 0.30710806780976491 0 -0.038300269383663113 0.30579775759341449 0 -0.032577756228225389 0.31387405599338558 0 -0.038300269383663113 0.30579775759341449 0 -0.039764129653318381 0.29306243323196818 0 -0.056373579938761922 0.31148407157542118 0 -0.038300269383663113 0.30579775759341449 0 -0.041417828179039919 0.31516047214394138 0 -0.032577756228225389 0.31387405599338558 0 -0.038300269383663113 0.30579775759341449 0 -0.056373579938761922 0.31148407157542118 0 -0.041417828179039919 0.31516047214394138 0 -0.027345775235421751 0.30710806780976491 0 -0.038300269383663113 0.30579775759341449 0 -0.039764129653318381 0.29306243323196818 0 -0.027345775235421751 0.30710806780976491 0 -0.039764129653318381 0.29306243323196818 0 -0.059994956930278023 0.27657875815130761 0 -0.039764129653318381 0.29306243323196818 0 -0.059994956930278023 0.27657875815130761 0 -0.05857118242373268 0.27568514969452163 0 -0.039764129653318381 0.29306243323196818 0 -0.059994956930278023 0.27657875815130761 0 -0.039764129653318381 0.29306243323196818 0 -0.06054487518405012 0.29485890056366021 0 -0.05857118242373268 0.27568514969452163 0 -0.039764129653318381 0.29306243323196818 0 -0.05857118242373268 0.27568514969452163 0 -0.048106430332227799 0.27762001101374462 0 -0.039764129653318381 0.29306243323196818 0 -0.039764129653318381 0.29306243323196818 0 -0.056373579938761922 0.31148407157542118 0 -0.039764129653318381 0.29306243323196818 0 -0.06054487518405012 0.29485890056366021 0 -0.056373579938761922 0.31148407157542118 0 -0.056373579938761922 0.31148407157542118 0 -0.055516414524114467 0.33039200112146361 0 -0.065984489707490157 0.32857881263688088 0 -0.056373579938761922 0.31148407157542118 0 -0.055516414524114467 0.33039200112146361 0 -0.045679841474636877 0.32441293137153993 0 -0.056373579938761922 0.31148407157542118 0 -0.041417828179039919 0.31516047214394138 0 -0.045679841474636877 0.32441293137153993 0 -0.055516414524114467 0.33039200112146361 0 -0.045931904220332179 0.33859320753743011 0 -0.069653495455117787 0.34297845244490621 0 -0.055516414524114467 0.33039200112146361 0 -0.045931904220332179 0.33859320753743011 0 -0.045679841474636877 0.32441293137153993 0 -0.045931904220332179 0.33859320753743011 0 -0.036446209099589372 0.33232598293804511 0 -0.02919469878918041 0.34283259050196452 0 -0.045931904220332179 0.33859320753743011 0 -0.036446209099589372 0.33232598293804511 0 -0.045679841474636877 0.32441293137153993 0 -0.041417828179039919 0.31516047214394138 0 -0.045679841474636877 0.32441293137153993 0 -0.035038712300424879 0.32209700197413071 0 -0.036446209099589372 0.33232598293804511 0 -0.035038712300424879 0.32209700197413071 0 -0.027552019211783661 0.32867218935381581 0 -0.036446209099589372 0.33232598293804511 0 -0.045679841474636877 0.32441293137153993 0 -0.035038712300424879 0.32209700197413071 0 -0.041417828179039919 0.31516047214394138 0 -0.035038712300424879 0.32209700197413071 0 -0.032577756228225389 0.31387405599338558 0 -0.035038712300424879 0.32209700197413071 0 -0.032577756228225389 0.31387405599338558 0 -0.026898314464621261 0.32026906674113159 0 -0.032577756228225389 0.31387405599338558 0 -0.026898314464621261 0.32026906674113159 0 -0.0268486916354908 0.31477554500333571 0 -0.027345775235421751 0.30710806780976491 0 -0.0268486916354908 0.31477554500333571 0 -0.022307643898984032 0.31758429862781418 0 -0.026898314464621261 0.32026906674113159 0 -0.0268486916354908 0.31477554500333571 0 -0.022307643898984032 0.31758429862781418 0 -0.027345775235421751 0.30710806780976491 0 -0.022307643898984032 0.31758429862781418 0 -0.01373692268703003 0.31983331395618197 0 -0.027345775235421751 0.30710806780976491 0 -0.01373692268703003 0.31983331395618197 0 -0.022307643898984032 0.31758429862781418 0 -0.02017796204293474 0.32540211794616442 0 -0.01373692268703003 0.31983331395618197 0 -0.026898314464621261 0.32026906674113159 0 -0.022307643898984032 0.31758429862781418 0 -0.02017796204293474 0.32540211794616442 0 -0.026898314464621261 0.32026906674113159 0 -0.02017796204293474 0.32540211794616442 0 -0.027552019211783661 0.32867218935381581 0 -0.035038712300424879 0.32209700197413071 0 -0.026898314464621261 0.32026906674113159 0 -0.027552019211783661 0.32867218935381581 0 -0.02919469878918041 0.34283259050196452 0 -0.02055930409474015 0.33542585521799922 0 -0.012998570162705701 0.34808614638675323 0 -0.027552019211783661 0.32867218935381581 0 -0.02919469878918041 0.34283259050196452 0 -0.02055930409474015 0.33542585521799922 0 -0.036446209099589372 0.33232598293804511 0 -0.027552019211783661 0.32867218935381581 0 -0.02919469878918041 0.34283259050196452 0 -0.02017796204293474 0.32540211794616442 0 -0.02055930409474015 0.33542585521799922 0 -0.01174829118573857 0.33036129293879718 0 -0.02017796204293474 0.32540211794616442 0 -0.027552019211783661 0.32867218935381581 0 -0.02055930409474015 0.33542585521799922 0 -0.01174829118573857 0.33036129293879718 0 -0.012998570162705701 0.34808614638675323 0 0.0021953080243909532 0.3292347266183353 0 -0.02055930409474015 0.33542585521799922 0 -0.01174829118573857 0.33036129293879718 0 -0.012998570162705701 0.34808614638675323 0 -0.012998570162705701 0.34808614638675323 0 0.002002667747446269 0.34500089505608922 0 0.0021953080243909532 0.3292347266183353 0 -0.012998570162705701 0.34808614638675323 0 0.0021953080243909532 0.3292347266183353 0 -0.01174829118573857 0.33036129293879718 0 -0.005223595229487607 0.32497709139478742 0 0.0021953080243909532 0.3292347266183353 0 -0.022493862441402921 0.30901976231337791 0 -0.005223595229487607 0.32497709139478742 0 -0.01373692268703003 0.31983331395618197 0 -0.022493862441402921 0.30901976231337791 0 -0.005223595229487607 0.32497709139478742 0 -0.0088254007675241507 0.3104834745808136 0 -0.022493862441402921 0.30901976231337791 0 -0.005223595229487607 0.32497709139478742 0 -0.005223595229487607 0.32497709139478742 0 -0.00091589086326776211 0.31522573641359419 0 0.0021953080243909532 0.3292347266183353 0 -0.0088254007675241507 0.3104834745808136 0 -0.005223595229487607 0.32497709139478742 0 -0.00091589086326776211 0.31522573641359419 0 -0.02017796204293474 0.32540211794616442 0 -0.01174829118573857 0.33036129293879718 0 -0.01373692268703003 0.31983331395618197 0 -0.01174829118573857 0.33036129293879718 0 -0.005223595229487607 0.32497709139478742 0 -0.01373692268703003 0.31983331395618197 0 -0.002472024106327787 0.35561964142679181 0 -0.017907033281536779 0.36282906244638591 0 0.0079661978052537122 0.3727543674471257 0 -0.017907033281536779 0.36282906244638591 0 0.0079661978052537122 0.3727543674471257 0 -0.017907033281536779 0.36282906244638591 0 -0.014793623710019511 0.38309793303379269 0 0.0079661978052537122 0.3727543674471257 0 -0.002472024106327787 0.35561964142679181 0 -0.012998570162705701 0.34808614638675323 0 0.002002667747446269 0.34500089505608922 0 -0.002472024106327787 0.35561964142679181 0 -0.012998570162705701 0.34808614638675323 0 -0.017907033281536779 0.36282906244638591 0 -0.017907033281536779 0.36282906244638591 0 -0.043780264368327278 0.35290375744564612 0 -0.02919469878918041 0.34283259050196452 0 -0.017907033281536779 0.36282906244638591 0 -0.043780264368327278 0.35290375744564612 0 -0.02919469878918041 0.34283259050196452 0 -0.012998570162705701 0.34808614638675323 0 -0.017907033281536779 0.36282906244638591 0 -0.017907033281536779 0.36282906244638591 0 -0.031486608754313777 0.37231470846558401 0 -0.043780264368327278 0.35290375744564612 0 -0.017907033281536779 0.36282906244638591 0 -0.031486608754313777 0.37231470846558401 0 -0.014793623710019511 0.38309793303379269 0 -0.031486608754313777 0.37231470846558401 0 -0.043780264368327278 0.35290375744564612 0 -0.053658472431945332 0.3589703914551311 0 -0.031486608754313777 0.37231470846558401 0 -0.057581432952178407 0.36910729547245552 0 -0.045931904220332179 0.33859320753743011 0 -0.02919469878918041 0.34283259050196452 0 -0.043780264368327278 0.35290375744564612 0 -0.043780264368327278 0.35290375744564612 0 -0.069653495455117787 0.34297845244490621 0 -0.043780264368327278 0.35290375744564612 0 -0.053658472431945332 0.3589703914551311 0 -0.069653495455117787 0.34297845244490621 0 -0.045931904220332179 0.33859320753743011 0 -0.043780264368327278 0.35290375744564612 0 -0.069653495455117787 0.34297845244490621 0 -0.031486608754313777 0.37231470846558401 0 -0.057581432952178407 0.36910729547245552 0 -0.05356776187311147 0.37973672811033399 0 -0.031486608754313777 0.37231470846558401 0 -0.053658472431945332 0.3589703914551311 0 -0.057581432952178407 0.36910729547245552 0 -0.053658472431945332 0.3589703914551311 0 -0.057581432952178407 0.36910729547245552 0 -0.065321168072655686 0.35894958335565802 0 -0.057581432952178407 0.36910729547245552 0 -0.068396208906977521 0.37581254320529561 0 -0.05356776187311147 0.37973672811033399 0 -0.057581432952178407 0.36910729547245552 0 -0.083676257150043051 0.36589988247932709 0 -0.068396208906977521 0.37581254320529561 0 -0.057581432952178407 0.36910729547245552 0 -0.083676257150043051 0.36589988247932709 0 -0.065321168072655686 0.35894958335565802 0 -0.057581432952178407 0.36910729547245552 0 -0.083676257150043051 0.36589988247932709 0 -0.083676257150043051 0.36589988247932709 0 -0.080410365292909652 0.38046497426184189 0 -0.068396208906977521 0.37581254320529561 0 -0.083676257150043051 0.36589988247932709 0 -0.097991850832038124 0.37358924325128118 0 -0.080410365292909652 0.38046497426184189 0 -0.083676257150043051 0.36589988247932709 0 -0.086408140692523977 0.34584183297127669 0 -0.065321168072655686 0.35894958335565802 0 -0.083676257150043051 0.36589988247932709 0 -0.086408140692523977 0.34584183297127669 0 -0.095583729712884924 0.35565374009547318 0 -0.086408140692523977 0.34584183297127669 0 -0.065321168072655686 0.35894958335565802 0 -0.053658472431945332 0.3589703914551311 0 -0.065321168072655686 0.35894958335565802 0 -0.069653495455117787 0.34297845244490621 0 -0.086408140692523977 0.34584183297127669 0 -0.065321168072655686 0.35894958335565802 0 -0.069653495455117787 0.34297845244490621 0 -0.069653495455117787 0.34297845244490621 0 -0.065984489707490157 0.32857881263688088 0 -0.076303342188981271 0.32162748520900752 0 -0.055516414524114467 0.33039200112146361 0 -0.069653495455117787 0.34297845244490621 0 -0.065984489707490157 0.32857881263688088 0 -0.073200861516193289 0.30625372060589512 0 -0.056373579938761922 0.31148407157542118 0 -0.076303342188981271 0.32162748520900752 0 -0.056373579938761922 0.31148407157542118 0 -0.065984489707490157 0.32857881263688088 0 -0.076303342188981271 0.32162748520900752 0 -0.076303342188981271 0.32162748520900752 0 -0.091617542507726121 0.31540738968816789 0 -0.095526726541908247 0.33305314744416642 0 -0.073200861516193289 0.30625372060589512 0 -0.076303342188981271 0.32162748520900752 0 -0.091617542507726121 0.31540738968816789 0 -0.069653495455117787 0.34297845244490621 0 -0.076303342188981271 0.32162748520900752 0 -0.095526726541908247 0.33305314744416642 0 -0.069653495455117787 0.34297845244490621 0 -0.095526726541908247 0.33305314744416642 0 -0.086408140692523977 0.34584183297127669 0 -0.069653495455117787 0.34297845244490621 0 -0.095526726541908247 0.33305314744416642 0 -0.086408140692523977 0.34584183297127669 0 -0.1074951133123923 0.33273408258689552 0 -0.086408140692523977 0.34584183297127669 0 -0.095526726541908247 0.33305314744416642 0 -0.1074951133123923 0.33273408258689552 0 -0.086408140692523977 0.34584183297127669 0 -0.1074951133123923 0.33273408258689552 0 -0.1024794396610649 0.34818077544509057 0 -0.095526726541908247 0.33305314744416642 0 -0.1074951133123923 0.33273408258689552 0 -0.1019079681589633 0.32267539554514157 0 -0.1074951133123923 0.33273408258689552 0 -0.11690141705398779 0.34688146143841359 0 -0.1024794396610649 0.34818077544509057 0 -0.1057197095982655 0.30527714085211483 0 -0.091617542507726121 0.31540738968816789 0 -0.1019079681589633 0.32267539554514157 0 -0.1057197095982655 0.30527714085211483 0 -0.1019079681589633 0.32267539554514157 0 -0.1109262192504706 0.32007823779666678 0 -0.091617542507726121 0.31540738968816789 0 -0.095526726541908247 0.33305314744416642 0 -0.1019079681589633 0.32267539554514157 0 -0.1074951133123923 0.33273408258689552 0 -0.1019079681589633 0.32267539554514157 0 -0.1109262192504706 0.32007823779666678 0 -0.1285820859322612 0.31962633220251518 0 -0.1057197095982655 0.30527714085211483 0 -0.1109262192504706 0.32007823779666678 0 -0.1285820859322612 0.31962633220251518 0 -0.1074951133123923 0.33273408258689552 0 -0.1285820859322612 0.31962633220251518 0 -0.1074951133123923 0.33273408258689552 0 -0.1109262192504706 0.32007823779666678 0 -0.13262596489288281 0.34092667502800228 0 -0.1209512604642947 0.33425720415068261 0 -0.11690141705398779 0.34688146143841359 0 -0.1285820859322612 0.31962633220251518 0 -0.1074951133123923 0.33273408258689552 0 -0.1209512604642947 0.33425720415068261 0 -0.1074951133123923 0.33273408258689552 0 -0.1209512604642947 0.33425720415068261 0 -0.11690141705398779 0.34688146143841359 0 -0.11690141705398779 0.34688146143841359 0 -0.10977108134790781 0.3626924694861986 0 -0.1024794396610649 0.34818077544509057 0 -0.1290972904713337 0.35924150358891138 0 -0.11690141705398779 0.34688146143841359 0 -0.10977108134790781 0.3626924694861986 0 -0.1290972904713337 0.35924150358891138 0 -0.10977108134790781 0.3626924694861986 0 -0.120758474690823 0.379867519792427 0 -0.10977108134790781 0.3626924694861986 0 -0.097991850832038124 0.37358924325128118 0 -0.120758474690823 0.379867519792427 0 -0.083676257150043051 0.36589988247932709 0 -0.10977108134790781 0.3626924694861986 0 -0.083676257150043051 0.36589988247932709 0 -0.10977108134790781 0.3626924694861986 0 -0.095583729712884924 0.35565374009547318 0 -0.083676257150043051 0.36589988247932709 0 -0.10977108134790781 0.3626924694861986 0 -0.097991850832038124 0.37358924325128118 0 -0.086408140692523977 0.34584183297127669 0 -0.095583729712884924 0.35565374009547318 0 -0.1024794396610649 0.34818077544509057 0 -0.10977108134790781 0.3626924694861986 0 -0.095583729712884924 0.35565374009547318 0 -0.1024794396610649 0.34818077544509057 0 -0.097557245929900588 0.38810099375484708 0 -0.113224489770713 0.3954436724256632 0 -0.10181665108610739 0.40845284903974338 0 -0.097557245929900588 0.38810099375484708 0 -0.10181665108610739 0.40845284903974338 0 -0.086674387760718799 0.40116204526297061 0 -0.097991850832038124 0.37358924325128118 0 -0.097557245929900588 0.38810099375484708 0 -0.120758474690823 0.379867519792427 0 -0.097557245929900588 0.38810099375484708 0 -0.120758474690823 0.379867519792427 0 -0.097557245929900588 0.38810099375484708 0 -0.120758474690823 0.379867519792427 0 -0.113224489770713 0.3954436724256632 0 -0.13066566531432561 0.40514582753946249 0 -0.120758474690823 0.379867519792427 0 -0.113224489770713 0.3954436724256632 0 -0.13066566531432561 0.40514582753946249 0 -0.113224489770713 0.3954436724256632 0 -0.10181665108610739 0.40845284903974338 0 -0.13066566531432561 0.40514582753946249 0 -0.10181665108610739 0.40845284903974338 0 -0.13066566531432561 0.40514582753946249 0 -0.1160836341082873 0.42448770314428969 0 -0.10181665108610739 0.40845284903974338 0 -0.1160836341082873 0.42448770314428969 0 -0.09446608398359771 0.43173366402718161 0 -0.1098261682431419 0.45066800799214252 0 -0.1160836341082873 0.42448770314428969 0 -0.09446608398359771 0.43173366402718161 0 -0.10181665108610739 0.40845284903974338 0 -0.10181665108610739 0.40845284903974338 0 -0.072967636857888984 0.4117598705400245 0 -0.086674387760718799 0.40116204526297061 0 -0.10181665108610739 0.40845284903974338 0 -0.072967636857888984 0.4117598705400245 0 -0.09446608398359771 0.43173366402718161 0 -0.10181665108610739 0.40845284903974338 0 -0.072967636857888984 0.4117598705400245 0 -0.09446608398359771 0.43173366402718161 0 -0.071857572714943641 0.43740765708737428 0 -0.072967636857888984 0.4117598705400245 0 -0.071857572714943641 0.43740765708737428 0 -0.072967636857888984 0.4117598705400245 0 -0.059203855239170863 0.42654704576834979 0 -0.074356017168978245 0.39633446771726721 0 -0.066024163959633272 0.38473643765379228 0 -0.054931571548655779 0.39113112840484332 0 -0.072967636857888984 0.4117598705400245 0 -0.074356017168978245 0.39633446771726721 0 -0.051154788408055853 0.40456794167968718 0 -0.074356017168978245 0.39633446771726721 0 -0.051154788408055853 0.40456794167968718 0 -0.072967636857888984 0.4117598705400245 0 -0.074356017168978245 0.39633446771726721 0 -0.086674387760718799 0.40116204526297061 0 -0.097557245929900588 0.38810099375484708 0 -0.074356017168978245 0.39633446771726721 0 -0.086674387760718799 0.40116204526297061 0 -0.097557245929900588 0.38810099375484708 0 -0.074356017168978245 0.39633446771726721 0 -0.097557245929900588 0.38810099375484708 0 -0.074356017168978245 0.39633446771726721 0 -0.080410365292909652 0.38046497426184189 0 -0.097991850832038124 0.37358924325128118 0 -0.097557245929900588 0.38810099375484708 0 -0.080410365292909652 0.38046497426184189 0 -0.080410365292909652 0.38046497426184189 0 -0.066024163959633272 0.38473643765379228 0 -0.068396208906977521 0.37581254320529561 0 -0.074356017168978245 0.39633446771726721 0 -0.080410365292909652 0.38046497426184189 0 -0.066024163959633272 0.38473643765379228 0 -0.066024163959633272 0.38473643765379228 0 -0.068396208906977521 0.37581254320529561 0 -0.05356776187311147 0.37973672811033399 0 -0.066024163959633272 0.38473643765379228 0 -0.05356776187311147 0.37973672811033399 0 -0.054931571548655779 0.39113112840484332 0 -0.05356776187311147 0.37973672811033399 0 -0.054931571548655779 0.39113112840484332 0 -0.0429865851169101 0.38531825546003362 0 -0.074356017168978245 0.39633446771726721 0 -0.054931571548655779 0.39113112840484332 0 -0.051154788408055853 0.40456794167968718 0 -0.054931571548655779 0.39113112840484332 0 -0.051154788408055853 0.40456794167968718 0 -0.040509191453686789 0.3961155708191525 0 -0.051154788408055853 0.40456794167968718 0 -0.040509191453686789 0.3961155708191525 0 -0.035189793255689578 0.40645185332893191 0 -0.054931571548655779 0.39113112840484332 0 -0.040509191453686789 0.3961155708191525 0 -0.0429865851169101 0.38531825546003362 0 -0.040509191453686789 0.3961155708191525 0 -0.030934552884102389 0.38699628326869823 0 -0.02489675538558174 0.39813494856492798 0 -0.040509191453686789 0.3961155708191525 0 -0.02489675538558174 0.39813494856492798 0 -0.035189793255689578 0.40645185332893191 0 -0.031486608754313777 0.37231470846558401 0 -0.05356776187311147 0.37973672811033399 0 -0.0429865851169101 0.38531825546003362 0 -0.040509191453686789 0.3961155708191525 0 -0.0429865851169101 0.38531825546003362 0 -0.030934552884102389 0.38699628326869823 0 -0.031486608754313777 0.37231470846558401 0 -0.0429865851169101 0.38531825546003362 0 -0.030934552884102389 0.38699628326869823 0 -0.031486608754313777 0.37231470846558401 0 -0.030934552884102389 0.38699628326869823 0 -0.014793623710019511 0.38309793303379269 0 -0.030934552884102389 0.38699628326869823 0 -0.02489675538558174 0.39813494856492798 0 -0.014793623710019511 0.38309793303379269 0 -0.02489675538558174 0.39813494856492798 0 -0.011547381867858929 0.39888805189097631 0 -0.014793623710019511 0.38309793303379269 0 -0.02489675538558174 0.39813494856492798 0 -0.011547381867858929 0.39888805189097631 0 -0.015269608401452641 0.4183739135405864 0 -0.011547381867858929 0.39888805189097631 0 -0.014793623710019511 0.38309793303379269 0 0.0064299632138935837 0.39871103747722619 0 -0.011547381867858929 0.39888805189097631 0 -0.015269608401452641 0.4183739135405864 0 0.0064299632138935837 0.39871103747722619 0 -0.014793623710019511 0.38309793303379269 0 0.0064299632138935837 0.39871103747722619 0 0.0079661978052537122 0.3727543674471257 0 -0.015269608401452641 0.4183739135405864 0 -0.005161699211731278 0.44168291228677098 0 0.01357940582676553 0.42168093504086751 0 -0.015269608401452641 0.4183739135405864 0 0.01357940582676553 0.42168093504086751 0 -0.015269608401452641 0.4183739135405864 0 -0.044118622629670867 0.41506689204030539 0 -0.02489675538558174 0.39813494856492798 0 -0.015269608401452641 0.4183739135405864 0 -0.035189793255689578 0.40645185332893191 0 -0.015269608401452641 0.4183739135405864 0 -0.02765201633337451 0.43527927216994411 0 -0.044118622629670867 0.41506689204030539 0 -0.015269608401452641 0.4183739135405864 0 -0.02765201633337451 0.43527927216994411 0 -0.005161699211731278 0.44168291228677098 0 -0.02765201633337451 0.43527927216994411 0 -0.044118622629670867 0.41506689204030539 0 -0.047871588754179947 0.44195376340569481 0 -0.051154788408055853 0.40456794167968718 0 -0.044118622629670867 0.41506689204030539 0 -0.035189793255689578 0.40645185332893191 0 -0.015269608401452641 0.4183739135405864 0 -0.044118622629670867 0.41506689204030539 0 -0.035189793255689578 0.40645185332893191 0 -0.072967636857888984 0.4117598705400245 0 -0.051154788408055853 0.40456794167968718 0 -0.044118622629670867 0.41506689204030539 0 -0.072967636857888984 0.4117598705400245 0 -0.044118622629670867 0.41506689204030539 0 -0.072967636857888984 0.4117598705400245 0 -0.044118622629670867 0.41506689204030539 0 -0.059203855239170863 0.42654704576834979 0 -0.071857572714943641 0.43740765708737428 0 -0.059203855239170863 0.42654704576834979 0 -0.047871588754179947 0.44195376340569481 0 -0.044118622629670867 0.41506689204030539 0 -0.059203855239170863 0.42654704576834979 0 -0.047871588754179947 0.44195376340569481 0 -0.071857572714943641 0.43740765708737428 0 -0.047871588754179947 0.44195376340569481 0 -0.066753447507484062 0.45827177139158271 0 -0.047871588754179947 0.44195376340569481 0 -0.048071171271582308 0.46294822839945482 0 -0.066753447507484062 0.45827177139158271 0 -0.048071171271582308 0.46294822839945482 0 -0.061649322300024512 0.47913588569579102 0 -0.066753447507484062 0.45827177139158271 0 -0.048071171271582308 0.46294822839945482 0 -0.025838562669837799 0.45931887957636242 0 -0.039086878544672229 0.47919811185452382 0 -0.047871588754179947 0.44195376340569481 0 -0.048071171271582308 0.46294822839945482 0 -0.025838562669837799 0.45931887957636242 0 -0.02765201633337451 0.43527927216994411 0 -0.047871588754179947 0.44195376340569481 0 -0.025838562669837799 0.45931887957636242 0 -0.02765201633337451 0.43527927216994411 0 -0.025838562669837799 0.45931887957636242 0 -0.005161699211731278 0.44168291228677098 0 -0.025838562669837799 0.45931887957636242 0 -0.005161699211731278 0.44168291228677098 0 0.00081862258307463542 0.47122466767660098 0 -0.0041142838192221856 0.5 0 -0.01906546057110833 0.48216072100596208 0 0.00081862258307463542 0.47122466767660098 0 -0.025838562669837799 0.45931887957636242 0 -0.01906546057110833 0.48216072100596208 0 0.00081862258307463542 0.47122466767660098 0 -0.025838562669837799 0.45931887957636242 0 -0.01906546057110833 0.48216072100596208 0 -0.039086878544672229 0.47919811185452382 0 -0.01906546057110833 0.48216072100596208 0 -0.03032974045589365 0.5 0 -0.039086878544672229 0.47919811185452382 0 -0.0041142838192221856 0.5 0 -0.01906546057110833 0.48216072100596208 0 -0.03032974045589365 0.5 0 -0.03032974045589365 0.5 0 -0.039086878544672229 0.47919811185452382 0 -0.056545197092565107 0.49999999999999928 0 -0.048071171271582308 0.46294822839945482 0 -0.039086878544672229 0.47919811185452382 0 -0.061649322300024512 0.47913588569579102 0 -0.039086878544672229 0.47919811185452382 0 -0.061649322300024512 0.47913588569579102 0 -0.056545197092565107 0.49999999999999928 0 -0.061649322300024512 0.47913588569579102 0 -0.056545197092565107 0.49999999999999928 0 -0.061649322300024512 0.47913588569579102 0 -0.056545197092565107 0.49999999999999928 0 -0.086582490808038926 0.5 0 -0.061649322300024512 0.47913588569579102 0 -0.086582490808038926 0.5 0 -0.092606337840515821 0.47398547616873749 0 -0.061649322300024512 0.47913588569579102 0 -0.092606337840515821 0.47398547616873749 0 -0.066753447507484062 0.45827177139158271 0 -0.061649322300024512 0.47913588569579102 0 -0.066753447507484062 0.45827177139158271 0 -0.071857572714943641 0.43740765708737428 0 -0.066753447507484062 0.45827177139158271 0 -0.071857572714943641 0.43740765708737428 0 -0.066753447507484062 0.45827177139158271 0 -0.08710192205793664 0.45041331533340367 0 -0.09446608398359771 0.43173366402718161 0 -0.071857572714943641 0.43740765708737428 0 -0.08710192205793664 0.45041331533340367 0 -0.092606337840515821 0.47398547616873749 0 -0.066753447507484062 0.45827177139158271 0 -0.08710192205793664 0.45041331533340367 0 -0.092606337840515821 0.47398547616873749 0 -0.1098261682431419 0.45066800799214252 0 -0.1226249472228496 0.47589201616063281 0 -0.092606337840515821 0.47398547616873749 0 -0.08710192205793664 0.45041331533340367 0 -0.1098261682431419 0.45066800799214252 0 -0.09446608398359771 0.43173366402718161 0 -0.08710192205793664 0.45041331533340367 0 -0.1098261682431419 0.45066800799214252 0 -0.12995853342774449 0.45639030594032159 0 -0.12977079363683691 0.43907038919481872 0 -0.1098261682431419 0.45066800799214252 0 -0.12977079363683691 0.43907038919481872 0 -0.1160836341082873 0.42448770314428969 0 -0.1098261682431419 0.45066800799214252 0 -0.12995853342774449 0.45639030594032159 0 -0.1098261682431419 0.45066800799214252 0 -0.1226249472228496 0.47589201616063281 0 -0.092606337840515821 0.47398547616873749 0 -0.1226249472228496 0.47589201616063281 0 -0.11661978452351281 0.5 0 -0.086582490808038926 0.5 0 -0.092606337840515821 0.47398547616873749 0 -0.11661978452351281 0.5 0 -0.1707267976927096 0.068345700503675874 0 -0.15380336285653881 0.075213570240376781 0 -0.1503191421190844 0.053228741419763158 0 -0.16628592996199371 0.087963639152873585 0 -0.1707267976927096 0.068345700503675874 0 -0.15380336285653881 0.075213570240376781 0 -0.1707267976927096 0.068345700503675874 0 -0.18065394859924719 0.058488054617235247 0 -0.18821481111929009 0.068542770659300478 0 -0.1707267976927096 0.068345700503675874 0 -0.18574028278353469 0.083012376857244274 0 -0.18821481111929009 0.068542770659300478 0 -0.16628592996199371 0.087963639152873585 0 -0.1707267976927096 0.068345700503675874 0 -0.18574028278353469 0.083012376857244274 0 -0.18574028278353469 0.083012376857244274 0 -0.17871853060990539 0.097473273719537484 0 -0.19452300167293321 0.098926355950817502 0 -0.16628592996199371 0.087963639152873585 0 -0.18574028278353469 0.083012376857244274 0 -0.17871853060990539 0.097473273719537484 0 -0.17871853060990539 0.097473273719537484 0 -0.1795921839691928 0.1137234297492036 0 -0.19452300167293321 0.098926355950817502 0 -0.17871853060990539 0.097473273719537484 0 -0.1795921839691928 0.1137234297492036 0 -0.16503771075714291 0.1042753213294261 0 -0.1795921839691928 0.1137234297492036 0 -0.1553101726969425 0.1213831170205121 0 -0.18159097272231961 0.13199034971662871 0 -0.1795921839691928 0.1137234297492036 0 -0.1958614891945708 0.11623984339433401 0 -0.18159097272231961 0.13199034971662871 0 -0.1795921839691928 0.1137234297492036 0 -0.16503771075714291 0.1042753213294261 0 -0.1553101726969425 0.1213831170205121 0 -0.16628592996199371 0.087963639152873585 0 -0.16503771075714291 0.1042753213294261 0 -0.14566503906861619 0.09597096238202775 0 -0.16628592996199371 0.087963639152873585 0 -0.17871853060990539 0.097473273719537484 0 -0.16503771075714291 0.1042753213294261 0 -0.14566503906861619 0.09597096238202775 0 -0.1553101726969425 0.1213831170205121 0 -0.1302023445878227 0.10861760500362561 0 -0.16503771075714291 0.1042753213294261 0 -0.14566503906861619 0.09597096238202775 0 -0.1553101726969425 0.1213831170205121 0 -0.14566503906861619 0.09597096238202775 0 -0.1553101726969425 0.1213831170205121 0 -0.1553101726969425 0.1213831170205121 0 -0.13361982876037509 0.1219535430397881 0 -0.14206377924227739 0.12910454724138831 0 -0.1553101726969425 0.1213831170205121 0 -0.13361982876037509 0.1219535430397881 0 -0.1302023445878227 0.10861760500362561 0 -0.13361982876037509 0.1219535430397881 0 -0.1302023445878227 0.10861760500362561 0 -0.1187112036788254 0.1166523724522722 0 -0.1302023445878227 0.10861760500362561 0 -0.1201298763552133 0.08504932372035312 0 -0.14566503906861619 0.09597096238202775 0 -0.1302023445878227 0.10861760500362561 0 -0.1201298763552133 0.08504932372035312 0 -0.14566503906861619 0.09597096238202775 0 -0.13601990544028991 0.070558807743543422 0 -0.1201298763552133 0.08504932372035312 0 -0.16628592996199371 0.087963639152873585 0 -0.14566503906861619 0.09597096238202775 0 -0.15380336285653881 0.075213570240376781 0 -0.14566503906861619 0.09597096238202775 0 -0.15380336285653881 0.075213570240376781 0 -0.13601990544028991 0.070558807743543422 0 -0.14566503906861619 0.09597096238202775 0 -0.13601990544028991 0.070558807743543422 0 -0.15380336285653881 0.075213570240376781 0 -0.13601990544028991 0.070558807743543422 0 -0.1503191421190844 0.053228741419763158 0 -0.13601990544028991 0.070558807743543422 0 -0.1263747718119636 0.045146653105059081 0 -0.13601990544028991 0.070558807743543422 0 -0.1263747718119636 0.045146653105059081 0 -0.1503191421190844 0.053228741419763158 0 -0.1263747718119636 0.045146653105059081 0 -0.13975310874396479 0.033515371632837659 0 -0.1226569289783727 0.027918965290285858 0 -0.1263747718119636 0.045146653105059081 0 -0.13975310874396479 0.033515371632837659 0 -0.1503191421190844 0.053228741419763158 0 -0.13975310874396479 0.033515371632837659 0 -0.1503191421190844 0.053228741419763158 0 -0.1573753169294673 0.026549981124480201 0 -0.1164388837083003 -0.0026345546631316862 0 -0.13211260120916571 -0.006208574162898362 0 -0.13690710031888381 0.01195771323067427 0 -0.1164388837083003 -0.0026345546631316862 0 -0.13690710031888381 0.01195771323067427 0 -0.13975310874396479 0.033515371632837659 0 -0.13690710031888381 0.01195771323067427 0 -0.1226569289783727 0.027918965290285858 0 -0.13690710031888381 0.01195771323067427 0 -0.119100077078059 0.0113822785190929 0 -0.1226569289783727 0.027918965290285858 0 -0.13690710031888381 0.01195771323067427 0 -0.1573753169294673 0.026549981124480201 0 -0.13690710031888381 0.01195771323067427 0 -0.15835162420705179 0.0087119178024780992 0 -0.1573753169294673 0.026549981124480201 0 -0.13975310874396479 0.033515371632837659 0 -0.13690710031888381 0.01195771323067427 0 -0.1573753169294673 0.026549981124480201 0 -0.1463954756695956 -0.0058153693874122246 0 -0.13690710031888381 0.01195771323067427 0 -0.15835162420705179 0.0087119178024780992 0 -0.16242646614593281 -0.0071964109301604576 0 -0.15835162420705179 0.0087119178024780992 0 -0.17341675758933661 0.0047366988330417251 0 -0.15835162420705179 0.0087119178024780992 0 -0.17209452390948671 0.01653063586105186 0 -0.17341675758933661 0.0047366988330417251 0 -0.15835162420705179 0.0087119178024780992 0 -0.1573753169294673 0.026549981124480201 0 -0.17209452390948671 0.01653063586105186 0 -0.1573753169294673 0.026549981124480201 0 -0.18058664112085951 0.026901407623794539 0 -0.17209452390948671 0.01653063586105186 0 -0.18058664112085951 0.026901407623794539 0 -0.182361801370159 0.014700691700443091 0 -0.19240517395585971 0.02320220996875685 0 -0.18058664112085951 0.026901407623794539 0 -0.17209452390948671 0.01653063586105186 0 -0.182361801370159 0.014700691700443091 0 -0.17209452390948671 0.01653063586105186 0 -0.182361801370159 0.014700691700443091 0 -0.17341675758933661 0.0047366988330417251 0 -0.182361801370159 0.014700691700443091 0 -0.17341675758933661 0.0047366988330417251 0 -0.1884722209359557 0.0015402469942710109 0 -0.1707267976927096 0.068345700503675874 0 -0.1503191421190844 0.053228741419763158 0 -0.1673837477761119 0.049550945336688107 0 -0.1503191421190844 0.053228741419763158 0 -0.1573753169294673 0.026549981124480201 0 -0.1673837477761119 0.049550945336688107 0 -0.1573753169294673 0.026549981124480201 0 -0.1673837477761119 0.049550945336688107 0 -0.17784353354005081 0.041142249018286073 0 -0.1573753169294673 0.026549981124480201 0 -0.17784353354005081 0.041142249018286073 0 -0.1573753169294673 0.026549981124480201 0 -0.18058664112085951 0.026901407623794539 0 -0.17784353354005081 0.041142249018286073 0 -0.18058664112085951 0.026901407623794539 0 -0.17784353354005081 0.041142249018286073 0 -0.18698720605841401 0.037726498666899942 0 -0.18058664112085951 0.026901407623794539 0 -0.18698720605841401 0.037726498666899942 0 -0.19229269648161951 0.030284862126969819 0 -0.17784353354005081 0.041142249018286073 0 -0.18065394859924719 0.058488054617235247 0 -0.1983117501506349 0.055734516912090817 0 -0.1707267976927096 0.068345700503675874 0 -0.1673837477761119 0.049550945336688107 0 -0.18065394859924719 0.058488054617235247 0 -0.1673837477761119 0.049550945336688107 0 -0.17784353354005081 0.041142249018286073 0 -0.18065394859924719 0.058488054617235247 0 -0.1983117501506349 0.055734516912090817 0 -0.19535846205324831 0.039468363440423662 0 -0.2052743871427419 0.046529018316259038 0 -0.1983117501506349 0.055734516912090817 0 -0.19535846205324831 0.039468363440423662 0 -0.17784353354005081 0.041142249018286073 0 -0.1983117501506349 0.055734516912090817 0 -0.18065394859924719 0.058488054617235247 0 -0.1983117501506349 0.055734516912090817 0 -0.18821481111929009 0.068542770659300478 0 -0.17784353354005081 0.041142249018286073 0 -0.18698720605841401 0.037726498666899942 0 -0.1983117501506349 0.055734516912090817 0 -0.19535846205324831 0.039468363440423662 0 -0.19240517395585971 0.02320220996875685 0 -0.18698720605841401 0.037726498666899942 0 -0.1983117501506349 0.055734516912090817 0 -0.19535846205324831 0.039468363440423662 0 -0.18698720605841401 0.037726498666899942 0 -0.19535846205324831 0.039468363440423662 0 -0.19229269648161951 0.030284862126969819 0 -0.19535846205324831 0.039468363440423662 0 -0.21171584130828819 0.038687388388554643 0 -0.20664067392704369 0.027100069308282859 0 -0.21171584130828819 0.038687388388554643 0 -0.20664067392704369 0.027100069308282859 0 -0.22602361709770091 0.032734658083066033 0 -0.2052743871427419 0.046529018316259038 0 -0.21171584130828819 0.038687388388554643 0 -0.2157114950587968 0.052225804523966003 0 -0.19535846205324831 0.039468363440423662 0 -0.2052743871427419 0.046529018316259038 0 -0.21171584130828819 0.038687388388554643 0 -0.21171584130828819 0.038687388388554643 0 -0.2157114950587968 0.052225804523966003 0 -0.22426384166699759 0.045720483761733897 0 -0.1983117501506349 0.055734516912090817 0 -0.2052743871427419 0.046529018316259038 0 -0.2157114950587968 0.052225804523966003 0 -0.1983117501506349 0.055734516912090817 0 -0.2157114950587968 0.052225804523966003 0 -0.2202386263203229 0.071366697146932931 0 -0.19284016040793381 -0.0041886765566805789 0 -0.19240517395585971 0.02320220996875685 0 -0.1884722209359557 0.0015402469942710109 0 -0.19240517395585971 0.02320220996875685 0 -0.19284016040793381 -0.0041886765566805789 0 -0.20084076352851871 -0.00020028152259580351 0 -0.2009087588340554 0.01224060768866086 0 -0.19284016040793381 -0.0041886765566805789 0 -0.1884722209359557 0.0015402469942710109 0 -0.19240517395585971 0.02320220996875685 0 -0.182361801370159 0.014700691700443091 0 -0.1884722209359557 0.0015402469942710109 0 -0.19240517395585971 0.02320220996875685 0 -0.19284016040793381 -0.0041886765566805789 0 -0.2009087588340554 0.01224060768866086 0 -0.19240517395585971 0.02320220996875685 0 -0.19535846205324831 0.039468363440423662 0 -0.19240517395585971 0.02320220996875685 0 -0.20664067392704369 0.027100069308282859 0 -0.19535846205324831 0.039468363440423662 0 -0.19240517395585971 0.02320220996875685 0 -0.19229269648161951 0.030284862126969819 0 -0.2009087588340554 0.01224060768866086 0 -0.19240517395585971 0.02320220996875685 0 -0.20664067392704369 0.027100069308282859 0 -0.18058664112085951 0.026901407623794539 0 -0.19240517395585971 0.02320220996875685 0 -0.19229269648161951 0.030284862126969819 0 -0.19240517395585971 0.02320220996875685 0 -0.19229269648161951 0.030284862126969819 0 -0.20664067392704369 0.027100069308282859 0 -0.21343219031310981 0.016267188280235122 0 -0.22602361709770091 0.032734658083066033 0 -0.2009087588340554 0.01224060768866086 0 -0.20664067392704369 0.027100069308282859 0 -0.21343219031310981 0.016267188280235122 0 -0.20084076352851871 -0.00020028152259580351 0 -0.21343219031310981 0.016267188280235122 0 -0.21437324906605321 0.0021701380236543101 0 -0.20084076352851871 -0.00020028152259580351 0 -0.21343219031310981 0.016267188280235122 0 -0.20084076352851871 -0.00020028152259580351 0 -0.2009087588340554 0.01224060768866086 0 -0.21343219031310981 0.016267188280235122 0 -0.21343219031310981 0.016267188280235122 0 -0.21437324906605321 0.0021701380236543101 0 -0.22341946018948841 0.0073469415472674372 0 -0.22346190016105291 -0.0051988592664399917 0 -0.22341946018948841 0.0073469415472674372 0 -0.23785897178045259 0.005694125113922267 0 -0.22346190016105291 -0.0051988592664399917 0 -0.21437324906605321 0.0021701380236543101 0 -0.22341946018948841 0.0073469415472674372 0 -0.21343219031310981 0.016267188280235122 0 -0.22341946018948841 0.0073469415472674372 0 -0.2279709896267734 0.017802115584965479 0 -0.22341946018948841 0.0073469415472674372 0 -0.2279709896267734 0.017802115584965479 0 -0.23785897178045259 0.005694125113922267 0 -0.21343219031310981 0.016267188280235122 0 -0.22602361709770091 0.032734658083066033 0 -0.21343219031310981 0.016267188280235122 0 -0.2279709896267734 0.017802115584965479 0 -0.22602361709770091 0.032734658083066033 0 -0.2279709896267734 0.017802115584965479 0 -0.23823700783137131 0.02744812649990986 0 -0.22602361709770091 0.032734658083066033 0 -0.25011764088669941 0.02697989722910352 0 -0.23823700783137131 0.02744812649990986 0 -0.23785897178045259 0.005694125113922267 0 -0.23823700783137131 0.02744812649990986 0 -0.23785897178045259 0.005694125113922267 0 -0.2279709896267734 0.017802115584965479 0 -0.23823700783137131 0.02744812649990986 0 -0.23785897178045259 0.005694125113922267 0 -0.25964700588814971 0.017813132509698529 0 -0.25011764088669941 0.02697989722910352 0 -0.23785897178045259 0.005694125113922267 0 -0.25011764088669941 0.02697989722910352 0 -0.23823700783137131 0.02744812649990986 0 -0.24639898478570879 0.038766985903960813 0 -0.24871960323422521 -0.0040779935892079214 0 -0.25964700588814971 0.017813132509698529 0 -0.23785897178045259 0.005694125113922267 0 -0.2157114950587968 0.052225804523966003 0 -0.22753319782584699 0.056097726584084177 0 -0.2202386263203229 0.071366697146932931 0 -0.22753319782584699 0.056097726584084177 0 -0.22426384166699759 0.045720483761733897 0 -0.23861504388229121 0.049202127885897493 0 -0.2157114950587968 0.052225804523966003 0 -0.22753319782584699 0.056097726584084177 0 -0.22426384166699759 0.045720483761733897 0 -0.22602361709770091 0.032734658083066033 0 -0.23861504388229121 0.049202127885897493 0 -0.23823700783137131 0.02744812649990986 0 -0.22602361709770091 0.032734658083066033 0 -0.23861504388229121 0.049202127885897493 0 -0.22426384166699759 0.045720483761733897 0 -0.22602361709770091 0.032734658083066033 0 -0.23861504388229121 0.049202127885897493 0 -0.21171584130828819 0.038687388388554643 0 -0.22426384166699759 0.045720483761733897 0 -0.22602361709770091 0.032734658083066033 0 -0.23823700783137131 0.02744812649990986 0 -0.24639898478570879 0.038766985903960813 0 -0.23861504388229121 0.049202127885897493 0 -0.23823700783137131 0.02744812649990986 0 -0.23861504388229121 0.049202127885897493 0 -0.24639898478570879 0.038766985903960813 0 -0.2478510699036621 0.047134690305077498 0 -0.23861504388229121 0.049202127885897493 0 -0.25299446161211869 0.068007989310433864 0 -0.2478510699036621 0.047134690305077498 0 -0.23861504388229121 0.049202127885897493 0 -0.25299446161211869 0.068007989310433864 0 -0.23861504388229121 0.049202127885897493 0 -0.25299446161211869 0.068007989310433864 0 -0.23861504388229121 0.049202127885897493 0 -0.24494090442466271 0.067277775370188364 0 -0.23861504388229121 0.049202127885897493 0 -0.2388369822008265 0.061973519601890639 0 -0.24494090442466271 0.067277775370188364 0 -0.22753319782584699 0.056097726584084177 0 -0.23861504388229121 0.049202127885897493 0 -0.2388369822008265 0.061973519601890639 0 -0.23861504388229121 0.049202127885897493 0 -0.2388369822008265 0.061973519601890639 0 -0.25299446161211869 0.068007989310433864 0 -0.2421655024900124 0.086998877381773004 0 -0.25299446161211869 0.068007989310433864 0 -0.24494090442466271 0.067277775370188364 0 -0.2421655024900124 0.086998877381773004 0 -0.2388369822008265 0.061973519601890639 0 -0.24494090442466271 0.067277775370188364 0 -0.2202386263203229 0.071366697146932931 0 -0.24494090442466271 0.067277775370188364 0 -0.2421655024900124 0.086998877381773004 0 -0.2202386263203229 0.071366697146932931 0 -0.25299446161211869 0.068007989310433864 0 -0.24975994144664779 0.09241312962791276 0 -0.2421655024900124 0.086998877381773004 0 -0.24975994144664779 0.09241312962791276 0 -0.2421655024900124 0.086998877381773004 0 -0.2421655024900124 0.086998877381773004 0 -0.22299547814652149 0.092323877471825425 0 -0.2202386263203229 0.071366697146932931 0 -0.22299547814652149 0.092323877471825425 0 -0.2202386263203229 0.071366697146932931 0 -0.2137466696328105 0.081494266939153764 0 -0.2421655024900124 0.086998877381773004 0 -0.2202386263203229 0.071366697146932931 0 -0.22753319782584699 0.056097726584084177 0 -0.2388369822008265 0.061973519601890639 0 -0.2202386263203229 0.071366697146932931 0 -0.2202386263203229 0.071366697146932931 0 -0.2137466696328105 0.081494266939153764 0 -0.20111845716046789 0.071193329417477247 0 -0.1983117501506349 0.055734516912090817 0 -0.2202386263203229 0.071366697146932931 0 -0.20111845716046789 0.071193329417477247 0 -0.1983117501506349 0.055734516912090817 0 -0.2202386263203229 0.071366697146932931 0 -0.22299547814652149 0.092323877471825425 0 -0.2137466696328105 0.081494266939153764 0 -0.2039251641702991 0.086652141922863996 0 -0.2137466696328105 0.081494266939153764 0 -0.2039251641702991 0.086652141922863996 0 -0.20111845716046789 0.071193329417477247 0 -0.18574028278353469 0.083012376857244274 0 -0.2039251641702991 0.086652141922863996 0 -0.19452300167293321 0.098926355950817502 0 -0.18574028278353469 0.083012376857244274 0 -0.2039251641702991 0.086652141922863996 0 -0.20111845716046789 0.071193329417477247 0 -0.2039251641702991 0.086652141922863996 0 -0.20111845716046789 0.071193329417477247 0 -0.18574028278353469 0.083012376857244274 0 -0.18821481111929009 0.068542770659300478 0 -0.20111845716046789 0.071193329417477247 0 -0.1983117501506349 0.055734516912090817 0 -0.20111845716046789 0.071193329417477247 0 -0.1983117501506349 0.055734516912090817 0 -0.18821481111929009 0.068542770659300478 0 -0.20111845716046789 0.071193329417477247 0 -0.1795921839691928 0.1137234297492036 0 -0.1958614891945708 0.11623984339433401 0 -0.19452300167293321 0.098926355950817502 0 -0.1958614891945708 0.11623984339433401 0 -0.2117988771352011 0.11698598412094641 0 -0.20079817369296671 0.13149764879812501 0 -0.1958614891945708 0.11623984339433401 0 -0.19452300167293321 0.098926355950817502 0 -0.2093787599965648 0.10321161373311449 0 -0.2039251641702991 0.086652141922863996 0 -0.19452300167293321 0.098926355950817502 0 -0.2093787599965648 0.10321161373311449 0 -0.22299547814652149 0.092323877471825425 0 -0.2039251641702991 0.086652141922863996 0 -0.2093787599965648 0.10321161373311449 0 -0.2093787599965648 0.10321161373311449 0 -0.2117988771352011 0.11698598412094641 0 -0.2277182301833405 0.11165108814713449 0 -0.1958614891945708 0.11623984339433401 0 -0.2093787599965648 0.10321161373311449 0 -0.2117988771352011 0.11698598412094641 0 -0.2277182301833405 0.11165108814713449 0 -0.23164498060561689 0.129762607256418 0 -0.2167983943909739 0.13038921856064339 0 -0.2117988771352011 0.11698598412094641 0 -0.2277182301833405 0.11165108814713449 0 -0.2167983943909739 0.13038921856064339 0 -0.2421655024900124 0.086998877381773004 0 -0.22299547814652149 0.092323877471825425 0 -0.2277182301833405 0.11165108814713449 0 -0.22299547814652149 0.092323877471825425 0 -0.2093787599965648 0.10321161373311449 0 -0.2277182301833405 0.11165108814713449 0 -0.2421655024900124 0.086998877381773004 0 -0.2277182301833405 0.11165108814713449 0 -0.24110869959886261 0.10474707174480311 0 -0.2421655024900124 0.086998877381773004 0 -0.2277182301833405 0.11165108814713449 0 -0.24975994144664779 0.09241312962791276 0 -0.2421655024900124 0.086998877381773004 0 -0.24110869959886261 0.10474707174480311 0 -0.24975994144664779 0.09241312962791276 0 -0.24624835654714189 0.118908782097218 0 -0.24975994144664779 0.09241312962791276 0 -0.24110869959886261 0.10474707174480311 0 -0.24624835654714189 0.118908782097218 0 -0.2277182301833405 0.11165108814713449 0 -0.24110869959886261 0.10474707174480311 0 -0.24624835654714189 0.118908782097218 0 -0.2277182301833405 0.11165108814713449 0 -0.24624835654714189 0.118908782097218 0 -0.23164498060561689 0.129762607256418 0 -0.25542207884081181 0.13240433245388311 0 -0.24624835654714189 0.118908782097218 0 -0.24273677164763449 0.14540443456652299 0 -0.24624835654714189 0.118908782097218 0 -0.24273677164763449 0.14540443456652299 0 -0.24624835654714189 0.118908782097218 0 -0.23164498060561689 0.129762607256418 0 -0.24273677164763449 0.14540443456652299 0 -0.23164498060561689 0.129762607256418 0 -0.22398504343634279 0.14605012953366561 0 -0.24273677164763449 0.14540443456652299 0 -0.23164498060561689 0.129762607256418 0 -0.22398504343634279 0.14605012953366561 0 -0.2167983943909739 0.13038921856064339 0 -0.22398504343634279 0.14605012953366561 0 -0.24273677164763449 0.14540443456652299 0 -0.22906380471203591 0.1639165192438268 0 -0.24273677164763449 0.14540443456652299 0 -0.23922518674812709 0.17190008703582821 0 -0.22906380471203591 0.1639165192438268 0 -0.24273677164763449 0.14540443456652299 0 -0.23922518674812709 0.17190008703582821 0 -0.25546120793328753 0.1602216454260274 0 -0.24273677164763449 0.14540443456652299 0 -0.23922518674812709 0.17190008703582821 0 -0.23922518674812709 0.17190008703582821 0 -0.24518116470478141 0.18644185592393681 0 -0.2247670362042716 0.18625267471951959 0 -0.25594996207948578 0.17584900181966229 0 -0.23922518674812709 0.17190008703582821 0 -0.24518116470478141 0.18644185592393681 0 -0.2247670362042716 0.18625267471951959 0 -0.22906380471203591 0.1639165192438268 0 -0.23922518674812709 0.17190008703582821 0 -0.2247670362042716 0.18625267471951959 0 -0.22906380471203591 0.1639165192438268 0 -0.2247670362042716 0.18625267471951959 0 -0.22906380471203591 0.1639165192438268 0 -0.21268851054470339 0.17574401312013749 0 -0.22398504343634279 0.14605012953366561 0 -0.22906380471203591 0.1639165192438268 0 -0.2118042391864445 0.16005253926636201 0 -0.2118042391864445 0.16005253926636201 0 -0.21268851054470339 0.17574401312013749 0 -0.20025494251714879 0.1727177853547591 0 -0.22906380471203591 0.1639165192438268 0 -0.2118042391864445 0.16005253926636201 0 -0.21268851054470339 0.17574401312013749 0 -0.2118042391864445 0.16005253926636201 0 -0.20025494251714879 0.1727177853547591 0 -0.19941856684663969 0.15916661497801821 0 -0.2247670362042716 0.18625267471951959 0 -0.21268851054470339 0.17574401312013749 0 -0.2132608162640402 0.19353841498064009 0 -0.21268851054470339 0.17574401312013749 0 -0.2132608162640402 0.19353841498064009 0 -0.20111808983135079 0.18761932268032239 0 -0.21268851054470339 0.17574401312013749 0 -0.20025494251714879 0.1727177853547591 0 -0.20111808983135079 0.18761932268032239 0 -0.20025494251714879 0.1727177853547591 0 -0.1909508272933878 0.18319904976806059 0 -0.20111808983135079 0.18761932268032239 0 -0.1909508272933878 0.18319904976806059 0 -0.18859066079248271 0.17109233724513551 0 -0.18409502334342931 0.18031023136216379 0 -0.20025494251714879 0.1727177853547591 0 -0.1909508272933878 0.18319904976806059 0 -0.18859066079248271 0.17109233724513551 0 -0.20025494251714879 0.1727177853547591 0 -0.19941856684663969 0.15916661497801821 0 -0.18859066079248271 0.17109233724513551 0 -0.19941856684663969 0.15916661497801821 0 -0.18859066079248271 0.17109233724513551 0 -0.1884889511422759 0.15763518517649019 0 -0.19941856684663969 0.15916661497801821 0 -0.1884889511422759 0.15763518517649019 0 -0.19572342493571049 0.14603368476039841 0 -0.1884889511422759 0.15763518517649019 0 -0.19572342493571049 0.14603368476039841 0 -0.1804750044254172 0.14733536669991401 0 -0.19941856684663969 0.15916661497801821 0 -0.19572342493571049 0.14603368476039841 0 -0.2091054619646357 0.14608493038727691 0 -0.19572342493571049 0.14603368476039841 0 -0.20079817369296671 0.13149764879812501 0 -0.2091054619646357 0.14608493038727691 0 -0.19572342493571049 0.14603368476039841 0 -0.20079817369296671 0.13149764879812501 0 -0.18159097272231961 0.13199034971662871 0 -0.1958614891945708 0.11623984339433401 0 -0.20079817369296671 0.13149764879812501 0 -0.18159097272231961 0.13199034971662871 0 -0.20079817369296671 0.13149764879812501 0 -0.2167983943909739 0.13038921856064339 0 -0.2091054619646357 0.14608493038727691 0 -0.2117988771352011 0.11698598412094641 0 -0.20079817369296671 0.13149764879812501 0 -0.2167983943909739 0.13038921856064339 0 -0.22398504343634279 0.14605012953366561 0 -0.2167983943909739 0.13038921856064339 0 -0.2091054619646357 0.14608493038727691 0 -0.22398504343634279 0.14605012953366561 0 -0.2118042391864445 0.16005253926636201 0 -0.2091054619646357 0.14608493038727691 0 -0.2118042391864445 0.16005253926636201 0 -0.19941856684663969 0.15916661497801821 0 -0.2091054619646357 0.14608493038727691 0 -0.22397017858154419 0.25378571841630942 0 -0.2321996903762493 0.23950935794921921 0 -0.21515534991013979 0.23621769356130559 0 -0.23890969400241849 0.2552092714717491 0 -0.22397017858154419 0.25378571841630942 0 -0.2321996903762493 0.23950935794921921 0 -0.25654248230236881 0.24794234615054991 0 -0.23890969400241849 0.2552092714717491 0 -0.2483469102368013 0.2416047250575018 0 -0.23890969400241849 0.2552092714717491 0 -0.2321996903762493 0.23950935794921921 0 -0.240055189693127 0.24401840520523091 0 -0.23890969400241849 0.2552092714717491 0 -0.240055189693127 0.24401840520523091 0 -0.2483469102368013 0.2416047250575018 0 -0.25011857251462483 0.23304199510033061 0 -0.2483469102368013 0.2416047250575018 0 -0.24274069265435169 0.23694240255342891 0 -0.240055189693127 0.24401840520523091 0 -0.2483469102368013 0.2416047250575018 0 -0.24274069265435169 0.23694240255342891 0 -0.2321996903762493 0.23950935794921921 0 -0.240055189693127 0.24401840520523091 0 -0.24274069265435169 0.23694240255342891 0 -0.25882139574064988 0.21558550992665179 0 -0.24326639008646531 0.22613502604473801 0 -0.23735533930248759 0.22399397738120519 0 -0.25882139574064988 0.21558550992665179 0 -0.23735533930248759 0.22399397738120519 0 -0.2321996903762493 0.23950935794921921 0 -0.24274069265435169 0.23694240255342891 0 -0.24326639008646531 0.22613502604473801 0 -0.25011857251462483 0.23304199510033061 0 -0.24274069265435169 0.23694240255342891 0 -0.24326639008646531 0.22613502604473801 0 -0.23735533930248759 0.22399397738120519 0 -0.2158892828643246 0.23240244483575631 0 -0.22549557478043319 0.22080588581245111 0 -0.2204702676965081 0.2085888301952126 0 -0.2158892828643246 0.23240244483575631 0 -0.24326639008646531 0.22613502604473801 0 -0.23735533930248759 0.22399397738120519 0 -0.21515534991013979 0.23621769356130559 0 -0.2321996903762493 0.23950935794921921 0 -0.24326639008646531 0.22613502604473801 0 -0.21515534991013979 0.23621769356130559 0 -0.23735533930248759 0.22399397738120519 0 -0.22549557478043319 0.22080588581245111 0 -0.2158892828643246 0.23240244483575631 0 -0.23735533930248759 0.22399397738120519 0 -0.22549557478043319 0.22080588581245111 0 -0.2332294022215585 0.2135648709852124 0 -0.23735533930248759 0.22399397738120519 0 -0.2158892828643246 0.23240244483575631 0 -0.21515534991013979 0.23621769356130559 0 -0.24326639008646531 0.22613502604473801 0 -0.21515534991013979 0.23621769356130559 0 -0.2204702676965081 0.2085888301952126 0 -0.2332294022215585 0.2135648709852124 0 -0.23957734648590101 0.2015340079429708 0 -0.2204702676965081 0.2085888301952126 0 -0.23957734648590101 0.2015340079429708 0 -0.22549557478043319 0.22080588581245111 0 -0.2204702676965081 0.2085888301952126 0 -0.2332294022215585 0.2135648709852124 0 -0.25882139574064988 0.21558550992665179 0 -0.23735533930248759 0.22399397738120519 0 -0.2445406685099486 0.2116846171743218 0 -0.23735533930248759 0.22399397738120519 0 -0.2332294022215585 0.2135648709852124 0 -0.2445406685099486 0.2116846171743218 0 -0.25290558257003232 0.2059153662565848 0 -0.2445406685099486 0.2116846171743218 0 -0.23957734648590101 0.2015340079429708 0 -0.2332294022215585 0.2135648709852124 0 -0.2445406685099486 0.2116846171743218 0 -0.23957734648590101 0.2015340079429708 0 -0.25868442527529367 0.1944791856907285 0 -0.24518116470478141 0.18644185592393681 0 -0.23957734648590101 0.2015340079429708 0 -0.25868442527529367 0.1944791856907285 0 -0.23957734648590101 0.2015340079429708 0 -0.24518116470478141 0.18644185592393681 0 -0.2247670362042716 0.18625267471951959 0 -0.23957734648590101 0.2015340079429708 0 -0.2247670362042716 0.18625267471951959 0 -0.2204702676965081 0.2085888301952126 0 -0.23957734648590101 0.2015340079429708 0 -0.2247670362042716 0.18625267471951959 0 -0.2204702676965081 0.2085888301952126 0 -0.2132608162640402 0.19353841498064009 0 -0.2247670362042716 0.18625267471951959 0 -0.2204702676965081 0.2085888301952126 0 -0.2204702676965081 0.2085888301952126 0 -0.2132608162640402 0.19353841498064009 0 -0.2038994572761873 0.2019846682879933 0 -0.2132608162640402 0.19353841498064009 0 -0.2038994572761873 0.2019846682879933 0 -0.20111808983135079 0.18761932268032239 0 -0.2038994572761873 0.2019846682879933 0 -0.20111808983135079 0.18761932268032239 0 -0.1876876999874163 0.19865763750281321 0 -0.1909508272933878 0.18319904976806059 0 -0.20111808983135079 0.18761932268032239 0 -0.1876876999874163 0.19865763750281321 0 -0.1876876999874163 0.19865763750281321 0 -0.19588708351280121 0.21766557063899369 0 -0.1813881098742485 0.21240685064485701 0 -0.2038994572761873 0.2019846682879933 0 -0.1876876999874163 0.19865763750281321 0 -0.19588708351280121 0.21766557063899369 0 -0.2204702676965081 0.2085888301952126 0 -0.2038994572761873 0.2019846682879933 0 -0.19588708351280121 0.21766557063899369 0 -0.2204702676965081 0.2085888301952126 0 -0.19588708351280121 0.21766557063899369 0 -0.20714092375015219 0.22333367657392131 0 -0.2204702676965081 0.2085888301952126 0 -0.19588708351280121 0.21766557063899369 0 -0.2204702676965081 0.2085888301952126 0 -0.2158892828643246 0.23240244483575631 0 -0.20714092375015219 0.22333367657392131 0 -0.2204702676965081 0.2085888301952126 0 -0.2158892828643246 0.23240244483575631 0 -0.2158892828643246 0.23240244483575631 0 -0.21515534991013979 0.23621769356130559 0 -0.2158892828643246 0.23240244483575631 0 -0.20714092375015219 0.22333367657392131 0 -0.20268522951721191 0.2351202423960736 0 -0.19588708351280121 0.21766557063899369 0 -0.20714092375015219 0.22333367657392131 0 -0.1916015466754461 0.22956543389250711 0 -0.19588708351280121 0.21766557063899369 0 -0.1916015466754461 0.22956543389250711 0 -0.18130803535289591 0.22469134199459051 0 -0.1916015466754461 0.22956543389250711 0 -0.19355739274210149 0.23586023291091751 0 -0.18879460437501441 0.23666147893406761 0 -0.20714092375015219 0.22333367657392131 0 -0.1916015466754461 0.22956543389250711 0 -0.20268522951721191 0.2351202423960736 0 -0.1916015466754461 0.22956543389250711 0 -0.20268522951721191 0.2351202423960736 0 -0.19355739274210149 0.23586023291091751 0 -0.20268522951721191 0.2351202423960736 0 -0.19355739274210149 0.23586023291091751 0 -0.1911481904007335 0.24209377642102189 0 -0.18934395671843121 0.24547554008917871 0 -0.21515534991013979 0.23621769356130559 0 -0.20205513456322161 0.25178325309228428 0 -0.18934395671843121 0.24547554008917871 0 -0.21515534991013979 0.23621769356130559 0 -0.1911481904007335 0.24209377642102189 0 -0.18934395671843121 0.24547554008917871 0 -0.21515534991013979 0.23621769356130559 0 -0.1911481904007335 0.24209377642102189 0 -0.18879460437501441 0.23666147893406761 0 -0.1835099813808144 0.23926379049406121 0 -0.19355739274210149 0.23586023291091751 0 -0.1911481904007335 0.24209377642102189 0 -0.18879460437501441 0.23666147893406761 0 -0.2158892828643246 0.23240244483575631 0 -0.1911481904007335 0.24209377642102189 0 -0.21515534991013979 0.23621769356130559 0 -0.2158892828643246 0.23240244483575631 0 -0.1911481904007335 0.24209377642102189 0 -0.2158892828643246 0.23240244483575631 0 -0.20268522951721191 0.2351202423960736 0 -0.1911481904007335 0.24209377642102189 0 -0.16640709793714159 0.25178510800628517 0 -0.15931663775898139 0.24502172656609611 0 -0.1454021730550242 0.2477900580711265 0 -0.15931663775898139 0.24502172656609611 0 -0.16442923684464661 0.23945794607268919 0 -0.16472786999155131 0.24524664662173731 0 -0.16640709793714159 0.25178510800628517 0 -0.15931663775898139 0.24502172656609611 0 -0.16472786999155131 0.24524664662173731 0 -0.16442923684464661 0.23945794607268919 0 -0.1616889273111683 0.23270687902957429 0 -0.15420330564601761 0.2366627919003565 0 -0.15931663775898139 0.24502172656609611 0 -0.16442923684464661 0.23945794607268919 0 -0.15420330564601761 0.2366627919003565 0 -0.16442923684464661 0.23945794607268919 0 -0.1687585074254358 0.2447218058418788 0 -0.17343714785970901 0.23914306330365639 0 -0.16442923684464661 0.23945794607268919 0 -0.17343714785970901 0.23914306330365639 0 -0.1700819097482682 0.23038945803389899 0 -0.16640709793714159 0.25178510800628517 0 -0.1687585074254358 0.2447218058418788 0 -0.17618547314287791 0.24445338700972469 0 -0.16442923684464661 0.23945794607268919 0 -0.1687585074254358 0.2447218058418788 0 -0.16472786999155131 0.24524664662173731 0 -0.16640709793714159 0.25178510800628517 0 -0.1687585074254358 0.2447218058418788 0 -0.16472786999155131 0.24524664662173731 0 -0.16640709793714159 0.25178510800628517 0 -0.1911481904007335 0.24209377642102189 0 -0.18934395671843121 0.24547554008917871 0 -0.16640709793714159 0.25178510800628517 0 -0.1911481904007335 0.24209377642102189 0 -0.17618547314287791 0.24445338700972469 0 -0.16640709793714159 0.25178510800628517 0 -0.1911481904007335 0.24209377642102189 0 -0.1687585074254358 0.2447218058418788 0 -0.17618547314287791 0.24445338700972469 0 -0.17343714785970901 0.23914306330365639 0 -0.1911481904007335 0.24209377642102189 0 -0.17618547314287791 0.24445338700972469 0 -0.1835099813808144 0.23926379049406121 0 -0.18879460437501441 0.23666147893406761 0 -0.1835099813808144 0.23926379049406121 0 -0.1812584987439313 0.23454156217529259 0 -0.1835099813808144 0.23926379049406121 0 -0.1812584987439313 0.23454156217529259 0 -0.17896818076631221 0.23949247172250351 0 -0.1812584987439313 0.23454156217529259 0 -0.17896818076631221 0.23949247172250351 0 -0.17343714785970901 0.23914306330365639 0 -0.1812584987439313 0.23454156217529259 0 -0.17343714785970901 0.23914306330365639 0 -0.1700819097482682 0.23038945803389899 0 -0.17618547314287791 0.24445338700972469 0 -0.17896818076631221 0.23949247172250351 0 -0.17343714785970901 0.23914306330365639 0 -0.17618547314287791 0.24445338700972469 0 -0.1835099813808144 0.23926379049406121 0 -0.17896818076631221 0.23949247172250351 0 -0.1812584987439313 0.23454156217529259 0 -0.18130803535289591 0.22469134199459051 0 -0.1700819097482682 0.23038945803389899 0 -0.1916015466754461 0.22956543389250711 0 -0.1812584987439313 0.23454156217529259 0 -0.18130803535289591 0.22469134199459051 0 -0.1916015466754461 0.22956543389250711 0 -0.18879460437501441 0.23666147893406761 0 -0.1812584987439313 0.23454156217529259 0 -0.18130803535289591 0.22469134199459051 0 -0.1700819097482682 0.23038945803389899 0 -0.17013986969931361 0.21716240338336931 0 -0.1700819097482682 0.23038945803389899 0 -0.1580412570057409 0.2243173201113525 0 -0.17013986969931361 0.21716240338336931 0 -0.16442923684464661 0.23945794607268919 0 -0.1700819097482682 0.23038945803389899 0 -0.1616889273111683 0.23270687902957429 0 -0.1700819097482682 0.23038945803389899 0 -0.1616889273111683 0.23270687902957429 0 -0.1580412570057409 0.2243173201113525 0 -0.1616889273111683 0.23270687902957429 0 -0.1580412570057409 0.2243173201113525 0 -0.15420330564601761 0.2366627919003565 0 -0.1580412570057409 0.2243173201113525 0 -0.158796983185609 0.20942353313562431 0 -0.17013986969931361 0.21716240338336931 0 -0.158796983185609 0.20942353313562431 0 -0.17013986969931361 0.21716240338336931 0 -0.17197066737214101 0.2039589054065343 0 -0.18130803535289591 0.22469134199459051 0 -0.17013986969931361 0.21716240338336931 0 -0.1813881098742485 0.21240685064485701 0 -0.1876876999874163 0.19865763750281321 0 -0.1813881098742485 0.21240685064485701 0 -0.17197066737214101 0.2039589054065343 0 -0.17013986969931361 0.21716240338336931 0 -0.1813881098742485 0.21240685064485701 0 -0.17197066737214101 0.2039589054065343 0 -0.19588708351280121 0.21766557063899369 0 -0.18130803535289591 0.22469134199459051 0 -0.1813881098742485 0.21240685064485701 0 -0.1876876999874163 0.19865763750281321 0 -0.17197066737214101 0.2039589054065343 0 -0.17463536916032921 0.19279524081048199 0 -0.1909508272933878 0.18319904976806059 0 -0.1876876999874163 0.19865763750281321 0 -0.18256860339873371 0.18844998172084559 0 -0.1876876999874163 0.19865763750281321 0 -0.18256860339873371 0.18844998172084559 0 -0.17463536916032921 0.19279524081048199 0 -0.17463536916032921 0.19279524081048199 0 -0.159487532468855 0.19422984572316099 0 -0.15654286632722131 0.17830820856867119 0 -0.17197066737214101 0.2039589054065343 0 -0.17463536916032921 0.19279524081048199 0 -0.159487532468855 0.19422984572316099 0 -0.158796983185609 0.20942353313562431 0 -0.17197066737214101 0.2039589054065343 0 -0.159487532468855 0.19422984572316099 0 -0.159487532468855 0.19422984572316099 0 -0.14647231503389441 0.2006428584962604 0 -0.14265021278802861 0.18478698062909979 0 -0.158796983185609 0.20942353313562431 0 -0.159487532468855 0.19422984572316099 0 -0.14647231503389441 0.2006428584962604 0 -0.14647231503389441 0.2006428584962604 0 -0.13044624474727001 0.19443587513216451 0 -0.14265021278802861 0.18478698062909979 0 -0.14647231503389441 0.2006428584962604 0 -0.13044624474727001 0.19443587513216451 0 -0.13713454689100879 0.2069443978596951 0 -0.13713454689100879 0.2069443978596951 0 -0.12558399385134261 0.21485380126813711 0 -0.1460356339315283 0.21784505654221839 0 -0.13044624474727001 0.19443587513216451 0 -0.13713454689100879 0.2069443978596951 0 -0.12558399385134261 0.21485380126813711 0 -0.158796983185609 0.20942353313562431 0 -0.14647231503389441 0.2006428584962604 0 -0.1460356339315283 0.21784505654221839 0 -0.14647231503389441 0.2006428584962604 0 -0.13713454689100879 0.2069443978596951 0 -0.1460356339315283 0.21784505654221839 0 -0.1580412570057409 0.2243173201113525 0 -0.158796983185609 0.20942353313562431 0 -0.1460356339315283 0.21784505654221839 0 -0.1580412570057409 0.2243173201113525 0 -0.1460356339315283 0.21784505654221839 0 -0.1432296446156531 0.2309138090761651 0 -0.1580412570057409 0.2243173201113525 0 -0.1432296446156531 0.2309138090761651 0 -0.15420330564601761 0.2366627919003565 0 -0.12558399385134261 0.21485380126813711 0 -0.1460356339315283 0.21784505654221839 0 -0.1432296446156531 0.2309138090761651 0 -0.12558399385134261 0.21485380126813711 0 -0.1432296446156531 0.2309138090761651 0 -0.12945881261479511 0.23576484522574839 0 -0.12482003396909221 0.25114211634600742 0 -0.12945881261479511 0.23576484522574839 0 -0.1454021730550242 0.2477900580711265 0 -0.1432296446156531 0.2309138090761651 0 -0.12945881261479511 0.23576484522574839 0 -0.1454021730550242 0.2477900580711265 0 -0.1432296446156531 0.2309138090761651 0 -0.1454021730550242 0.2477900580711265 0 -0.15420330564601761 0.2366627919003565 0 -0.15931663775898139 0.24502172656609611 0 -0.1454021730550242 0.2477900580711265 0 -0.15420330564601761 0.2366627919003565 0 -0.1553101726969425 0.1213831170205121 0 -0.1649553063252687 0.14679527165899639 0 -0.1553101726969425 0.1213831170205121 0 -0.1649553063252687 0.14679527165899639 0 -0.18159097272231961 0.13199034971662871 0 -0.19572342493571049 0.14603368476039841 0 -0.18159097272231961 0.13199034971662871 0 -0.1804750044254172 0.14733536669991401 0 -0.1649553063252687 0.14679527165899639 0 -0.18159097272231961 0.13199034971662871 0 -0.1804750044254172 0.14733536669991401 0 -0.1649553063252687 0.14679527165899639 0 -0.1804750044254172 0.14733536669991401 0 -0.17931245426605619 0.16153049089077681 0 -0.1884889511422759 0.15763518517649019 0 -0.1804750044254172 0.14733536669991401 0 -0.17931245426605619 0.16153049089077681 0 -0.1649553063252687 0.14679527165899639 0 -0.17931245426605619 0.16153049089077681 0 -0.17460043995359309 0.17220742629748159 0 -0.18859066079248271 0.17109233724513551 0 -0.1884889511422759 0.15763518517649019 0 -0.17931245426605619 0.16153049089077681 0 -0.18859066079248271 0.17109233724513551 0 -0.17931245426605619 0.16153049089077681 0 -0.18043285742659701 0.17521980900883949 0 -0.17931245426605619 0.16153049089077681 0 -0.18043285742659701 0.17521980900883949 0 -0.17460043995359309 0.17220742629748159 0 -0.18256860339873371 0.18844998172084559 0 -0.18409502334342931 0.18031023136216379 0 -0.177838878718863 0.18073978156195961 0 -0.1909508272933878 0.18319904976806059 0 -0.18256860339873371 0.18844998172084559 0 -0.18409502334342931 0.18031023136216379 0 -0.18859066079248271 0.17109233724513551 0 -0.18409502334342931 0.18031023136216379 0 -0.18043285742659701 0.17521980900883949 0 -0.18409502334342931 0.18031023136216379 0 -0.18043285742659701 0.17521980900883949 0 -0.177838878718863 0.18073978156195961 0 -0.18043285742659701 0.17521980900883949 0 -0.17460043995359309 0.17220742629748159 0 -0.177838878718863 0.18073978156195961 0 -0.17460043995359309 0.17220742629748159 0 -0.177838878718863 0.18073978156195961 0 -0.18043285742659701 0.17521980900883949 0 -0.17460043995359309 0.17220742629748159 0 -0.18256860339873371 0.18844998172084559 0 -0.17463536916032921 0.19279524081048199 0 -0.177838878718863 0.18073978156195961 0 -0.17463536916032921 0.19279524081048199 0 -0.15654286632722131 0.17830820856867119 0 -0.17460043995359309 0.17220742629748159 0 -0.177838878718863 0.18073978156195961 0 -0.15654286632722131 0.17830820856867119 0 -0.17463536916032921 0.19279524081048199 0 -0.177838878718863 0.18073978156195961 0 -0.15654286632722131 0.17830820856867119 0 -0.1649553063252687 0.14679527165899639 0 -0.17460043995359309 0.17220742629748159 0 -0.1649553063252687 0.14679527165899639 0 -0.17460043995359309 0.17220742629748159 0 -0.15048874591169351 0.15975398814606909 0 -0.17460043995359309 0.17220742629748159 0 -0.15654286632722131 0.17830820856867119 0 -0.15048874591169351 0.15975398814606909 0 -0.17460043995359309 0.17220742629748159 0 -0.15048874591169351 0.15975398814606909 0 -0.15654286632722131 0.17830820856867119 0 -0.13845036349411341 0.16382117632686041 0 -0.15654286632722131 0.17830820856867119 0 -0.15048874591169351 0.15975398814606909 0 -0.13845036349411341 0.16382117632686041 0 -0.159487532468855 0.19422984572316099 0 -0.15654286632722131 0.17830820856867119 0 -0.14265021278802861 0.18478698062909979 0 -0.15654286632722131 0.17830820856867119 0 -0.14265021278802861 0.18478698062909979 0 -0.13845036349411341 0.16382117632686041 0 -0.13044624474727001 0.19443587513216451 0 -0.14265021278802861 0.18478698062909979 0 -0.13029945384760061 0.17570738463773131 0 -0.13044624474727001 0.19443587513216451 0 -0.13029945384760061 0.17570738463773131 0 -0.12160897685208551 0.18404749467670031 0 -0.14265021278802861 0.18478698062909979 0 -0.13029945384760061 0.17570738463773131 0 -0.13845036349411341 0.16382117632686041 0 -0.13845036349411341 0.16382117632686041 0 -0.1203578606610054 0.1493341440850495 0 -0.15048874591169351 0.15975398814606909 0 -0.13845036349411341 0.16382117632686041 0 -0.12637705186979531 0.1473005499946542 0 -0.13845036349411341 0.16382117632686041 0 -0.1203578606610054 0.1493341440850495 0 -0.1236533737023901 0.16421824575173161 0 -0.13029945384760061 0.17570738463773131 0 -0.13845036349411341 0.16382117632686041 0 -0.1236533737023901 0.16421824575173161 0 -0.15048874591169351 0.15975398814606909 0 -0.12637705186979531 0.1473005499946542 0 -0.12637705186979531 0.1473005499946542 0 -0.13532261775112611 0.1419674705131525 0 -0.14486086892009831 0.14796125120115891 0 -0.15048874591169351 0.15975398814606909 0 -0.12637705186979531 0.1473005499946542 0 -0.14486086892009831 0.14796125120115891 0 -0.13845036349411341 0.16382117632686041 0 -0.12637705186979531 0.1473005499946542 0 -0.1203578606610054 0.1493341440850495 0 -0.12637705186979531 0.1473005499946542 0 -0.13532261775112611 0.1419674705131525 0 -0.1265249218498388 0.1393651257466289 0 -0.1649553063252687 0.14679527165899639 0 -0.14486086892009831 0.14796125120115891 0 -0.14572811450187781 0.13924533236717909 0 -0.1649553063252687 0.14679527165899639 0 -0.15048874591169351 0.15975398814606909 0 -0.14486086892009831 0.14796125120115891 0 -0.13532261775112611 0.1419674705131525 0 -0.14486086892009831 0.14796125120115891 0 -0.14572811450187781 0.13924533236717909 0 -0.1553101726969425 0.1213831170205121 0 -0.14572811450187781 0.13924533236717909 0 -0.14206377924227739 0.12910454724138831 0 -0.1553101726969425 0.1213831170205121 0 -0.1649553063252687 0.14679527165899639 0 -0.14572811450187781 0.13924533236717909 0 -0.13361982876037509 0.1219535430397881 0 -0.14206377924227739 0.12910454724138831 0 -0.13240587749365479 0.13359327159326961 0 -0.14572811450187781 0.13924533236717909 0 -0.14206377924227739 0.12910454724138831 0 -0.13240587749365479 0.13359327159326961 0 -0.13532261775112611 0.1419674705131525 0 -0.14572811450187781 0.13924533236717909 0 -0.13240587749365479 0.13359327159326961 0 -0.13240587749365479 0.13359327159326961 0 -0.1265249218498388 0.1393651257466289 0 -0.1235083858012498 0.13413809775764829 0 -0.13532261775112611 0.1419674705131525 0 -0.13240587749365479 0.13359327159326961 0 -0.1265249218498388 0.1393651257466289 0 -0.13361982876037509 0.1219535430397881 0 -0.13240587749365479 0.13359327159326961 0 -0.1214444573401622 0.12728216290200781 0 -0.13240587749365479 0.13359327159326961 0 -0.1214444573401622 0.12728216290200781 0 -0.1235083858012498 0.13413809775764829 0 -0.12637705186979531 0.1473005499946542 0 -0.11260104127055361 0.1357654415263613 0 -0.1022653578278972 0.13484711184323889 0 -0.1214444573401622 0.12728216290200781 0 -0.1173713101947414 0.1324667066775507 0 -0.1235083858012498 0.13413809775764829 0 -0.12637705186979531 0.1473005499946542 0 -0.11979536212785161 0.1379832218687847 0 -0.11260104127055361 0.1357654415263613 0 -0.1265249218498388 0.1393651257466289 0 -0.1235083858012498 0.13413809775764829 0 -0.11979536212785161 0.1379832218687847 0 -0.1173713101947414 0.1324667066775507 0 -0.1235083858012498 0.13413809775764829 0 -0.11979536212785161 0.1379832218687847 0 -0.1173713101947414 0.1324667066775507 0 -0.11979536212785161 0.1379832218687847 0 -0.11260104127055361 0.1357654415263613 0 -0.1173713101947414 0.1324667066775507 0 -0.11260104127055361 0.1357654415263613 0 -0.11129793322579611 0.12748736889432141 0 -0.11260104127055361 0.1357654415263613 0 -0.11129793322579611 0.12748736889432141 0 -0.1066919498600683 0.13120070879856921 0 -0.1214444573401622 0.12728216290200781 0 -0.1173713101947414 0.1324667066775507 0 -0.11129793322579611 0.12748736889432141 0 -0.10263198623825209 0.12596706354981521 0 -0.1066919498600683 0.13120070879856921 0 -0.1022653578278972 0.13484711184323889 0 -0.11129793322579611 0.12748736889432141 0 -0.10263198623825209 0.12596706354981521 0 -0.1066919498600683 0.13120070879856921 0 -0.11260104127055361 0.1357654415263613 0 -0.1066919498600683 0.13120070879856921 0 -0.1022653578278972 0.13484711184323889 0 -0.1022653578278972 0.13484711184323889 0 -0.1001698352258517 0.1337647963048072 0 -0.098924838288180036 0.13874507237142131 0 -0.098924838288180036 0.13874507237142131 0 -0.09513392992680475 0.14447825062686831 0 -0.091086862077997516 0.1361839127637125 0 -0.1022653578278972 0.13484711184323889 0 -0.098924838288180036 0.13874507237142131 0 -0.1013602026766719 0.14349959920351099 0 -0.1001698352258517 0.1337647963048072 0 -0.098924838288180036 0.13874507237142131 0 -0.091086862077997516 0.1361839127637125 0 -0.1022653578278972 0.13484711184323889 0 -0.1001698352258517 0.1337647963048072 0 -0.1001698352258517 0.1337647963048072 0 -0.092292959037032093 0.1268620108240977 0 -0.091086862077997516 0.1361839127637125 0 -0.10263198623825209 0.12596706354981521 0 -0.1022653578278972 0.13484711184323889 0 -0.092292959037032093 0.1268620108240977 0 -0.1022653578278972 0.13484711184323889 0 -0.1001698352258517 0.1337647963048072 0 -0.092292959037032093 0.1268620108240977 0 -0.1022653578278972 0.13484711184323889 0 -0.092292959037032093 0.1268620108240977 0 -0.09513392992680475 0.14447825062686831 0 -0.1023387457679211 0.15329661930595151 0 -0.084559492351014551 0.1582248907416422 0 -0.09513392992680475 0.14447825062686831 0 -0.1013602026766719 0.14349959920351099 0 -0.1023387457679211 0.15329661930595151 0 -0.098924838288180036 0.13874507237142131 0 -0.09513392992680475 0.14447825062686831 0 -0.1013602026766719 0.14349959920351099 0 -0.1022653578278972 0.13484711184323889 0 -0.1013602026766719 0.14349959920351099 0 -0.10813814157255611 0.14613094187007489 0 -0.1013602026766719 0.14349959920351099 0 -0.10813814157255611 0.14613094187007489 0 -0.1023387457679211 0.15329661930595151 0 -0.10813814157255611 0.14613094187007489 0 -0.1023387457679211 0.15329661930595151 0 -0.1109709029617853 0.15195257073080229 0 -0.1023387457679211 0.15329661930595151 0 -0.1109709029617853 0.15195257073080229 0 -0.1130488638456584 0.15904857766213351 0 -0.12637705186979531 0.1473005499946542 0 -0.1022653578278972 0.13484711184323889 0 -0.10813814157255611 0.14613094187007489 0 -0.1109709029617853 0.15195257073080229 0 -0.1203578606610054 0.1493341440850495 0 -0.12637705186979531 0.1473005499946542 0 -0.1022653578278972 0.13484711184323889 0 -0.1203578606610054 0.1493341440850495 0 -0.1022653578278972 0.13484711184323889 0 -0.10813814157255611 0.14613094187007489 0 -0.1203578606610054 0.1493341440850495 0 -0.1022653578278972 0.13484711184323889 0 -0.1203578606610054 0.1493341440850495 0 -0.1109709029617853 0.15195257073080229 0 -0.1203578606610054 0.1493341440850495 0 -0.1130488638456584 0.15904857766213351 0 -0.12637705186979531 0.1473005499946542 0 -0.1265249218498388 0.1393651257466289 0 -0.11979536212785161 0.1379832218687847 0 -0.1203578606610054 0.1493341440850495 0 -0.1236533737023901 0.16421824575173161 0 -0.1130488638456584 0.15904857766213351 0 -0.1236533737023901 0.16421824575173161 0 -0.1130488638456584 0.15904857766213351 0 -0.1161103266635726 0.17317994604688319 0 -0.13029945384760061 0.17570738463773131 0 -0.1236533737023901 0.16421824575173161 0 -0.1161103266635726 0.17317994604688319 0 -0.1130488638456584 0.15904857766213351 0 -0.1161103266635726 0.17317994604688319 0 -0.1017914103648942 0.1692805437915709 0 -0.12160897685208551 0.18404749467670031 0 -0.1161103266635726 0.17317994604688319 0 -0.1111724284850725 0.19124972311272059 0 -0.1161103266635726 0.17317994604688319 0 -0.1017914103648942 0.1692805437915709 0 -0.1111724284850725 0.19124972311272059 0 -0.13029945384760061 0.17570738463773131 0 -0.12160897685208551 0.18404749467670031 0 -0.1161103266635726 0.17317994604688319 0 -0.1017914103648942 0.1692805437915709 0 -0.093037644125396349 0.1827630331987242 0 -0.1111724284850725 0.19124972311272059 0 -0.1023387457679211 0.15329661930595151 0 -0.1017914103648942 0.1692805437915709 0 -0.084559492351014551 0.1582248907416422 0 -0.1023387457679211 0.15329661930595151 0 -0.1130488638456584 0.15904857766213351 0 -0.1017914103648942 0.1692805437915709 0 -0.084559492351014551 0.1582248907416422 0 -0.093037644125396349 0.1827630331987242 0 -0.084559492351014551 0.1582248907416422 0 -0.093037644125396349 0.1827630331987242 0 -0.063758287550489581 0.17193419933046999 0 -0.1017914103648942 0.1692805437915709 0 -0.084559492351014551 0.1582248907416422 0 -0.093037644125396349 0.1827630331987242 0 -0.093037644125396349 0.1827630331987242 0 -0.063758287550489581 0.17193419933046999 0 -0.073022406118837702 0.19147888340436081 0 -0.084559492351014551 0.1582248907416422 0 -0.063758287550489581 0.17193419933046999 0 -0.063401657483579746 0.1527427668626464 0 -0.063401657483579746 0.1527427668626464 0 -0.067040637682532267 0.13797898721626739 0 -0.08020003685522141 0.14248017260793491 0 -0.084559492351014551 0.1582248907416422 0 -0.063401657483579746 0.1527427668626464 0 -0.08020003685522141 0.14248017260793491 0 -0.067040637682532267 0.13797898721626739 0 -0.079381379906787328 0.12993044542930579 0 -0.062630011076309791 0.1245626149850222 0 -0.067040637682532267 0.13797898721626739 0 -0.079381379906787328 0.12993044542930579 0 -0.08020003685522141 0.14248017260793491 0 -0.079381379906787328 0.12993044542930579 0 -0.091086862077997516 0.1361839127637125 0 -0.08020003685522141 0.14248017260793491 0 -0.079381379906787328 0.12993044542930579 0 -0.092292959037032093 0.1268620108240977 0 -0.08533419384970671 0.118210476897721 0 -0.079381379906787328 0.12993044542930579 0 -0.092292959037032093 0.1268620108240977 0 -0.091086862077997516 0.1361839127637125 0 -0.09513392992680475 0.14447825062686831 0 -0.084559492351014551 0.1582248907416422 0 -0.08020003685522141 0.14248017260793491 0 -0.09513392992680475 0.14447825062686831 0 -0.091086862077997516 0.1361839127637125 0 -0.08020003685522141 0.14248017260793491 0 -0.106741559260951 0.25317723186649882 0 -0.095237997476510378 0.24369107460290629 0 -0.1099939476741599 0.23183931811288841 0 -0.12482003396909221 0.25114211634600742 0 -0.12945881261479511 0.23576484522574839 0 -0.1099939476741599 0.23183931811288841 0 -0.106741559260951 0.25317723186649882 0 -0.12482003396909221 0.25114211634600742 0 -0.1099939476741599 0.23183931811288841 0 -0.12558399385134261 0.21485380126813711 0 -0.12945881261479511 0.23576484522574839 0 -0.1099939476741599 0.23183931811288841 0 -0.1099939476741599 0.23183931811288841 0 -0.10151579589977811 0.2073011756558063 0 -0.1099939476741599 0.23183931811288841 0 -0.094888819318896395 0.22583766269023911 0 -0.10151579589977811 0.2073011756558063 0 -0.095237997476510378 0.24369107460290629 0 -0.1099939476741599 0.23183931811288841 0 -0.094888819318896395 0.22583766269023911 0 -0.12558399385134261 0.21485380126813711 0 -0.1099939476741599 0.23183931811288841 0 -0.10151579589977811 0.2073011756558063 0 -0.12558399385134261 0.21485380126813711 0 -0.10151579589977811 0.2073011756558063 0 -0.1111724284850725 0.19124972311272059 0 -0.13044624474727001 0.19443587513216451 0 -0.12558399385134261 0.21485380126813711 0 -0.1111724284850725 0.19124972311272059 0 -0.13044624474727001 0.19443587513216451 0 -0.12160897685208551 0.18404749467670031 0 -0.1111724284850725 0.19124972311272059 0 -0.093037644125396349 0.1827630331987242 0 -0.10151579589977811 0.2073011756558063 0 -0.093037644125396349 0.1827630331987242 0 -0.10151579589977811 0.2073011756558063 0 -0.1111724284850725 0.19124972311272059 0 -0.093037644125396349 0.1827630331987242 0 -0.10151579589977811 0.2073011756558063 0 -0.082519620990881823 0.20747606339703839 0 -0.093037644125396349 0.1827630331987242 0 -0.073022406118837702 0.19147888340436081 0 -0.082519620990881823 0.20747606339703839 0 -0.073022406118837702 0.19147888340436081 0 -0.06506185308766399 0.21365652306356411 0 -0.082519620990881823 0.20747606339703839 0 -0.06506185308766399 0.21365652306356411 0 -0.082519620990881823 0.20747606339703839 0 -0.08062013746235136 0.22333044650832171 0 -0.094888819318896395 0.22583766269023911 0 -0.10151579589977811 0.2073011756558063 0 -0.082519620990881823 0.20747606339703839 0 -0.094888819318896395 0.22583766269023911 0 -0.082519620990881823 0.20747606339703839 0 -0.08062013746235136 0.22333044650832171 0 -0.094888819318896395 0.22583766269023911 0 -0.08062013746235136 0.22333044650832171 0 -0.086874582401073666 0.23691649088446509 0 -0.08062013746235136 0.22333044650832171 0 -0.072941270838342273 0.23386501287931921 0 -0.086874582401073666 0.23691649088446509 0 -0.06506185308766399 0.21365652306356411 0 -0.08062013746235136 0.22333044650832171 0 -0.072941270838342273 0.23386501287931921 0 -0.06506185308766399 0.21365652306356411 0 -0.072941270838342273 0.23386501287931921 0 -0.05839565208599802 0.23357745602924579 0 -0.072941270838342273 0.23386501287931921 0 -0.069537723428715045 0.2468571884197622 0 -0.079578574683255493 0.24463728753288169 0 -0.069537723428715045 0.2468571884197622 0 -0.060155289290419377 0.2492581413369018 0 -0.05839565208599802 0.23357745602924579 0 -0.072941270838342273 0.23386501287931921 0 -0.069537723428715045 0.2468571884197622 0 -0.05839565208599802 0.23357745602924579 0 -0.069477213224122786 0.25212352833607982 0 -0.069537723428715045 0.2468571884197622 0 -0.060155289290419377 0.2492581413369018 0 -0.069537723428715045 0.2468571884197622 0 -0.075135886009683822 0.24985715318892979 0 -0.079578574683255493 0.24463728753288169 0 -0.069477213224122786 0.25212352833607982 0 -0.069537723428715045 0.2468571884197622 0 -0.075135886009683822 0.24985715318892979 0 -0.079065520241485915 0.25100537302428427 0 -0.075135886009683822 0.24985715318892979 0 -0.079578574683255493 0.24463728753288169 0 -0.079065520241485915 0.25100537302428427 0 -0.08302872548390651 0.2477917532394508 0 -0.079578574683255493 0.24463728753288169 0 -0.079578574683255493 0.24463728753288169 0 -0.086874582401073666 0.23691649088446509 0 -0.087228769182096988 0.2454296397846242 0 -0.095237997476510378 0.24369107460290629 0 -0.094888819318896395 0.22583766269023911 0 -0.086874582401073666 0.23691649088446509 0 -0.085617799105924666 0.25069469890180152 0 -0.079065520241485915 0.25100537302428427 0 -0.08302872548390651 0.2477917532394508 0 -0.085617799105924666 0.25069469890180152 0 -0.08302872548390651 0.2477917532394508 0 -0.087228769182096988 0.2454296397846242 0 -0.08302872548390651 0.2477917532394508 0 -0.079578574683255493 0.24463728753288169 0 -0.087228769182096988 0.2454296397846242 0 -0.072941270838342273 0.23386501287931921 0 -0.079578574683255493 0.24463728753288169 0 -0.086874582401073666 0.23691649088446509 0 -0.095237997476510378 0.24369107460290629 0 -0.086874582401073666 0.23691649088446509 0 -0.087228769182096988 0.2454296397846242 0 -0.089439320898220445 0.25230245455238071 0 -0.095237997476510378 0.24369107460290629 0 -0.087228769182096988 0.2454296397846242 0 -0.089439320898220445 0.25230245455238071 0 -0.085617799105924666 0.25069469890180152 0 -0.087228769182096988 0.2454296397846242 0 -0.036353893942215387 0.25409255585965079 0 -0.044594207894327727 0.24188732741784091 0 -0.02669427707948294 0.2354072287128694 0 -0.044594207894327727 0.24188732741784091 0 -0.060155289290419377 0.2492581413369018 0 -0.05839565208599802 0.23357745602924579 0 -0.050473894944840447 0.25505037615492249 0 -0.044594207894327727 0.24188732741784091 0 -0.060155289290419377 0.2492581413369018 0 -0.044594207894327727 0.24188732741784091 0 -0.05839565208599802 0.23357745602924579 0 -0.040675237428534711 0.21919648296566299 0 -0.06506185308766399 0.21365652306356411 0 -0.05839565208599802 0.23357745602924579 0 -0.040675237428534711 0.21919648296566299 0 -0.044594207894327727 0.24188732741784091 0 -0.040675237428534711 0.21919648296566299 0 -0.02669427707948294 0.2354072287128694 0 -0.040675237428534711 0.21919648296566299 0 -0.049341230262196917 0.19298447432292401 0 -0.020989828587536109 0.19900122955018179 0 -0.06506185308766399 0.21365652306356411 0 -0.040675237428534711 0.21919648296566299 0 -0.049341230262196917 0.19298447432292401 0 -0.073022406118837702 0.19147888340436081 0 -0.06506185308766399 0.21365652306356411 0 -0.049341230262196917 0.19298447432292401 0 -0.049341230262196917 0.19298447432292401 0 -0.020989828587536109 0.19900122955018179 0 -0.032550568855158578 0.1755723959300344 0 -0.020989828587536109 0.19900122955018179 0 -0.00032704064368648152 0.20092765530983911 0 -0.011524073589518499 0.1853379986820565 0 -0.00032704064368648152 0.20092765530983911 0 -0.011524073589518499 0.1853379986820565 0 0.0050868312892222364 0.18473613943969669 0 -0.020989828587536109 0.19900122955018179 0 -0.00032704064368648152 0.20092765530983911 0 -0.010229013725809449 0.2114805006895886 0 -0.00032704064368648152 0.20092765530983911 0 -0.010229013725809449 0.2114805006895886 0 0.00083036861321999231 0.2187159905759983 0 -0.010229013725809449 0.2114805006895886 0 -0.01185758420296181 0.2233384842517997 0 0.00083036861321999231 0.2187159905759983 0 -0.010229013725809449 0.2114805006895886 0 -0.02172289027739337 0.21801970967309339 0 -0.01185758420296181 0.2233384842517997 0 -0.020989828587536109 0.19900122955018179 0 -0.010229013725809449 0.2114805006895886 0 -0.02172289027739337 0.21801970967309339 0 -0.040675237428534711 0.21919648296566299 0 -0.020989828587536109 0.19900122955018179 0 -0.02172289027739337 0.21801970967309339 0 -0.02172289027739337 0.21801970967309339 0 -0.01185758420296181 0.2233384842517997 0 -0.02669427707948294 0.2354072287128694 0 -0.040675237428534711 0.21919648296566299 0 -0.02172289027739337 0.21801970967309339 0 -0.02669427707948294 0.2354072287128694 0 -0.01185758420296181 0.2233384842517997 0 -0.00293306177999853 0.23436927456393361 0 0.00083036861321999231 0.2187159905759983 0 -0.01185758420296181 0.2233384842517997 0 -0.00293306177999853 0.23436927456393361 0 -0.02669427707948294 0.2354072287128694 0 -0.001870537191094847 0.24783164157960649 0 -0.02669427707948294 0.2354072287128694 0 -0.00293306177999853 0.23436927456393361 0 -0.001870537191094847 0.24783164157960649 0 -0.02669427707948294 0.2354072287128694 0 -0.036353893942215387 0.25409255585965079 0 -0.020936654409663649 0.25565986487002079 0 -0.02669427707948294 0.2354072287128694 0 -0.020936654409663649 0.25565986487002079 0 -0.001870537191094847 0.24783164157960649 0 -0.02669427707948294 0.2354072287128694 0 -0.044405265253283588 0.1555705856821849 0 -0.025742893971642741 0.15690058726030459 0 -0.028299520307720889 0.13651348068026289 0 -0.044405265253283588 0.1555705856821849 0 -0.0498238959938627 0.13603829983738211 0 -0.028299520307720889 0.13651348068026289 0 -0.0498238959938627 0.13603829983738211 0 -0.035685597279641511 0.1232101454770458 0 -0.049315046776544698 0.12004394075435521 0 -0.0498238959938627 0.13603829983738211 0 -0.028299520307720889 0.13651348068026289 0 -0.035685597279641511 0.1232101454770458 0 -0.0498238959938627 0.13603829983738211 0 -0.049315046776544698 0.12004394075435521 0 -0.062630011076309791 0.1245626149850222 0 -0.067040637682532267 0.13797898721626739 0 -0.0498238959938627 0.13603829983738211 0 -0.062630011076309791 0.1245626149850222 0 -0.063401657483579746 0.1527427668626464 0 -0.044405265253283588 0.1555705856821849 0 -0.0498238959938627 0.13603829983738211 0 -0.063401657483579746 0.1527427668626464 0 -0.067040637682532267 0.13797898721626739 0 -0.0498238959938627 0.13603829983738211 0 -0.063758287550489581 0.17193419933046999 0 -0.063401657483579746 0.1527427668626464 0 -0.044405265253283588 0.1555705856821849 0 -0.063758287550489581 0.17193419933046999 0 -0.044405265253283588 0.1555705856821849 0 -0.032550568855158578 0.1755723959300344 0 -0.063758287550489581 0.17193419933046999 0 -0.049341230262196917 0.19298447432292401 0 -0.032550568855158578 0.1755723959300344 0 -0.063758287550489581 0.17193419933046999 0 -0.073022406118837702 0.19147888340436081 0 -0.049341230262196917 0.19298447432292401 0 -0.044405265253283588 0.1555705856821849 0 -0.032550568855158578 0.1755723959300344 0 -0.025742893971642741 0.15690058726030459 0 -0.025742893971642741 0.15690058726030459 0 -0.01182244635478462 0.16871887207651151 0 -0.01163666908726602 0.1481276019325293 0 -0.032550568855158578 0.1755723959300344 0 -0.025742893971642741 0.15690058726030459 0 -0.01182244635478462 0.16871887207651151 0 -0.020989828587536109 0.19900122955018179 0 -0.032550568855158578 0.1755723959300344 0 -0.011524073589518499 0.1853379986820565 0 -0.032550568855158578 0.1755723959300344 0 -0.011524073589518499 0.1853379986820565 0 -0.01182244635478462 0.16871887207651151 0 -0.01182244635478462 0.16871887207651151 0 0.0050868312892222364 0.18473613943969669 0 -0.011524073589518499 0.1853379986820565 0 -0.01182244635478462 0.16871887207651151 0 0.0050868312892222364 0.18473613943969669 0 -0.01182244635478462 0.16871887207651151 0 -0.00076182537475621168 0.15719379457848731 0 0.0069045787573830172 0.16849366816182459 0 -0.01182244635478462 0.16871887207651151 0 -0.00076182537475621168 0.15719379457848731 0 -0.01163666908726602 0.1481276019325293 0 -0.00076182537475621168 0.15719379457848731 0 -0.01163666908726602 0.1481276019325293 0 0.0020428085558040188 0.1450709179257999 0 -0.025742893971642741 0.15690058726030459 0 -0.01163666908726602 0.1481276019325293 0 -0.028299520307720889 0.13651348068026289 0 -0.028299520307720889 0.13651348068026289 0 -0.023058943144215919 0.1161081498428149 0 -0.035685597279641511 0.1232101454770458 0 -0.028299520307720889 0.13651348068026289 0 -0.0050375264990141569 0.12530600595019351 0 -0.023058943144215919 0.1161081498428149 0 -0.01163666908726602 0.1481276019325293 0 -0.028299520307720889 0.13651348068026289 0 -0.0050375264990141569 0.12530600595019351 0 -0.01163666908726602 0.1481276019325293 0 -0.0050375264990141569 0.12530600595019351 0 0.0020428085558040188 0.1450709179257999 0 -0.0050375264990141569 0.12530600595019351 0 -0.0090199445797101638 0.1087111402102368 0 0.0044285672517181754 0.1088793736060132 0 -0.0050375264990141569 0.12530600595019351 0 -0.0090199445797101638 0.1087111402102368 0 -0.023058943144215919 0.1161081498428149 0 -0.00046628846821422692 0.095155713336249392 0 -0.0090199445797101638 0.1087111402102368 0 0.0044285672517181754 0.1088793736060132 0 -0.00046628846821422692 0.095155713336249392 0 -0.0090199445797101638 0.1087111402102368 0 -0.017162040810729341 0.097963785366407222 0 -0.017162040810729341 0.097963785366407222 0 -0.026783298840847309 0.08269253609912694 0 -0.037647099752199591 0.1048553111858247 0 -0.017162040810729341 0.097963785366407222 0 -0.023058943144215919 0.1161081498428149 0 -0.037647099752199591 0.1048553111858247 0 -0.0090199445797101638 0.1087111402102368 0 -0.017162040810729341 0.097963785366407222 0 -0.023058943144215919 0.1161081498428149 0 -0.015120225059927659 0.068539564674947359 0 -0.0074792185064934506 0.081781337360821604 0 0.0032726508152374802 0.065830254100784247 0 -0.00046628846821422692 0.095155713336249392 0 -0.017162040810729341 0.097963785366407222 0 -0.0074792185064934506 0.081781337360821604 0 -0.00046628846821422692 0.095155713336249392 0 -0.0074792185064934506 0.081781337360821604 0 0.0078257750999893416 0.084157712595329018 0 -0.017162040810729341 0.097963785366407222 0 -0.0074792185064934506 0.081781337360821604 0 -0.026783298840847309 0.08269253609912694 0 -0.015120225059927659 0.068539564674947359 0 -0.0074792185064934506 0.081781337360821604 0 -0.026783298840847309 0.08269253609912694 0 -0.026783298840847309 0.08269253609912694 0 -0.032786094020039611 0.059166813708666541 0 -0.015120225059927659 0.068539564674947359 0 -0.026783298840847309 0.08269253609912694 0 -0.032786094020039611 0.059166813708666541 0 -0.026783298840847309 0.08269253609912694 0 -0.040860890600635878 0.072433519202265761 0 -0.032786094020039611 0.059166813708666541 0 -0.026783298840847309 0.08269253609912694 0 -0.040860890600635878 0.072433519202265761 0 -0.052290752112962711 0.086625253977788336 0 -0.026783298840847309 0.08269253609912694 0 -0.052290752112962711 0.086625253977788336 0 -0.037647099752199591 0.1048553111858247 0 -0.040860890600635878 0.072433519202265761 0 -0.052290752112962711 0.086625253977788336 0 -0.055364061708154937 0.065649614356981897 0 -0.052290752112962711 0.086625253977788336 0 -0.055364061708154937 0.065649614356981897 0 -0.072696055669198734 0.072637007182587685 0 -0.040860890600635878 0.072433519202265761 0 -0.055364061708154937 0.065649614356981897 0 -0.046887228511421297 0.05174784996231159 0 -0.023058943144215919 0.1161081498428149 0 -0.035685597279641511 0.1232101454770458 0 -0.037647099752199591 0.1048553111858247 0 -0.035685597279641511 0.1232101454770458 0 -0.037647099752199591 0.1048553111858247 0 -0.049315046776544698 0.12004394075435521 0 -0.052290752112962711 0.086625253977788336 0 -0.037647099752199591 0.1048553111858247 0 -0.057425178898765528 0.1075586368420326 0 -0.052290752112962711 0.086625253977788336 0 -0.057425178898765528 0.1075586368420326 0 -0.071301158166813747 0.095326725550790609 0 -0.037647099752199591 0.1048553111858247 0 -0.057425178898765528 0.1075586368420326 0 -0.049315046776544698 0.12004394075435521 0 -0.057425178898765528 0.1075586368420326 0 -0.049315046776544698 0.12004394075435521 0 -0.062630011076309791 0.1245626149850222 0 -0.057425178898765528 0.1075586368420326 0 -0.062630011076309791 0.1245626149850222 0 -0.071955316471951691 0.113614906219746 0 -0.079381379906787328 0.12993044542930579 0 -0.062630011076309791 0.1245626149850222 0 -0.071955316471951691 0.113614906219746 0 -0.079381379906787328 0.12993044542930579 0 -0.071955316471951691 0.113614906219746 0 -0.08533419384970671 0.118210476897721 0 -0.071955316471951691 0.113614906219746 0 -0.08533419384970671 0.118210476897721 0 -0.086388838573301402 0.1048998065267857 0 -0.08533419384970671 0.118210476897721 0 -0.086388838573301402 0.1048998065267857 0 -0.096652475259461079 0.1157452154886697 0 -0.092292959037032093 0.1268620108240977 0 -0.08533419384970671 0.118210476897721 0 -0.096652475259461079 0.1157452154886697 0 -0.086388838573301402 0.1048998065267857 0 -0.071301158166813747 0.095326725550790609 0 -0.087232861120725175 0.085895022944261698 0 -0.057425178898765528 0.1075586368420326 0 -0.071955316471951691 0.113614906219746 0 -0.071301158166813747 0.095326725550790609 0 -0.071955316471951691 0.113614906219746 0 -0.086388838573301402 0.1048998065267857 0 -0.071301158166813747 0.095326725550790609 0 -0.052290752112962711 0.086625253977788336 0 -0.071301158166813747 0.095326725550790609 0 -0.072696055669198734 0.072637007182587685 0 -0.071301158166813747 0.095326725550790609 0 -0.072696055669198734 0.072637007182587685 0 -0.087232861120725175 0.085895022944261698 0 -0.087232861120725175 0.085895022944261698 0 -0.10349498880483959 0.07822214480416198 0 -0.085758837963579887 0.057961119085406437 0 -0.087232861120725175 0.085895022944261698 0 -0.085758837963579887 0.057961119085406437 0 -0.072696055669198734 0.072637007182587685 0 -0.087232861120725175 0.085895022944261698 0 -0.085758837963579887 0.057961119085406437 0 -0.087232861120725175 0.085895022944261698 0 -0.10349498880483959 0.07822214480416198 0 -0.1078275707111903 0.1003248570043213 0 -0.10349498880483959 0.07822214480416198 0 -0.11005740812260401 0.061481042437080732 0 -0.085758837963579887 0.057961119085406437 0 -0.10349498880483959 0.07822214480416198 0 -0.1201298763552133 0.08504932372035312 0 -0.11005740812260401 0.061481042437080732 0 -0.1201298763552133 0.08504932372035312 0 -0.11005740812260401 0.061481042437080732 0 -0.13601990544028991 0.070558807743543422 0 -0.1201298763552133 0.08504932372035312 0 -0.11005740812260401 0.061481042437080732 0 -0.10349498880483959 0.07822214480416198 0 -0.1201298763552133 0.08504932372035312 0 -0.1078275707111903 0.1003248570043213 0 -0.1302023445878227 0.10861760500362561 0 -0.1187112036788254 0.1166523724522722 0 -0.1078275707111903 0.1003248570043213 0 -0.1302023445878227 0.10861760500362561 0 -0.1201298763552133 0.08504932372035312 0 -0.1078275707111903 0.1003248570043213 0 -0.1187112036788254 0.1166523724522722 0 -0.10698896594004639 0.1187282184838999 0 -0.1078275707111903 0.1003248570043213 0 -0.13361982876037509 0.1219535430397881 0 -0.1214444573401622 0.12728216290200781 0 -0.1187112036788254 0.1166523724522722 0 -0.1214444573401622 0.12728216290200781 0 -0.11129793322579611 0.12748736889432141 0 -0.1187112036788254 0.1166523724522722 0 -0.11129793322579611 0.12748736889432141 0 -0.1187112036788254 0.1166523724522722 0 -0.10698896594004639 0.1187282184838999 0 -0.10698896594004639 0.1187282184838999 0 -0.096652475259461079 0.1157452154886697 0 -0.1078275707111903 0.1003248570043213 0 -0.10263198623825209 0.12596706354981521 0 -0.10698896594004639 0.1187282184838999 0 -0.096652475259461079 0.1157452154886697 0 -0.11129793322579611 0.12748736889432141 0 -0.10263198623825209 0.12596706354981521 0 -0.10698896594004639 0.1187282184838999 0 -0.10263198623825209 0.12596706354981521 0 -0.092292959037032093 0.1268620108240977 0 -0.096652475259461079 0.1157452154886697 0 -0.086388838573301402 0.1048998065267857 0 -0.096652475259461079 0.1157452154886697 0 -0.1078275707111903 0.1003248570043213 0 -0.086388838573301402 0.1048998065267857 0 -0.087232861120725175 0.085895022944261698 0 -0.1078275707111903 0.1003248570043213 0 -0.099984939889994656 0.037912761153808462 0 -0.089912471657385321 0.01434447987053613 0 -0.10842828849418069 0.02173476081681245 0 -0.099984939889994656 0.037912761153808462 0 -0.089912471657385321 0.01434447987053613 0 -0.10842828849418069 0.02173476081681245 0 -0.09711861473746225 0.0099980029768806482 0 -0.089912471657385321 0.01434447987053613 0 -0.1103184787184923 -0.002983229773278688 0 -0.10842828849418069 0.02173476081681245 0 -0.103813528196413 0.0089506021450708618 0 -0.1103184787184923 -0.002983229773278688 0 -0.10842828849418069 0.02173476081681245 0 -0.099898419841897623 -0.00092325477833528379 0 -0.09711861473746225 0.0099980029768806482 0 -0.103813528196413 0.0089506021450708618 0 -0.099898419841897623 -0.00092325477833528379 0 -0.09711861473746225 0.0099980029768806482 0 -0.090898068884156247 0.0047172067815882367 0 -0.1103184787184923 -0.002983229773278688 0 -0.099898419841897623 -0.00092325477833528379 0 -0.103813528196413 0.0089506021450708618 0 -0.10842828849418069 0.02173476081681245 0 -0.09711861473746225 0.0099980029768806482 0 -0.103813528196413 0.0089506021450708618 0 -0.1103184787184923 -0.002983229773278688 0 -0.10842828849418069 0.02173476081681245 0 -0.119100077078059 0.0113822785190929 0 -0.1164388837083003 -0.0026345546631316862 0 -0.13690710031888381 0.01195771323067427 0 -0.119100077078059 0.0113822785190929 0 -0.1103184787184923 -0.002983229773278688 0 -0.1164388837083003 -0.0026345546631316862 0 -0.119100077078059 0.0113822785190929 0 -0.10842828849418069 0.02173476081681245 0 -0.1226569289783727 0.027918965290285858 0 -0.099984939889994656 0.037912761153808462 0 -0.10842828849418069 0.02173476081681245 0 -0.119100077078059 0.0113822785190929 0 -0.1226569289783727 0.027918965290285858 0 -0.1263747718119636 0.045146653105059081 0 -0.1226569289783727 0.027918965290285858 0 -0.099984939889994656 0.037912761153808462 0 -0.1263747718119636 0.045146653105059081 0 -0.11005740812260401 0.061481042437080732 0 -0.099984939889994656 0.037912761153808462 0 -0.13601990544028991 0.070558807743543422 0 -0.1263747718119636 0.045146653105059081 0 -0.11005740812260401 0.061481042437080732 0 -0.11005740812260401 0.061481042437080732 0 -0.099984939889994656 0.037912761153808462 0 -0.085758837963579887 0.057961119085406437 0 -0.11005740812260401 0.061481042437080732 0 -0.099984939889994656 0.037912761153808462 0 -0.085758837963579887 0.057961119085406437 0 -0.084284814806434571 0.030027215226551 0 -0.099984939889994656 0.037912761153808462 0 -0.085758837963579887 0.057961119085406437 0 -0.084284814806434571 0.030027215226551 0 -0.055364061708154937 0.065649614356981897 0 -0.072696055669198734 0.072637007182587685 0 -0.063259488320014906 0.045142527600816933 0 -0.072696055669198734 0.072637007182587685 0 -0.085758837963579887 0.057961119085406437 0 -0.063259488320014906 0.045142527600816933 0 -0.063259488320014906 0.045142527600816933 0 -0.071169518538150789 0.028372011765701779 0 -0.084284814806434571 0.030027215226551 0 -0.085758837963579887 0.057961119085406437 0 -0.063259488320014906 0.045142527600816933 0 -0.084284814806434571 0.030027215226551 0 -0.063259488320014906 0.045142527600816933 0 -0.071169518538150789 0.028372011765701779 0 -0.061550447514132182 0.019304257504775189 0 -0.071169518538150789 0.028372011765701779 0 -0.07325021160115712 0.015315436611954321 0 -0.061550447514132182 0.019304257504775189 0 -0.071169518538150789 0.028372011765701779 0 -0.084284814806434571 0.030027215226551 0 -0.07325021160115712 0.015315436611954321 0 -0.084284814806434571 0.030027215226551 0 -0.082810791649288867 0.0020933113676955811 0 -0.084284814806434571 0.030027215226551 0 -0.082810791649288867 0.0020933113676955811 0 -0.07325021160115712 0.015315436611954321 0 -0.099984939889994656 0.037912761153808462 0 -0.084284814806434571 0.030027215226551 0 -0.089912471657385321 0.01434447987053613 0 -0.084284814806434571 0.030027215226551 0 -0.089912471657385321 0.01434447987053613 0 -0.082810791649288867 0.0020933113676955811 0 -0.090898068884156247 0.0047172067815882367 0 -0.082810791649288867 0.0020933113676955811 0 -0.090898068884156247 0.0047172067815882367 0 -0.089912471657385321 0.01434447987053613 0 -0.082810791649288867 0.0020933113676955811 0 -0.09711861473746225 0.0099980029768806482 0 -0.090898068884156247 0.0047172067815882367 0 -0.089912471657385321 0.01434447987053613 0 -0.066435485497779195 -0.0032196128049521229 0 -0.07325021160115712 0.015315436611954321 0 -0.061550447514132182 0.019304257504775189 0 -0.066435485497779195 -0.0032196128049521229 0 -0.082810791649288867 0.0020933113676955811 0 -0.07325021160115712 0.015315436611954321 0 -0.050060179346269558 -0.0085325369775998625 0 -0.044424534272749908 0.013554277170302911 0 -0.050060179346269558 -0.0085325369775998625 0 -0.055410707191302949 0.0050441632942630089 0 -0.044424534272749908 0.013554277170302911 0 -0.055410707191302949 0.0050441632942630089 0 -0.061550447514132182 0.019304257504775189 0 -0.044424534272749908 0.013554277170302911 0 -0.066435485497779195 -0.0032196128049521229 0 -0.055410707191302949 0.0050441632942630089 0 -0.061550447514132182 0.019304257504775189 0 -0.061550447514132182 0.019304257504775189 0 -0.044424534272749908 0.013554277170302911 0 -0.038788889199233692 0.035641091318206627 0 -0.061550447514132182 0.019304257504775189 0 -0.038788889199233692 0.035641091318206627 0 -0.044424534272749908 0.013554277170302911 0 -0.038788889199233692 0.035641091318206627 0 -0.030735723897599859 0.020998953003056989 0 -0.044424534272749908 0.013554277170302911 0 -0.038788889199233692 0.035641091318206627 0 -0.031401804829180688 0.0027902702105055579 0 -0.044424534272749908 0.013554277170302911 0 -0.030735723897599859 0.020998953003056989 0 -0.050060179346269558 -0.0085325369775998625 0 -0.031401804829180688 0.0027902702105055579 0 -0.044424534272749908 0.013554277170302911 0 -0.055364061708154937 0.065649614356981897 0 -0.063259488320014906 0.045142527600816933 0 -0.046887228511421297 0.05174784996231159 0 -0.063259488320014906 0.045142527600816933 0 -0.046887228511421297 0.05174784996231159 0 -0.038788889199233692 0.035641091318206627 0 -0.063259488320014906 0.045142527600816933 0 -0.061550447514132182 0.019304257504775189 0 -0.038788889199233692 0.035641091318206627 0 -0.046887228511421297 0.05174784996231159 0 -0.038788889199233692 0.035641091318206627 0 -0.032786094020039611 0.059166813708666541 0 -0.040860890600635878 0.072433519202265761 0 -0.046887228511421297 0.05174784996231159 0 -0.032786094020039611 0.059166813708666541 0 -0.038788889199233692 0.035641091318206627 0 -0.032786094020039611 0.059166813708666541 0 -0.015120225059927659 0.068539564674947359 0 -0.032786094020039611 0.059166813708666541 0 -0.01775811919199877 0.050735672709496443 0 -0.038788889199233692 0.035641091318206627 0 -0.032786094020039611 0.059166813708666541 0 -0.01775811919199877 0.050735672709496443 0 -0.038788889199233692 0.035641091318206627 0 -0.01775811919199877 0.050735672709496443 0 -0.038788889199233692 0.035641091318206627 0 -0.01775811919199877 0.050735672709496443 0 -0.01986221022651051 0.031261359280118098 0 -0.01775811919199877 0.050735672709496443 0 -0.01986221022651051 0.031261359280118098 0 -0.0035468321067022301 0.035394686897551722 0 -0.01775811919199877 0.050735672709496443 0 -0.0035468321067022301 0.035394686897551722 0 -0.001802309074633411 0.050405987430637567 0 -0.01775811919199877 0.050735672709496443 0 -0.001802309074633411 0.050405987430637567 0 0.0032726508152374802 0.065830254100784247 0 -0.01775811919199877 0.050735672709496443 0 0.0032726508152374802 0.065830254100784247 0 -0.015120225059927659 0.068539564674947359 0 -0.01775811919199877 0.050735672709496443 0 0.0032726508152374802 0.065830254100784247 0 -0.031401804829180688 0.0027902702105055579 0 -0.017980597976115769 0.01298212719875058 0 -0.030735723897599859 0.020998953003056989 0 -0.01721953082408104 -0.0031172801099605988 0 -0.031401804829180688 0.0027902702105055579 0 -0.017980597976115769 0.01298212719875058 0 -0.01986221022651051 0.031261359280118098 0 -0.017980597976115769 0.01298212719875058 0 -0.030735723897599859 0.020998953003056989 0 -0.038788889199233692 0.035641091318206627 0 -0.01986221022651051 0.031261359280118098 0 -0.030735723897599859 0.020998953003056989 0 -0.01986221022651051 0.031261359280118098 0 -0.017980597976115769 0.01298212719875058 0 -0.002753628582394892 0.020016383893197511 0 -0.01986221022651051 0.031261359280118098 0 -0.0035468321067022301 0.035394686897551722 0 -0.002753628582394892 0.020016383893197511 0 -0.01721953082408104 -0.0031172801099605988 0 -0.017980597976115769 0.01298212719875058 0 -0.0045202662753825928 0.0076875810721139838 0 -0.017980597976115769 0.01298212719875058 0 -0.002753628582394892 0.020016383893197511 0 -0.0045202662753825928 0.0076875810721139838 0 0.01405214152775462 0.014977048396252191 0 0.022935506817611171 0.0096653664055293999 0 0.001300284477923656 -0.0064203740176691469 0 -0.002753628582394892 0.020016383893197511 0 -0.0045202662753825928 0.0076875810721139838 0 0.01405214152775462 0.014977048396252191 0 0.022935506817611171 0.0096653664055293999 0 0.001300284477923656 -0.0064203740176691469 0 -0.0045202662753825928 0.0076875810721139838 0 0.01405214152775462 0.014977048396252191 0 0.001300284477923656 -0.0064203740176691469 0 0.01405214152775462 0.014977048396252191 0 0.001300284477923656 -0.0064203740176691469 0 -0.002753628582394892 0.020016383893197511 0 0.01405214152775462 0.014977048396252191 0 0.0098518201001877928 0.031152975689608991 0 -0.0035468321067022301 0.035394686897551722 0 -0.002753628582394892 0.020016383893197511 0 0.0098518201001877928 0.031152975689608991 0 0.01405214152775462 0.014977048396252191 0 0.0098518201001877928 0.031152975689608991 0 0.026803998577586131 0.03637447081017306 0 0.01405214152775462 0.014977048396252191 0 0.026803998577586131 0.03637447081017306 0 0.01405214152775462 0.014977048396252191 0 0.022935506817611171 0.0096653664055293999 0 0.026803998577586131 0.03637447081017306 0 -0.001802309074633411 0.050405987430637567 0 0.010823064184929881 0.049663336014717882 0 0.0032726508152374802 0.065830254100784247 0 0.010823064184929881 0.049663336014717882 0 0.025192960476562009 0.06393198513188407 0 0.0032726508152374802 0.065830254100784247 0 -0.0035468321067022301 0.035394686897551722 0 0.0098518201001877928 0.031152975689608991 0 0.010823064184929881 0.049663336014717882 0 -0.0035468321067022301 0.035394686897551722 0 0.010823064184929881 0.049663336014717882 0 -0.0035468321067022301 0.035394686897551722 0 -0.001802309074633411 0.050405987430637567 0 0.010823064184929881 0.049663336014717882 0 0.0098518201001877928 0.031152975689608991 0 0.010823064184929881 0.049663336014717882 0 0.026803998577586131 0.03637447081017306 0 0.010823064184929881 0.049663336014717882 0 0.026803998577586131 0.03637447081017306 0 0.026221704050457751 0.050486415623915509 0 0.026221704050457751 0.050486415623915509 0 0.042066792962752987 0.05197587053888704 0 0.025192960476562009 0.06393198513188407 0 0.010823064184929881 0.049663336014717882 0 0.026221704050457751 0.050486415623915509 0 0.025192960476562009 0.06393198513188407 0 0.010823064184929881 0.049663336014717882 0 0.025192960476562009 0.06393198513188407 0 0.026803998577586131 0.03637447081017306 0 0.026221704050457751 0.050486415623915509 0 0.042066792962752987 0.05197587053888704 0 0.042066792962752987 0.05197587053888704 0 0.044570729157299593 0.02575110682872641 0 0.042066792962752987 0.05197587053888704 0 0.048654931493705818 0.03318730368921554 0 0.044570729157299593 0.02575110682872641 0 0.026803998577586131 0.03637447081017306 0 0.042066792962752987 0.05197587053888704 0 0.044570729157299593 0.02575110682872641 0 0.042066792962752987 0.05197587053888704 0 0.048654931493705818 0.03318730368921554 0 0.071746588922980692 0.051339743570067042 0 0.048654931493705818 0.03318730368921554 0 0.071746588922980692 0.051339743570067042 0 0.048654931493705818 0.03318730368921554 0 0.051599867713404288 0.030977255949683639 0 0.067838394745779518 0.035058661098566549 0 0.042066792962752987 0.05197587053888704 0 0.071746588922980692 0.051339743570067042 0 0.055468948625243479 0.066487425758776211 0 0.022935506817611171 0.0096653664055293999 0 0.046534960809677742 0.005178892940951748 0 0.027470930869090721 -0.0051934323317437137 0 0.022935506817611171 0.0096653664055293999 0 0.046534960809677742 0.005178892940951748 0 0.044570729157299593 0.02575110682872641 0 0.046534960809677742 0.005178892940951748 0 0.044570729157299593 0.02575110682872641 0 0.022935506817611171 0.0096653664055293999 0 0.044570729157299593 0.02575110682872641 0 0.022935506817611171 0.0096653664055293999 0 0.026803998577586131 0.03637447081017306 0 0.044570729157299593 0.02575110682872641 0 0.051599867713404288 0.030977255949683639 0 0.060953804518053052 0.026618853081052669 0 0.067838394745779518 0.035058661098566549 0 0.046534960809677742 0.005178892940951748 0 0.044570729157299593 0.02575110682872641 0 0.053525901953508821 0.02166825868455307 0 0.053525901953508821 0.02166825868455307 0 0.060953804518053052 0.026618853081052669 0 0.071372018687564043 0.018692197521832661 0 0.044570729157299593 0.02575110682872641 0 0.053525901953508821 0.02166825868455307 0 0.051599867713404288 0.030977255949683639 0 0.044570729157299593 0.02575110682872641 0 0.051599867713404288 0.030977255949683639 0 0.048654931493705818 0.03318730368921554 0 0.044570729157299593 0.02575110682872641 0 0.051599867713404288 0.030977255949683639 0 0.053525901953508821 0.02166825868455307 0 0.051599867713404288 0.030977255949683639 0 0.060953804518053052 0.026618853081052669 0 0.046534960809677742 0.005178892940951748 0 0.053525901953508821 0.02166825868455307 0 0.071372018687564043 0.018692197521832661 0 0.046534960809677742 0.005178892940951748 0 0.071372018687564043 0.018692197521832661 0 0.046534960809677742 0.005178892940951748 0 0.071372018687564043 0.018692197521832661 0 0.067309607389994364 -0.0035842951844848791 0 0.071372018687564043 0.018692197521832661 0 0.094181460218896534 0.00364190637146985 0 0.067309607389994364 -0.0035842951844848791 0 0.071372018687564043 0.018692197521832661 0 0.067838394745779518 0.035058661098566549 0 0.096209076565450274 0.032205502102713862 0 0.071372018687564043 0.018692197521832661 0 0.096209076565450274 0.032205502102713862 0 0.094181460218896534 0.00364190637146985 0 0.071372018687564043 0.018692197521832661 0 0.096209076565450274 0.032205502102713862 0 0.060953804518053052 0.026618853081052669 0 0.071372018687564043 0.018692197521832661 0 0.067838394745779518 0.035058661098566549 0 0.048654931493705818 0.03318730368921554 0 0.067838394745779518 0.035058661098566549 0 0.071746588922980692 0.051339743570067042 0 0.071746588922980692 0.051339743570067042 0 0.094838246352255573 0.069492183450918565 0 0.071746588922980692 0.051339743570067042 0 0.097225625102353538 0.058458644744515863 0 0.094838246352255573 0.069492183450918565 0 0.071746588922980692 0.051339743570067042 0 0.099776283558705839 0.047331916737170979 0 0.097225625102353538 0.058458644744515863 0 0.067838394745779518 0.035058661098566549 0 0.071746588922980692 0.051339743570067042 0 0.096209076565450274 0.032205502102713862 0 0.071746588922980692 0.051339743570067042 0 0.096209076565450274 0.032205502102713862 0 0.099776283558705839 0.047331916737170979 0 0.096209076565450274 0.032205502102713862 0 0.099776283558705839 0.047331916737170979 0 0.11476424203947221 0.038073451384228449 0 0.097225625102353538 0.058458644744515863 0 0.1200627830685761 0.053872097114226712 0 0.099704223609249507 0.070257282850195987 0 0.099776283558705839 0.047331916737170979 0 0.097225625102353538 0.058458644744515863 0 0.1200627830685761 0.053872097114226712 0 0.1200627830685761 0.053872097114226712 0 0.099704223609249507 0.070257282850195987 0 0.099776283558705839 0.047331916737170979 0 0.1200627830685761 0.053872097114226712 0 0.11476424203947221 0.038073451384228449 0 0.11476424203947221 0.038073451384228449 0 0.1173517244767262 0.01947082958877324 0 0.1404213425279027 0.037486911378257437 0 0.096209076565450274 0.032205502102713862 0 0.11476424203947221 0.038073451384228449 0 0.1173517244767262 0.01947082958877324 0 0.1173517244767262 0.01947082958877324 0 0.094181460218896534 0.00364190637146985 0 0.1207509512091294 -0.0041699288836110626 0 0.096209076565450274 0.032205502102713862 0 0.1173517244767262 0.01947082958877324 0 0.094181460218896534 0.00364190637146985 0 0.1076424158428451 0.094769694818306383 0 0.095544052419371639 0.10396433860893591 0 0.11057287010899471 0.1087715989292655 0 0.1076424158428451 0.094769694818306383 0 0.095544052419371639 0.10396433860893591 0 0.09528829613829147 0.090103747610343246 0 0.095544052419371639 0.10396433860893591 0 0.1034498182926475 0.11963711251952359 0 0.086795552323999089 0.12510053847008271 0 0.095544052419371639 0.10396433860893591 0 0.1034498182926475 0.11963711251952359 0 0.11057287010899471 0.1087715989292655 0 0.1034498182926475 0.11963711251952359 0 0.11057287010899471 0.1087715989292655 0 0.11418512382257991 0.12505036048169191 0 0.11057287010899471 0.1087715989292655 0 0.11418512382257991 0.12505036048169191 0 0.1251230896152585 0.1117921315195775 0 0.1205945952922607 0.101631761607534 0 0.11057287010899471 0.1087715989292655 0 0.1251230896152585 0.1117921315195775 0 0.1076424158428451 0.094769694818306383 0 0.1205945952922607 0.101631761607534 0 0.11057287010899471 0.1087715989292655 0 0.1076424158428451 0.094769694818306383 0 0.1205945952922607 0.101631761607534 0 0.1179299037815305 0.087644623331770061 0 0.1179299037815305 0.087644623331770061 0 0.1215621041912773 0.070813732342101351 0 0.1329709584553686 0.080358113788626659 0 0.1200627830685761 0.053872097114226712 0 0.1215621041912773 0.070813732342101351 0 0.099704223609249507 0.070257282850195987 0 0.1179299037815305 0.087644623331770061 0 0.1215621041912773 0.070813732342101351 0 0.099704223609249507 0.070257282850195987 0 0.1179299037815305 0.087644623331770061 0 0.094838246352255573 0.069492183450918565 0 0.099704223609249507 0.070257282850195987 0 0.094838246352255573 0.069492183450918565 0 0.098776443239460401 0.082951101511777037 0 0.090346671498905476 0.07556661657497972 0 0.097225625102353538 0.058458644744515863 0 0.094838246352255573 0.069492183450918565 0 0.099704223609249507 0.070257282850195987 0 0.1179299037815305 0.087644623331770061 0 0.094838246352255573 0.069492183450918565 0 0.098776443239460401 0.082951101511777037 0 0.1179299037815305 0.087644623331770061 0 0.094838246352255573 0.069492183450918565 0 0.1076424158428451 0.094769694818306383 0 0.1179299037815305 0.087644623331770061 0 0.098776443239460401 0.082951101511777037 0 0.1076424158428451 0.094769694818306383 0 0.098776443239460401 0.082951101511777037 0 0.09528829613829147 0.090103747610343246 0 0.09528829613829147 0.090103747610343246 0 0.086981084828276656 0.092418789404084864 0 0.085845295113662054 0.081076369523629024 0 0.098776443239460401 0.082951101511777037 0 0.085845295113662054 0.081076369523629024 0 0.090346671498905476 0.07556661657497972 0 0.098776443239460401 0.082951101511777037 0 0.09528829613829147 0.090103747610343246 0 0.085845295113662054 0.081076369523629024 0 0.085845295113662054 0.081076369523629024 0 0.078439536268662013 0.087553705745471666 0 0.071700829806710428 0.074970409261408702 0 0.086981084828276656 0.092418789404084864 0 0.078439536268662013 0.087553705745471666 0 0.079815408979445196 0.099872684588600741 0 0.086981084828276656 0.092418789404084864 0 0.085845295113662054 0.081076369523629024 0 0.078439536268662013 0.087553705745471666 0 0.071746588922980692 0.051339743570067042 0 0.094838246352255573 0.069492183450918565 0 0.081926701290243903 0.068746811813594252 0 0.094838246352255573 0.069492183450918565 0 0.090346671498905476 0.07556661657497972 0 0.081926701290243903 0.068746811813594252 0 0.085845295113662054 0.081076369523629024 0 0.090346671498905476 0.07556661657497972 0 0.081926701290243903 0.068746811813594252 0 0.085845295113662054 0.081076369523629024 0 0.081926701290243903 0.068746811813594252 0 0.071700829806710428 0.074970409261408702 0 0.071746588922980692 0.051339743570067042 0 0.081926701290243903 0.068746811813594252 0 0.071700829806710428 0.074970409261408702 0 0.071746588922980692 0.051339743570067042 0 0.071700829806710428 0.074970409261408702 0 0.055468948625243479 0.066487425758776211 0 0.078439536268662013 0.087553705745471666 0 0.067855062615215761 0.08943027594963493 0 0.079815408979445196 0.099872684588600741 0 0.078439536268662013 0.087553705745471666 0 0.071700829806710428 0.074970409261408702 0 0.067855062615215761 0.08943027594963493 0 0.071700829806710428 0.074970409261408702 0 0.067855062615215761 0.08943027594963493 0 0.058540968948903767 0.079560661945870956 0 0.065661269611630046 0.10411516333265899 0 0.079815408979445196 0.099872684588600741 0 0.067855062615215761 0.08943027594963493 0 0.065661269611630046 0.10411516333265899 0 0.079815408979445196 0.099872684588600741 0 0.095544052419371639 0.10396433860893591 0 0.086981084828276656 0.092418789404084864 0 0.079815408979445196 0.099872684588600741 0 0.095544052419371639 0.10396433860893591 0 0.09528829613829147 0.090103747610343246 0 0.086981084828276656 0.092418789404084864 0 0.095544052419371639 0.10396433860893591 0 0.079815408979445196 0.099872684588600741 0 0.086795552323999089 0.12510053847008271 0 0.065661269611630046 0.10411516333265899 0 0.086795552323999089 0.12510053847008271 0 0.065661269611630046 0.10411516333265899 0 0.066706396683507779 0.11253153796150719 0 0.086795552323999089 0.12510053847008271 0 0.066706396683507779 0.11253153796150719 0 0.075362107634504877 0.13381428190689859 0 0.066706396683507779 0.11253153796150719 0 0.086795552323999089 0.12510053847008271 0 0.075362107634504877 0.13381428190689859 0 0.066706396683507779 0.11253153796150719 0 0.056705844162043113 0.124531579884371 0 0.06454166491034416 0.13136666240297359 0 0.065661269611630046 0.10411516333265899 0 0.079815408979445196 0.099872684588600741 0 0.086795552323999089 0.12510053847008271 0 0.065661269611630046 0.10411516333265899 0 0.066706396683507779 0.11253153796150719 0 0.057508659990583327 0.1143895776697461 0 0.056705844162043113 0.124531579884371 0 0.057508659990583327 0.1143895776697461 0 0.046483319030196181 0.1199115500140492 0 0.057508659990583327 0.1143895776697461 0 0.050954004828083828 0.1085234326456874 0 0.046483319030196181 0.1199115500140492 0 0.066706396683507779 0.11253153796150719 0 0.056705844162043113 0.124531579884371 0 0.057508659990583327 0.1143895776697461 0 0.065661269611630046 0.10411516333265899 0 0.050954004828083828 0.1085234326456874 0 0.052612063189912288 0.091157898790854425 0 0.065661269611630046 0.10411516333265899 0 0.057508659990583327 0.1143895776697461 0 0.050954004828083828 0.1085234326456874 0 0.065661269611630046 0.10411516333265899 0 0.050954004828083828 0.1085234326456874 0 0.050954004828083828 0.1085234326456874 0 0.037904798406370607 0.095566168103880869 0 0.052612063189912288 0.091157898790854425 0 0.067855062615215761 0.08943027594963493 0 0.065661269611630046 0.10411516333265899 0 0.052612063189912288 0.091157898790854425 0 0.065661269611630046 0.10411516333265899 0 0.052612063189912288 0.091157898790854425 0 0.037904798406370607 0.095566168103880869 0 0.036246740044537117 0.1129317019587143 0 0.037904798406370607 0.095566168103880869 0 0.036246740044537117 0.1129317019587143 0 0.029597053893627559 0.1035348685018513 0 0.050954004828083828 0.1085234326456874 0 0.037904798406370607 0.095566168103880869 0 0.036246740044537117 0.1129317019587143 0 0.050954004828083828 0.1085234326456874 0 0.036246740044537117 0.1129317019587143 0 0.050954004828083828 0.1085234326456874 0 0.036246740044537117 0.1129317019587143 0 0.046483319030196181 0.1199115500140492 0 0.071700829806710428 0.074970409261408702 0 0.055468948625243479 0.066487425758776211 0 0.058540968948903767 0.079560661945870956 0 0.055468948625243479 0.066487425758776211 0 0.058540968948903767 0.079560661945870956 0 0.039562856768197499 0.078200634249046802 0 0.058540968948903767 0.079560661945870956 0 0.052612063189912288 0.091157898790854425 0 0.039562856768197499 0.078200634249046802 0 0.067855062615215761 0.08943027594963493 0 0.058540968948903767 0.079560661945870956 0 0.052612063189912288 0.091157898790854425 0 0.037904798406370607 0.095566168103880869 0 0.052612063189912288 0.091157898790854425 0 0.039562856768197499 0.078200634249046802 0 0.037904798406370607 0.095566168103880869 0 0.039562856768197499 0.078200634249046802 0 0.02430342082247371 0.08092483549207205 0 0.037904798406370607 0.095566168103880869 0 0.039562856768197499 0.078200634249046802 0 0.052612063189912288 0.091157898790854425 0 0.039562856768197499 0.078200634249046802 0 0.042066792962752987 0.05197587053888704 0 0.055468948625243479 0.066487425758776211 0 0.039562856768197499 0.078200634249046802 0 0.042066792962752987 0.05197587053888704 0 0.039562856768197499 0.078200634249046802 0 0.025192960476562009 0.06393198513188407 0 0.042066792962752987 0.05197587053888704 0 0.039562856768197499 0.078200634249046802 0 0.039562856768197499 0.078200634249046802 0 0.025192960476562009 0.06393198513188407 0 0.025192960476562009 0.06393198513188407 0 0.02430342082247371 0.08092483549207205 0 0.0032726508152374802 0.065830254100784247 0 0.039562856768197499 0.078200634249046802 0 0.025192960476562009 0.06393198513188407 0 0.02430342082247371 0.08092483549207205 0 0.037904798406370607 0.095566168103880869 0 0.02430342082247371 0.08092483549207205 0 0.018015762409638609 0.098617898523348818 0 0.02430342082247371 0.08092483549207205 0 0.0078257750999893416 0.084157712595329018 0 0.018015762409638609 0.098617898523348818 0 -0.00046628846821422692 0.095155713336249392 0 0.0078257750999893416 0.084157712595329018 0 0.018015762409638609 0.098617898523348818 0 -0.0074792185064934506 0.081781337360821604 0 0.0078257750999893416 0.084157712595329018 0 0.0032726508152374802 0.065830254100784247 0 0.02430342082247371 0.08092483549207205 0 0.0078257750999893416 0.084157712595329018 0 0.0032726508152374802 0.065830254100784247 0 0.02430342082247371 0.08092483549207205 0 0.0032726508152374802 0.065830254100784247 0 0.036246740044537117 0.1129317019587143 0 0.029597053893627559 0.1035348685018513 0 0.015604606772761501 0.1191188539544541 0 0.036246740044537117 0.1129317019587143 0 0.015604606772761501 0.1191188539544541 0 0.02699511270484866 0.1278015838011487 0 0.036246740044537117 0.1129317019587143 0 0.015604606772761501 0.1191188539544541 0 0.018015762409638609 0.098617898523348818 0 0.029597053893627559 0.1035348685018513 0 0.015604606772761501 0.1191188539544541 0 0.037904798406370607 0.095566168103880869 0 0.018015762409638609 0.098617898523348818 0 0.029597053893627559 0.1035348685018513 0 0.018015762409638609 0.098617898523348818 0 0.0044285672517181754 0.1088793736060132 0 0.015604606772761501 0.1191188539544541 0 -0.00046628846821422692 0.095155713336249392 0 0.018015762409638609 0.098617898523348818 0 0.0044285672517181754 0.1088793736060132 0 -0.0050375264990141569 0.12530600595019351 0 0.0044285672517181754 0.1088793736060132 0 0.015604606772761501 0.1191188539544541 0 -0.0050375264990141569 0.12530600595019351 0 0.015604606772761501 0.1191188539544541 0 -0.0050375264990141569 0.12530600595019351 0 0.015604606772761501 0.1191188539544541 0 0.01805429770671638 0.12906625440777411 0 -0.0050375264990141569 0.12530600595019351 0 0.01496806614099761 0.13961852830172211 0 0.01805429770671638 0.12906625440777411 0 -0.0050375264990141569 0.12530600595019351 0 0.01496806614099761 0.13961852830172211 0 0.0020428085558040188 0.1450709179257999 0 0.01805429770671638 0.12906625440777411 0 0.0242755477918245 0.1364766263646186 0 0.02699511270484866 0.1278015838011487 0 0.015604606772761501 0.1191188539544541 0 0.01805429770671638 0.12906625440777411 0 0.02699511270484866 0.1278015838011487 0 0.01496806614099761 0.13961852830172211 0 0.0242755477918245 0.1364766263646186 0 0.024445297307990881 0.14240532462996369 0 0.01496806614099761 0.13961852830172211 0 0.01805429770671638 0.12906625440777411 0 0.0242755477918245 0.1364766263646186 0 0.0242755477918245 0.1364766263646186 0 0.024445297307990881 0.14240532462996369 0 0.033404111722895327 0.14270372898286929 0 0.0242755477918245 0.1364766263646186 0 0.02699511270484866 0.1278015838011487 0 0.033404111722895327 0.14270372898286929 0 0.02198686544529006 0.1490133924203863 0 0.020906159124752719 0.16193305574069591 0 0.033404111722895327 0.14270372898286929 0 0.01496806614099761 0.13961852830172211 0 0.02198686544529006 0.1490133924203863 0 0.010702601255082539 0.1555579127957713 0 0.024445297307990881 0.14240532462996369 0 0.02198686544529006 0.1490133924203863 0 0.033404111722895327 0.14270372898286929 0 0.01496806614099761 0.13961852830172211 0 0.024445297307990881 0.14240532462996369 0 0.02198686544529006 0.1490133924203863 0 0.02198686544529006 0.1490133924203863 0 0.010702601255082539 0.1555579127957713 0 0.020906159124752719 0.16193305574069591 0 0.01496806614099761 0.13961852830172211 0 0.010702601255082539 0.1555579127957713 0 0.0020428085558040188 0.1450709179257999 0 -0.00076182537475621168 0.15719379457848731 0 0.010702601255082539 0.1555579127957713 0 0.0020428085558040188 0.1450709179257999 0 -0.00076182537475621168 0.15719379457848731 0 0.010702601255082539 0.1555579127957713 0 0.0069045787573830172 0.16849366816182459 0 0.0069045787573830172 0.16849366816182459 0 0.017091032301168319 0.17767840523042469 0 0.020906159124752719 0.16193305574069591 0 0.010702601255082539 0.1555579127957713 0 0.0069045787573830172 0.16849366816182459 0 0.020906159124752719 0.16193305574069591 0 0.0069045787573830172 0.16849366816182459 0 0.0050868312892222364 0.18473613943969669 0 0.017091032301168319 0.17767840523042469 0 -0.01182244635478462 0.16871887207651151 0 0.0069045787573830172 0.16849366816182459 0 0.0050868312892222364 0.18473613943969669 0 0.030561483401253978 0.17247575600702419 0 0.021996108933228668 0.20075340680288251 0 0.030561483401253978 0.17247575600702419 0 0.02896826680081396 0.18916217516444311 0 0.030561483401253978 0.17247575600702419 0 0.021996108933228668 0.20075340680288251 0 0.02896826680081396 0.18916217516444311 0 0.017091032301168319 0.17767840523042469 0 0.030561483401253978 0.17247575600702419 0 0.021996108933228668 0.20075340680288251 0 0.030561483401253978 0.17247575600702419 0 0.020906159124752719 0.16193305574069591 0 0.033404111722895327 0.14270372898286929 0 0.017091032301168319 0.17767840523042469 0 0.030561483401253978 0.17247575600702419 0 0.020906159124752719 0.16193305574069591 0 0.030561483401253978 0.17247575600702419 0 0.038522401215724797 0.14619365301053669 0 0.030561483401253978 0.17247575600702419 0 0.043092353349495072 0.15628065809730751 0 0.038522401215724797 0.14619365301053669 0 0.030561483401253978 0.17247575600702419 0 0.041014492541015898 0.16607850999641879 0 0.043092353349495072 0.15628065809730751 0 0.030561483401253978 0.17247575600702419 0 0.033404111722895327 0.14270372898286929 0 0.030561483401253978 0.17247575600702419 0 0.041014492541015898 0.16607850999641879 0 0.034256956383396611 0.17420455337954699 0 0.041014492541015898 0.16607850999641879 0 0.043092353349495072 0.15628065809730751 0 0.053452890266310248 0.1628248749384941 0 0.041014492541015898 0.16607850999641879 0 0.034256956383396611 0.17420455337954699 0 0.056614384418096457 0.18202387350072241 0 0.034256956383396611 0.17420455337954699 0 0.056614384418096457 0.18202387350072241 0 0.040268194313306027 0.18822079481978821 0 0.034256956383396611 0.17420455337954699 0 0.056614384418096457 0.18202387350072241 0 0.030561483401253978 0.17247575600702419 0 0.034256956383396611 0.17420455337954699 0 0.02896826680081396 0.18916217516444311 0 0.034256956383396611 0.17420455337954699 0 0.02896826680081396 0.18916217516444311 0 0.040268194313306027 0.18822079481978821 0 0.056614384418096457 0.18202387350072241 0 0.053452890266310248 0.1628248749384941 0 0.069135047216286202 0.16776263499435209 0 0.041014492541015898 0.16607850999641879 0 0.056614384418096457 0.18202387350072241 0 0.053452890266310248 0.1628248749384941 0 0.053452890266310248 0.1628248749384941 0 0.059804478177671462 0.15607195685930869 0 0.069135047216286202 0.16776263499435209 0 0.059804478177671462 0.15607195685930869 0 0.051721241180421589 0.14942932143023191 0 0.067956047542000311 0.14882167724640319 0 0.053452890266310248 0.1628248749384941 0 0.059804478177671462 0.15607195685930869 0 0.051721241180421589 0.14942932143023191 0 0.051721241180421589 0.14942932143023191 0 0.055977928529664718 0.1371342350156883 0 0.067956047542000311 0.14882167724640319 0 0.043092353349495072 0.15628065809730751 0 0.053452890266310248 0.1628248749384941 0 0.051721241180421589 0.14942932143023191 0 0.051721241180421589 0.14942932143023191 0 0.047895783756352797 0.1419794778809306 0 0.055977928529664718 0.1371342350156883 0 0.051721241180421589 0.14942932143023191 0 0.047895783756352797 0.1419794778809306 0 0.045196051852896241 0.14771823646163179 0 0.056705844162043113 0.124531579884371 0 0.055977928529664718 0.1371342350156883 0 0.06454166491034416 0.13136666240297359 0 0.056705844162043113 0.124531579884371 0 0.046483319030196181 0.1199115500140492 0 0.049117055338796317 0.13395009916111519 0 0.056705844162043113 0.124531579884371 0 0.055977928529664718 0.1371342350156883 0 0.049117055338796317 0.13395009916111519 0 0.047895783756352797 0.1419794778809306 0 0.055977928529664718 0.1371342350156883 0 0.049117055338796317 0.13395009916111519 0 0.046483319030196181 0.1199115500140492 0 0.038522401215724797 0.14619365301053669 0 0.036246740044537117 0.1129317019587143 0 0.02699511270484866 0.1278015838011487 0 0.033404111722895327 0.14270372898286929 0 0.046483319030196181 0.1199115500140492 0 0.033404111722895327 0.14270372898286929 0 0.038522401215724797 0.14619365301053669 0 0.046483319030196181 0.1199115500140492 0 0.049117055338796317 0.13395009916111519 0 0.038522401215724797 0.14619365301053669 0 0.036246740044537117 0.1129317019587143 0 0.046483319030196181 0.1199115500140492 0 0.033404111722895327 0.14270372898286929 0 0.036246740044537117 0.1129317019587143 0 0.033404111722895327 0.14270372898286929 0 0.030561483401253978 0.17247575600702419 0 0.033404111722895327 0.14270372898286929 0 0.038522401215724797 0.14619365301053669 0 0.043092353349495072 0.15628065809730751 0 0.038522401215724797 0.14619365301053669 0 0.045196051852896241 0.14771823646163179 0 0.043092353349495072 0.15628065809730751 0 0.051721241180421589 0.14942932143023191 0 0.045196051852896241 0.14771823646163179 0 0.047895783756352797 0.1419794778809306 0 0.038522401215724797 0.14619365301053669 0 0.045196051852896241 0.14771823646163179 0 0.047895783756352797 0.1419794778809306 0 0.049117055338796317 0.13395009916111519 0 0.038522401215724797 0.14619365301053669 0 0.024664205123059731 0.24258300526153201 0 0.014476227302727591 0.2465232514715166 0 0.022953202697293201 0.26025605444634348 0 0.024664205123059731 0.24258300526153201 0 0.014476227302727591 0.2465232514715166 0 0.012005105593323479 0.23503548612870059 0 -0.001870537191094847 0.24783164157960649 0 0.014476227302727591 0.2465232514715166 0 0.005419433481239422 0.24093991343593929 0 -0.00293306177999853 0.23436927456393361 0 0.005419433481239422 0.24093991343593929 0 0.012005105593323479 0.23503548612870059 0 -0.00293306177999853 0.23436927456393361 0 -0.001870537191094847 0.24783164157960649 0 0.005419433481239422 0.24093991343593929 0 0.014476227302727591 0.2465232514715166 0 0.005419433481239422 0.24093991343593929 0 0.012005105593323479 0.23503548612870059 0 -0.00293306177999853 0.23436927456393361 0 0.0090171199023795501 0.2259618831468084 0 0.00083036861321999231 0.2187159905759983 0 0.012005105593323479 0.23503548612870059 0 0.0090171199023795501 0.2259618831468084 0 0.025562172192737639 0.2248356186274785 0 -0.00293306177999853 0.23436927456393361 0 0.012005105593323479 0.23503548612870059 0 0.0090171199023795501 0.2259618831468084 0 0.0090171199023795501 0.2259618831468084 0 0.01246598349605765 0.21768837311211309 0 0.00083036861321999231 0.2187159905759983 0 0.024664205123059731 0.24258300526153201 0 0.012005105593323479 0.23503548612870059 0 0.025562172192737639 0.2248356186274785 0 0.0090171199023795501 0.2259618831468084 0 0.025562172192737639 0.2248356186274785 0 0.01246598349605765 0.21768837311211309 0 0.024664205123059731 0.24258300526153201 0 0.025562172192737639 0.2248356186274785 0 0.037475223227065577 0.23433575675854881 0 0.025562172192737639 0.2248356186274785 0 0.02737505020037306 0.20584859432186189 0 0.018810150586396159 0.21206496443711079 0 0.025562172192737639 0.2248356186274785 0 0.02737505020037306 0.20584859432186189 0 0.040115509469677853 0.21791695979213729 0 0.025562172192737639 0.2248356186274785 0 0.02737505020037306 0.20584859432186189 0 0.02737505020037306 0.20584859432186189 0 0.021996108933228668 0.20075340680288251 0 0.020661735394992411 0.2051586956885337 0 0.018810150586396159 0.21206496443711079 0 0.01107936932673211 0.20776860438495481 0 0.02737505020037306 0.20584859432186189 0 0.020661735394992411 0.2051586956885337 0 0.018810150586396159 0.21206496443711079 0 0.020661735394992411 0.2051586956885337 0 0.01107936932673211 0.20776860438495481 0 0.021996108933228668 0.20075340680288251 0 0.02737505020037306 0.20584859432186189 0 0.020661735394992411 0.2051586956885337 0 0.021996108933228668 0.20075340680288251 0 0.025562172192737639 0.2248356186274785 0 0.018810150586396159 0.21206496443711079 0 0.01246598349605765 0.21768837311211309 0 -0.00032704064368648152 0.20092765530983911 0 0.01107936932673211 0.20776860438495481 0 0.021996108933228668 0.20075340680288251 0 0.018810150586396159 0.21206496443711079 0 0.01246598349605765 0.21768837311211309 0 0.01107936932673211 0.20776860438495481 0 0.01246598349605765 0.21768837311211309 0 0.00083036861321999231 0.2187159905759983 0 0.01107936932673211 0.20776860438495481 0 -0.00032704064368648152 0.20092765530983911 0 0.00083036861321999231 0.2187159905759983 0 0.01107936932673211 0.20776860438495481 0 0.0050868312892222364 0.18473613943969669 0 0.021996108933228668 0.20075340680288251 0 -0.00032704064368648152 0.20092765530983911 0 0.0050868312892222364 0.18473613943969669 0 0.021996108933228668 0.20075340680288251 0 0.0050868312892222364 0.18473613943969669 0 0.017091032301168319 0.17767840523042469 0 0.021996108933228668 0.20075340680288251 0 0.02737505020037306 0.20584859432186189 0 0.02896826680081396 0.18916217516444311 0 0.02737505020037306 0.20584859432186189 0 0.02896826680081396 0.18916217516444311 0 0.03700193900540432 0.19741385818627191 0 0.02737505020037306 0.20584859432186189 0 0.021996108933228668 0.20075340680288251 0 0.02896826680081396 0.18916217516444311 0 0.020661735394992411 0.2051586956885337 0 0.021996108933228668 0.20075340680288251 0 0.02896826680081396 0.18916217516444311 0 0.03700193900540432 0.19741385818627191 0 0.040268194313306027 0.18822079481978821 0 0.03700193900540432 0.19741385818627191 0 0.047693692016563038 0.19766986165934269 0 0.040704491695965649 0.20616786496592321 0 0.03700193900540432 0.19741385818627191 0 0.040268194313306027 0.18822079481978821 0 0.047693692016563038 0.19766986165934269 0 0.056614384418096457 0.18202387350072241 0 0.047693692016563038 0.19766986165934269 0 0.064619492995452027 0.19895320399137409 0 0.047693692016563038 0.19766986165934269 0 0.054530534845554347 0.211360398661388 0 0.064619492995452027 0.19895320399137409 0 0.056614384418096457 0.18202387350072241 0 0.040268194313306027 0.18822079481978821 0 0.047693692016563038 0.19766986165934269 0 0.047693692016563038 0.19766986165934269 0 0.054530534845554347 0.211360398661388 0 0.040704491695965649 0.20616786496592321 0 0.054530534845554347 0.211360398661388 0 0.040115509469677853 0.21791695979213729 0 0.040704491695965649 0.20616786496592321 0 0.02737505020037306 0.20584859432186189 0 0.040115509469677853 0.21791695979213729 0 0.040704491695965649 0.20616786496592321 0 0.02737505020037306 0.20584859432186189 0 0.03700193900540432 0.19741385818627191 0 0.040704491695965649 0.20616786496592321 0 0.02737505020037306 0.20584859432186189 0 0.040115509469677853 0.21791695979213729 0 0.040115509469677853 0.21791695979213729 0 0.037475223227065577 0.23433575675854881 0 0.052855968738982843 0.22998532526241261 0 0.025562172192737639 0.2248356186274785 0 0.040115509469677853 0.21791695979213729 0 0.037475223227065577 0.23433575675854881 0 0.040115509469677853 0.21791695979213729 0 0.052855968738982843 0.22998532526241261 0 0.054530534845554347 0.211360398661388 0 0.040115509469677853 0.21791695979213729 0 0.052855968738982843 0.22998532526241261 0 0.054530534845554347 0.211360398661388 0 0.052855968738982843 0.22998532526241261 0 0.068624490581385283 0.2224680118417259 0 0.052855968738982843 0.22998532526241261 0 0.057252706777069617 0.24155285510882479 0 0.046835267556810181 0.24136518693743519 0 0.052855968738982843 0.22998532526241261 0 0.057252706777069617 0.24155285510882479 0 0.068500585195215541 0.2358951331561864 0 0.057252706777069617 0.24155285510882479 0 0.057872665771145082 0.25233156818004882 0 0.069474617258596091 0.25198075459793312 0 0.057252706777069617 0.24155285510882479 0 0.049834890706688811 0.25083617626142912 0 0.057872665771145082 0.25233156818004882 0 0.057252706777069617 0.24155285510882479 0 0.046835267556810181 0.24136518693743519 0 0.049834890706688811 0.25083617626142912 0 0.024664205123059731 0.24258300526153201 0 0.037475223227065577 0.23433575675854881 0 0.035513299725210952 0.25451186413660432 0 0.037475223227065577 0.23433575675854881 0 0.046835267556810181 0.24136518693743519 0 0.035513299725210952 0.25451186413660432 0 0.046835267556810181 0.24136518693743519 0 0.035513299725210952 0.25451186413660432 0 0.049834890706688811 0.25083617626142912 0 0.037475223227065577 0.23433575675854881 0 0.052855968738982843 0.22998532526241261 0 0.046835267556810181 0.24136518693743519 0 0.087485546461120264 0.24144464054337059 0 0.068500585195215541 0.2358951331561864 0 0.081686649824903104 0.22615331982377099 0 0.057252706777069617 0.24155285510882479 0 0.068500585195215541 0.2358951331561864 0 0.069474617258596091 0.25198075459793312 0 0.087485546461120264 0.24144464054337059 0 0.068500585195215541 0.2358951331561864 0 0.069474617258596091 0.25198075459793312 0 0.068500585195215541 0.2358951331561864 0 0.068624490581385283 0.2224680118417259 0 0.081686649824903104 0.22615331982377099 0 0.052855968738982843 0.22998532526241261 0 0.068500585195215541 0.2358951331561864 0 0.068624490581385283 0.2224680118417259 0 0.068624490581385283 0.2224680118417259 0 0.081686649824903104 0.22615331982377099 0 0.078049426346669115 0.214466364376658 0 0.087485546461120264 0.24144464054337059 0 0.081686649824903104 0.22615331982377099 0 0.096884110812316737 0.2232715897016905 0 0.081686649824903104 0.22615331982377099 0 0.090029457087355172 0.21088859371289961 0 0.096884110812316737 0.2232715897016905 0 0.090029457087355172 0.21088859371289961 0 0.080549568095911753 0.2029002340409555 0 0.1013292404874961 0.1976625137430732 0 0.090029457087355172 0.21088859371289961 0 0.078049426346669115 0.214466364376658 0 0.080549568095911753 0.2029002340409555 0 0.081686649824903104 0.22615331982377099 0 0.090029457087355172 0.21088859371289961 0 0.078049426346669115 0.214466364376658 0 0.069356966143790347 0.20992166246393801 0 0.064619492995452027 0.19895320399137409 0 0.080549568095911753 0.2029002340409555 0 0.068624490581385283 0.2224680118417259 0 0.078049426346669115 0.214466364376658 0 0.069356966143790347 0.20992166246393801 0 0.054530534845554347 0.211360398661388 0 0.068624490581385283 0.2224680118417259 0 0.069356966143790347 0.20992166246393801 0 0.054530534845554347 0.211360398661388 0 0.069356966143790347 0.20992166246393801 0 0.064619492995452027 0.19895320399137409 0 0.078049426346669115 0.214466364376658 0 0.069356966143790347 0.20992166246393801 0 0.080549568095911753 0.2029002340409555 0 0.056614384418096457 0.18202387350072241 0 0.064619492995452027 0.19895320399137409 0 0.078971812452796289 0.18984319362189789 0 0.064619492995452027 0.19895320399137409 0 0.078971812452796289 0.18984319362189789 0 0.080549568095911753 0.2029002340409555 0 0.078971812452796289 0.18984319362189789 0 0.1013292404874961 0.1976625137430732 0 0.078971812452796289 0.18984319362189789 0 0.1013292404874961 0.1976625137430732 0 0.092673529536499072 0.17637976979768161 0 0.078971812452796289 0.18984319362189789 0 0.080549568095911753 0.2029002340409555 0 0.1013292404874961 0.1976625137430732 0 0.1013292404874961 0.1976625137430732 0 0.10997010547507979 0.19242124157521179 0 0.1122523815813383 0.20148278934941569 0 0.1013292404874961 0.1976625137430732 0 0.1122523815813383 0.20148278934941569 0 0.1013292404874961 0.1976625137430732 0 0.10997010547507979 0.19242124157521179 0 0.10780202500590701 0.18262851184855269 0 0.10997010547507979 0.19242124157521179 0 0.12271683977436459 0.1893713934883873 0 0.1122523815813383 0.20148278934941569 0 0.10997010547507979 0.19242124157521179 0 0.12271683977436459 0.1893713934883873 0 0.10780202500590701 0.18262851184855269 0 0.12271683977436459 0.1893713934883873 0 0.1237336680517141 0.20113480667102801 0 0.1122523815813383 0.20148278934941569 0 0.1122523815813383 0.20148278934941569 0 0.12205642888132109 0.21269529571036899 0 0.1073529130113572 0.2124735767120203 0 0.1237336680517141 0.20113480667102801 0 0.1122523815813383 0.20148278934941569 0 0.12205642888132109 0.21269529571036899 0 0.12205642888132109 0.21269529571036899 0 0.1073529130113572 0.2124735767120203 0 0.11337658553521821 0.22728463968096749 0 0.1013292404874961 0.1976625137430732 0 0.1122523815813383 0.20148278934941569 0 0.1073529130113572 0.2124735767120203 0 0.1013292404874961 0.1976625137430732 0 0.1073529130113572 0.2124735767120203 0 0.09889893034963132 0.21107406846742091 0 0.1013292404874961 0.1976625137430732 0 0.1073529130113572 0.2124735767120203 0 0.090029457087355172 0.21088859371289961 0 0.1013292404874961 0.1976625137430732 0 0.09889893034963132 0.21107406846742091 0 0.1073529130113572 0.2124735767120203 0 0.09889893034963132 0.21107406846742091 0 0.096884110812316737 0.2232715897016905 0 0.090029457087355172 0.21088859371289961 0 0.09889893034963132 0.21107406846742091 0 0.096884110812316737 0.2232715897016905 0 0.096884110812316737 0.2232715897016905 0 0.11337658553521821 0.22728463968096749 0 0.1046015531214729 0.238030628478514 0 0.1073529130113572 0.2124735767120203 0 0.096884110812316737 0.2232715897016905 0 0.11337658553521821 0.22728463968096749 0 0.087485546461120264 0.24144464054337059 0 0.096884110812316737 0.2232715897016905 0 0.1046015531214729 0.238030628478514 0 0.11337658553521821 0.22728463968096749 0 0.1220369488812048 0.24667543794128571 0 0.12872550108290531 0.2269073910183694 0 0.1073529130113572 0.2124735767120203 0 0.11337658553521821 0.22728463968096749 0 0.12205642888132109 0.21269529571036899 0 0.11337658553521821 0.22728463968096749 0 0.12872550108290531 0.2269073910183694 0 0.1220369488812048 0.24667543794128571 0 0.1046015531214729 0.238030628478514 0 0.1032245739175046 0.25147683452525582 0 0.11337658553521821 0.22728463968096749 0 0.1220369488812048 0.24667543794128571 0 0.1046015531214729 0.238030628478514 0 0.087485546461120264 0.24144464054337059 0 0.1046015531214729 0.238030628478514 0 0.1032245739175046 0.25147683452525582 0 0.084017818585501947 0.15509702585228999 0 0.075362107634504877 0.13381428190689859 0 0.084017818585501947 0.15509702585228999 0 0.08947611065913319 0.14047561894018901 0 0.075362107634504877 0.13381428190689859 0 0.08947611065913319 0.14047561894018901 0 0.086795552323999089 0.12510053847008271 0 0.075362107634504877 0.13381428190689859 0 0.075362107634504877 0.13381428190689859 0 0.06454166491034416 0.13136666240297359 0 0.067956047542000311 0.14882167724640319 0 0.066706396683507779 0.11253153796150719 0 0.075362107634504877 0.13381428190689859 0 0.06454166491034416 0.13136666240297359 0 0.055977928529664718 0.1371342350156883 0 0.06454166491034416 0.13136666240297359 0 0.067956047542000311 0.14882167724640319 0 0.084017818585501947 0.15509702585228999 0 0.075362107634504877 0.13381428190689859 0 0.067956047542000311 0.14882167724640319 0 0.059804478177671462 0.15607195685930869 0 0.067956047542000311 0.14882167724640319 0 0.069135047216286202 0.16776263499435209 0 0.084017818585501947 0.15509702585228999 0 0.067956047542000311 0.14882167724640319 0 0.069135047216286202 0.16776263499435209 0 0.056614384418096457 0.18202387350072241 0 0.078971812452796289 0.18984319362189789 0 0.069135047216286202 0.16776263499435209 0 0.056614384418096457 0.18202387350072241 0 0.078971812452796289 0.18984319362189789 0 0.078971812452796289 0.18984319362189789 0 0.069135047216286202 0.16776263499435209 0 0.092673529536499072 0.17637976979768161 0 0.084017818585501947 0.15509702585228999 0 0.069135047216286202 0.16776263499435209 0 0.092673529536499072 0.17637976979768161 0 0.084017818585501947 0.15509702585228999 0 0.092673529536499072 0.17637976979768161 0 0.084017818585501947 0.15509702585228999 0 0.092673529536499072 0.17637976979768161 0 0.10492564990864681 0.16513819332230201 0 0.1013292404874961 0.1976625137430732 0 0.092673529536499072 0.17637976979768161 0 0.10780202500590701 0.18262851184855269 0 0.1013292404874961 0.1976625137430732 0 0.092673529536499072 0.17637976979768161 0 0.092673529536499072 0.17637976979768161 0 0.10492564990864681 0.16513819332230201 0 0.10780202500590701 0.18262851184855269 0 0.12271683977436459 0.1893713934883873 0 0.10780202500590701 0.18262851184855269 0 0.1290641177487365 0.16707128874493091 0 0.10492564990864681 0.16513819332230201 0 0.1079298350363677 0.1460859136075067 0 0.1290641177487365 0.16707128874493091 0 0.10492564990864681 0.16513819332230201 0 0.10780202500590701 0.18262851184855269 0 0.1290641177487365 0.16707128874493091 0 0.1079298350363677 0.1460859136075067 0 0.1290641177487365 0.16707128874493091 0 0.1079298350363677 0.1460859136075067 0 0.12740939023535991 0.1498358249073744 0 0.1290641177487365 0.16707128874493091 0 0.1189372064621934 0.14194029313389039 0 0.1079298350363677 0.1460859136075067 0 0.12740939023535991 0.1498358249073744 0 0.084017818585501947 0.15509702585228999 0 0.08947611065913319 0.14047561894018901 0 0.1079298350363677 0.1460859136075067 0 0.084017818585501947 0.15509702585228999 0 0.10492564990864681 0.16513819332230201 0 0.1079298350363677 0.1460859136075067 0 0.086795552323999089 0.12510053847008271 0 0.1079298350363677 0.1460859136075067 0 0.08947611065913319 0.14047561894018901 0 0.086795552323999089 0.12510053847008271 0 0.1079298350363677 0.1460859136075067 0 0.086795552323999089 0.12510053847008271 0 0.1079298350363677 0.1460859136075067 0 0.1062595071875575 0.13156284364253909 0 0.1034498182926475 0.11963711251952359 0 0.086795552323999089 0.12510053847008271 0 0.1062595071875575 0.13156284364253909 0 0.1034498182926475 0.11963711251952359 0 0.1062595071875575 0.13156284364253909 0 0.11418512382257991 0.12505036048169191 0 0.1189372064621934 0.14194029313389039 0 0.11418512382257991 0.12505036048169191 0 0.12897659071878101 0.13054286942938029 0 0.1189372064621934 0.14194029313389039 0 0.1062595071875575 0.13156284364253909 0 0.11418512382257991 0.12505036048169191 0 0.1189372064621934 0.14194029313389039 0 0.1079298350363677 0.1460859136075067 0 0.1062595071875575 0.13156284364253909 0 0.1189372064621934 0.14194029313389039 0 0.13741311684246091 0.14042389167338801 0 0.14182393010718941 0.1386444972899154 0 0.1189372064621934 0.14194029313389039 0 0.1321095483567335 0.13512199185861479 0 0.14182393010718941 0.1386444972899154 0 0.11418512382257991 0.12505036048169191 0 0.12897659071878101 0.13054286942938029 0 0.1395076166176695 0.1195980991317228 0 0.1189372064621934 0.14194029313389039 0 0.14182393010718941 0.1386444972899154 0 0.1189372064621934 0.14194029313389039 0 0.12897659071878101 0.13054286942938029 0 0.1321095483567335 0.13512199185861479 0 0.1321095483567335 0.13512199185861479 0 0.13870046613877021 0.1293603075812734 0 0.14182393010718941 0.1386444972899154 0 0.12897659071878101 0.13054286942938029 0 0.13870046613877021 0.1293603075812734 0 0.1395076166176695 0.1195980991317228 0 0.12897659071878101 0.13054286942938029 0 0.1321095483567335 0.13512199185861479 0 0.13870046613877021 0.1293603075812734 0 0.14182393010718941 0.1386444972899154 0 0.16471065375218541 0.13534870144594041 0 0.13870046613877021 0.1293603075812734 0 0.151935838596682 0.12775069764303459 0 0.1395076166176695 0.1195980991317228 0 0.14182393010718941 0.1386444972899154 0 0.151935838596682 0.12775069764303459 0 0.16471065375218541 0.13534870144594041 0 0.14182393010718941 0.1386444972899154 0 0.15505768054875649 0.14392043550786271 0 0.16471065375218541 0.13534870144594041 0 0.13870046613877021 0.1293603075812734 0 0.14182393010718941 0.1386444972899154 0 0.151935838596682 0.12775069764303459 0 0.13741311684246091 0.14042389167338801 0 0.15832776224411579 0.1545521873036928 0 0.13741311684246091 0.14042389167338801 0 0.14182393010718941 0.1386444972899154 0 0.15505768054875649 0.14392043550786271 0 0.13741311684246091 0.14042389167338801 0 0.15505768054875649 0.14392043550786271 0 0.15832776224411579 0.1545521873036928 0 0.13741311684246091 0.14042389167338801 0 0.14320174269230579 0.15530654175680969 0 0.15832776224411579 0.1545521873036928 0 0.13741311684246091 0.14042389167338801 0 0.14320174269230579 0.15530654175680969 0 0.12740939023535991 0.1498358249073744 0 0.1189372064621934 0.14194029313389039 0 0.13741311684246091 0.14042389167338801 0 0.12740939023535991 0.1498358249073744 0 0.14320174269230579 0.15530654175680969 0 0.12740939023535991 0.1498358249073744 0 0.1290641177487365 0.16707128874493091 0 0.12271683977436459 0.1893713934883873 0 0.1290641177487365 0.16707128874493091 0 0.15019840046110461 0.1880566638823559 0 0.1290641177487365 0.16707128874493091 0 0.15019840046110461 0.1880566638823559 0 0.1290641177487365 0.16707128874493091 0 0.15544030508302589 0.1701086287341623 0 0.15019840046110461 0.1880566638823559 0 0.14320174269230579 0.15530654175680969 0 0.1290641177487365 0.16707128874493091 0 0.15544030508302589 0.1701086287341623 0 0.14320174269230579 0.15530654175680969 0 0.15544030508302589 0.1701086287341623 0 0.15832776224411579 0.1545521873036928 0 0.17924240764577071 0.16868048293399759 0 0.15832776224411579 0.1545521873036928 0 0.15544030508302589 0.1701086287341623 0 0.17924240764577071 0.16868048293399759 0 0.15832776224411579 0.1545521873036928 0 0.17924240764577071 0.16868048293399759 0 0.17301293979783131 0.15063289982637679 0 0.15832776224411579 0.1545521873036928 0 0.15544030508302589 0.1701086287341623 0 0.17260739970612221 0.18698460778318601 0 0.15019840046110461 0.1880566638823559 0 0.15544030508302589 0.1701086287341623 0 0.17260739970612221 0.18698460778318601 0 0.17924240764577071 0.16868048293399759 0 0.17260739970612221 0.18698460778318601 0 0.17924240764577071 0.16868048293399759 0 0.19501639895113981 0.18591255168401569 0 0.17260739970612221 0.18698460778318601 0 0.19501639895113981 0.18591255168401569 0 0.17924240764577071 0.16868048293399759 0 0.19508750491256729 0.17938418907756451 0 0.17924240764577071 0.16868048293399759 0 0.18714215513407201 0.1562347323922548 0 0.17301293979783131 0.15063289982637679 0 0.17924240764577071 0.16868048293399759 0 0.18714215513407201 0.1562347323922548 0 0.19268591237252841 0.16643512416312001 0 0.18714215513407201 0.1562347323922548 0 0.17301293979783131 0.15063289982637679 0 0.1863602834409061 0.1433621590259038 0 0.17301293979783131 0.15063289982637679 0 0.1863602834409061 0.1433621590259038 0 0.16471065375218541 0.13534870144594041 0 0.1863602834409061 0.1433621590259038 0 0.1875973773971813 0.1320529056019647 0 0.16471065375218541 0.13534870144594041 0 0.1875973773971813 0.1320529056019647 0 0.17682268569249371 0.12256025531536049 0 0.16471065375218541 0.13534870144594041 0 0.1875973773971813 0.1320529056019647 0 0.1863602834409061 0.1433621590259038 0 0.16471065375218541 0.13534870144594041 0 0.1875973773971813 0.1320529056019647 0 0.151935838596682 0.12775069764303459 0 0.16471065375218541 0.13534870144594041 0 0.16483010941275919 0.11414583778175361 0 0.15505768054875649 0.14392043550786271 0 0.17301293979783131 0.15063289982637679 0 0.15832776224411579 0.1545521873036928 0 0.15505768054875649 0.14392043550786271 0 0.17301293979783131 0.15063289982637679 0 0.16471065375218541 0.13534870144594041 0 0.15019085411380001 0.233627846543495 0 0.170472016873191 0.2412030544994046 0 0.1445194278467675 0.25441497157258658 0 0.13635364760174121 0.2392830298920825 0 0.15019085411380001 0.233627846543495 0 0.1445194278467675 0.25441497157258658 0 0.1220369488812048 0.24667543794128571 0 0.13635364760174121 0.2392830298920825 0 0.12872550108290531 0.2269073910183694 0 0.1220369488812048 0.24667543794128571 0 0.13635364760174121 0.2392830298920825 0 0.1445194278467675 0.25441497157258658 0 0.13635364760174121 0.2392830298920825 0 0.12872550108290531 0.2269073910183694 0 0.139843585507823 0.22653011888719571 0 0.12872550108290531 0.2269073910183694 0 0.139843585507823 0.22653011888719571 0 0.13504209001016709 0.21555684284824209 0 0.139843585507823 0.22653011888719571 0 0.15019085411380001 0.233627846543495 0 0.14931272457267969 0.21632830712719769 0 0.15019085411380001 0.233627846543495 0 0.14931272457267969 0.21632830712719769 0 0.16343800963938199 0.2268535628144123 0 0.139843585507823 0.22653011888719571 0 0.14931272457267969 0.21632830712719769 0 0.13504209001016709 0.21555684284824209 0 0.13635364760174121 0.2392830298920825 0 0.139843585507823 0.22653011888719571 0 0.15019085411380001 0.233627846543495 0 0.14931272457267969 0.21632830712719769 0 0.1558019746630955 0.20784182269878579 0 0.1613296324966943 0.21353870044346879 0 0.14931272457267969 0.21632830712719769 0 0.1558019746630955 0.20784182269878579 0 0.1486564854865467 0.20461360787248531 0 0.1558019746630955 0.20784182269878579 0 0.1486564854865467 0.20461360787248531 0 0.1562765567101177 0.19974873476446761 0 0.14931272457267969 0.21632830712719769 0 0.1486564854865467 0.20461360787248531 0 0.14006822748333611 0.20523671912547881 0 0.14931272457267969 0.21632830712719769 0 0.13504209001016709 0.21555684284824209 0 0.14006822748333611 0.20523671912547881 0 0.12205642888132109 0.21269529571036899 0 0.12872550108290531 0.2269073910183694 0 0.13504209001016709 0.21555684284824209 0 0.12205642888132109 0.21269529571036899 0 0.13504209001016709 0.21555684284824209 0 0.13135219029385151 0.20654225137282489 0 0.1237336680517141 0.20113480667102801 0 0.12205642888132109 0.21269529571036899 0 0.13135219029385151 0.20654225137282489 0 0.13135219029385151 0.20654225137282489 0 0.14006822748333611 0.20523671912547881 0 0.1358605370427188 0.19808759250900659 0 0.13504209001016709 0.21555684284824209 0 0.13135219029385151 0.20654225137282489 0 0.14006822748333611 0.20523671912547881 0 0.12271683977436459 0.1893713934883873 0 0.15019840046110461 0.1880566638823559 0 0.12271683977436459 0.1893713934883873 0 0.1358605370427188 0.19808759250900659 0 0.15019840046110461 0.1880566638823559 0 0.1237336680517141 0.20113480667102801 0 0.13135219029385151 0.20654225137282489 0 0.1358605370427188 0.19808759250900659 0 0.12271683977436459 0.1893713934883873 0 0.1237336680517141 0.20113480667102801 0 0.1358605370427188 0.19808759250900659 0 0.1358605370427188 0.19808759250900659 0 0.1484878241269951 0.19698498946254581 0 0.15019840046110461 0.1880566638823559 0 0.1486564854865467 0.20461360787248531 0 0.14006822748333611 0.20523671912547881 0 0.1484878241269951 0.19698498946254581 0 0.14006822748333611 0.20523671912547881 0 0.1358605370427188 0.19808759250900659 0 0.1484878241269951 0.19698498946254581 0 0.1486564854865467 0.20461360787248531 0 0.1484878241269951 0.19698498946254581 0 0.1562765567101177 0.19974873476446761 0 0.1484878241269951 0.19698498946254581 0 0.1545688557232951 0.19526103280708171 0 0.1562765567101177 0.19974873476446761 0 0.1545688557232951 0.19526103280708171 0 0.1529735670937446 0.19081227729244341 0 0.1605275964055364 0.19396311436340169 0 0.1484878241269951 0.19698498946254581 0 0.1529735670937446 0.19081227729244341 0 0.15019840046110461 0.1880566638823559 0 0.1529735670937446 0.19081227729244341 0 0.15019840046110461 0.1880566638823559 0 0.1484878241269951 0.19698498946254581 0 0.1545688557232951 0.19526103280708171 0 0.1529735670937446 0.19081227729244341 0 0.17260739970612221 0.18698460778318601 0 0.15019840046110461 0.1880566638823559 0 0.17260739970612221 0.18698460778318601 0 0.1529735670937446 0.19081227729244341 0 0.1605275964055364 0.19396311436340169 0 0.17260739970612221 0.18698460778318601 0 0.1529735670937446 0.19081227729244341 0 0.15019840046110461 0.1880566638823559 0 0.1545688557232951 0.19526103280708171 0 0.1605275964055364 0.19396311436340169 0 0.1562765567101177 0.19974873476446761 0 0.1605275964055364 0.19396311436340169 0 0.1562765567101177 0.19974873476446761 0 0.16620542869641081 0.19729953457891239 0 0.1562765567101177 0.19974873476446761 0 0.16620542869641081 0.19729953457891239 0 0.16343447404943931 0.20497976328630929 0 0.16620542869641081 0.19729953457891239 0 0.17111564599517859 0.2026234830045999 0 0.17723081179302111 0.1966509570125588 0 0.16620542869641081 0.19729953457891239 0 0.17111564599517859 0.2026234830045999 0 0.16343447404943931 0.20497976328630929 0 0.17260739970612221 0.18698460778318601 0 0.1605275964055364 0.19396311436340169 0 0.16620542869641081 0.19729953457891239 0 0.17260739970612221 0.18698460778318601 0 0.16620542869641081 0.19729953457891239 0 0.17723081179302111 0.1966509570125588 0 0.17723081179302111 0.1966509570125588 0 0.19501639895113981 0.18591255168401569 0 0.17260739970612221 0.18698460778318601 0 0.17723081179302111 0.1966509570125588 0 0.19501639895113981 0.18591255168401569 0 0.17723081179302111 0.1966509570125588 0 0.19014517007825121 0.19553885524840389 0 0.19501639895113981 0.18591255168401569 0 0.18558232916515521 0.2010397241254939 0 0.17723081179302111 0.1966509570125588 0 0.19014517007825121 0.19553885524840389 0 0.18558232916515521 0.2010397241254939 0 0.17723081179302111 0.1966509570125588 0 0.17904345740364999 0.2040957342579087 0 0.17111564599517859 0.2026234830045999 0 0.17723081179302111 0.1966509570125588 0 0.17904345740364999 0.2040957342579087 0 0.17111564599517859 0.2026234830045999 0 0.17904345740364999 0.2040957342579087 0 0.17401422430706029 0.21110795429602111 0 0.18558232916515521 0.2010397241254939 0 0.17904345740364999 0.2040957342579087 0 0.18727427575783501 0.20905655285086949 0 0.17904345740364999 0.2040957342579087 0 0.18727427575783501 0.20905655285086949 0 0.17401422430706029 0.21110795429602111 0 0.18727427575783501 0.20905655285086949 0 0.18384294535839371 0.2175800976911291 0 0.17401422430706029 0.21110795429602111 0 0.18384294535839371 0.2175800976911291 0 0.17401422430706029 0.21110795429602111 0 0.17516927208524261 0.22349322941747249 0 0.17401422430706029 0.21110795429602111 0 0.16848778463209479 0.21874836174284359 0 0.17516927208524261 0.22349322941747249 0 0.17401422430706029 0.21110795429602111 0 0.16848778463209479 0.21874836174284359 0 0.1613296324966943 0.21353870044346879 0 0.17111564599517859 0.2026234830045999 0 0.17401422430706029 0.21110795429602111 0 0.16343447404943931 0.20497976328630929 0 0.17401422430706029 0.21110795429602111 0 0.16343447404943931 0.20497976328630929 0 0.1613296324966943 0.21353870044346879 0 0.1558019746630955 0.20784182269878579 0 0.1562765567101177 0.19974873476446761 0 0.16343447404943931 0.20497976328630929 0 0.1558019746630955 0.20784182269878579 0 0.16343447404943931 0.20497976328630929 0 0.1613296324966943 0.21353870044346879 0 0.15019085411380001 0.233627846543495 0 0.16343800963938199 0.2268535628144123 0 0.170472016873191 0.2412030544994046 0 0.16343800963938199 0.2268535628144123 0 0.17516927208524261 0.22349322941747249 0 0.170472016873191 0.2412030544994046 0 0.14931272457267969 0.21632830712719769 0 0.1613296324966943 0.21353870044346879 0 0.16343800963938199 0.2268535628144123 0 0.16848778463209479 0.21874836174284359 0 0.16343800963938199 0.2268535628144123 0 0.17516927208524261 0.22349322941747249 0 0.16848778463209479 0.21874836174284359 0 0.1613296324966943 0.21353870044346879 0 0.16343800963938199 0.2268535628144123 0 0.1844221325513318 0.22575727369722789 0 0.170472016873191 0.2412030544994046 0 0.1964246058996145 0.2279911374262226 0 0.17516927208524261 0.22349322941747249 0 0.1844221325513318 0.22575727369722789 0 0.170472016873191 0.2412030544994046 0 0.18384294535839371 0.2175800976911291 0 0.1844221325513318 0.22575727369722789 0 0.19406882298993519 0.2185522207097669 0 0.18384294535839371 0.2175800976911291 0 0.17516927208524261 0.22349322941747249 0 0.1844221325513318 0.22575727369722789 0 0.170472016873191 0.2412030544994046 0 0.1964246058996145 0.2279911374262226 0 0.1898230052980576 0.25015052600849719 0 0.170472016873191 0.2412030544994046 0 0.1964246058996145 0.2279911374262226 0 0.170472016873191 0.2412030544994046 0 0.1445194278467675 0.25441497157258658 0 0.21618206523040279 0.230129948276135 0 0.21064805985606991 0.25920556865035532 0 0.21618206523040279 0.230129948276135 0 0.21064805985606991 0.25920556865035532 0 0.22695336072194019 0.25057729098146658 0 0.2055832800304439 0.24335802530779341 0 0.21618206523040279 0.230129948276135 0 0.21064805985606991 0.25920556865035532 0 0.2055832800304439 0.24335802530779341 0 0.2103904514327829 0.23247940608945031 0 0.21618206523040279 0.230129948276135 0 0.20473160915546501 0.22674263240250339 0 0.1898230052980576 0.25015052600849719 0 0.1964246058996145 0.2279911374262226 0 0.20473160915546501 0.22674263240250339 0 0.1898230052980576 0.25015052600849719 0 0.2055832800304439 0.24335802530779341 0 0.20473160915546501 0.22674263240250339 0 0.1898230052980576 0.25015052600849719 0 0.1844221325513318 0.22575727369722789 0 0.1964246058996145 0.2279911374262226 0 0.19406882298993519 0.2185522207097669 0 0.1964246058996145 0.2279911374262226 0 0.19984984154973609 0.22270475191434569 0 0.20473160915546501 0.22674263240250339 0 0.1964246058996145 0.2279911374262226 0 0.19984984154973609 0.22270475191434569 0 0.19406882298993519 0.2185522207097669 0 0.19984984154973609 0.22270475191434569 0 0.20473160915546501 0.22674263240250339 0 0.20416730627307511 0.2177797821780442 0 0.19984984154973609 0.22270475191434569 0 0.20416730627307511 0.2177797821780442 0 0.19406882298993519 0.2185522207097669 0 0.20473160915546501 0.22674263240250339 0 0.21618206523040279 0.230129948276135 0 0.21964021301287179 0.20333473879650921 0 0.2055832800304439 0.24335802530779341 0 0.2103904514327829 0.23247940608945031 0 0.20473160915546501 0.22674263240250339 0 0.2103904514327829 0.23247940608945031 0 0.20473160915546501 0.22674263240250339 0 0.21618206523040279 0.230129948276135 0 0.20473160915546501 0.22674263240250339 0 0.21964021301287179 0.20333473879650921 0 0.20473160915546501 0.22674263240250339 0 0.20416730627307511 0.2177797821780442 0 0.21964021301287179 0.20333473879650921 0 0.21147642212619899 0.2065723695043031 0 0.21516534234371221 0.20278138997973269 0 0.21964021301287179 0.20333473879650921 0 0.20416730627307511 0.2177797821780442 0 0.21964021301287179 0.20333473879650921 0 0.21147642212619899 0.2065723695043031 0 0.20416730627307511 0.2177797821780442 0 0.21964021301287179 0.20333473879650921 0 0.21147642212619899 0.2065723695043031 0 0.21192643591721941 0.20181508657515429 0 0.21516534234371221 0.20278138997973269 0 0.21147642212619899 0.2065723695043031 0 0.2071159870216904 0.20916310897487639 0 0.20798630802442961 0.20462483193199371 0 0.21147642212619899 0.2065723695043031 0 0.20798630802442961 0.20462483193199371 0 0.21192643591721941 0.20181508657515429 0 0.20798630802442961 0.20462483193199371 0 0.20330777610123071 0.2080070618225654 0 0.20447178582202871 0.2025376671224566 0 0.2071159870216904 0.20916310897487639 0 0.20798630802442961 0.20462483193199371 0 0.20330777610123071 0.2080070618225654 0 0.2071159870216904 0.20916310897487639 0 0.20330777610123071 0.2080070618225654 0 0.20416730627307511 0.2177797821780442 0 0.21147642212619899 0.2065723695043031 0 0.2071159870216904 0.20916310897487639 0 0.20416730627307511 0.2177797821780442 0 0.20416730627307511 0.2177797821780442 0 0.19406882298993519 0.2185522207097669 0 0.19703531307948299 0.20971721602617049 0 0.20330777610123071 0.2080070618225654 0 0.20416730627307511 0.2177797821780442 0 0.19703531307948299 0.20971721602617049 0 0.18727427575783501 0.20905655285086949 0 0.18384294535839371 0.2175800976911291 0 0.19406882298993519 0.2185522207097669 0 0.18727427575783501 0.20905655285086949 0 0.19406882298993519 0.2185522207097669 0 0.19703531307948299 0.20971721602617049 0 0.18727427575783501 0.20905655285086949 0 0.19703531307948299 0.20971721602617049 0 0.1945882334770325 0.2010971638798271 0 0.18558232916515521 0.2010397241254939 0 0.18727427575783501 0.20905655285086949 0 0.1945882334770325 0.2010971638798271 0 0.19703531307948299 0.20971721602617049 0 0.20034861812956231 0.2038956782066233 0 0.1945882334770325 0.2010971638798271 0 0.20330777610123071 0.2080070618225654 0 0.19703531307948299 0.20971721602617049 0 0.20034861812956231 0.2038956782066233 0 0.20330777610123071 0.2080070618225654 0 0.20034861812956231 0.2038956782066233 0 0.20447178582202871 0.2025376671224566 0 0.20034861812956231 0.2038956782066233 0 0.2023399821680367 0.19811928218209701 0 0.20447178582202871 0.2025376671224566 0 0.2023399821680367 0.19811928218209701 0 0.1945882334770325 0.2010971638798271 0 0.19830807700490749 0.19299387954012431 0 0.20034861812956231 0.2038956782066233 0 0.2023399821680367 0.19811928218209701 0 0.1945882334770325 0.2010971638798271 0 0.1945882334770325 0.2010971638798271 0 0.19014517007825121 0.19553885524840389 0 0.19830807700490749 0.19299387954012431 0 0.18558232916515521 0.2010397241254939 0 0.1945882334770325 0.2010971638798271 0 0.19014517007825121 0.19553885524840389 0 0.19014517007825121 0.19553885524840389 0 0.19830807700490749 0.19299387954012431 0 0.19501639895113981 0.18591255168401569 0 0.19830807700490749 0.19299387954012431 0 0.2012919679182604 0.18858706259615141 0 0.19501639895113981 0.18591255168401569 0 0.2023399821680367 0.19811928218209701 0 0.19830807700490749 0.19299387954012431 0 0.20455034257678209 0.19152123486610251 0 0.19830807700490749 0.19299387954012431 0 0.2012919679182604 0.18858706259615141 0 0.20455034257678209 0.19152123486610251 0 0.2012919679182604 0.18858706259615141 0 0.20455034257678209 0.19152123486610251 0 0.20585741379858349 0.18665949562620271 0 0.21140385346657581 0.19144855368437791 0 0.20585741379858349 0.18665949562620271 0 0.22180079480528619 0.18463117474147231 0 0.20455034257678209 0.19152123486610251 0 0.21140385346657581 0.19144855368437791 0 0.20585741379858349 0.18665949562620271 0 0.20750610369910649 0.195006601974964 0 0.20455034257678209 0.19152123486610251 0 0.21140385346657581 0.19144855368437791 0 0.20750610369910649 0.195006601974964 0 0.21205297417004679 0.19698977433792589 0 0.21140385346657581 0.19144855368437791 0 0.2023399821680367 0.19811928218209701 0 0.20750610369910649 0.195006601974964 0 0.20455034257678209 0.19152123486610251 0 0.2023399821680367 0.19811928218209701 0 0.20750610369910649 0.195006601974964 0 0.20788537620972231 0.19945866318935371 0 0.2023399821680367 0.19811928218209701 0 0.20447178582202871 0.2025376671224566 0 0.20788537620972231 0.19945866318935371 0 0.20798630802442961 0.20462483193199371 0 0.20447178582202871 0.2025376671224566 0 0.20788537620972231 0.19945866318935371 0 0.20788537620972231 0.19945866318935371 0 0.21205297417004679 0.19698977433792589 0 0.21192643591721941 0.20181508657515429 0 0.20798630802442961 0.20462483193199371 0 0.20788537620972231 0.19945866318935371 0 0.21192643591721941 0.20181508657515429 0 0.20750610369910649 0.195006601974964 0 0.20788537620972231 0.19945866318935371 0 0.21205297417004679 0.19698977433792589 0 0.21205297417004679 0.19698977433792589 0 0.21192643591721941 0.20181508657515429 0 0.21642790658347649 0.1994303322973357 0 0.21192643591721941 0.20181508657515429 0 0.21516534234371221 0.20278138997973269 0 0.21642790658347649 0.1994303322973357 0 0.21516534234371221 0.20278138997973269 0 0.21642790658347649 0.1994303322973357 0 0.21964021301287179 0.20333473879650921 0 0.21642790658347649 0.1994303322973357 0 0.21669147485819409 0.19417684733513499 0 0.22198178864164991 0.19965824744205049 0 0.21205297417004679 0.19698977433792589 0 0.21642790658347649 0.1994303322973357 0 0.21669147485819409 0.19417684733513499 0 0.21669147485819409 0.19417684733513499 0 0.21140385346657581 0.19144855368437791 0 0.22180079480528619 0.18463117474147231 0 0.21205297417004679 0.19698977433792589 0 0.21669147485819409 0.19417684733513499 0 0.21140385346657581 0.19144855368437791 0 0.22198178864164991 0.19965824744205049 0 0.23362570829127341 0.18137621144981311 0 0.24127671145533749 0.1831355503775616 0 0.22198178864164991 0.19965824744205049 0 0.23362570829127341 0.18137621144981311 0 0.22198178864164991 0.19965824744205049 0 0.22163680698655541 0.20147077832353991 0 0.24127671145533749 0.1831355503775616 0 0.22163680698655541 0.20147077832353991 0 0.23632742605745899 0.19780400992919911 0 0.24127671145533749 0.1831355503775616 0 0.22163680698655541 0.20147077832353991 0 0.24127671145533749 0.1831355503775616 0 0.21669147485819409 0.19417684733513499 0 0.22198178864164991 0.19965824744205049 0 0.22180079480528619 0.18463117474147231 0 0.21642790658347649 0.1994303322973357 0 0.22198178864164991 0.19965824744205049 0 0.21964021301287179 0.20333473879650921 0 0.22163680698655541 0.20147077832353991 0 0.21964021301287179 0.20333473879650921 0 0.22198178864164991 0.19965824744205049 0 0.22163680698655541 0.20147077832353991 0 0.22198178864164991 0.19965824744205049 0 0.22163680698655541 0.20147077832353991 0 0.21964021301287179 0.20333473879650921 0 0.22198178864164991 0.19965824744205049 0 0.21964021301287179 0.20333473879650921 0 0.23632742605745899 0.19780400992919911 0 0.25027958451938309 0.18093784940587171 0 0.25101603294849978 0.19316925088699061 0 0.23632742605745899 0.19780400992919911 0 0.25027958451938309 0.18093784940587171 0 0.23632742605745899 0.19780400992919911 0 0.2468665209182411 0.20316312670397371 0 0.25101603294849978 0.19316925088699061 0 0.2347488444606935 0.21480294109410089 0 0.2468665209182411 0.20316312670397371 0 0.25399362891722022 0.2147551623774705 0 0.23632742605745899 0.19780400992919911 0 0.2347488444606935 0.21480294109410089 0 0.2468665209182411 0.20316312670397371 0 0.21618206523040279 0.230129948276135 0 0.22163680698655541 0.20147077832353991 0 0.2347488444606935 0.21480294109410089 0 0.21618206523040279 0.230129948276135 0 0.22163680698655541 0.20147077832353991 0 0.21964021301287179 0.20333473879650921 0 0.21618206523040279 0.230129948276135 0 0.22163680698655541 0.20147077832353991 0 0.22163680698655541 0.20147077832353991 0 0.23632742605745899 0.19780400992919911 0 0.2347488444606935 0.21480294109410089 0 0.21618206523040279 0.230129948276135 0 0.2347488444606935 0.21480294109410089 0 0.24242825524523789 0.24053549575596991 0 0.2347488444606935 0.21480294109410089 0 0.24242825524523789 0.24053549575596991 0 0.25399362891722022 0.2147551623774705 0 0.21618206523040279 0.230129948276135 0 0.24242825524523789 0.24053549575596991 0 0.22695336072194019 0.25057729098146658 0 0.21618206523040279 0.230129948276135 0 0.24242825524523789 0.24053549575596991 0 0.21395340506981039 0.1456894405384902 0 0.19971442775755141 0.1591074366056352 0 0.2132033259890922 0.1616841592063242 0 0.21395340506981039 0.1456894405384902 0 0.2132033259890922 0.1616841592063242 0 0.22213404809735759 0.15379679447076869 0 0.21395340506981039 0.1456894405384902 0 0.20030734795014901 0.1450688520873771 0 0.19971442775755141 0.1591074366056352 0 0.20559903482369571 0.12946058226852319 0 0.22360069225021009 0.126868258935081 0 0.2045868457275983 0.1190711521533024 0 0.21395340506981039 0.1456894405384902 0 0.20559903482369571 0.12946058226852319 0 0.22360069225021009 0.126868258935081 0 0.20559903482369571 0.12946058226852319 0 0.22360069225021009 0.126868258935081 0 0.21395340506981039 0.1456894405384902 0 0.20559903482369571 0.12946058226852319 0 0.20030734795014901 0.1450688520873771 0 0.20559903482369571 0.12946058226852319 0 0.19403573047099781 0.13847947083870291 0 0.20030734795014901 0.1450688520873771 0 0.20559903482369571 0.12946058226852319 0 0.1875973773971813 0.1320529056019647 0 0.19403573047099781 0.13847947083870291 0 0.20559903482369571 0.12946058226852319 0 0.1875973773971813 0.1320529056019647 0 0.20559903482369571 0.12946058226852319 0 0.1875973773971813 0.1320529056019647 0 0.1968243317936452 0.12147700584248521 0 0.1863602834409061 0.1433621590259038 0 0.1875973773971813 0.1320529056019647 0 0.19403573047099781 0.13847947083870291 0 0.1863602834409061 0.1433621590259038 0 0.19403573047099781 0.13847947083870291 0 0.20030734795014901 0.1450688520873771 0 0.18714215513407201 0.1562347323922548 0 0.1863602834409061 0.1433621590259038 0 0.20030734795014901 0.1450688520873771 0 0.18714215513407201 0.1562347323922548 0 0.20030734795014901 0.1450688520873771 0 0.19971442775755141 0.1591074366056352 0 0.17924240764577071 0.16868048293399759 0 0.19268591237252841 0.16643512416312001 0 0.19508750491256729 0.17938418907756451 0 0.18714215513407201 0.1562347323922548 0 0.19268591237252841 0.16643512416312001 0 0.19971442775755141 0.1591074366056352 0 0.19268591237252841 0.16643512416312001 0 0.20215163695161559 0.1689041262631783 0 0.19971442775755141 0.1591074366056352 0 0.19268591237252841 0.16643512416312001 0 0.20215163695161559 0.1689041262631783 0 0.19508750491256729 0.17938418907756451 0 0.19508750491256729 0.17938418907756451 0 0.20015705304742629 0.18280877856430161 0 0.2122776969845015 0.1754906964407158 0 0.17924240764577071 0.16868048293399759 0 0.19501639895113981 0.18591255168401569 0 0.19508750491256729 0.17938418907756451 0 0.19501639895113981 0.18591255168401569 0 0.20410782977103431 0.18547761374885641 0 0.2012919679182604 0.18858706259615141 0 0.19501639895113981 0.18591255168401569 0 0.20410782977103431 0.18547761374885641 0 0.19501639895113981 0.18591255168401569 0 0.20015705304742629 0.18280877856430161 0 0.20410782977103431 0.18547761374885641 0 0.19501639895113981 0.18591255168401569 0 0.19508750491256729 0.17938418907756451 0 0.20015705304742629 0.18280877856430161 0 0.19508750491256729 0.17938418907756451 0 0.20015705304742629 0.18280877856430161 0 0.20015705304742629 0.18280877856430161 0 0.20410782977103431 0.18547761374885641 0 0.19501639895113981 0.18591255168401569 0 0.20015705304742629 0.18280877856430161 0 0.19508750491256729 0.17938418907756451 0 0.2122776969845015 0.1754906964407158 0 0.20410782977103431 0.18547761374885641 0 0.22180079480528619 0.18463117474147231 0 0.20585741379858349 0.18665949562620271 0 0.20410782977103431 0.18547761374885641 0 0.22180079480528619 0.18463117474147231 0 0.20215163695161559 0.1689041262631783 0 0.19508750491256729 0.17938418907756451 0 0.2122776969845015 0.1754906964407158 0 0.20410782977103431 0.18547761374885641 0 0.2122776969845015 0.1754906964407158 0 0.22180079480528619 0.18463117474147231 0 0.20015705304742629 0.18280877856430161 0 0.20410782977103431 0.18547761374885641 0 0.2122776969845015 0.1754906964407158 0 0.2012919679182604 0.18858706259615141 0 0.20585741379858349 0.18665949562620271 0 0.20410782977103431 0.18547761374885641 0 0.20585741379858349 0.18665949562620271 0 0.20410782977103431 0.18547761374885641 0 0.20015705304742629 0.18280877856430161 0 0.2122776969845015 0.1754906964407158 0 0.2122776969845015 0.1754906964407158 0 0.2132033259890922 0.1616841592063242 0 0.22843881180922321 0.16573309889803131 0 0.20215163695161559 0.1689041262631783 0 0.19971442775755141 0.1591074366056352 0 0.2132033259890922 0.1616841592063242 0 0.20215163695161559 0.1689041262631783 0 0.2122776969845015 0.1754906964407158 0 0.2132033259890922 0.1616841592063242 0 0.22843881180922321 0.16573309889803131 0 0.22720613619560301 0.17220956680176591 0 0.24406137605986569 0.16850494461668031 0 0.2122776969845015 0.1754906964407158 0 0.22843881180922321 0.16573309889803131 0 0.2122776969845015 0.1754906964407158 0 0.22843881180922321 0.16573309889803131 0 0.22720613619560301 0.17220956680176591 0 0.2132033259890922 0.1616841592063242 0 0.22843881180922321 0.16573309889803131 0 0.22213404809735759 0.15379679447076869 0 0.22843881180922321 0.16573309889803131 0 0.22720613619560301 0.17220956680176591 0 0.22198178864164991 0.19965824744205049 0 0.22720613619560301 0.17220956680176591 0 0.22198178864164991 0.19965824744205049 0 0.22180079480528619 0.18463117474147231 0 0.22720613619560301 0.17220956680176591 0 0.22198178864164991 0.19965824744205049 0 0.22720613619560301 0.17220956680176591 0 0.23362570829127341 0.18137621144981311 0 0.2122776969845015 0.1754906964407158 0 0.22720613619560301 0.17220956680176591 0 0.2122776969845015 0.1754906964407158 0 0.22180079480528619 0.18463117474147231 0 0.22720613619560301 0.17220956680176591 0 0.24127671145533749 0.1831355503775616 0 0.24406137605986569 0.16850494461668031 0 0.26091661592412763 0.16480032243159209 0 0.22720613619560301 0.17220956680176591 0 0.23362570829127341 0.18137621144981311 0 0.24406137605986569 0.16850494461668031 0 0.23632742605745899 0.19780400992919911 0 0.24127671145533749 0.1831355503775616 0 0.25027958451938309 0.18093784940587171 0 0.23362570829127341 0.18137621144981311 0 0.24127671145533749 0.1831355503775616 0 0.24406137605986569 0.16850494461668031 0 0.22720613619560301 0.17220956680176591 0 0.24406137605986569 0.16850494461668031 0 0.24406137605986569 0.16850494461668031 0 0.24472819154328501 0.15589805884118429 0 0.26091661592412763 0.16480032243159209 0 0.22843881180922321 0.16573309889803131 0 0.24406137605986569 0.16850494461668031 0 0.24472819154328501 0.15589805884118429 0 0.22843881180922321 0.16573309889803131 0 0.24472819154328501 0.15589805884118429 0 0.22843881180922321 0.16573309889803131 0 0.24472819154328501 0.15589805884118429 0 0.23294064952131299 0.1420804792402309 0 0.24472819154328501 0.15589805884118429 0 0.2475437006404492 0.14414899757342611 0 0.23294064952131299 0.1420804792402309 0 0.22843881180922321 0.16573309889803131 0 0.23294064952131299 0.1420804792402309 0 0.22213404809735759 0.15379679447076869 0 0.22843881180922321 0.16573309889803131 0 0.23294064952131299 0.1420804792402309 0 0.21395340506981039 0.1456894405384902 0 0.23294064952131299 0.1420804792402309 0 0.22213404809735759 0.15379679447076869 0 0.23294064952131299 0.1420804792402309 0 0.22360069225021009 0.126868258935081 0 0.2374424872334113 0.1184278595824319 0 0.21395340506981039 0.1456894405384902 0 0.23294064952131299 0.1420804792402309 0 0.22360069225021009 0.126868258935081 0 0.2475437006404492 0.14414899757342611 0 0.23294064952131299 0.1420804792402309 0 0.2493254696813656 0.1321640205800898 0 0.23294064952131299 0.1420804792402309 0 0.2374424872334113 0.1184278595824319 0 0.23294064952131299 0.1420804792402309 0 0.2493254696813656 0.1321640205800898 0 0.2374424872334113 0.1184278595824319 0 0.2493254696813656 0.1321640205800898 0 0.2374424872334113 0.1184278595824319 0 0.251790880876404 0.1108994014901991 0 0.2374424872334113 0.1184278595824319 0 0.2419443249455106 0.094775239924633187 0 0.22634808819771321 0.1086948857545267 0 0.2419443249455106 0.094775239924633187 0 0.25554390584474829 0.095747355308678631 0 0.251790880876404 0.1108994014901991 0 0.2374424872334113 0.1184278595824319 0 0.2419443249455106 0.094775239924633187 0 0.251790880876404 0.1108994014901991 0 0.2374424872334113 0.1184278595824319 0 0.2419443249455106 0.094775239924633187 0 0.2419443249455106 0.094775239924633187 0 0.25554390584474829 0.095747355308678631 0 0.2419443249455106 0.094775239924633187 0 0.21700471863275711 0.092992525063937417 0 0.2419443249455106 0.094775239924633187 0 0.22634808819771321 0.1086948857545267 0 0.21700471863275711 0.092992525063937417 0 0.22360069225021009 0.126868258935081 0 0.22634808819771321 0.1086948857545267 0 0.21174821792667789 0.1104105452665501 0 0.22360069225021009 0.126868258935081 0 0.2374424872334113 0.1184278595824319 0 0.22634808819771321 0.1086948857545267 0 0.22360069225021009 0.126868258935081 0 0.2045868457275983 0.1190711521533024 0 0.21174821792667789 0.1104105452665501 0 0.2045868457275983 0.1190711521533024 0 0.21174821792667789 0.1104105452665501 0 0.20206367873740991 0.1093071862177446 0 0.21174821792667789 0.1104105452665501 0 0.20260281093669269 0.099994177497591749 0 0.21700471863275711 0.092992525063937417 0 0.20260281093669269 0.099994177497591749 0 0.19206511232000381 0.091209810203235181 0 0.21700471863275711 0.092992525063937417 0 0.22634808819771321 0.1086948857545267 0 0.21174821792667789 0.1104105452665501 0 0.21700471863275711 0.092992525063937417 0 0.21174821792667789 0.1104105452665501 0 0.20206367873740991 0.1093071862177446 0 0.20260281093669269 0.099994177497591749 0 0.20206367873740991 0.1093071862177446 0 0.19730726096872631 0.10494189784452811 0 0.20260281093669269 0.099994177497591749 0 0.19015260220784869 0.1086935764317834 0 0.19206511232000381 0.091209810203235181 0 0.19015260220784869 0.1086935764317834 0 0.19206511232000381 0.091209810203235181 0 0.18518213336176231 0.099303382235865226 0 0.1917258770156296 0.1083548299467226 0 0.19015260220784869 0.1086935764317834 0 0.19206511232000381 0.091209810203235181 0 0.19730726096872631 0.10494189784452811 0 0.1917258770156296 0.1083548299467226 0 0.19206511232000381 0.091209810203235181 0 0.20206367873740991 0.1093071862177446 0 0.19730726096872631 0.10494189784452811 0 0.195755144963219 0.1117417097194375 0 0.19730726096872631 0.10494189784452811 0 0.20260281093669269 0.099994177497591749 0 0.19206511232000381 0.091209810203235181 0 0.19730726096872631 0.10494189784452811 0 0.1917258770156296 0.1083548299467226 0 0.195755144963219 0.1117417097194375 0 0.1917258770156296 0.1083548299467226 0 0.19015260220784869 0.1086935764317834 0 0.1924689899380054 0.11698768457255521 0 0.1968243317936452 0.12147700584248521 0 0.195755144963219 0.1117417097194375 0 0.1875973773971813 0.1320529056019647 0 0.19015260220784869 0.1086935764317834 0 0.19015260220784869 0.1086935764317834 0 0.19252565353117571 0.11144445016762471 0 0.1924689899380054 0.11698768457255521 0 0.1875973773971813 0.1320529056019647 0 0.19015260220784869 0.1086935764317834 0 0.1924689899380054 0.11698768457255521 0 0.1917258770156296 0.1083548299467226 0 0.19015260220784869 0.1086935764317834 0 0.19252565353117571 0.11144445016762471 0 0.1917258770156296 0.1083548299467226 0 0.19252565353117571 0.11144445016762471 0 0.195755144963219 0.1117417097194375 0 0.19252565353117571 0.11144445016762471 0 0.1924689899380054 0.11698768457255521 0 0.195755144963219 0.1117417097194375 0 0.1875973773971813 0.1320529056019647 0 0.1924689899380054 0.11698768457255521 0 0.1968243317936452 0.12147700584248521 0 0.2045868457275983 0.1190711521533024 0 0.1968243317936452 0.12147700584248521 0 0.195755144963219 0.1117417097194375 0 0.20559903482369571 0.12946058226852319 0 0.2045868457275983 0.1190711521533024 0 0.1968243317936452 0.12147700584248521 0 0.2045868457275983 0.1190711521533024 0 0.20206367873740991 0.1093071862177446 0 0.195755144963219 0.1117417097194375 0 0.19434686588049499 0.070350497831903613 0 0.20585933032395701 0.079436322408934876 0 0.20767826332311251 0.063242412546673149 0 0.19434686588049499 0.070350497831903613 0 0.19206511232000381 0.091209810203235181 0 0.18071046949317171 0.075816907899379726 0 0.19434686588049499 0.070350497831903613 0 0.19206511232000381 0.091209810203235181 0 0.19434686588049499 0.070350497831903613 0 0.19206511232000381 0.091209810203235181 0 0.20585933032395701 0.079436322408934876 0 0.19206511232000381 0.091209810203235181 0 0.21700471863275711 0.092992525063937417 0 0.19206511232000381 0.091209810203235181 0 0.20585933032395701 0.079436322408934876 0 0.21700471863275711 0.092992525063937417 0 0.20585933032395701 0.079436322408934876 0 0.21700471863275711 0.092992525063937417 0 0.21942038840086511 0.074063772282497373 0 0.20585933032395701 0.079436322408934876 0 0.20767826332311251 0.063242412546673149 0 0.21942038840086511 0.074063772282497373 0 0.20767826332311251 0.063242412546673149 0 0.21942038840086511 0.074063772282497373 0 0.21746669424808551 0.057457493278596727 0 0.21942038840086511 0.074063772282497373 0 0.23342616123553361 0.066461751373019559 0 0.21746669424808551 0.057457493278596727 0 0.21942038840086511 0.074063772282497373 0 0.23342616123553361 0.066461751373019559 0 0.23144866694254129 0.080932321153959819 0 0.21700471863275711 0.092992525063937417 0 0.21942038840086511 0.074063772282497373 0 0.23144866694254129 0.080932321153959819 0 0.2419443249455106 0.094775239924633187 0 0.21700471863275711 0.092992525063937417 0 0.23144866694254129 0.080932321153959819 0 0.2419443249455106 0.094775239924633187 0 0.24544774149804099 0.07636831712571171 0 0.2419443249455106 0.094775239924633187 0 0.24544774149804099 0.07636831712571171 0 0.25814507412550652 0.08207270088773827 0 0.2419443249455106 0.094775239924633187 0 0.23144866694254129 0.080932321153959819 0 0.24544774149804099 0.07636831712571171 0 0.24544774149804099 0.07636831712571171 0 0.2489511580505735 0.057961394326790622 0 0.23342616123553361 0.066461751373019559 0 0.24544774149804099 0.07636831712571171 0 0.2489511580505735 0.057961394326790622 0 0.23342616123553361 0.066461751373019559 0 0.23144866694254129 0.080932321153959819 0 0.24544774149804099 0.07636831712571171 0 0.23342616123553361 0.066461751373019559 0 0.2489511580505735 0.057961394326790622 0 0.2293005988410747 0.052660986459375857 0 0.2489511580505735 0.057961394326790622 0 0.24047979706631539 0.043348441665234543 0 0.2293005988410747 0.052660986459375857 0 0.2489511580505735 0.057961394326790622 0 0.2293005988410747 0.052660986459375857 0 0.24047979706631539 0.043348441665234543 0 0.22943427677194 0.033584068266650849 0 0.25415398646272769 0.030625775086944751 0 0.2489511580505735 0.057961394326790622 0 0.24047979706631539 0.043348441665234543 0 0.25415398646272769 0.030625775086944751 0 0.24047979706631539 0.043348441665234543 0 0.22943427677194 0.033584068266650849 0 0.22403297562994889 0.043244134760033102 0 0.22943427677194 0.033584068266650849 0 0.22403297562994889 0.043244134760033102 0 0.21303144810646379 0.041537626863611857 0 0.22943427677194 0.033584068266650849 0 0.21303144810646379 0.041537626863611857 0 0.21520368693609601 0.033259041027971503 0 0.24047979706631539 0.043348441665234543 0 0.22403297562994889 0.043244134760033102 0 0.2293005988410747 0.052660986459375857 0 0.22943427677194 0.033584068266650849 0 0.21303144810646379 0.041537626863611857 0 0.2293005988410747 0.052660986459375857 0 0.20965003963157269 0.047360578591973457 0 0.22403297562994889 0.043244134760033102 0 0.2293005988410747 0.052660986459375857 0 0.20965003963157269 0.047360578591973457 0 0.2293005988410747 0.052660986459375857 0 0.21746669424808551 0.057457493278596727 0 0.20965003963157269 0.047360578591973457 0 0.23342616123553361 0.066461751373019559 0 0.2293005988410747 0.052660986459375857 0 0.21746669424808551 0.057457493278596727 0 0.2331723590802052 0.011777074170138679 0 0.25415398646272769 0.030625775086944751 0 0.25935681487488282 0.0032901558470991299 0 0.2331723590802052 0.011777074170138679 0 0.25935681487488282 0.0032901558470991299 0 0.2371090799037909 -0.0090673757815772048 0 0.22943427677194 0.033584068266650849 0 0.2331723590802052 0.011777074170138679 0 0.25415398646272769 0.030625775086944751 0 0.22943427677194 0.033584068266650849 0 0.2331723590802052 0.011777074170138679 0 0.21526886693083341 0.023763936771240949 0 0.22943427677194 0.033584068266650849 0 0.21526886693083341 0.023763936771240949 0 0.21520368693609601 0.033259041027971503 0 0.2331723590802052 0.011777074170138679 0 0.21533446997814071 0.0077553549547846202 0 0.220789283074 -0.0054652510294427546 0 0.2331723590802052 0.011777074170138679 0 0.21533446997814071 0.0077553549547846202 0 0.21526886693083341 0.023763936771240949 0 0.21533446997814071 0.0077553549547846202 0 0.19865868179560109 0.01168306813292503 0 0.19965179260945101 -0.006237775483830631 0 0.21533446997814071 0.0077553549547846202 0 0.21526886693083341 0.023763936771240949 0 0.19865868179560109 0.01168306813292503 0 0.21526886693083341 0.023763936771240949 0 0.19959851610153839 0.028859388205288841 0 0.2071379748663206 0.035013360504109407 0 0.21526886693083341 0.023763936771240949 0 0.19959851610153839 0.028859388205288841 0 0.19865868179560109 0.01168306813292503 0 0.21526886693083341 0.023763936771240949 0 0.21520368693609601 0.033259041027971503 0 0.2071379748663206 0.035013360504109407 0 0.19959851610153839 0.028859388205288841 0 0.19865868179560109 0.01168306813292503 0 0.1842346334211474 0.02086954311149174 0 0.19959851610153839 0.028859388205288841 0 0.19004397763297501 0.037822460007105027 0 0.1842346334211474 0.02086954311149174 0 0.19865868179560109 0.01168306813292503 0 0.17786381173249591 -0.0049120387614253417 0 0.19965179260945101 -0.006237775483830631 0 0.20767826332311251 0.063242412546673149 0 0.20965003963157269 0.047360578591973457 0 0.19662861944098731 0.049491185460572198 0 0.20767826332311251 0.063242412546673149 0 0.21746669424808551 0.057457493278596727 0 0.20965003963157269 0.047360578591973457 0 0.20965003963157269 0.047360578591973457 0 0.21303144810646379 0.041537626863611857 0 0.19662861944098731 0.049491185460572198 0 0.21303144810646379 0.041537626863611857 0 0.20578953414441359 0.042268255773892142 0 0.19662861944098731 0.049491185460572198 0 0.22403297562994889 0.043244134760033102 0 0.20965003963157269 0.047360578591973457 0 0.21303144810646379 0.041537626863611857 0 0.21303144810646379 0.041537626863611857 0 0.19662861944098731 0.049491185460572198 0 0.21303144810646379 0.041537626863611857 0 0.21520368693609601 0.033259041027971503 0 0.2071379748663206 0.035013360504109407 0 0.2071379748663206 0.035013360504109407 0 0.20578953414441359 0.042268255773892142 0 0.19905617622700039 0.039504014902642381 0 0.21303144810646379 0.041537626863611857 0 0.2071379748663206 0.035013360504109407 0 0.20578953414441359 0.042268255773892142 0 0.20578953414441359 0.042268255773892142 0 0.2005466532165269 0.044675313015258442 0 0.19662861944098731 0.049491185460572198 0 0.2005466532165269 0.044675313015258442 0 0.19905617622700039 0.039504014902642381 0 0.19662861944098731 0.049491185460572198 0 0.20578953414441359 0.042268255773892142 0 0.2005466532165269 0.044675313015258442 0 0.19905617622700039 0.039504014902642381 0 0.19959851610153839 0.028859388205288841 0 0.2071379748663206 0.035013360504109407 0 0.19905617622700039 0.039504014902642381 0 0.19959851610153839 0.028859388205288841 0 0.19905617622700039 0.039504014902642381 0 0.19004397763297501 0.037822460007105027 0 0.19004397763297501 0.037822460007105027 0 0.19662861944098731 0.049491185460572198 0 0.18244313802490991 0.04726106216887397 0 0.19905617622700039 0.039504014902642381 0 0.19004397763297501 0.037822460007105027 0 0.19662861944098731 0.049491185460572198 0 0.19434686588049499 0.070350497831903613 0 0.19662861944098731 0.049491185460572198 0 0.19434686588049499 0.070350497831903613 0 0.20767826332311251 0.063242412546673149 0 0.19662861944098731 0.049491185460572198 0 0.19434686588049499 0.070350497831903613 0 0.19662861944098731 0.049491185460572198 0 0.17540939911244799 0.059780161569924127 0 0.19662861944098731 0.049491185460572198 0 0.17540939911244799 0.059780161569924127 0 0.18244313802490991 0.04726106216887397 0 0.19662861944098731 0.049491185460572198 0 0.17540939911244799 0.059780161569924127 0 0.17540939911244799 0.059780161569924127 0 0.18244313802490991 0.04726106216887397 0 0.16086310720661989 0.047311323075457622 0 0.18244313802490991 0.04726106216887397 0 0.1756616298364638 0.034028231706297173 0 0.16086310720661989 0.047311323075457622 0 0.19004397763297501 0.037822460007105027 0 0.18244313802490991 0.04726106216887397 0 0.1756616298364638 0.034028231706297173 0 0.1756616298364638 0.034028231706297173 0 0.16086310720661989 0.047311323075457622 0 0.16077990198722919 0.021101725642288259 0 0.17540939911244799 0.059780161569924127 0 0.16086310720661989 0.047311323075457622 0 0.1541901787839082 0.070069137679275417 0 0.1842346334211474 0.02086954311149174 0 0.1618730276221457 0.0041269218756689969 0 0.17786381173249591 -0.0049120387614253417 0 0.19865868179560109 0.01168306813292503 0 0.1842346334211474 0.02086954311149174 0 0.17786381173249591 -0.0049120387614253417 0 0.1842346334211474 0.02086954311149174 0 0.17786381173249591 -0.0049120387614253417 0 0.19004397763297501 0.037822460007105027 0 0.1756616298364638 0.034028231706297173 0 0.1842346334211474 0.02086954311149174 0 0.1756616298364638 0.034028231706297173 0 0.1842346334211474 0.02086954311149174 0 0.16077990198722919 0.021101725642288259 0 0.1842346334211474 0.02086954311149174 0 0.16077990198722919 0.021101725642288259 0 0.1618730276221457 0.0041269218756689969 0 0.1618730276221457 0.0041269218756689969 0 0.1411603670788972 0.0101018168278833 0 0.15044925678359081 -0.010035133472833069 0 0.16077990198722919 0.021101725642288259 0 0.1618730276221457 0.0041269218756689969 0 0.1411603670788972 0.0101018168278833 0 0.16077990198722919 0.021101725642288259 0 0.1411603670788972 0.0101018168278833 0 0.1404213425279027 0.037486911378257437 0 0.16077990198722919 0.021101725642288259 0 0.1404213425279027 0.037486911378257437 0 0.1173517244767262 0.01947082958877324 0 0.1411603670788972 0.0101018168278833 0 0.1404213425279027 0.037486911378257437 0 0.1173517244767262 0.01947082958877324 0 0.1411603670788972 0.0101018168278833 0 0.1207509512091294 -0.0041699288836110626 0 0.16086310720661989 0.047311323075457622 0 0.13800152846829061 0.060542740771380332 0 0.1541901787839082 0.070069137679275417 0 0.16086310720661989 0.047311323075457622 0 0.1404213425279027 0.037486911378257437 0 0.13800152846829061 0.060542740771380332 0 0.16086310720661989 0.047311323075457622 0 0.16077990198722919 0.021101725642288259 0 0.1404213425279027 0.037486911378257437 0 0.1200627830685761 0.053872097114226712 0 0.11476424203947221 0.038073451384228449 0 0.1404213425279027 0.037486911378257437 0 0.1200627830685761 0.053872097114226712 0 0.1404213425279027 0.037486911378257437 0 0.1200627830685761 0.053872097114226712 0 0.1215621041912773 0.070813732342101351 0 0.13800152846829061 0.060542740771380332 0 0.1200627830685761 0.053872097114226712 0 0.1404213425279027 0.037486911378257437 0 0.13800152846829061 0.060542740771380332 0 0.1215621041912773 0.070813732342101351 0 0.13800152846829061 0.060542740771380332 0 0.1329709584553686 0.080358113788626659 0 0.1541901787839082 0.070069137679275417 0 0.1329709584553686 0.080358113788626659 0 0.13800152846829061 0.060542740771380332 0 0.1541901787839082 0.070069137679275417 0 0.1329709584553686 0.080358113788626659 0 0.1541901787839082 0.070069137679275417 0 0.14251785037549361 0.090480506174395348 0 0.1569454008139303 0.088451017416951494 0 0.1541901787839082 0.070069137679275417 0 0.14251785037549361 0.090480506174395348 0 0.1329709584553686 0.080358113788626659 0 0.1179299037815305 0.087644623331770061 0 0.14251785037549361 0.090480506174395348 0 0.1329709584553686 0.080358113788626659 0 0.1179299037815305 0.087644623331770061 0 0.14102156121080531 0.1057970632126216 0 0.1205945952922607 0.101631761607534 0 0.1251230896152585 0.1117921315195775 0 0.14102156121080531 0.1057970632126216 0 0.1205945952922607 0.101631761607534 0 0.1179299037815305 0.087644623331770061 0 0.14102156121080531 0.1057970632126216 0 0.1179299037815305 0.087644623331770061 0 0.14251785037549361 0.090480506174395348 0 0.14102156121080531 0.1057970632126216 0 0.1251230896152585 0.1117921315195775 0 0.1395076166176695 0.1195980991317228 0 0.14102156121080531 0.1057970632126216 0 0.11418512382257991 0.12505036048169191 0 0.1251230896152585 0.1117921315195775 0 0.1395076166176695 0.1195980991317228 0 0.11418512382257991 0.12505036048169191 0 0.1395076166176695 0.1195980991317228 0 0.1395076166176695 0.1195980991317228 0 0.16483010941275919 0.11414583778175361 0 0.1395076166176695 0.1195980991317228 0 0.15368707607566531 0.1039723971549648 0 0.16483010941275919 0.11414583778175361 0 0.151935838596682 0.12775069764303459 0 0.1395076166176695 0.1195980991317228 0 0.16483010941275919 0.11414583778175361 0 0.1395076166176695 0.1195980991317228 0 0.14102156121080531 0.1057970632126216 0 0.15368707607566531 0.1039723971549648 0 0.14251785037549361 0.090480506174395348 0 0.14102156121080531 0.1057970632126216 0 0.15368707607566531 0.1039723971549648 0 0.14251785037549361 0.090480506174395348 0 0.15368707607566531 0.1039723971549648 0 0.1569454008139303 0.088451017416951494 0 0.16636232661720249 0.096494849970703414 0 0.16483010941275919 0.11414583778175361 0 0.1770093637696476 0.1017515669725728 0 0.15368707607566531 0.1039723971549648 0 0.16636232661720249 0.096494849970703414 0 0.1569454008139303 0.088451017416951494 0 0.15368707607566531 0.1039723971549648 0 0.16636232661720249 0.096494849970703414 0 0.16483010941275919 0.11414583778175361 0 0.16471065375218541 0.13534870144594041 0 0.16483010941275919 0.11414583778175361 0 0.17682268569249371 0.12256025531536049 0 0.19015260220784869 0.1086935764317834 0 0.16483010941275919 0.11414583778175361 0 0.1875973773971813 0.1320529056019647 0 0.19015260220784869 0.1086935764317834 0 0.17682268569249371 0.12256025531536049 0 0.19015260220784869 0.1086935764317834 0 0.16483010941275919 0.11414583778175361 0 0.17682268569249371 0.12256025531536049 0 0.19015260220784869 0.1086935764317834 0 0.16483010941275919 0.11414583778175361 0 0.1770093637696476 0.1017515669725728 0 0.16636232661720249 0.096494849970703414 0 0.1770093637696476 0.1017515669725728 0 0.17760494586316741 0.090176179066172688 0 0.19015260220784869 0.1086935764317834 0 0.1770093637696476 0.1017515669725728 0 0.18518213336176231 0.099303382235865226 0 0.1770093637696476 0.1017515669725728 0 0.18518213336176231 0.099303382235865226 0 0.17760494586316741 0.090176179066172688 0 0.19206511232000381 0.091209810203235181 0 0.17760494586316741 0.090176179066172688 0 0.19206511232000381 0.091209810203235181 0 0.18518213336176231 0.099303382235865226 0 0.17760494586316741 0.090176179066172688 0 0.17760494586316741 0.090176179066172688 0 0.18071046949317171 0.075816907899379726 0 0.16705180465048719 0.079624719050149839 0 0.19206511232000381 0.091209810203235181 0 0.17760494586316741 0.090176179066172688 0 0.18071046949317171 0.075816907899379726 0 0.17540939911244799 0.059780161569924127 0 0.18071046949317171 0.075816907899379726 0 0.16705180465048719 0.079624719050149839 0 0.19434686588049499 0.070350497831903613 0 0.17540939911244799 0.059780161569924127 0 0.18071046949317171 0.075816907899379726 0 0.17540939911244799 0.059780161569924127 0 0.1541901787839082 0.070069137679275417 0 0.16705180465048719 0.079624719050149839 0 0.17540939911244799 0.059780161569924127 0 0.1541901787839082 0.070069137679275417 0 0.16636232661720249 0.096494849970703414 0 0.1569454008139303 0.088451017416951494 0 0.16705180465048719 0.079624719050149839 0 0.16636232661720249 0.096494849970703414 0 0.17760494586316741 0.090176179066172688 0 0.16705180465048719 0.079624719050149839 0 0.1541901787839082 0.070069137679275417 0 0.1569454008139303 0.088451017416951494 0 0.16705180465048719 0.079624719050149839 0 0.1117240427601245 0.47851024617933469 0 0.087776695350210585 0.46735485506698299 0 0.088822183948860406 0.48590850575596201 0 0.10160346966982731 0.5 0 0.1117240427601245 0.47851024617933469 0 0.088822183948860406 0.48590850575596201 0 0.10160346966982731 0.5 0 0.1117240427601245 0.47851024617933469 0 0.12824688977768059 0.50000000000000033 0 0.1117240427601245 0.47851024617933469 0 0.132064732583837 0.48272194778505378 0 0.12824688977768059 0.50000000000000033 0 0.1117240427601245 0.47851024617933469 0 0.1075067282982555 0.45103228260047412 0 0.13622940237324219 0.46340484625597689 0 0.1075067282982555 0.45103228260047412 0 0.12723676124630739 0.43470971013397369 0 0.13622940237324219 0.46340484625597689 0 0.1075067282982555 0.45103228260047412 0 0.12723676124630739 0.43470971013397369 0 0.1075067282982555 0.45103228260047412 0 0.09925709776475411 0.43150234408770538 0 0.12723676124630739 0.43470971013397369 0 0.1075067282982555 0.45103228260047412 0 0.081952124080281491 0.44633972594913163 0 0.09925709776475411 0.43150234408770538 0 0.1075067282982555 0.45103228260047412 0 0.087776695350210585 0.46735485506698299 0 0.1117240427601245 0.47851024617933469 0 0.1075067282982555 0.45103228260047412 0 0.087776695350210585 0.46735485506698299 0 0.087776695350210585 0.46735485506698299 0 0.081952124080281491 0.44633972594913163 0 0.069997574583156141 0.45986060267520801 0 0.1075067282982555 0.45103228260047412 0 0.087776695350210585 0.46735485506698299 0 0.081952124080281491 0.44633972594913163 0 0.081952124080281491 0.44633972594913163 0 0.069997574583156141 0.45986060267520801 0 0.061229586121682403 0.44036178762413991 0 0.081952124080281491 0.44633972594913163 0 0.061229586121682403 0.44036178762413991 0 0.071277434283204391 0.42829497804140598 0 0.069997574583156141 0.45986060267520801 0 0.068046662402165781 0.48367742753349202 0 0.050982804961440427 0.46156921720229338 0 0.087776695350210585 0.46735485506698299 0 0.068046662402165781 0.48367742753349202 0 0.087776695350210585 0.46735485506698299 0 0.069997574583156141 0.45986060267520801 0 0.068046662402165781 0.48367742753349202 0 0.087776695350210585 0.46735485506698299 0 0.068046662402165781 0.48367742753349202 0 0.088822183948860406 0.48590850575596201 0 0.10160346966982731 0.5 0 0.088822183948860406 0.48590850575596201 0 0.074960049561973885 0.5 0 0.068046662402165781 0.48367742753349202 0 0.088822183948860406 0.48590850575596201 0 0.074960049561973885 0.5 0 0.068046662402165781 0.48367742753349202 0 0.074960049561973885 0.5 0 0.048316629454120741 0.50000000000000044 0 0.068046662402165781 0.48367742753349202 0 0.048316629454120741 0.50000000000000044 0 0.068046662402165781 0.48367742753349202 0 0.048316629454120741 0.50000000000000044 0 0.038957469701901559 0.48038111874580269 0 0.068046662402165781 0.48367742753349202 0 0.038957469701901559 0.48038111874580269 0 0.050982804961440427 0.46156921720229338 0 0.048316629454120741 0.50000000000000044 0 0.038957469701901559 0.48038111874580269 0 0.022101172817449281 0.5 0 0.038957469701901559 0.48038111874580269 0 0.022101172817449281 0.5 0 0.018451431208896561 0.48091398534133251 0 0.018451431208896561 0.48091398534133251 0 0.00081862258307463542 0.47122466767660098 0 0.02891395105720846 0.4638069744837926 0 0.038957469701901559 0.48038111874580269 0 0.018451431208896561 0.48091398534133251 0 0.02891395105720846 0.4638069744837926 0 -0.0041142838192221856 0.5 0 0.018451431208896561 0.48091398534133251 0 0.00081862258307463542 0.47122466767660098 0 -0.0041142838192221856 0.5 0 0.022101172817449281 0.5 0 0.018451431208896561 0.48091398534133251 0 -0.005161699211731278 0.44168291228677098 0 0.00081862258307463542 0.47122466767660098 0 0.020470369594582882 0.44173070179094848 0 0.00081862258307463542 0.47122466767660098 0 0.02891395105720846 0.4638069744837926 0 0.020470369594582882 0.44173070179094848 0 0.02891395105720846 0.4638069744837926 0 0.020470369594582882 0.44173070179094848 0 0.041139419072379148 0.44586955479358559 0 0.020470369594582882 0.44173070179094848 0 0.041139419072379148 0.44586955479358559 0 0.042428420054983478 0.4249879565411484 0 0.038957469701901559 0.48038111874580269 0 0.02891395105720846 0.4638069744837926 0 0.050982804961440427 0.46156921720229338 0 0.02891395105720846 0.4638069744837926 0 0.041139419072379148 0.44586955479358559 0 0.050982804961440427 0.46156921720229338 0 0.069997574583156141 0.45986060267520801 0 0.050982804961440427 0.46156921720229338 0 0.061229586121682403 0.44036178762413991 0 0.041139419072379148 0.44586955479358559 0 0.050982804961440427 0.46156921720229338 0 0.061229586121682403 0.44036178762413991 0 0.042428420054983478 0.4249879565411484 0 0.071277434283204391 0.42829497804140598 0 0.041139419072379148 0.44586955479358559 0 0.061229586121682403 0.44036178762413991 0 0.042428420054983478 0.4249879565411484 0 0.061229586121682403 0.44036178762413991 0 0.042428420054983478 0.4249879565411484 0 0.071277434283204391 0.42829497804140598 0 0.056140051886602052 0.40703907104934928 0 0.042428420054983478 0.4249879565411484 0 0.071277434283204391 0.42829497804140598 0 0.056140051886602052 0.40703907104934928 0 0.042428420054983478 0.4249879565411484 0 0.030198328394267591 0.40861815847412059 0 0.020470369594582882 0.44173070179094848 0 0.042428420054983478 0.4249879565411484 0 0.01357940582676553 0.42168093504086751 0 0.042428420054983478 0.4249879565411484 0 0.01357940582676553 0.42168093504086751 0 0.030198328394267591 0.40861815847412059 0 0.01357940582676553 0.42168093504086751 0 0.0064299632138935837 0.39871103747722619 0 0.042428420054983478 0.4249879565411484 0 0.030198328394267591 0.40861815847412059 0 0.01357940582676553 0.42168093504086751 0 -0.015269608401452641 0.4183739135405864 0 0.01357940582676553 0.42168093504086751 0 0.0064299632138935837 0.39871103747722619 0 -0.005161699211731278 0.44168291228677098 0 0.020470369594582882 0.44173070179094848 0 0.01357940582676553 0.42168093504086751 0 0.030198328394267591 0.40861815847412059 0 0.0064299632138935837 0.39871103747722619 0 0.035264381814320893 0.38705338360684288 0 0.0064299632138935837 0.39871103747722619 0 0.035264381814320893 0.38705338360684288 0 0.0079661978052537122 0.3727543674471257 0 0.035264381814320893 0.38705338360684288 0 0.071218017404705264 0.38317007623967431 0 0.045955162504089743 0.36409869198297018 0 0.056140051886602052 0.40703907104934928 0 0.035264381814320893 0.38705338360684288 0 0.071218017404705264 0.38317007623967431 0 0.056140051886602052 0.40703907104934928 0 0.030198328394267591 0.40861815847412059 0 0.035264381814320893 0.38705338360684288 0 0.071218017404705264 0.38317007623967431 0 0.087047600373389267 0.409356038256387 0 0.1028177664636071 0.39041709847139539 0 0.071218017404705264 0.38317007623967431 0 0.1028177664636071 0.39041709847139539 0 0.089002692348721796 0.36658745362029149 0 0.056140051886602052 0.40703907104934928 0 0.071218017404705264 0.38317007623967431 0 0.087047600373389267 0.409356038256387 0 0.056140051886602052 0.40703907104934928 0 0.071277434283204391 0.42829497804140598 0 0.087047600373389267 0.409356038256387 0 0.061229586121682403 0.44036178762413991 0 0.071277434283204391 0.42829497804140598 0 0.071277434283204391 0.42829497804140598 0 0.09925709776475411 0.43150234408770538 0 0.071277434283204391 0.42829497804140598 0 0.087047600373389267 0.409356038256387 0 0.09925709776475411 0.43150234408770538 0 0.081952124080281491 0.44633972594913163 0 0.071277434283204391 0.42829497804140598 0 0.09925709776475411 0.43150234408770538 0 0.071277434283204391 0.42829497804140598 0 0.087047600373389267 0.409356038256387 0 0.087047600373389267 0.409356038256387 0 0.10745444971199759 0.40937588912491257 0 0.09925709776475411 0.43150234408770538 0 0.09925709776475411 0.43150234408770538 0 0.12291218917323481 0.41928044869161057 0 0.12723676124630739 0.43470971013397369 0 0.09925709776475411 0.43150234408770538 0 0.12723676124630739 0.43470971013397369 0 0.10745444971199759 0.40937588912491257 0 0.09925709776475411 0.43150234408770538 0 0.12291218917323481 0.41928044869161057 0 0.10745444971199759 0.40937588912491257 0 0.12291218917323481 0.41928044869161057 0 0.12474070720654359 0.40416091344037841 0 0.10745444971199759 0.40937588912491257 0 0.12474070720654359 0.40416091344037841 0 0.1191225926961947 0.39026688431444623 0 0.10745444971199759 0.40937588912491257 0 0.1191225926961947 0.39026688431444623 0 0.1028177664636071 0.39041709847139539 0 0.1191225926961947 0.39026688431444623 0 0.1185879325538249 0.37147815868640388 0 0.13642716119823861 0.37800357189001083 0 0.1191225926961947 0.39026688431444623 0 0.1028177664636071 0.39041709847139539 0 0.1185879325538249 0.37147815868640388 0 0.1028177664636071 0.39041709847139539 0 0.1185879325538249 0.37147815868640388 0 0.1028177664636071 0.39041709847139539 0 0.1185879325538249 0.37147815868640388 0 0.089002692348721796 0.36658745362029149 0 0.087047600373389267 0.409356038256387 0 0.1028177664636071 0.39041709847139539 0 0.087047600373389267 0.409356038256387 0 0.10745444971199759 0.40937588912491257 0 0.1028177664636071 0.39041709847139539 0 0.10581647563223801 0.3526388707920578 0 0.1004526403067962 0.34000150735157642 0 0.086121652887845304 0.34271161856891558 0 0.10581647563223801 0.3526388707920578 0 0.1185879325538249 0.37147815868640388 0 0.089002692348721796 0.36658745362029149 0 0.10581647563223801 0.3526388707920578 0 0.1185879325538249 0.37147815868640388 0 0.120086145189699 0.35226197566915618 0 0.1185879325538249 0.37147815868640388 0 0.120086145189699 0.35226197566915618 0 0.1343580986440428 0.35253921890141238 0 0.10581647563223801 0.3526388707920578 0 0.120086145189699 0.35226197566915618 0 0.12317936205375921 0.33832649833091311 0 0.10581647563223801 0.3526388707920578 0 0.12317936205375921 0.33832649833091311 0 0.10581647563223801 0.3526388707920578 0 0.12317936205375921 0.33832649833091311 0 0.1108706644280365 0.33204136953536711 0 0.12317936205375921 0.33832649833091311 0 0.1108706644280365 0.33204136953536711 0 0.1212376155566439 0.32281054036382018 0 0.1212376155566439 0.32281054036382018 0 0.11104142419815929 0.31652162469863032 0 0.120100824837353 0.30357241011644148 0 0.1108706644280365 0.33204136953536711 0 0.1212376155566439 0.32281054036382018 0 0.11104142419815929 0.31652162469863032 0 0.11104142419815929 0.31652162469863032 0 0.098750481955470287 0.32637886659905391 0 0.096862759922995451 0.31173953782700048 0 0.1108706644280365 0.33204136953536711 0 0.11104142419815929 0.31652162469863032 0 0.098750481955470287 0.32637886659905391 0 0.098750481955470287 0.32637886659905391 0 0.1004526403067962 0.34000150735157642 0 0.086121652887845304 0.34271161856891558 0 0.10581647563223801 0.3526388707920578 0 0.1108706644280365 0.33204136953536711 0 0.1004526403067962 0.34000150735157642 0 0.1108706644280365 0.33204136953536711 0 0.098750481955470287 0.32637886659905391 0 0.1004526403067962 0.34000150735157642 0 0.098750481955470287 0.32637886659905391 0 0.086121652887845304 0.34271161856891558 0 0.080232779992116768 0.32221580359333779 0 0.098750481955470287 0.32637886659905391 0 0.080232779992116768 0.32221580359333779 0 0.096862759922995451 0.31173953782700048 0 0.080232779992116768 0.32221580359333779 0 0.062956022581161161 0.33235410279866462 0 0.058825025169389117 0.30694611607815969 0 0.086121652887845304 0.34271161856891558 0 0.080232779992116768 0.32221580359333779 0 0.062956022581161161 0.33235410279866462 0 0.086121652887845304 0.34271161856891558 0 0.062956022581161161 0.33235410279866462 0 0.067087019992933219 0.35776208951916938 0 0.062956022581161161 0.33235410279866462 0 0.067087019992933219 0.35776208951916938 0 0.10581647563223801 0.3526388707920578 0 0.086121652887845304 0.34271161856891558 0 0.089002692348721796 0.36658745362029149 0 0.086121652887845304 0.34271161856891558 0 0.067087019992933219 0.35776208951916938 0 0.089002692348721796 0.36658745362029149 0 0.071218017404705264 0.38317007623967431 0 0.067087019992933219 0.35776208951916938 0 0.089002692348721796 0.36658745362029149 0 0.071218017404705264 0.38317007623967431 0 0.067087019992933219 0.35776208951916938 0 0.071218017404705264 0.38317007623967431 0 0.067087019992933219 0.35776208951916938 0 0.045955162504089743 0.36409869198297018 0 0.062956022581161161 0.33235410279866462 0 0.067087019992933219 0.35776208951916938 0 0.049243121114071253 0.34677133103086022 0 0.067087019992933219 0.35776208951916938 0 0.049243121114071253 0.34677133103086022 0 0.045955162504089743 0.36409869198297018 0 0.045955162504089743 0.36409869198297018 0 0.025778676571106451 0.36468893340465519 0 0.028976044972048261 0.34689070437302572 0 0.049243121114071253 0.34677133103086022 0 0.045955162504089743 0.36409869198297018 0 0.028976044972048261 0.34689070437302572 0 0.035264381814320893 0.38705338360684288 0 0.045955162504089743 0.36409869198297018 0 0.025778676571106451 0.36468893340465519 0 0.035264381814320893 0.38705338360684288 0 0.025778676571106451 0.36468893340465519 0 0.0079661978052537122 0.3727543674471257 0 0.028976044972048261 0.34689070437302572 0 0.01073159575981966 0.35264751961331192 0 0.01255702922205422 0.33941644123525422 0 0.025778676571106451 0.36468893340465519 0 0.028976044972048261 0.34689070437302572 0 0.01073159575981966 0.35264751961331192 0 0.01073159575981966 0.35264751961331192 0 0.002002667747446269 0.34500089505608922 0 0.01255702922205422 0.33941644123525422 0 -0.002472024106327787 0.35561964142679181 0 0.01073159575981966 0.35264751961331192 0 0.002002667747446269 0.34500089505608922 0 0.025778676571106451 0.36468893340465519 0 0.01073159575981966 0.35264751961331192 0 0.0079661978052537122 0.3727543674471257 0 -0.002472024106327787 0.35561964142679181 0 0.01073159575981966 0.35264751961331192 0 0.0079661978052537122 0.3727543674471257 0 -0.00091589086326776211 0.31522573641359419 0 0.0021953080243909532 0.3292347266183353 0 0.01738918621148761 0.31038330684991738 0 0.0021953080243909532 0.3292347266183353 0 0.01738918621148761 0.31038330684991738 0 0.0021953080243909532 0.3292347266183353 0 0.022219538941370919 0.32982517257173871 0 0.01738918621148761 0.31038330684991738 0 0.002002667747446269 0.34500089505608922 0 0.0021953080243909532 0.3292347266183353 0 0.01255702922205422 0.33941644123525422 0 0.0021953080243909532 0.3292347266183353 0 0.01255702922205422 0.33941644123525422 0 0.022219538941370919 0.32982517257173871 0 0.028976044972048261 0.34689070437302572 0 0.022219538941370919 0.32982517257173871 0 0.04094280515105278 0.33357484736285692 0 0.028976044972048261 0.34689070437302572 0 0.01255702922205422 0.33941644123525422 0 0.022219538941370919 0.32982517257173871 0 0.022219538941370919 0.32982517257173871 0 0.040722197408470023 0.31368048780476671 0 0.01738918621148761 0.31038330684991738 0 0.022219538941370919 0.32982517257173871 0 0.040722197408470023 0.31368048780476671 0 0.04094280515105278 0.33357484736285692 0 0.049243121114071253 0.34677133103086022 0 0.028976044972048261 0.34689070437302572 0 0.04094280515105278 0.33357484736285692 0 0.062956022581161161 0.33235410279866462 0 0.049243121114071253 0.34677133103086022 0 0.04094280515105278 0.33357484736285692 0 0.062956022581161161 0.33235410279866462 0 0.040722197408470023 0.31368048780476671 0 0.04094280515105278 0.33357484736285692 0 0.062956022581161161 0.33235410279866462 0 0.040722197408470023 0.31368048780476671 0 0.058825025169389117 0.30694611607815969 0 0.062956022581161161 0.33235410279866462 0 0.058825025169389117 0.30694611607815969 0 0.040722197408470023 0.31368048780476671 0 0.058825025169389117 0.30694611607815969 0 0.049841189037173182 0.29197176277291648 0 0.058825025169389117 0.30694611607815969 0 0.049841189037173182 0.29197176277291648 0 0.065823362664584009 0.293674483012757 0 0.049841189037173182 0.29197176277291648 0 0.047776942585680812 0.27268046731308149 0 0.061523827132218739 0.27956085560289839 0 0.049841189037173182 0.29197176277291648 0 0.061523827132218739 0.27956085560289839 0 0.065823362664584009 0.293674483012757 0 0.032583064398584279 0.29153188708149952 0 0.047776942585680812 0.27268046731308149 0 0.049841189037173182 0.29197176277291648 0 0.032583064398584279 0.29153188708149952 0 0.047776942585680812 0.27268046731308149 0 0.040722197408470023 0.31368048780476671 0 0.049841189037173182 0.29197176277291648 0 0.032583064398584279 0.29153188708149952 0 0.040722197408470023 0.31368048780476671 0 0.032583064398584279 0.29153188708149952 0 0.01738918621148761 0.31038330684991738 0 0.032583064398584279 0.29153188708149952 0 0.01738918621148761 0.31038330684991738 0 0.032583064398584279 0.29153188708149952 0 0.01738918621148761 0.31038330684991738 0 0.011226792291018891 0.29121017671658272 0 0.032583064398584279 0.29153188708149952 0 0.011226792291018891 0.29121017671658272 0 0.020923482554253151 0.27674154179263138 0 -0.00098271012149963666 0.30301770253450322 0 -0.0064647886647679594 0.28727353837947239 0 0.011226792291018891 0.29121017671658272 0 0.011226792291018891 0.29121017671658272 0 0.0039125193680558971 0.27831308366147178 0 0.020923482554253151 0.27674154179263138 0 -0.0064647886647679594 0.28727353837947239 0 0.011226792291018891 0.29121017671658272 0 0.0039125193680558971 0.27831308366147178 0 -0.00098271012149963666 0.30301770253450322 0 -0.00091589086326776211 0.31522573641359419 0 0.01738918621148761 0.31038330684991738 0 -0.00098271012149963666 0.30301770253450322 0 0.01738918621148761 0.31038330684991738 0 0.011226792291018891 0.29121017671658272 0 -0.003870484047894238 0.25325258120147331 0 -0.001870537191094847 0.24783164157960649 0 0.0068480974455401916 0.26366255629670587 0 -0.001870537191094847 0.24783164157960649 0 0.022953202697293201 0.26025605444634348 0 -0.001870537191094847 0.24783164157960649 0 0.014476227302727591 0.2465232514715166 0 0.022953202697293201 0.26025605444634348 0 -0.001870537191094847 0.24783164157960649 0 0.0068480974455401916 0.26366255629670587 0 0.022953202697293201 0.26025605444634348 0 -0.0045653944237659403 0.27106774986792348 0 0.0068480974455401916 0.26366255629670587 0 0.0039125193680558971 0.27831308366147178 0 0.0068480974455401916 0.26366255629670587 0 0.0039125193680558971 0.27831308366147178 0 0.020923482554253151 0.27674154179263138 0 0.0068480974455401916 0.26366255629670587 0 0.020923482554253151 0.27674154179263138 0 0.022953202697293201 0.26025605444634348 0 0.020923482554253151 0.27674154179263138 0 0.022953202697293201 0.26025605444634348 0 0.047776942585680812 0.27268046731308149 0 0.024664205123059731 0.24258300526153201 0 0.022953202697293201 0.26025605444634348 0 0.035513299725210952 0.25451186413660432 0 0.035513299725210952 0.25451186413660432 0 0.047776942585680812 0.27268046731308149 0 0.048278413996799302 0.26281036370876321 0 0.022953202697293201 0.26025605444634348 0 0.035513299725210952 0.25451186413660432 0 0.047776942585680812 0.27268046731308149 0 0.035513299725210952 0.25451186413660432 0 0.049834890706688811 0.25083617626142912 0 0.048278413996799302 0.26281036370876321 0 0.022953202697293201 0.26025605444634348 0 0.047776942585680812 0.27268046731308149 0 0.032583064398584279 0.29153188708149952 0 0.020923482554253151 0.27674154179263138 0 0.047776942585680812 0.27268046731308149 0 0.047776942585680812 0.27268046731308149 0 0.061523827132218739 0.27956085560289839 0 0.047776942585680812 0.27268046731308149 0 0.050793802392651938 0.26745123830127698 0 0.048278413996799302 0.26281036370876321 0 0.05265034383628265 0.27025072869853711 0 0.047776942585680812 0.27268046731308149 0 0.056729266798489698 0.27299110408009503 0 0.05265034383628265 0.27025072869853711 0 0.047776942585680812 0.27268046731308149 0 0.050793802392651938 0.26745123830127698 0 0.05265034383628265 0.27025072869853711 0 0.050793802392651938 0.26745123830127698 0 0.053510895349989887 0.26525276929464381 0 0.05265034383628265 0.27025072869853711 0 0.056729266798489698 0.27299110408009503 0 0.053510895349989887 0.26525276929464381 0 0.056729266798489698 0.27299110408009503 0 0.053510895349989887 0.26525276929464381 0 0.059836181458103987 0.26104371045860453 0 0.047776942585680812 0.27268046731308149 0 0.056729266798489698 0.27299110408009503 0 0.061523827132218739 0.27956085560289839 0 0.049834890706688811 0.25083617626142912 0 0.053424971839592689 0.25737218789551652 0 0.057872665771145082 0.25233156818004882 0 0.049834890706688811 0.25083617626142912 0 0.053424971839592689 0.25737218789551652 0 0.048278413996799302 0.26281036370876321 0 0.053424971839592689 0.25737218789551652 0 0.048278413996799302 0.26281036370876321 0 0.053510895349989887 0.26525276929464381 0 0.050793802392651938 0.26745123830127698 0 0.048278413996799302 0.26281036370876321 0 0.053510895349989887 0.26525276929464381 0 0.053424971839592689 0.25737218789551652 0 0.053510895349989887 0.26525276929464381 0 0.059836181458103987 0.26104371045860453 0 0.059836181458103987 0.26104371045860453 0 0.057872665771145082 0.25233156818004882 0 0.069474617258596091 0.25198075459793312 0 0.053424971839592689 0.25737218789551652 0 0.059836181458103987 0.26104371045860453 0 0.057872665771145082 0.25233156818004882 0 0.059836181458103987 0.26104371045860453 0 0.069474617258596091 0.25198075459793312 0 0.072249723456030243 0.27142134892753772 0 0.069474617258596091 0.25198075459793312 0 0.089757487417634604 0.26245456467852091 0 0.072249723456030243 0.27142134892753772 0 0.087485546461120264 0.24144464054337059 0 0.089757487417634604 0.26245456467852091 0 0.1032245739175046 0.25147683452525582 0 0.087485546461120264 0.24144464054337059 0 0.069474617258596091 0.25198075459793312 0 0.089757487417634604 0.26245456467852091 0 0.089757487417634604 0.26245456467852091 0 0.092614249793920148 0.28083880571895092 0 0.072249723456030243 0.27142134892753772 0 0.092614249793920148 0.28083880571895092 0 0.072249723456030243 0.27142134892753772 0 0.076731290552459211 0.28681265184322918 0 0.056729266798489698 0.27299110408009503 0 0.059836181458103987 0.26104371045860453 0 0.072249723456030243 0.27142134892753772 0 0.056729266798489698 0.27299110408009503 0 0.061523827132218739 0.27956085560289839 0 0.072249723456030243 0.27142134892753772 0 0.061523827132218739 0.27956085560289839 0 0.072249723456030243 0.27142134892753772 0 0.076731290552459211 0.28681265184322918 0 0.061523827132218739 0.27956085560289839 0 0.065823362664584009 0.293674483012757 0 0.076731290552459211 0.28681265184322918 0 0.065823362664584009 0.293674483012757 0 0.076731290552459211 0.28681265184322918 0 0.082195481431679845 0.30308102876658122 0 0.080232779992116768 0.32221580359333779 0 0.058825025169389117 0.30694611607815969 0 0.082195481431679845 0.30308102876658122 0 0.058825025169389117 0.30694611607815969 0 0.065823362664584009 0.293674483012757 0 0.082195481431679845 0.30308102876658122 0 0.082195481431679845 0.30308102876658122 0 0.096862759922995451 0.31173953782700048 0 0.098697054354311281 0.29933918544852622 0 0.082195481431679845 0.30308102876658122 0 0.087559519033092614 0.29251791794432191 0 0.098697054354311281 0.29933918544852622 0 0.080232779992116768 0.32221580359333779 0 0.082195481431679845 0.30308102876658122 0 0.096862759922995451 0.31173953782700048 0 0.076731290552459211 0.28681265184322918 0 0.082195481431679845 0.30308102876658122 0 0.087559519033092614 0.29251791794432191 0 0.092614249793920148 0.28083880571895092 0 0.076731290552459211 0.28681265184322918 0 0.087559519033092614 0.29251791794432191 0 0.092614249793920148 0.28083880571895092 0 0.087559519033092614 0.29251791794432191 0 0.098697054354311281 0.29933918544852622 0 0.092614249793920148 0.28083880571895092 0 0.1084494574430887 0.29192087621988522 0 0.098697054354311281 0.29933918544852622 0 0.1084494574430887 0.29192087621988522 0 0.098697054354311281 0.29933918544852622 0 0.1106716793489569 0.30193707575709172 0 0.096862759922995451 0.31173953782700048 0 0.098697054354311281 0.29933918544852622 0 0.1106716793489569 0.30193707575709172 0 0.11104142419815929 0.31652162469863032 0 0.096862759922995451 0.31173953782700048 0 0.1106716793489569 0.30193707575709172 0 0.11104142419815929 0.31652162469863032 0 0.1106716793489569 0.30193707575709172 0 0.120100824837353 0.30357241011644148 0 0.1084494574430887 0.29192087621988522 0 0.1106716793489569 0.30193707575709172 0 0.120100824837353 0.30357241011644148 0 0.1106716793489569 0.30193707575709172 0 0.120100824837353 0.30357241011644148 0 0.1084494574430887 0.29192087621988522 0 0.120100824837353 0.30357241011644148 0 0.1084494574430887 0.29192087621988522 0 0.120100824837353 0.30357241011644148 0 0.1268950581424684 0.28846674664521688 0 0.1084494574430887 0.29192087621988522 0 0.1185668388203438 0.26762688864576878 0 0.1268950581424684 0.28846674664521688 0 0.1220369488812048 0.24667543794128571 0 0.1185668388203438 0.26762688864576878 0 0.1032245739175046 0.25147683452525582 0 0.089757487417634604 0.26245456467852091 0 0.1185668388203438 0.26762688864576878 0 0.1032245739175046 0.25147683452525582 0 0.092614249793920148 0.28083880571895092 0 0.1084494574430887 0.29192087621988522 0 0.1185668388203438 0.26762688864576878 0 0.092614249793920148 0.28083880571895092 0 0.1185668388203438 0.26762688864576878 0 0.089757487417634604 0.26245456467852091 0 0.092614249793920148 0.28083880571895092 0 0.1185668388203438 0.26762688864576878 0 0.14888279196980039 0.27876617247188001 0 0.1445194278467675 0.25441497157258658 0 0.163043000801331 0.25870570855762948 0 0.1185668388203438 0.26762688864576878 0 0.1445194278467675 0.25441497157258658 0 0.1220369488812048 0.24667543794128571 0 0.1185668388203438 0.26762688864576878 0 0.1445194278467675 0.25441497157258658 0 0.1185668388203438 0.26762688864576878 0 0.14888279196980039 0.27876617247188001 0 0.1445194278467675 0.25441497157258658 0 0.1185668388203438 0.26762688864576878 0 0.14888279196980039 0.27876617247188001 0 0.1268950581424684 0.28846674664521688 0 0.14888279196980039 0.27876617247188001 0 0.1268950581424684 0.28846674664521688 0 0.13878889194214661 0.30681355622919948 0 0.120100824837353 0.30357241011644148 0 0.13878889194214661 0.30681355622919948 0 0.120100824837353 0.30357241011644148 0 0.13878889194214661 0.30681355622919948 0 0.1405422484752803 0.32401412586976819 0 0.120100824837353 0.30357241011644148 0 0.1268950581424684 0.28846674664521688 0 0.13878889194214661 0.30681355622919948 0 0.13878889194214661 0.30681355622919948 0 0.15747695904694031 0.31005470234195709 0 0.13878889194214661 0.30681355622919948 0 0.15575309592708661 0.29678248083769487 0 0.15747695904694031 0.31005470234195709 0 0.14888279196980039 0.27876617247188001 0 0.13878889194214661 0.30681355622919948 0 0.15575309592708661 0.29678248083769487 0 0.14888279196980039 0.27876617247188001 0 0.15575309592708661 0.29678248083769487 0 0.1691899620635034 0.2895338124557057 0 0.15575309592708661 0.29678248083769487 0 0.1691899620635034 0.2895338124557057 0 0.16692682683898019 0.30226509730367312 0 0.15747695904694031 0.31005470234195709 0 0.1681875309077884 0.31191227959473111 0 0.15747695904694031 0.31005470234195709 0 0.16692682683898019 0.30226509730367312 0 0.15575309592708661 0.29678248083769487 0 0.15747695904694031 0.31005470234195709 0 0.16692682683898019 0.30226509730367312 0 0.1691899620635034 0.2895338124557057 0 0.16692682683898019 0.30226509730367312 0 0.17688312235191081 0.30146944203595338 0 0.16692682683898019 0.30226509730367312 0 0.1681875309077884 0.31191227959473111 0 0.17688312235191081 0.30146944203595338 0 0.15747695904694031 0.31005470234195709 0 0.16692682683898019 0.30226509730367312 0 0.1681875309077884 0.31191227959473111 0 0.1681875309077884 0.31191227959473111 0 0.17688312235191081 0.30146944203595338 0 0.1838837900075965 0.31463454449676048 0 0.1681875309077884 0.31191227959473111 0 0.17688312235191081 0.30146944203595338 0 0.17688312235191081 0.30146944203595338 0 0.18520172077854941 0.28739284135823212 0 0.19013254734543941 0.3018269652628634 0 0.17688312235191081 0.30146944203595338 0 0.19013254734543941 0.3018269652628634 0 0.1838837900075965 0.31463454449676048 0 0.1691899620635034 0.2895338124557057 0 0.17688312235191081 0.30146944203595338 0 0.18520172077854941 0.28739284135823212 0 0.1691899620635034 0.2895338124557057 0 0.18520172077854941 0.28739284135823212 0 0.17491440144065021 0.27355841961449118 0 0.18520172077854941 0.28739284135823212 0 0.17491440144065021 0.27355841961449118 0 0.19363391747349859 0.27012365329978311 0 0.14888279196980039 0.27876617247188001 0 0.1691899620635034 0.2895338124557057 0 0.17491440144065021 0.27355841961449118 0 0.14888279196980039 0.27876617247188001 0 0.17491440144065021 0.27355841961449118 0 0.163043000801331 0.25870570855762948 0 0.170472016873191 0.2412030544994046 0 0.1445194278467675 0.25441497157258658 0 0.163043000801331 0.25870570855762948 0 0.17491440144065021 0.27355841961449118 0 0.1898230052980576 0.25015052600849719 0 0.17491440144065021 0.27355841961449118 0 0.1898230052980576 0.25015052600849719 0 0.19363391747349859 0.27012365329978311 0 0.17491440144065021 0.27355841961449118 0 0.163043000801331 0.25870570855762948 0 0.1898230052980576 0.25015052600849719 0 0.170472016873191 0.2412030544994046 0 0.163043000801331 0.25870570855762948 0 0.1898230052980576 0.25015052600849719 0 0.1898230052980576 0.25015052600849719 0 0.19363391747349859 0.27012365329978311 0 0.21064805985606991 0.25920556865035532 0 0.2055832800304439 0.24335802530779341 0 0.1898230052980576 0.25015052600849719 0 0.21064805985606991 0.25920556865035532 0 0.19363391747349859 0.27012365329978311 0 0.21064805985606991 0.25920556865035532 0 0.20511405448173681 0.28828118902457539 0 0.21064805985606991 0.25920556865035532 0 0.2250920102865184 0.26747345507503428 0 0.21556307589245299 0.28185892065200813 0 0.21064805985606991 0.25920556865035532 0 0.21556307589245299 0.28185892065200813 0 0.20511405448173681 0.28828118902457539 0 0.21064805985606991 0.25920556865035532 0 0.20511405448173681 0.28828118902457539 0 0.22695336072194019 0.25057729098146658 0 0.2250920102865184 0.26747345507503428 0 0.2390220630027978 0.26435793077711911 0 0.21064805985606991 0.25920556865035532 0 0.22695336072194019 0.25057729098146658 0 0.2250920102865184 0.26747345507503428 0 0.2250920102865184 0.26747345507503428 0 0.2390220630027978 0.26435793077711911 0 0.23327349195933131 0.28136756431422238 0 0.2250920102865184 0.26747345507503428 0 0.23327349195933131 0.28136756431422238 0 0.21556307589245299 0.28185892065200813 0 0.2390220630027978 0.26435793077711911 0 0.25374278848102799 0.28132582272820478 0 0.25566493851637151 0.26307522389909938 0 0.2390220630027978 0.26435793077711911 0 0.23327349195933131 0.28136756431422238 0 0.25374278848102799 0.28132582272820478 0 0.24242825524523789 0.24053549575596991 0 0.2390220630027978 0.26435793077711911 0 0.25566493851637151 0.26307522389909938 0 0.24242825524523789 0.24053549575596991 0 0.22695336072194019 0.25057729098146658 0 0.2390220630027978 0.26435793077711911 0 0.24233548025001611 0.29643186720405401 0 0.23269843886761929 0.30979409083969012 0 0.25035729020073139 0.31320574585262972 0 0.24233548025001611 0.29643186720405401 0 0.23327349195933131 0.28136756431422238 0 0.25374278848102799 0.28132582272820478 0 0.2264457237266658 0.29574377986813849 0 0.23327349195933131 0.28136756431422238 0 0.21556307589245299 0.28185892065200813 0 0.24233548025001611 0.29643186720405401 0 0.2264457237266658 0.29574377986813849 0 0.23327349195933131 0.28136756431422238 0 0.24233548025001611 0.29643186720405401 0 0.2264457237266658 0.29574377986813849 0 0.23269843886761929 0.30979409083969012 0 0.2264457237266658 0.29574377986813849 0 0.23269843886761929 0.30979409083969012 0 0.21403466274690019 0.30828120004502491 0 0.21403466274690019 0.30828120004502491 0 0.20511405448173681 0.28828118902457539 0 0.19958004910740351 0.31735680939879568 0 0.2264457237266658 0.29574377986813849 0 0.21403466274690019 0.30828120004502491 0 0.21556307589245299 0.28185892065200813 0 0.21403466274690019 0.30828120004502491 0 0.21556307589245299 0.28185892065200813 0 0.21403466274690019 0.30828120004502491 0 0.21556307589245299 0.28185892065200813 0 0.20511405448173681 0.28828118902457539 0 0.18520172077854941 0.28739284135823212 0 0.20511405448173681 0.28828118902457539 0 0.19013254734543941 0.3018269652628634 0 0.18520172077854941 0.28739284135823212 0 0.19363391747349859 0.27012365329978311 0 0.20511405448173681 0.28828118902457539 0 0.20511405448173681 0.28828118902457539 0 0.19958004910740351 0.31735680939879568 0 0.20511405448173681 0.28828118902457539 0 0.19013254734543941 0.3018269652628634 0 0.19958004910740351 0.31735680939879568 0 0.19013254734543941 0.3018269652628634 0 0.19958004910740351 0.31735680939879568 0 0.1838837900075965 0.31463454449676048 0 0.19958004910740351 0.31735680939879568 0 0.19577667827484499 0.33733968960754201 0 0.1864712537369046 0.3280707762248648 0 0.19958004910740351 0.31735680939879568 0 0.1838837900075965 0.31463454449676048 0 0.19958004910740351 0.31735680939879568 0 0.19577667827484499 0.33733968960754201 0 0.19958004910740351 0.31735680939879568 0 0.1838837900075965 0.31463454449676048 0 0.1864712537369046 0.3280707762248648 0 0.19958004910740351 0.31735680939879568 0 0.19577667827484499 0.33733968960754201 0 0.21250624960134731 0.33470347943804152 0 0.19577667827484499 0.33733968960754201 0 0.21250624960134731 0.33470347943804152 0 0.2028085179435683 0.34762287442323248 0 0.21403466274690019 0.30828120004502491 0 0.21250624960134731 0.33470347943804152 0 0.2237929827055066 0.32224859101980868 0 0.19958004910740351 0.31735680939879568 0 0.21250624960134731 0.33470347943804152 0 0.2107510903240607 0.31929424769092518 0 0.21403466274690019 0.30828120004502491 0 0.21250624960134731 0.33470347943804152 0 0.2107510903240607 0.31929424769092518 0 0.21403466274690019 0.30828120004502491 0 0.21250624960134731 0.33470347943804152 0 0.19958004910740351 0.31735680939879568 0 0.2107510903240607 0.31929424769092518 0 0.21403466274690019 0.30828120004502491 0 0.19958004910740351 0.31735680939879568 0 0.2107510903240607 0.31929424769092518 0 0.23269843886761929 0.30979409083969012 0 0.21403466274690019 0.30828120004502491 0 0.2237929827055066 0.32224859101980868 0 0.23269843886761929 0.30979409083969012 0 0.2237929827055066 0.32224859101980868 0 0.23684765205430411 0.32285617726601512 0 0.2237929827055066 0.32224859101980868 0 0.23106563859861209 0.33593353857091129 0 0.23684765205430411 0.32285617726601512 0 0.21250624960134731 0.33470347943804152 0 0.2237929827055066 0.32224859101980868 0 0.23106563859861209 0.33593353857091129 0 0.21250624960134731 0.33470347943804152 0 0.23106563859861209 0.33593353857091129 0 0.2244231656696915 0.34911959915845558 0 0.23106563859861209 0.33593353857091129 0 0.23684765205430411 0.32285617726601512 0 0.25400870075324861 0.33645866182283118 0 0.23106563859861209 0.33593353857091129 0 0.24008832681353209 0.3509911895239427 0 0.25400870075324861 0.33645866182283118 0 0.23684765205430411 0.32285617726601512 0 0.25035729020073139 0.31320574585262972 0 0.25400870075324861 0.33645866182283118 0 0.23269843886761929 0.30979409083969012 0 0.23684765205430411 0.32285617726601512 0 0.25035729020073139 0.31320574585262972 0 0.22747777687917131 0.36284402942832472 0 0.23448135539952561 0.37755203255784808 0 0.25291152302829473 0.3683524102149337 0 0.24008832681353209 0.3509911895239427 0 0.22747777687917131 0.36284402942832472 0 0.25291152302829473 0.3683524102149337 0 0.2244231656696915 0.34911959915845558 0 0.22747777687917131 0.36284402942832472 0 0.21097783645579449 0.36112575883105807 0 0.24008832681353209 0.3509911895239427 0 0.2244231656696915 0.34911959915845558 0 0.22747777687917131 0.36284402942832472 0 0.23106563859861209 0.33593353857091129 0 0.24008832681353209 0.3509911895239427 0 0.2244231656696915 0.34911959915845558 0 0.22747777687917131 0.36284402942832472 0 0.21097783645579449 0.36112575883105807 0 0.22063678428880171 0.37779776249844421 0 0.22747777687917131 0.36284402942832472 0 0.22063678428880171 0.37779776249844421 0 0.23448135539952561 0.37755203255784808 0 0.21097783645579449 0.36112575883105807 0 0.20944942331024169 0.38754803822407458 0 0.21097783645579449 0.36112575883105807 0 0.20283125615183931 0.37442275212037318 0 0.20944942331024169 0.38754803822407458 0 0.21097783645579449 0.36112575883105807 0 0.19799669777807849 0.36882240118590309 0 0.20283125615183931 0.37442275212037318 0 0.21250624960134731 0.33470347943804152 0 0.21097783645579449 0.36112575883105807 0 0.21250624960134731 0.33470347943804152 0 0.21097783645579449 0.36112575883105807 0 0.2028085179435683 0.34762287442323248 0 0.21250624960134731 0.33470347943804152 0 0.2244231656696915 0.34911959915845558 0 0.21097783645579449 0.36112575883105807 0 0.21097783645579449 0.36112575883105807 0 0.2028085179435683 0.34762287442323248 0 0.1919733074422863 0.35732256981628818 0 0.19577667827484499 0.33733968960754201 0 0.2028085179435683 0.34762287442323248 0 0.1919733074422863 0.35732256981628818 0 0.19577667827484499 0.33733968960754201 0 0.1919733074422863 0.35732256981628818 0 0.19577667827484499 0.33733968960754201 0 0.1919733074422863 0.35732256981628818 0 0.18578153102850509 0.34964838945822763 0 0.1919733074422863 0.35732256981628818 0 0.19799669777807849 0.36882240118590309 0 0.18816993660972431 0.3773054500250338 0 0.1919733074422863 0.35732256981628818 0 0.18816993660972431 0.3773054500250338 0 0.21097783645579449 0.36112575883105807 0 0.1919733074422863 0.35732256981628818 0 0.19799669777807849 0.36882240118590309 0 0.19799669777807849 0.36882240118590309 0 0.20283125615183931 0.37442275212037318 0 0.19686609485469481 0.37657943176711572 0 0.19799669777807849 0.36882240118590309 0 0.18816993660972431 0.3773054500250338 0 0.19686609485469481 0.37657943176711572 0 0.17689816396031019 0.36037056089408781 0 0.17142003567646899 0.36872202213746841 0 0.18816993660972431 0.3773054500250338 0 0.17142003567646899 0.36872202213746841 0 0.1759615692735523 0.37768682844148582 0 0.18816993660972431 0.3773054500250338 0 0.1919733074422863 0.35732256981628818 0 0.17689816396031019 0.36037056089408781 0 0.18816993660972431 0.3773054500250338 0 0.17142003567646899 0.36872202213746841 0 0.18816993660972431 0.3773054500250338 0 0.17142003567646899 0.36872202213746841 0 0.15467013474321939 0.36013859424989231 0 0.17142003567646899 0.36872202213746841 0 0.16579660602272389 0.35906092644606702 0 0.15467013474321939 0.36013859424989231 0 0.17142003567646899 0.36872202213746841 0 0.15467013474321939 0.36013859424989231 0 0.15544413543226149 0.37712428985094981 0 0.17689816396031019 0.36037056089408781 0 0.17142003567646899 0.36872202213746841 0 0.16579660602272389 0.35906092644606702 0 0.16351321434728711 0.3469854200052529 0 0.16579660602272389 0.35906092644606702 0 0.15467013474321939 0.36013859424989231 0 0.16351321434728711 0.3469854200052529 0 0.15467013474321939 0.36013859424989231 0 0.15066742811720249 0.3483158780682446 0 0.17689816396031019 0.36037056089408781 0 0.16351321434728711 0.3469854200052529 0 0.17689816396031019 0.36037056089408781 0 0.16351321434728711 0.3469854200052529 0 0.16579660602272389 0.35906092644606702 0 0.17689816396031019 0.36037056089408781 0 0.16351321434728711 0.3469854200052529 0 0.17847797443657881 0.3435607375149925 0 0.17689816396031019 0.36037056089408781 0 0.18578153102850509 0.34964838945822763 0 0.17847797443657881 0.3435607375149925 0 0.1919733074422863 0.35732256981628818 0 0.17689816396031019 0.36037056089408781 0 0.18578153102850509 0.34964838945822763 0 0.19577667827484499 0.33733968960754201 0 0.18578153102850509 0.34964838945822763 0 0.17847797443657881 0.3435607375149925 0 0.17847797443657881 0.3435607375149925 0 0.1864712537369046 0.3280707762248648 0 0.1750696534665849 0.32788435462952192 0 0.17847797443657881 0.3435607375149925 0 0.1750696534665849 0.32788435462952192 0 0.1646016088670873 0.33391525780672238 0 0.19577667827484499 0.33733968960754201 0 0.17847797443657881 0.3435607375149925 0 0.1864712537369046 0.3280707762248648 0 0.1681875309077884 0.31191227959473111 0 0.1838837900075965 0.31463454449676048 0 0.1681875309077884 0.31191227959473111 0 0.1838837900075965 0.31463454449676048 0 0.1750696534665849 0.32788435462952192 0 0.1838837900075965 0.31463454449676048 0 0.1864712537369046 0.3280707762248648 0 0.1750696534665849 0.32788435462952192 0 0.1681875309077884 0.31191227959473111 0 0.1750696534665849 0.32788435462952192 0 0.1646016088670873 0.33391525780672238 0 0.1681875309077884 0.31191227959473111 0 0.15012826473426091 0.33360027911642098 0 0.1681875309077884 0.31191227959473111 0 0.1646016088670873 0.33391525780672238 0 0.15012826473426091 0.33360027911642098 0 0.1681875309077884 0.31191227959473111 0 0.15012826473426091 0.33360027911642098 0 0.15408375079106759 0.31989534673071929 0 0.15747695904694031 0.31005470234195709 0 0.1681875309077884 0.31191227959473111 0 0.15408375079106759 0.31989534673071929 0 0.16351321434728711 0.3469854200052529 0 0.17847797443657881 0.3435607375149925 0 0.1646016088670873 0.33391525780672238 0 0.16351321434728711 0.3469854200052529 0 0.1646016088670873 0.33391525780672238 0 0.15012826473426091 0.33360027911642098 0 0.16351321434728711 0.3469854200052529 0 0.15012826473426091 0.33360027911642098 0 0.15012826473426091 0.33360027911642098 0 0.1343580986440428 0.35253921890141238 0 0.16351321434728711 0.3469854200052529 0 0.15012826473426091 0.33360027911642098 0 0.15066742811720249 0.3483158780682446 0 0.15012826473426091 0.33360027911642098 0 0.1405422484752803 0.32401412586976819 0 0.13688137772380021 0.33726096056677279 0 0.15012826473426091 0.33360027911642098 0 0.1405422484752803 0.32401412586976819 0 0.15747695904694031 0.31005470234195709 0 0.15408375079106759 0.31989534673071929 0 0.1405422484752803 0.32401412586976819 0 0.15747695904694031 0.31005470234195709 0 0.1405422484752803 0.32401412586976819 0 0.13878889194214661 0.30681355622919948 0 0.15747695904694031 0.31005470234195709 0 0.1405422484752803 0.32401412586976819 0 0.15012826473426091 0.33360027911642098 0 0.15408375079106759 0.31989534673071929 0 0.1405422484752803 0.32401412586976819 0 0.1212376155566439 0.32281054036382018 0 0.120100824837353 0.30357241011644148 0 0.1405422484752803 0.32401412586976819 0 0.120100824837353 0.30357241011644148 0 0.1405422484752803 0.32401412586976819 0 0.12317936205375921 0.33832649833091311 0 0.1405422484752803 0.32401412586976819 0 0.12317936205375921 0.33832649833091311 0 0.1212376155566439 0.32281054036382018 0 0.1405422484752803 0.32401412586976819 0 0.15012826473426091 0.33360027911642098 0 0.13688137772380021 0.33726096056677279 0 0.1343580986440428 0.35253921890141238 0 0.12317936205375921 0.33832649833091311 0 0.1405422484752803 0.32401412586976819 0 0.13688137772380021 0.33726096056677279 0 0.12317936205375921 0.33832649833091311 0 0.13688137772380021 0.33726096056677279 0 0.1343580986440428 0.35253921890141238 0 0.120086145189699 0.35226197566915618 0 0.12317936205375921 0.33832649833091311 0 0.1343580986440428 0.35253921890141238 0 0.1185879325538249 0.37147815868640388 0 0.1343580986440428 0.35253921890141238 0 0.1185879325538249 0.37147815868640388 0 0.1343580986440428 0.35253921890141238 0 0.13642716119823861 0.37800357189001083 0 0.1343580986440428 0.35253921890141238 0 0.14522488250444049 0.3669514187230663 0 0.13642716119823861 0.37800357189001083 0 0.1343580986440428 0.35253921890141238 0 0.14522488250444049 0.3669514187230663 0 0.15467013474321939 0.36013859424989231 0 0.14522488250444049 0.3669514187230663 0 0.15544413543226149 0.37712428985094981 0 0.13642716119823861 0.37800357189001083 0 0.14522488250444049 0.3669514187230663 0 0.15467013474321939 0.36013859424989231 0 0.15544413543226149 0.37712428985094981 0 0.15012826473426091 0.33360027911642098 0 0.1343580986440428 0.35253921890141238 0 0.15066742811720249 0.3483158780682446 0 0.1343580986440428 0.35253921890141238 0 0.15467013474321939 0.36013859424989231 0 0.15066742811720249 0.3483158780682446 0 0.14820560246892059 0.39338842015858788 0 0.1526254804805072 0.40397401984264092 0 0.14166567120599219 0.40908868331588633 0 0.14820560246892059 0.39338842015858788 0 0.13371045049013169 0.39347948582606912 0 0.14166567120599219 0.40908868331588633 0 0.14820560246892059 0.39338842015858788 0 0.1526254804805072 0.40397401984264092 0 0.16273103165040601 0.39925801684011741 0 0.14820560246892059 0.39338842015858788 0 0.15544413543226149 0.37712428985094981 0 0.13642716119823861 0.37800357189001083 0 0.14820560246892059 0.39338842015858788 0 0.15544413543226149 0.37712428985094981 0 0.15919511832563199 0.3882509275390878 0 0.14820560246892059 0.39338842015858788 0 0.13642716119823861 0.37800357189001083 0 0.13371045049013169 0.39347948582606912 0 0.1191225926961947 0.39026688431444623 0 0.13642716119823861 0.37800357189001083 0 0.13371045049013169 0.39347948582606912 0 0.12474070720654359 0.40416091344037841 0 0.1191225926961947 0.39026688431444623 0 0.13371045049013169 0.39347948582606912 0 0.12474070720654359 0.40416091344037841 0 0.13371045049013169 0.39347948582606912 0 0.14166567120599219 0.40908868331588633 0 0.12291218917323481 0.41928044869161057 0 0.13810381539502151 0.42571944238798282 0 0.14166567120599219 0.40908868331588633 0 0.12291218917323481 0.41928044869161057 0 0.12474070720654359 0.40416091344037841 0 0.14166567120599219 0.40908868331588633 0 0.12723676124630739 0.43470971013397369 0 0.15148221031346559 0.43748901554507008 0 0.12723676124630739 0.43470971013397369 0 0.13810381539502151 0.42571944238798282 0 0.15148221031346559 0.43748901554507008 0 0.12723676124630739 0.43470971013397369 0 0.13810381539502151 0.42571944238798282 0 0.12291218917323481 0.41928044869161057 0 0.12723676124630739 0.43470971013397369 0 0.13810381539502151 0.42571944238798282 0 0.13810381539502151 0.42571944238798282 0 0.15081523334300129 0.42475881130275772 0 0.15148221031346559 0.43748901554507008 0 0.15081523334300129 0.42475881130275772 0 0.15148221031346559 0.43748901554507008 0 0.1645596445305044 0.42568441610049318 0 0.13810381539502151 0.42571944238798282 0 0.15081523334300129 0.42475881130275772 0 0.14166567120599219 0.40908868331588633 0 0.15081523334300129 0.42475881130275772 0 0.14166567120599219 0.40908868331588633 0 0.1578996165967099 0.41416095905597222 0 0.1526254804805072 0.40397401984264092 0 0.14166567120599219 0.40908868331588633 0 0.1578996165967099 0.41416095905597222 0 0.1578996165967099 0.41416095905597222 0 0.17090749385610801 0.41014338492999081 0 0.16273103165040601 0.39925801684011741 0 0.15081523334300129 0.42475881130275772 0 0.1578996165967099 0.41416095905597222 0 0.1645596445305044 0.42568441610049318 0 0.1578996165967099 0.41416095905597222 0 0.17090749385610801 0.41014338492999081 0 0.1645596445305044 0.42568441610049318 0 0.17090749385610801 0.41014338492999081 0 0.1645596445305044 0.42568441610049318 0 0.17998947189273201 0.4202855468097676 0 0.15148221031346559 0.43748901554507008 0 0.1645596445305044 0.42568441610049318 0 0.17572765938062479 0.44026832095615892 0 0.17998947189273201 0.4202855468097676 0 0.19997310844778399 0.44304762636724732 0 0.17572765938062479 0.44026832095615892 0 0.1645596445305044 0.42568441610049318 0 0.17998947189273201 0.4202855468097676 0 0.17572765938062479 0.44026832095615892 0 0.17998947189273201 0.4202855468097676 0 0.1840797042512298 0.39879549841740097 0 0.17090749385610801 0.41014338492999081 0 0.17998947189273201 0.4202855468097676 0 0.1840797042512298 0.39879549841740097 0 0.1840797042512298 0.39879549841740097 0 0.16273103165040601 0.39925801684011741 0 0.17275317334639209 0.3865327286361 0 0.17090749385610801 0.41014338492999081 0 0.1840797042512298 0.39879549841740097 0 0.16273103165040601 0.39925801684011741 0 0.16273103165040601 0.39925801684011741 0 0.15919511832563199 0.3882509275390878 0 0.17275317334639209 0.3865327286361 0 0.14820560246892059 0.39338842015858788 0 0.16273103165040601 0.39925801684011741 0 0.15919511832563199 0.3882509275390878 0 0.1526254804805072 0.40397401984264092 0 0.1578996165967099 0.41416095905597222 0 0.16273103165040601 0.39925801684011741 0 0.17142003567646899 0.36872202213746841 0 0.15544413543226149 0.37712428985094981 0 0.1670815713230899 0.37962221533122797 0 0.15544413543226149 0.37712428985094981 0 0.15919511832563199 0.3882509275390878 0 0.1670815713230899 0.37962221533122797 0 0.15919511832563199 0.3882509275390878 0 0.1670815713230899 0.37962221533122797 0 0.17275317334639209 0.3865327286361 0 0.17142003567646899 0.36872202213746841 0 0.1670815713230899 0.37962221533122797 0 0.1759615692735523 0.37768682844148582 0 0.1840797042512298 0.39879549841740097 0 0.18816993660972431 0.3773054500250338 0 0.1670815713230899 0.37962221533122797 0 0.1759615692735523 0.37768682844148582 0 0.17275317334639209 0.3865327286361 0 0.1759615692735523 0.37768682844148582 0 0.17275317334639209 0.3865327286361 0 0.18816993660972431 0.3773054500250338 0 0.1840797042512298 0.39879549841740097 0 0.17275317334639209 0.3865327286361 0 0.18816993660972431 0.3773054500250338 0 0.1840797042512298 0.39879549841740097 0 0.18816993660972431 0.3773054500250338 0 0.2006965552387461 0.3837246717330377 0 0.18816993660972431 0.3773054500250338 0 0.2006965552387461 0.3837246717330377 0 0.18816993660972431 0.3773054500250338 0 0.2006965552387461 0.3837246717330377 0 0.19686609485469481 0.37657943176711572 0 0.2006965552387461 0.3837246717330377 0 0.2007235072116168 0.38151459811866661 0 0.19686609485469481 0.37657943176711572 0 0.2006965552387461 0.3837246717330377 0 0.2007235072116168 0.38151459811866661 0 0.20283125615183931 0.37442275212037318 0 0.2007235072116168 0.38151459811866661 0 0.19686609485469481 0.37657943176711572 0 0.2006965552387461 0.3837246717330377 0 0.2042449525141099 0.38990564362219482 0 0.200334831843265 0.41338614905014248 0 0.1840797042512298 0.39879549841740097 0 0.2006965552387461 0.3837246717330377 0 0.200334831843265 0.41338614905014248 0 0.2006965552387461 0.3837246717330377 0 0.200334831843265 0.41338614905014248 0 0.2042449525141099 0.38990564362219482 0 0.2154916406574135 0.40806323521272558 0 0.200334831843265 0.41338614905014248 0 0.2042449525141099 0.38990564362219482 0 0.21249079224861839 0.38976858705329093 0 0.2154916406574135 0.40806323521272558 0 0.21097783645579449 0.36112575883105807 0 0.20944942331024169 0.38754803822407458 0 0.22063678428880171 0.37779776249844421 0 0.20283125615183931 0.37442275212037318 0 0.2007235072116168 0.38151459811866661 0 0.20944942331024169 0.38754803822407458 0 0.2006965552387461 0.3837246717330377 0 0.20944942331024169 0.38754803822407458 0 0.21249079224861839 0.38976858705329093 0 0.2006965552387461 0.3837246717330377 0 0.2042449525141099 0.38990564362219482 0 0.21249079224861839 0.38976858705329093 0 0.2042449525141099 0.38990564362219482 0 0.21249079224861839 0.38976858705329093 0 0.2006965552387461 0.3837246717330377 0 0.2007235072116168 0.38151459811866661 0 0.20944942331024169 0.38754803822407458 0 0.2006965552387461 0.3837246717330377 0 0.21249079224861839 0.38976858705329093 0 0.20944942331024169 0.38754803822407458 0 0.21249079224861839 0.38976858705329093 0 0.22063678428880171 0.37779776249844421 0 0.22063678428880171 0.37779776249844421 0 0.22795716168332619 0.38951151590027627 0 0.23448135539952561 0.37755203255784808 0 0.21249079224861839 0.38976858705329093 0 0.22063678428880171 0.37779776249844421 0 0.22795716168332619 0.38951151590027627 0 0.21249079224861839 0.38976858705329093 0 0.22795716168332619 0.38951151590027627 0 0.21249079224861839 0.38976858705329093 0 0.23739670527409079 0.40253153468386599 0 0.2154916406574135 0.40806323521272558 0 0.21249079224861839 0.38976858705329093 0 0.23739670527409079 0.40253153468386599 0 0.21249079224861839 0.38976858705329093 0 0.22795716168332619 0.38951151590027627 0 0.23739670527409079 0.40253153468386599 0 0.23739670527409079 0.40253153468386599 0 0.25720166469534772 0.41268051656060561 0 0.25471714199726092 0.3993825039803387 0 0.23739670527409079 0.40253153468386599 0 0.24342353111803389 0.38925444474726167 0 0.22795716168332619 0.38951151590027627 0 0.23739670527409079 0.40253153468386599 0 0.24342353111803389 0.38925444474726167 0 0.23739670527409079 0.40253153468386599 0 0.24342353111803389 0.38925444474726167 0 0.25471714199726092 0.3993825039803387 0 0.24342353111803389 0.38925444474726167 0 0.23448135539952561 0.37755203255784808 0 0.25291152302829473 0.3683524102149337 0 0.24342353111803389 0.38925444474726167 0 0.25291152302829473 0.3683524102149337 0 0.22795716168332619 0.38951151590027627 0 0.24342353111803389 0.38925444474726167 0 0.23448135539952561 0.37755203255784808 0 0.22795716168332619 0.38951151590027627 0 0.24342353111803389 0.38925444474726167 0 0.2477108739726743 0.43608506657033408 0 0.22839192455678281 0.42760326130316839 0 0.2477108739726743 0.43608506657033408 0 0.22839192455678281 0.42760326130316839 0 0.2336932046861932 0.43809758731539661 0 0.24179891162593201 0.4233084808526586 0 0.2477108739726743 0.43608506657033408 0 0.22839192455678281 0.42760326130316839 0 0.23739670527409079 0.40253153468386599 0 0.24179891162593201 0.4233084808526586 0 0.2277303609233591 0.42382647942364532 0 0.23739670527409079 0.40253153468386599 0 0.25720166469534772 0.41268051656060561 0 0.23739670527409079 0.40253153468386599 0 0.24179891162593201 0.4233084808526586 0 0.25720166469534772 0.41268051656060561 0 0.23739670527409079 0.40253153468386599 0 0.2277303609233591 0.42382647942364532 0 0.2154916406574135 0.40806323521272558 0 0.23739670527409079 0.40253153468386599 0 0.2277303609233591 0.42382647942364532 0 0.22839192455678281 0.42760326130316839 0 0.21806401657263061 0.44512142416342598 0 0.2336932046861932 0.43809758731539661 0 0.2277303609233591 0.42382647942364532 0 0.22839192455678281 0.42760326130316839 0 0.21806401657263061 0.44512142416342598 0 0.2277303609233591 0.42382647942364532 0 0.21806401657263061 0.44512142416342598 0 0.2277303609233591 0.42382647942364532 0 0.21132311606372481 0.42813301649577368 0 0.21806401657263061 0.44512142416342598 0 0.24179891162593201 0.4233084808526586 0 0.2277303609233591 0.42382647942364532 0 0.22839192455678281 0.42760326130316839 0 0.21132311606372481 0.42813301649577368 0 0.200334831843265 0.41338614905014248 0 0.19997310844778399 0.44304762636724732 0 0.2277303609233591 0.42382647942364532 0 0.21132311606372481 0.42813301649577368 0 0.2154916406574135 0.40806323521272558 0 0.21132311606372481 0.42813301649577368 0 0.2154916406574135 0.40806323521272558 0 0.200334831843265 0.41338614905014248 0 0.17998947189273201 0.4202855468097676 0 0.1840797042512298 0.39879549841740097 0 0.200334831843265 0.41338614905014248 0 0.200334831843265 0.41338614905014248 0 0.19997310844778399 0.44304762636724732 0 0.17998947189273201 0.4202855468097676 0 0.200334831843265 0.41338614905014248 0 0.19997310844778399 0.44304762636724732 0 0.19997310844778399 0.44304762636724732 0 0.17572765938062479 0.44026832095615892 0 0.19997310844778399 0.44304762636724732 0 0.19968200671753969 0.4669180961147073 0 0.19997310844778399 0.44304762636724732 0 0.19968200671753969 0.4669180961147073 0 0.18159517998259689 0.45908491534316159 0 0.19968200671753969 0.4669180961147073 0 0.1996512890033991 0.46943696216704112 0 0.19968200671753969 0.4669180961147073 0 0.21828780011045479 0.46353289824288518 0 0.22242014387397629 0.45638796891448069 0 0.19968200671753969 0.4669180961147073 0 0.21828780011045479 0.46353289824288518 0 0.210506248860339 0.47133562409762919 0 0.19968200671753969 0.4669180961147073 0 0.2145952889318655 0.45276302689834302 0 0.22242014387397629 0.45638796891448069 0 0.19997310844778399 0.44304762636724732 0 0.19968200671753969 0.4669180961147073 0 0.2145952889318655 0.45276302689834302 0 0.19968200671753969 0.4669180961147073 0 0.22242014387397629 0.45638796891448069 0 0.19997310844778399 0.44304762636724732 0 0.2145952889318655 0.45276302689834302 0 0.21806401657263061 0.44512142416342598 0 0.19997310844778399 0.44304762636724732 0 0.21806401657263061 0.44512142416342598 0 0.21132311606372481 0.42813301649577368 0 0.19997310844778399 0.44304762636724732 0 0.21806401657263061 0.44512142416342598 0 0.2145952889318655 0.45276302689834302 0 0.21806401657263061 0.44512142416342598 0 0.21806401657263061 0.44512142416342598 0 0.2242253902885904 0.45078437535245919 0 0.23642513750439681 0.44722619700628091 0 0.21806401657263061 0.44512142416342598 0 0.2336932046861932 0.43809758731539661 0 0.23642513750439681 0.44722619700628091 0 0.21806401657263061 0.44512142416342598 0 0.23642513750439681 0.44722619700628091 0 0.22962236456008309 0.45242325977976322 0 0.2242253902885904 0.45078437535245919 0 0.23642513750439681 0.44722619700628091 0 0.22962236456008309 0.45242325977976322 0 0.23653702927331069 0.45643193404602073 0 0.23642513750439681 0.44722619700628091 0 0.2145952889318655 0.45276302689834302 0 0.21806401657263061 0.44512142416342598 0 0.2242253902885904 0.45078437535245919 0 0.2145952889318655 0.45276302689834302 0 0.2242253902885904 0.45078437535245919 0 0.22242014387397629 0.45638796891448069 0 0.21828780011045479 0.46353289824288518 0 0.23653702927331069 0.45643193404602073 0 0.21828780011045479 0.46353289824288518 0 0.23021222535238131 0.46748085404369583 0 0.23653702927331069 0.45643193404602073 0 0.21828780011045479 0.46353289824288518 0 0.22242014387397629 0.45638796891448069 0 0.23653702927331069 0.45643193404602073 0 0.22962236456008309 0.45242325977976322 0 0.2242253902885904 0.45078437535245919 0 0.22242014387397629 0.45638796891448069 0 0.21828780011045479 0.46353289824288518 0 0.23021222535238131 0.46748085404369583 0 0.22226456360634189 0.47419589462082218 0 0.22962236456008309 0.45242325977976322 0 0.22242014387397629 0.45638796891448069 0 0.23653702927331069 0.45643193404602073 0 0.23653702927331069 0.45643193404602073 0 0.2495341404435279 0.46086582591305691 0 0.25478625843616209 0.44933096984914422 0 0.23021222535238131 0.46748085404369583 0 0.23653702927331069 0.45643193404602073 0 0.2409825980491864 0.46711013874977519 0 0.23653702927331069 0.45643193404602073 0 0.2409825980491864 0.46711013874977519 0 0.2495341404435279 0.46086582591305691 0 0.2409825980491864 0.46711013874977519 0 0.2495341404435279 0.46086582591305691 0 0.25310453826305501 0.47200942977231231 0 0.23653702927331069 0.45643193404602073 0 0.23642513750439681 0.44722619700628091 0 0.25478625843616209 0.44933096984914422 0 0.2477108739726743 0.43608506657033408 0 0.23642513750439681 0.44722619700628091 0 0.25478625843616209 0.44933096984914422 0 0.23653702927331069 0.45643193404602073 0 0.25478625843616209 0.44933096984914422 0 0.23642513750439681 0.44722619700628091 0 0.25478625843616209 0.44933096984914422 0 0.2477108739726743 0.43608506657033408 0 0.2336932046861932 0.43809758731539661 0 0.23642513750439681 0.44722619700628091 0 0.24518012127469921 0.48473577753726899 0 0.23566250046213291 0.5 0 0.26251640313324598 0.5 0 0.24518012127469921 0.48473577753726899 0 0.23566250046213291 0.5 0 0.22604151956767679 0.48635274391756678 0 0.2409825980491864 0.46711013874977519 0 0.24518012127469921 0.48473577753726899 0 0.25310453826305501 0.47200942977231231 0 0.24518012127469921 0.48473577753726899 0 0.23298913572261251 0.47613340455897579 0 0.22604151956767679 0.48635274391756678 0 0.2409825980491864 0.46711013874977519 0 0.24518012127469921 0.48473577753726899 0 0.23298913572261251 0.47613340455897579 0 0.23021222535238131 0.46748085404369583 0 0.2409825980491864 0.46711013874977519 0 0.23298913572261251 0.47613340455897579 0 0.23298913572261251 0.47613340455897579 0 0.22226456360634189 0.47419589462082218 0 0.22604151956767679 0.48635274391756678 0 0.23021222535238131 0.46748085404369583 0 0.23298913572261251 0.47613340455897579 0 0.22226456360634189 0.47419589462082218 0 0.22226456360634189 0.47419589462082218 0 0.22604151956767679 0.48635274391756678 0 0.21134419854925471 0.48305138678833381 0 0.23566250046213291 0.5 0 0.22604151956767679 0.48635274391756678 0 0.20880859779101979 0.5 0 0.20880859779101979 0.5 0 0.21134419854925471 0.48305138678833381 0 0.19739932876216651 0.48752612486332758 0 0.22604151956767679 0.48635274391756678 0 0.20880859779101979 0.5 0 0.21134419854925471 0.48305138678833381 0 0.21828780011045479 0.46353289824288518 0 0.22226456360634189 0.47419589462082218 0 0.210506248860339 0.47133562409762919 0 0.22226456360634189 0.47419589462082218 0 0.21134419854925471 0.48305138678833381 0 0.210506248860339 0.47133562409762919 0 0.21134419854925471 0.48305138678833381 0 0.20356828642359021 0.47902196793458052 0 0.19739932876216651 0.48752612486332758 0 0.21134419854925471 0.48305138678833381 0 0.20356828642359021 0.47902196793458052 0 0.210506248860339 0.47133562409762919 0 0.20356828642359021 0.47902196793458052 0 0.210506248860339 0.47133562409762919 0 0.202542194088317 0.47237694951870762 0 0.19968200671753969 0.4669180961147073 0 0.210506248860339 0.47133562409762919 0 0.202542194088317 0.47237694951870762 0 0.19968200671753969 0.4669180961147073 0 0.17587030107092019 0.47794539740980557 0 0.19968200671753969 0.4669180961147073 0 0.19371204972775241 0.47745694556211737 0 0.17587030107092019 0.47794539740980557 0 0.1996512890033991 0.46943696216704112 0 0.1993031394367171 0.4751720972795801 0 0.19371204972775241 0.47745694556211737 0 0.19968200671753969 0.4669180961147073 0 0.1996512890033991 0.46943696216704112 0 0.19371204972775241 0.47745694556211737 0 0.19968200671753969 0.4669180961147073 0 0.1996512890033991 0.46943696216704112 0 0.202542194088317 0.47237694951870762 0 0.1996512890033991 0.46943696216704112 0 0.202542194088317 0.47237694951870762 0 0.1993031394367171 0.4751720972795801 0 0.20356828642359021 0.47902196793458052 0 0.202542194088317 0.47237694951870762 0 0.1993031394367171 0.4751720972795801 0 0.20356828642359021 0.47902196793458052 0 0.19371204972775241 0.47745694556211737 0 0.19739932876216651 0.48752612486332758 0 0.20356828642359021 0.47902196793458052 0 0.1993031394367171 0.4751720972795801 0 0.19371204972775241 0.47745694556211737 0 0.19371204972775241 0.47745694556211737 0 0.19739932876216651 0.48752612486332758 0 0.18436761273884669 0.48602680973137963 0 0.20880859779101979 0.5 0 0.19739932876216651 0.48752612486332758 0 0.18195469511990681 0.5 0 0.19739932876216651 0.48752612486332758 0 0.18195469511990681 0.5 0 0.18436761273884669 0.48602680973137963 0 0.18195469511990681 0.5 0 0.18436761273884669 0.48602680973137963 0 0.16731624803217091 0.49069672731545561 0 0.18436761273884669 0.48602680973137963 0 0.16731624803217091 0.49069672731545561 0 0.17587030107092019 0.47794539740980557 0 0.16731624803217091 0.49069672731545561 0 0.17587030107092019 0.47794539740980557 0 0.15205859542430039 0.48897269870490312 0 0.18195469511990681 0.5 0 0.16731624803217091 0.49069672731545561 0 0.15510079244879371 0.5 0 0.16731624803217091 0.49069672731545561 0 0.15510079244879371 0.5 0 0.15205859542430039 0.48897269870490312 0 0.17587030107092019 0.47794539740980557 0 0.16127983485163341 0.45916182723339222 0 0.15205859542430039 0.48897269870490312 0 0.17587030107092019 0.47794539740980557 0 0.15205859542430039 0.48897269870490312 0 0.19371204972775241 0.47745694556211737 0 0.18436761273884669 0.48602680973137963 0 0.17587030107092019 0.47794539740980557 0 0.17587030107092019 0.47794539740980557 0 0.18159517998259689 0.45908491534316159 0 0.16127983485163341 0.45916182723339222 0 0.19968200671753969 0.4669180961147073 0 0.17587030107092019 0.47794539740980557 0 0.18159517998259689 0.45908491534316159 0 0.18159517998259689 0.45908491534316159 0 0.17572765938062479 0.44026832095615892 0 0.16127983485163341 0.45916182723339222 0 0.19997310844778399 0.44304762636724732 0 0.18159517998259689 0.45908491534316159 0 0.17572765938062479 0.44026832095615892 0 0.15148221031346559 0.43748901554507008 0 0.17572765938062479 0.44026832095615892 0 0.15148221031346559 0.43748901554507008 0 0.17572765938062479 0.44026832095615892 0 0.16127983485163341 0.45916182723339222 0 0.15148221031346559 0.43748901554507008 0 0.16127983485163341 0.45916182723339222 0 0.13622940237324219 0.46340484625597689 0 0.12723676124630739 0.43470971013397369 0 0.15148221031346559 0.43748901554507008 0 0.13622940237324219 0.46340484625597689 0 0.13622940237324219 0.46340484625597689 0 0.132064732583837 0.48272194778505378 0 0.15205859542430039 0.48897269870490312 0 0.1117240427601245 0.47851024617933469 0 0.13622940237324219 0.46340484625597689 0 0.132064732583837 0.48272194778505378 0 0.12824688977768059 0.50000000000000033 0 0.15205859542430039 0.48897269870490312 0 0.132064732583837 0.48272194778505378 0 0.12824688977768059 0.50000000000000033 0 0.15205859542430039 0.48897269870490312 0 0.12824688977768059 0.50000000000000033 0 0.15510079244879371 0.5 0 0.15205859542430039 0.48897269870490312 0 0.16127983485163341 0.45916182723339222 0 0.13622940237324219 0.46340484625597689 0 0.15205859542430039 0.48897269870490312 0 0.35559568018161952 0.48345088848182283 0 0.3503243763276116 0.49156565124349361 0 0.33674878154228821 0.47517633272273341 0 0.35559568018161952 0.48345088848182283 0 0.34936912042864149 0.47039323018030837 0 0.33674878154228821 0.47517633272273341 0 0.35559568018161952 0.48345088848182283 0 0.33674878154228821 0.47517633272273341 0 0.35559568018161952 0.48345088848182283 0 0.34936912042864149 0.47039323018030837 0 0.36308418083368998 0.47347720533052889 0 0.3503243763276116 0.49156565124349361 0 0.36993201381769819 0.50000000000000078 0 0.34307811114658521 0.5 0 0.35559568018161952 0.48345088848182283 0 0.3503243763276116 0.49156565124349361 0 0.36993201381769819 0.50000000000000078 0 0.3503243763276116 0.49156565124349361 0 0.36993201381769819 0.50000000000000078 0 0.35559568018161952 0.48345088848182283 0 0.37444257882095089 0.49172544424091202 0 0.35559568018161952 0.48345088848182283 0 0.37444257882095089 0.49172544424091202 0 0.36993201381769819 0.50000000000000078 0 0.37444257882095089 0.49172544424091202 0 0.36308418083368998 0.47347720533052889 0 0.38336087708708061 0.47815606702472441 0 0.35559568018161952 0.48345088848182283 0 0.37444257882095089 0.49172544424091202 0 0.36308418083368998 0.47347720533052889 0 0.36308418083368998 0.47347720533052889 0 0.37278325503091708 0.46285720688518911 0 0.38336087708708061 0.47815606702472441 0 0.37278325503091708 0.46285720688518911 0 0.3640573575947712 0.45455438321778391 0 0.35002719433196983 0.46024863310870773 0 0.36308418083368998 0.47347720533052889 0 0.37278325503091708 0.46285720688518911 0 0.35168841599117617 0.46109992031177399 0 0.37278325503091708 0.46285720688518911 0 0.35002719433196983 0.46024863310870773 0 0.37278325503091708 0.46285720688518911 0 0.3640573575947712 0.45455438321778391 0 0.37765471967194852 0.4493470472049339 0 0.35249901441781101 0.45440515578696111 0 0.3705612610547705 0.43058492889134098 0 0.36452231592957729 0.44300163531389081 0 0.35249901441781101 0.45440515578696111 0 0.3705612610547705 0.43058492889134098 0 0.36452231592957729 0.44300163531389081 0 0.37765471967194852 0.4493470472049339 0 0.37822304894532882 0.43966646236554541 0 0.36452231592957729 0.44300163531389081 0 0.37654561744134379 0.43159811484082028 0 0.37822304894532882 0.43966646236554541 0 0.3640573575947712 0.45455438321778391 0 0.36452231592957729 0.44300163531389081 0 0.37765471967194852 0.4493470472049339 0 0.3640573575947712 0.45455438321778391 0 0.36452231592957729 0.44300163531389081 0 0.35249901441781101 0.45440515578696111 0 0.35222722247737281 0.43911601886625828 0 0.35249901441781101 0.45440515578696111 0 0.3705612610547705 0.43058492889134098 0 0.36452231592957729 0.44300163531389081 0 0.35249901441781101 0.45440515578696111 0 0.35249901441781101 0.45440515578696111 0 0.34763204078440868 0.45902124508789921 0 0.33883897711607303 0.44487648722790651 0 0.35222722247737281 0.43911601886625828 0 0.35249901441781101 0.45440515578696111 0 0.33883897711607303 0.44487648722790651 0 0.34936912042864149 0.47039323018030837 0 0.34763204078440868 0.45902124508789921 0 0.33674878154228821 0.47517633272273341 0 0.37278325503091708 0.46285720688518911 0 0.35168841599117617 0.46109992031177399 0 0.35002719433196983 0.46024863310870773 0 0.34936912042864149 0.47039323018030837 0 0.36308418083368998 0.47347720533052889 0 0.35168841599117617 0.46109992031177399 0 0.3640573575947712 0.45455438321778391 0 0.35249901441781101 0.45440515578696111 0 0.35002719433196983 0.46024863310870773 0 0.35249901441781101 0.45440515578696111 0 0.35002719433196983 0.46024863310870773 0 0.34763204078440868 0.45902124508789921 0 0.35168841599117617 0.46109992031177399 0 0.35002719433196983 0.46024863310870773 0 0.35002719433196983 0.46024863310870773 0 0.34763204078440868 0.45902124508789921 0 0.35249901441781101 0.45440515578696111 0 0.34763204078440868 0.45902124508789921 0 0.34936912042864149 0.47039323018030837 0 0.35002719433196983 0.46024863310870773 0 0.34763204078440868 0.45902124508789921 0 0.34763204078440868 0.45902124508789921 0 0.33996176257668159 0.46629613331143283 0 0.34936912042864149 0.47039323018030837 0 0.35168841599117617 0.46109992031177399 0 0.35002719433196983 0.46024863310870773 0 0.34763204078440868 0.45902124508789921 0 0.33996176257668159 0.46629613331143283 0 0.33674878154228821 0.47517633272273341 0 0.34763204078440868 0.45902124508789921 0 0.32222181216113438 0.44599986270099329 0 0.32650438842291618 0.45755216576071289 0 0.33996176257668159 0.46629613331143283 0 0.32650438842291618 0.45755216576071289 0 0.33674878154228821 0.47517633272273341 0 0.34763204078440868 0.45902124508789921 0 0.33674878154228821 0.47517633272273341 0 0.34763204078440868 0.45902124508789921 0 0.33996176257668159 0.46629613331143283 0 0.32650438842291618 0.45755216576071289 0 0.34763204078440868 0.45902124508789921 0 0.32650438842291618 0.45755216576071289 0 0.33883897711607303 0.44487648722790651 0 0.32222181216113438 0.44599986270099329 0 0.3234580135869034 0.42261007822630631 0 0.34763204078440868 0.45902124508789921 0 0.32222181216113438 0.44599986270099329 0 0.34763204078440868 0.45902124508789921 0 0.33883897711607303 0.44487648722790651 0 0.32222181216113438 0.44599986270099329 0 0.32222181216113438 0.44599986270099329 0 0.32650438842291618 0.45755216576071289 0 0.30627302169927978 0.45523300281788731 0 0.32650438842291618 0.45755216576071289 0 0.30627302169927978 0.45523300281788731 0 0.32650438842291618 0.45755216576071289 0 0.30627302169927978 0.45523300281788731 0 0.31139521825896571 0.46404508629889812 0 0.32650438842291618 0.45755216576071289 0 0.33674878154228821 0.47517633272273341 0 0.31139521825896571 0.46404508629889812 0 0.33674878154228821 0.47517633272273341 0 0.31139521825896571 0.46404508629889812 0 0.31549969421355012 0.47658559490406838 0 0.33071673883752423 0.48313130248698788 0 0.32343470772690369 0.49273473869303741 0 0.31549969421355012 0.47658559490406838 0 0.33674878154228821 0.47517633272273341 0 0.31139521825896571 0.46404508629889812 0 0.31549969421355012 0.47658559490406838 0 0.33071673883752423 0.48313130248698788 0 0.33674878154228821 0.47517633272273341 0 0.31549969421355012 0.47658559490406838 0 0.33071673883752423 0.48313130248698788 0 0.3503243763276116 0.49156565124349361 0 0.33071673883752423 0.48313130248698788 0 0.33674878154228821 0.47517633272273341 0 0.33071673883752423 0.48313130248698788 0 0.33674878154228821 0.47517633272273341 0 0.3503243763276116 0.49156565124349361 0 0.33071673883752423 0.48313130248698788 0 0.34307811114658521 0.5 0 0.33275562850281948 0.4934863384847038 0 0.31622420847547222 0.5 0 0.3503243763276116 0.49156565124349361 0 0.33071673883752423 0.48313130248698788 0 0.33275562850281948 0.4934863384847038 0 0.3503243763276116 0.49156565124349361 0 0.34307811114658521 0.5 0 0.33275562850281948 0.4934863384847038 0 0.33071673883752423 0.48313130248698788 0 0.33275562850281948 0.4934863384847038 0 0.32343470772690369 0.49273473869303741 0 0.31549969421355012 0.47658559490406838 0 0.32343470772690369 0.49273473869303741 0 0.31194326727237598 0.48813849139223858 0 0.33275562850281948 0.4934863384847038 0 0.32343470772690369 0.49273473869303741 0 0.31622420847547222 0.5 0 0.33071673883752423 0.48313130248698788 0 0.32343470772690369 0.49273473869303741 0 0.32343470772690369 0.49273473869303741 0 0.31622420847547222 0.5 0 0.31194326727237598 0.48813849139223858 0 0.31622420847547222 0.5 0 0.31194326727237598 0.48813849139223858 0 0.30198562859994632 0.49034088486976901 0 0.31622420847547222 0.5 0 0.30198562859994632 0.49034088486976901 0 0.28937030580435907 0.5 0 0.31194326727237598 0.48813849139223858 0 0.30198562859994632 0.49034088486976901 0 0.30406128893092488 0.48133889096248511 0 0.31549969421355012 0.47658559490406838 0 0.30028264958957512 0.47003988732115132 0 0.31139521825896571 0.46404508629889812 0 0.31549969421355012 0.47658559490406838 0 0.30406128893092488 0.48133889096248511 0 0.30028264958957512 0.47003988732115132 0 0.31549969421355012 0.47658559490406838 0 0.30028264958957512 0.47003988732115132 0 0.31549969421355012 0.47658559490406838 0 0.31194326727237598 0.48813849139223858 0 0.30406128893092488 0.48133889096248511 0 0.30406128893092488 0.48133889096248511 0 0.30028264958957512 0.47003988732115132 0 0.29286133744175469 0.48095215065627461 0 0.30198562859994632 0.49034088486976901 0 0.30406128893092488 0.48133889096248511 0 0.29286133744175469 0.48095215065627461 0 0.29286133744175469 0.48095215065627461 0 0.27660498721303378 0.47636072050758838 0 0.28610501103245428 0.46849895094805949 0 0.30028264958957512 0.47003988732115132 0 0.29286133744175469 0.48095215065627461 0 0.28610501103245428 0.46849895094805949 0 0.30198562859994632 0.49034088486976901 0 0.29286133744175469 0.48095215065627461 0 0.28937030580435907 0.5 0 0.29286133744175469 0.48095215065627461 0 0.28937030580435907 0.5 0 0.27660498721303378 0.47636072050758838 0 0.28937030580435907 0.5 0 0.26309124286422841 0.48410143423938029 0 0.26251640313324598 0.5 0 0.28937030580435907 0.5 0 0.27660498721303378 0.47636072050758838 0 0.26309124286422841 0.48410143423938029 0 0.27660498721303378 0.47636072050758838 0 0.26309124286422841 0.48410143423938029 0 0.26468102945042238 0.464985925419927 0 0.24518012127469921 0.48473577753726899 0 0.26309124286422841 0.48410143423938029 0 0.25310453826305501 0.47200942977231231 0 0.26309124286422841 0.48410143423938029 0 0.25310453826305501 0.47200942977231231 0 0.26468102945042238 0.464985925419927 0 0.24518012127469921 0.48473577753726899 0 0.26309124286422841 0.48410143423938029 0 0.26251640313324598 0.5 0 0.2477108739726743 0.43608506657033408 0 0.25478625843616209 0.44933096984914422 0 0.26702982338856518 0.44456687183750088 0 0.2477108739726743 0.43608506657033408 0 0.26702982338856518 0.44456687183750088 0 0.25478625843616209 0.44933096984914422 0 0.2704139567059034 0.45112240486209731 0 0.25478625843616209 0.44933096984914422 0 0.2704139567059034 0.45112240486209731 0 0.26702982338856518 0.44456687183750088 0 0.25478625843616209 0.44933096984914422 0 0.26702982338856518 0.44456687183750088 0 0.25478625843616209 0.44933096984914422 0 0.26468102945042238 0.464985925419927 0 0.2704139567059034 0.45112240486209731 0 0.2495341404435279 0.46086582591305691 0 0.25478625843616209 0.44933096984914422 0 0.26468102945042238 0.464985925419927 0 0.2495341404435279 0.46086582591305691 0 0.25310453826305501 0.47200942977231231 0 0.26468102945042238 0.464985925419927 0 0.27715204646791392 0.46089110385148768 0 0.2704139567059034 0.45112240486209731 0 0.28604165497564332 0.45291383987506212 0 0.26468102945042238 0.464985925419927 0 0.27715204646791392 0.46089110385148768 0 0.2704139567059034 0.45112240486209731 0 0.27660498721303378 0.47636072050758838 0 0.26468102945042238 0.464985925419927 0 0.27715204646791392 0.46089110385148768 0 0.27660498721303378 0.47636072050758838 0 0.27715204646791392 0.46089110385148768 0 0.28610501103245428 0.46849895094805949 0 0.26702982338856518 0.44456687183750088 0 0.28192070346321368 0.43877267607579351 0 0.28604165497564332 0.45291383987506212 0 0.2704139567059034 0.45112240486209731 0 0.28604165497564332 0.45291383987506212 0 0.2704139567059034 0.45112240486209731 0 0.26702982338856518 0.44456687183750088 0 0.28604165497564332 0.45291383987506212 0 0.26702982338856518 0.44456687183750088 0 0.28604165497564332 0.45291383987506212 0 0.26702982338856518 0.44456687183750088 0 0.28192070346321368 0.43877267607579351 0 0.26702982338856518 0.44456687183750088 0 0.28192070346321368 0.43877267607579351 0 0.2719322765767978 0.43383347297327762 0 0.28604165497564332 0.45291383987506212 0 0.30627302169927978 0.45523300281788731 0 0.29708260869818892 0.44600176599155361 0 0.28192070346321368 0.43877267607579351 0 0.28604165497564332 0.45291383987506212 0 0.29708260869818892 0.44600176599155361 0 0.28192070346321368 0.43877267607579351 0 0.29708260869818892 0.44600176599155361 0 0.29681158353786141 0.43297848031408442 0 0.28604165497564332 0.45291383987506212 0 0.30627302169927978 0.45523300281788731 0 0.30028264958957512 0.47003988732115132 0 0.28604165497564332 0.45291383987506212 0 0.28610501103245428 0.46849895094805949 0 0.27715204646791392 0.46089110385148768 0 0.28604165497564332 0.45291383987506212 0 0.28610501103245428 0.46849895094805949 0 0.28604165497564332 0.45291383987506212 0 0.31139521825896571 0.46404508629889812 0 0.30028264958957512 0.47003988732115132 0 0.28604165497564332 0.45291383987506212 0 0.31139521825896571 0.46404508629889812 0 0.28604165497564332 0.45291383987506212 0 0.30627302169927978 0.45523300281788731 0 0.31139521825896571 0.46404508629889812 0 0.32222181216113438 0.44599986270099329 0 0.29708260869818892 0.44600176599155361 0 0.29681158353786141 0.43297848031408442 0 0.32222181216113438 0.44599986270099329 0 0.30627302169927978 0.45523300281788731 0 0.29708260869818892 0.44600176599155361 0 0.32222181216113438 0.44599986270099329 0 0.29681158353786141 0.43297848031408442 0 0.30615772014745768 0.41968103906111992 0 0.29681158353786141 0.43297848031408442 0 0.3234580135869034 0.42261007822630631 0 0.29681158353786141 0.43297848031408442 0 0.3234580135869034 0.42261007822630631 0 0.30615772014745768 0.41968103906111992 0 0.2932127469662637 0.42051583266768378 0 0.29681158353786141 0.43297848031408442 0 0.31022671357717729 0.40640484374907759 0 0.30615772014745768 0.41968103906111992 0 0.2909143831398382 0.40764825720093367 0 0.2909143831398382 0.40764825720093367 0 0.2932127469662637 0.42051583266768378 0 0.27700662411660448 0.42282949843734502 0 0.30615772014745768 0.41968103906111992 0 0.2909143831398382 0.40764825720093367 0 0.2932127469662637 0.42051583266768378 0 0.28192070346321368 0.43877267607579351 0 0.29681158353786141 0.43297848031408442 0 0.27700662411660448 0.42282949843734502 0 0.2932127469662637 0.42051583266768378 0 0.29681158353786141 0.43297848031408442 0 0.27700662411660448 0.42282949843734502 0 0.29681158353786141 0.43297848031408442 0 0.27700662411660448 0.42282949843734502 0 0.28192070346321368 0.43877267607579351 0 0.29681158353786141 0.43297848031408442 0 0.28192070346321368 0.43877267607579351 0 0.2719322765767978 0.43383347297327762 0 0.27700662411660448 0.42282949843734502 0 0.26702982338856518 0.44456687183750088 0 0.2719322765767978 0.43383347297327762 0 0.26177195533880698 0.42916484554246898 0 0.2719322765767978 0.43383347297327762 0 0.27700662411660448 0.42282949843734502 0 0.26177195533880698 0.42916484554246898 0 0.2909143831398382 0.40764825720093367 0 0.27700662411660448 0.42282949843734502 0 0.27102880618847808 0.4035424792473612 0 0.27700662411660448 0.42282949843734502 0 0.25720166469534772 0.41268051656060561 0 0.27102880618847808 0.4035424792473612 0 0.27700662411660448 0.42282949843734502 0 0.25720166469534772 0.41268051656060561 0 0.24179891162593201 0.4233084808526586 0 0.25720166469534772 0.41268051656060561 0 0.26177195533880698 0.42916484554246898 0 0.27700662411660448 0.42282949843734502 0 0.25720166469534772 0.41268051656060561 0 0.26177195533880698 0.42916484554246898 0 0.2477108739726743 0.43608506657033408 0 0.26702982338856518 0.44456687183750088 0 0.26177195533880698 0.42916484554246898 0 0.24179891162593201 0.4233084808526586 0 0.2477108739726743 0.43608506657033408 0 0.26177195533880698 0.42916484554246898 0 0.24342353111803389 0.38925444474726167 0 0.26453500271035402 0.38890354466259869 0 0.25291152302829473 0.3683524102149337 0 0.24342353111803389 0.38925444474726167 0 0.26453500271035402 0.38890354466259869 0 0.26453500271035402 0.38890354466259869 0 0.26787338115865189 0.37362351492410589 0 0.25291152302829473 0.3683524102149337 0 0.24342353111803389 0.38925444474726167 0 0.26453500271035402 0.38890354466259869 0 0.25471714199726092 0.3993825039803387 0 0.26453500271035402 0.38890354466259869 0 0.25471714199726092 0.3993825039803387 0 0.27102880618847808 0.4035424792473612 0 0.25720166469534772 0.41268051656060561 0 0.25471714199726092 0.3993825039803387 0 0.27102880618847808 0.4035424792473612 0 0.26453500271035402 0.38890354466259869 0 0.27102880618847808 0.4035424792473612 0 0.28564647430267398 0.38855264457793548 0 0.26453500271035402 0.38890354466259869 0 0.28564647430267398 0.38855264457793548 0 0.26787338115865189 0.37362351492410589 0 0.26453500271035402 0.38890354466259869 0 0.28564647430267398 0.38855264457793548 0 0.28564647430267398 0.38855264457793548 0 0.28197681789469692 0.36591380452149658 0 0.26787338115865189 0.37362351492410589 0 0.28564647430267398 0.38855264457793548 0 0.29684982662581127 0.37739015873456311 0 0.28197681789469692 0.36591380452149658 0 0.28564647430267398 0.38855264457793548 0 0.30675794589499411 0.38820174449327238 0 0.28564647430267398 0.38855264457793548 0 0.29684982662581127 0.37739015873456311 0 0.30675794589499411 0.38820174449327238 0 0.2909143831398382 0.40764825720093367 0 0.28564647430267398 0.38855264457793548 0 0.30675794589499411 0.38820174449327238 0 0.2909143831398382 0.40764825720093367 0 0.27102880618847808 0.4035424792473612 0 0.28564647430267398 0.38855264457793548 0 0.31022671357717729 0.40640484374907759 0 0.2909143831398382 0.40764825720093367 0 0.30675794589499411 0.38820174449327238 0 0.29684982662581127 0.37739015873456311 0 0.30675794589499411 0.38820174449327238 0 0.31437167846471697 0.37313687441032978 0 0.30675794589499411 0.38820174449327238 0 0.32517388336503139 0.38324137266731462 0 0.31437167846471697 0.37313687441032978 0 0.30675794589499411 0.38820174449327238 0 0.32517388336503139 0.38324137266731462 0 0.32395803822004859 0.39866842451734852 0 0.32517388336503139 0.38324137266731462 0 0.341115473244815 0.38897200685596489 0 0.32395803822004859 0.39866842451734852 0 0.32517388336503139 0.38324137266731462 0 0.341115473244815 0.38897200685596489 0 0.3353508014563592 0.37485307206915558 0 0.341115473244815 0.38897200685596489 0 0.34435566866398482 0.37669076846131538 0 0.3353508014563592 0.37485307206915558 0 0.341115473244815 0.38897200685596489 0 0.33582304974815252 0.40537263937427009 0 0.32395803822004859 0.39866842451734852 0 0.341115473244815 0.38897200685596489 0 0.33582304974815252 0.40537263937427009 0 0.34808842261114642 0.40141021490495149 0 0.31022671357717729 0.40640484374907759 0 0.30675794589499411 0.38820174449327238 0 0.32395803822004859 0.39866842451734852 0 0.33582304974815252 0.40537263937427009 0 0.32395803822004859 0.39866842451734852 0 0.3234580135869034 0.42261007822630631 0 0.31022671357717729 0.40640484374907759 0 0.30615772014745768 0.41968103906111992 0 0.3234580135869034 0.42261007822630631 0 0.30615772014745768 0.41968103906111992 0 0.3234580135869034 0.42261007822630631 0 0.31022671357717729 0.40640484374907759 0 0.32395803822004859 0.39866842451734852 0 0.3234580135869034 0.42261007822630631 0 0.32222181216113438 0.44599986270099329 0 0.29681158353786141 0.43297848031408442 0 0.3234580135869034 0.42261007822630631 0 0.33883897711607303 0.44487648722790651 0 0.3234580135869034 0.42261007822630631 0 0.34700963732083689 0.42659750355882398 0 0.3234580135869034 0.42261007822630631 0 0.34700963732083689 0.42659750355882398 0 0.3234580135869034 0.42261007822630631 0 0.34700963732083689 0.42659750355882398 0 0.34554206958648559 0.42588867831633931 0 0.3234580135869034 0.42261007822630631 0 0.34249530107784931 0.41520247236677899 0 0.3234580135869034 0.42261007822630631 0 0.34249530107784931 0.41520247236677899 0 0.34554206958648559 0.42588867831633931 0 0.33582304974815252 0.40537263937427009 0 0.3234580135869034 0.42261007822630631 0 0.34249530107784931 0.41520247236677899 0 0.33582304974815252 0.40537263937427009 0 0.34249530107784931 0.41520247236677899 0 0.34808842261114642 0.40141021490495149 0 0.34249530107784931 0.41520247236677899 0 0.35477118604255459 0.41817378370379188 0 0.36153258856879528 0.40779486650725189 0 0.34249530107784931 0.41520247236677899 0 0.36153258856879528 0.40779486650725189 0 0.34249530107784931 0.41520247236677899 0 0.36153258856879528 0.40779486650725189 0 0.34808842261114642 0.40141021490495149 0 0.34249530107784931 0.41520247236677899 0 0.35477118604255459 0.41817378370379188 0 0.34554206958648559 0.42588867831633931 0 0.34700963732083689 0.42659750355882398 0 0.3705612610547705 0.43058492889134098 0 0.35222722247737281 0.43911601886625828 0 0.33883897711607303 0.44487648722790651 0 0.34700963732083689 0.42659750355882398 0 0.35222722247737281 0.43911601886625828 0 0.34700963732083689 0.42659750355882398 0 0.3705612610547705 0.43058492889134098 0 0.34700963732083689 0.42659750355882398 0 0.34554206958648559 0.42588867831633931 0 0.36079712093087157 0.42461613686828142 0 0.35477118604255459 0.41817378370379188 0 0.34554206958648559 0.42588867831633931 0 0.36079712093087157 0.42461613686828142 0 0.34554206958648559 0.42588867831633931 0 0.36079712093087157 0.42461613686828142 0 0.34700963732083689 0.42659750355882398 0 0.36079712093087157 0.42461613686828142 0 0.3705612610547705 0.43058492889134098 0 0.36079712093087157 0.42461613686828142 0 0.3705612610547705 0.43058492889134098 0 0.37605217227525772 0.42334359542022432 0 0.3705612610547705 0.43058492889134098 0 0.37654561744134379 0.43159811484082028 0 0.37605217227525772 0.42334359542022432 0 0.36079712093087157 0.42461613686828142 0 0.37605217227525772 0.42334359542022432 0 0.3705612610547705 0.43058492889134098 0 0.37605217227525772 0.42334359542022432 0 0.36452231592957729 0.44300163531389081 0 0.37654561744134379 0.43159811484082028 0 0.36452231592957729 0.44300163531389081 0 0.3705612610547705 0.43058492889134098 0 0.37654561744134379 0.43159811484082028 0 0.3705612610547705 0.43058492889134098 0 0.37654561744134379 0.43159811484082028 0 0.36153258856879528 0.40779486650725189 0 0.37469191018849241 0.41147560564509428 0 0.38056987605974119 0.40038726064772479 0 0.35477118604255459 0.41817378370379188 0 0.36153258856879528 0.40779486650725189 0 0.36788422330766551 0.41750134622521162 0 0.35477118604255459 0.41817378370379188 0 0.36079712093087157 0.42461613686828142 0 0.36788422330766551 0.41750134622521162 0 0.36079712093087157 0.42461613686828142 0 0.36788422330766551 0.41750134622521162 0 0.37605217227525772 0.42334359542022432 0 0.36788422330766551 0.41750134622521162 0 0.37469191018849241 0.41147560564509428 0 0.37605217227525772 0.42334359542022432 0 0.36153258856879528 0.40779486650725189 0 0.36788422330766551 0.41750134622521162 0 0.37469191018849241 0.41147560564509428 0 0.36153258856879528 0.40779486650725189 0 0.37008702394707638 0.3957217900659209 0 0.38056987605974119 0.40038726064772479 0 0.36153258856879528 0.40779486650725189 0 0.38056987605974119 0.40038726064772479 0 0.37008702394707638 0.3957217900659209 0 0.35887030465331848 0.39244760752802987 0 0.37694564491726767 0.38652308784479511 0 0.36153258856879528 0.40779486650725189 0 0.37008702394707638 0.3957217900659209 0 0.35887030465331848 0.39244760752802987 0 0.35570280815475652 0.37727639654636019 0 0.35887030465331848 0.39244760752802987 0 0.37694564491726767 0.38652308784479511 0 0.36647059910353308 0.364695216264532 0 0.37694564491726767 0.38652308784479511 0 0.35570280815475652 0.37727639654636019 0 0.36647059910353308 0.364695216264532 0 0.37694564491726767 0.38652308784479511 0 0.341115473244815 0.38897200685596489 0 0.35570280815475652 0.37727639654636019 0 0.35887030465331848 0.39244760752802987 0 0.341115473244815 0.38897200685596489 0 0.35570280815475652 0.37727639654636019 0 0.34435566866398482 0.37669076846131538 0 0.341115473244815 0.38897200685596489 0 0.34808842261114642 0.40141021490495149 0 0.35887030465331848 0.39244760752802987 0 0.36153258856879528 0.40779486650725189 0 0.34808842261114642 0.40141021490495149 0 0.35887030465331848 0.39244760752802987 0 0.35359555906377732 0.35974788050369272 0 0.36647059910353308 0.364695216264532 0 0.35599555328980309 0.34286734468426672 0 0.35105452196877118 0.3479724784865792 0 0.35359555906377732 0.35974788050369272 0 0.35599555328980309 0.34286734468426672 0 0.35105452196877118 0.3479724784865792 0 0.35599555328980309 0.34286734468426672 0 0.35105452196877118 0.3479724784865792 0 0.34190163127097511 0.33770703702806532 0 0.34018217488533792 0.3465520787298354 0 0.35105452196877118 0.3479724784865792 0 0.34617761372100531 0.35754745172212371 0 0.34018217488533792 0.3465520787298354 0 0.35105452196877118 0.3479724784865792 0 0.34617761372100531 0.35754745172212371 0 0.35359555906377732 0.35974788050369272 0 0.35570280815475652 0.37727639654636019 0 0.34617225814479341 0.36812839531829311 0 0.35359555906377732 0.35974788050369272 0 0.34617761372100531 0.35754745172212371 0 0.34617225814479341 0.36812839531829311 0 0.35359555906377732 0.35974788050369272 0 0.35570280815475652 0.37727639654636019 0 0.35359555906377732 0.35974788050369272 0 0.36647059910353308 0.364695216264532 0 0.35570280815475652 0.37727639654636019 0 0.34435566866398482 0.37669076846131538 0 0.34617225814479341 0.36812839531829311 0 0.36647059910353308 0.364695216264532 0 0.35599555328980309 0.34286734468426672 0 0.36647059910353308 0.364695216264532 0 0.35599555328980309 0.34286734468426672 0 0.37760875528064552 0.34775643304867943 0 0.36971880587079747 0.32868831280267391 0 0.35599555328980309 0.34286734468426672 0 0.37760875528064552 0.34775643304867943 0 0.36971880587079747 0.32868831280267391 0 0.35599555328980309 0.34286734468426672 0 0.36971880587079747 0.32868831280267391 0 0.36418220154347319 0.31047564520754922 0 0.38344205845178941 0.31450928092107872 0 0.36971880587079747 0.32868831280267391 0 0.34440168816984013 0.31870808051899702 0 0.36418220154347319 0.31047564520754922 0 0.34440168816984013 0.31870808051899702 0 0.35599555328980309 0.34286734468426672 0 0.34190163127097511 0.33770703702806532 0 0.34440168816984013 0.31870808051899702 0 0.35599555328980309 0.34286734468426672 0 0.36971880587079747 0.32868831280267391 0 0.34440168816984013 0.31870808051899702 0 0.35599555328980309 0.34286734468426672 0 0.35105452196877118 0.3479724784865792 0 0.35599555328980309 0.34286734468426672 0 0.34190163127097511 0.33770703702806532 0 0.34190163127097511 0.33770703702806532 0 0.32887309424103478 0.34254882516735657 0 0.34018217488533792 0.3465520787298354 0 0.34440168816984013 0.31870808051899702 0 0.34190163127097511 0.33770703702806532 0 0.33018120228635572 0.32896723810676132 0 0.34190163127097511 0.33770703702806532 0 0.33018120228635572 0.32896723810676132 0 0.32887309424103478 0.34254882516735657 0 0.34440168816984013 0.31870808051899702 0 0.33018120228635572 0.32896723810676132 0 0.32938304664481038 0.30084553330325919 0 0.33018120228635572 0.32896723810676132 0 0.31431752084880671 0.32290252692798982 0 0.32938304664481038 0.30084553330325919 0 0.31431752084880671 0.32290252692798982 0 0.31868157616214449 0.33775696475586542 0 0.30503671994922948 0.34224483547239032 0 0.33018120228635572 0.32896723810676132 0 0.31431752084880671 0.32290252692798982 0 0.31868157616214449 0.33775696475586542 0 0.33018120228635572 0.32896723810676132 0 0.32887309424103478 0.34254882516735657 0 0.31868157616214449 0.33775696475586542 0 0.31868157616214449 0.33775696475586542 0 0.31761604001891658 0.35277225706419429 0 0.30503671994922948 0.34224483547239032 0 0.31761604001891658 0.35277225706419429 0 0.32782180883813111 0.35270055689681518 0 0.32674182439453048 0.36526755661774829 0 0.32887309424103478 0.34254882516735657 0 0.31868157616214449 0.33775696475586542 0 0.31761604001891658 0.35277225706419429 0 0.32887309424103478 0.34254882516735657 0 0.31761604001891658 0.35277225706419429 0 0.32782180883813111 0.35270055689681518 0 0.32782180883813111 0.35270055689681518 0 0.33771405093293988 0.35521181244791689 0 0.34018217488533792 0.3465520787298354 0 0.32887309424103478 0.34254882516735657 0 0.32782180883813111 0.35270055689681518 0 0.34018217488533792 0.3465520787298354 0 0.32782180883813111 0.35270055689681518 0 0.33771405093293988 0.35521181244791689 0 0.32674182439453048 0.36526755661774829 0 0.34617761372100531 0.35754745172212371 0 0.33771405093293988 0.35521181244791689 0 0.34018217488533792 0.3465520787298354 0 0.34617761372100531 0.35754745172212371 0 0.33771405093293988 0.35521181244791689 0 0.33685014292813631 0.36507067014812128 0 0.32517388336503139 0.38324137266731462 0 0.3353508014563592 0.37485307206915558 0 0.32674182439453048 0.36526755661774829 0 0.34435566866398482 0.37669076846131538 0 0.34617225814479341 0.36812839531829311 0 0.3353508014563592 0.37485307206915558 0 0.34617225814479341 0.36812839531829311 0 0.33685014292813631 0.36507067014812128 0 0.3353508014563592 0.37485307206915558 0 0.34617761372100531 0.35754745172212371 0 0.34617225814479341 0.36812839531829311 0 0.33685014292813631 0.36507067014812128 0 0.33771405093293988 0.35521181244791689 0 0.33685014292813631 0.36507067014812128 0 0.32674182439453048 0.36526755661774829 0 0.33685014292813631 0.36507067014812128 0 0.3353508014563592 0.37485307206915558 0 0.32674182439453048 0.36526755661774829 0 0.32517388336503139 0.38324137266731462 0 0.31437167846471697 0.37313687441032978 0 0.32674182439453048 0.36526755661774829 0 0.31761604001891658 0.35277225706419429 0 0.31437167846471697 0.37313687441032978 0 0.32674182439453048 0.36526755661774829 0 0.31761604001891658 0.35277225706419429 0 0.31437167846471697 0.37313687441032978 0 0.30261607141318009 0.36393826943204849 0 0.29684982662581127 0.37739015873456311 0 0.31437167846471697 0.37313687441032978 0 0.30261607141318009 0.36393826943204849 0 0.31761604001891658 0.35277225706419429 0 0.30261607141318009 0.36393826943204849 0 0.30503671994922948 0.34224483547239032 0 0.30261607141318009 0.36393826943204849 0 0.29166364926296978 0.35202972771211838 0 0.30503671994922948 0.34224483547239032 0 0.29166364926296978 0.35202972771211838 0 0.28197681789469692 0.36591380452149658 0 0.27629085911564732 0.34619852943055152 0 0.29166364926296978 0.35202972771211838 0 0.29065358340422409 0.33855668183139609 0 0.30503671994922948 0.34224483547239032 0 0.29166364926296978 0.35202972771211838 0 0.27629085911564732 0.34619852943055152 0 0.29065358340422409 0.33855668183139609 0 0.29684982662581127 0.37739015873456311 0 0.30261607141318009 0.36393826943204849 0 0.28197681789469692 0.36591380452149658 0 0.30261607141318009 0.36393826943204849 0 0.29166364926296978 0.35202972771211838 0 0.28197681789469692 0.36591380452149658 0 0.28197681789469692 0.36591380452149658 0 0.26787338115865189 0.37362351492410589 0 0.26095266493010438 0.35505668107161381 0 0.28197681789469692 0.36591380452149658 0 0.27629085911564732 0.34619852943055152 0 0.26095266493010438 0.35505668107161381 0 0.24008832681353209 0.3509911895239427 0 0.26095266493010438 0.35505668107161381 0 0.25400870075324861 0.33645866182283118 0 0.27629085911564732 0.34619852943055152 0 0.26095266493010438 0.35505668107161381 0 0.25400870075324861 0.33645866182283118 0 0.24008832681353209 0.3509911895239427 0 0.26095266493010438 0.35505668107161381 0 0.25291152302829473 0.3683524102149337 0 0.26787338115865189 0.37362351492410589 0 0.26095266493010438 0.35505668107161381 0 0.25291152302829473 0.3683524102149337 0 0.25035729020073139 0.31320574585262972 0 0.25400870075324861 0.33645866182283118 0 0.26843485135211659 0.31595748428880738 0 0.27629085911564732 0.34619852943055152 0 0.25400870075324861 0.33645866182283118 0 0.27930815717133473 0.32890070095403801 0 0.25400870075324861 0.33645866182283118 0 0.27930815717133473 0.32890070095403801 0 0.26843485135211659 0.31595748428880738 0 0.27930815717133473 0.32890070095403801 0 0.26843485135211659 0.31595748428880738 0 0.28356889436523619 0.30509626027148351 0 0.27930815717133473 0.32890070095403801 0 0.29779466865323229 0.324080680277752 0 0.28356889436523619 0.30509626027148351 0 0.27629085911564732 0.34619852943055152 0 0.27930815717133473 0.32890070095403801 0 0.29065358340422409 0.33855668183139609 0 0.27930815717133473 0.32890070095403801 0 0.29065358340422409 0.33855668183139609 0 0.29779466865323229 0.324080680277752 0 0.29065358340422409 0.33855668183139609 0 0.30503671994922948 0.34224483547239032 0 0.29779466865323229 0.324080680277752 0 0.31431752084880671 0.32290252692798982 0 0.30503671994922948 0.34224483547239032 0 0.29779466865323229 0.324080680277752 0 0.31431752084880671 0.32290252692798982 0 0.29779466865323229 0.324080680277752 0 0.30721590548652561 0.30555940465869308 0 0.30721590548652561 0.30555940465869308 0 0.29565733902546149 0.28521677210624269 0 0.3135720193890883 0.28978722977245802 0 0.29565733902546149 0.28521677210624269 0 0.3211668252897435 0.27175213819547439 0 0.3135720193890883 0.28978722977245802 0 0.29565733902546149 0.28521677210624269 0 0.28356889436523619 0.30509626027148351 0 0.27445714059272053 0.27821582699839847 0 0.30721590548652561 0.30555940465869308 0 0.29565733902546149 0.28521677210624269 0 0.28356889436523619 0.30509626027148351 0 0.29779466865323229 0.324080680277752 0 0.30721590548652561 0.30555940465869308 0 0.28356889436523619 0.30509626027148351 0 0.26843485135211659 0.31595748428880738 0 0.28356889436523619 0.30509626027148351 0 0.2621141982752625 0.297742952616453 0 0.28356889436523619 0.30509626027148351 0 0.2621141982752625 0.297742952616453 0 0.27445714059272053 0.27821582699839847 0 0.25374278848102799 0.28132582272820478 0 0.2621141982752625 0.297742952616453 0 0.27445714059272053 0.27821582699839847 0 0.24233548025001611 0.29643186720405401 0 0.25374278848102799 0.28132582272820478 0 0.2621141982752625 0.297742952616453 0 0.25035729020073139 0.31320574585262972 0 0.26843485135211659 0.31595748428880738 0 0.2621141982752625 0.297742952616453 0 0.24233548025001611 0.29643186720405401 0 0.25035729020073139 0.31320574585262972 0 0.2621141982752625 0.297742952616453 0 0.24242825524523789 0.24053549575596991 0 0.25566493851637151 0.26307522389909938 0 0.26867444526007311 0.25094104323580468 0 0.25374278848102799 0.28132582272820478 0 0.25566493851637151 0.26307522389909938 0 0.27445714059272053 0.27821582699839847 0 0.25566493851637151 0.26307522389909938 0 0.27445714059272053 0.27821582699839847 0 0.26867444526007311 0.25094104323580468 0 0.27445714059272053 0.27821582699839847 0 0.26867444526007311 0.25094104323580468 0 0.29492063527490819 0.26134659071563948 0 0.26867444526007311 0.25094104323580468 0 0.29492063527490819 0.26134659071563948 0 0.28475769765093017 0.23917056952590779 0 0.26867444526007311 0.25094104323580468 0 0.29492063527490819 0.26134659071563948 0 0.29565733902546149 0.28521677210624269 0 0.27445714059272053 0.27821582699839847 0 0.29492063527490819 0.26134659071563948 0 0.29565733902546149 0.28521677210624269 0 0.29492063527490819 0.26134659071563948 0 0.3211668252897435 0.27175213819547439 0 0.29492063527490819 0.26134659071563948 0 0.3211668252897435 0.27175213819547439 0 0.29492063527490819 0.26134659071563948 0 0.3211668252897435 0.27175213819547439 0 0.30614492804101112 0.24370767114134911 0 0.3211668252897435 0.27175213819547439 0 0.30614492804101112 0.24370767114134911 0 0.32857447559835679 0.23870878053399791 0 0.3211668252897435 0.27175213819547439 0 0.34452689156915561 0.25493736741178102 0 0.32857447559835679 0.23870878053399791 0 0.3211668252897435 0.27175213819547439 0 0.34741301530457858 0.28215768567530919 0 0.34452689156915561 0.25493736741178102 0 0.3211668252897435 0.27175213819547439 0 0.34741301530457858 0.28215768567530919 0 0.3211668252897435 0.27175213819547439 0 0.3135720193890883 0.28978722977245802 0 0.32938304664481038 0.30084553330325919 0 0.30721590548652561 0.30555940465869308 0 0.3135720193890883 0.28978722977245802 0 0.32938304664481038 0.30084553330325919 0 0.31431752084880671 0.32290252692798982 0 0.30721590548652561 0.30555940465869308 0 0.32938304664481038 0.30084553330325919 0 0.34440168816984013 0.31870808051899702 0 0.32938304664481038 0.30084553330325919 0 0.35087058920827963 0.30096211182298599 0 0.32938304664481038 0.30084553330325919 0 0.34741301530457858 0.28215768567530919 0 0.35087058920827963 0.30096211182298599 0 0.3211668252897435 0.27175213819547439 0 0.32938304664481038 0.30084553330325919 0 0.34741301530457858 0.28215768567530919 0 0.34741301530457858 0.28215768567530919 0 0.35087058920827963 0.30096211182298599 0 0.37365920531941482 0.29256323315514088 0 0.34440168816984013 0.31870808051899702 0 0.35087058920827963 0.30096211182298599 0 0.36418220154347319 0.31047564520754922 0 0.36418220154347319 0.31047564520754922 0 0.37365920531941482 0.29256323315514088 0 0.38344205845178941 0.31450928092107872 0 0.35087058920827963 0.30096211182298599 0 0.36418220154347319 0.31047564520754922 0 0.37365920531941482 0.29256323315514088 0 0.34741301530457858 0.28215768567530919 0 0.37261555280787201 0.29022198898438872 0 0.37364231048019081 0.27662121746834811 0 0.34741301530457858 0.28215768567530919 0 0.37261555280787201 0.29022198898438872 0 0.37365920531941482 0.29256323315514088 0 0.34741301530457858 0.28215768567530919 0 0.37365920531941482 0.29256323315514088 0 0.37261555280787201 0.29022198898438872 0 0.37365920531941482 0.29256323315514088 0 0.37261555280787201 0.29022198898438872 0 0.37364231048019081 0.27662121746834811 0 0.3783166996582592 0.28284323320452398 0 0.34741301530457858 0.28215768567530919 0 0.37364231048019081 0.27662121746834811 0 0.3693519210643913 0.26247155006664391 0 0.3693519210643913 0.26247155006664391 0 0.34452689156915561 0.25493736741178102 0 0.36782436287914722 0.24498410137385199 0 0.34741301530457858 0.28215768567530919 0 0.3693519210643913 0.26247155006664391 0 0.34452689156915561 0.25493736741178102 0 0.40299558863996582 0.27638599447600759 0 0.40600223149272868 0.26522057586331982 0 0.38884250552675731 0.26989157934621882 0 0.39236451500178787 0.2793733902177778 0 0.40299558863996582 0.27638599447600759 0 0.39791803613933863 0.28525745266872682 0 0.39236451500178787 0.2793733902177778 0 0.40299558863996582 0.27638599447600759 0 0.38884250552675731 0.26989157934621882 0 0.40600223149272868 0.26522057586331982 0 0.39409708900996032 0.25138288549760918 0 0.41737497171560728 0.2553433948634441 0 0.40600223149272868 0.26522057586331982 0 0.39409708900996032 0.25138288549760918 0 0.38884250552675731 0.26989157934621882 0 0.3693519210643913 0.26247155006664391 0 0.39409708900996032 0.25138288549760918 0 0.3693519210643913 0.26247155006664391 0 0.39409708900996032 0.25138288549760918 0 0.38884250552675731 0.26989157934621882 0 0.3693519210643913 0.26247155006664391 0 0.39409708900996032 0.25138288549760918 0 0.36782436287914722 0.24498410137385199 0 0.37364231048019081 0.27662121746834811 0 0.3693519210643913 0.26247155006664391 0 0.38884250552675731 0.26989157934621882 0 0.39236451500178787 0.2793733902177778 0 0.38884250552675731 0.26989157934621882 0 0.3833462166027386 0.27909474095368048 0 0.37364231048019081 0.27662121746834811 0 0.3833462166027386 0.27909474095368048 0 0.3783166996582592 0.28284323320452398 0 0.37364231048019081 0.27662121746834811 0 0.38884250552675731 0.26989157934621882 0 0.3833462166027386 0.27909474095368048 0 0.37365920531941482 0.29256323315514088 0 0.3835650523466978 0.28674428453153389 0 0.39607960742750148 0.30145201124144261 0 0.37261555280787201 0.29022198898438872 0 0.3783166996582592 0.28284323320452398 0 0.3835650523466978 0.28674428453153389 0 0.3833462166027386 0.27909474095368048 0 0.3783166996582592 0.28284323320452398 0 0.3835650523466978 0.28674428453153389 0 0.37261555280787201 0.29022198898438872 0 0.37365920531941482 0.29256323315514088 0 0.3835650523466978 0.28674428453153389 0 0.39236451500178787 0.2793733902177778 0 0.3833462166027386 0.27909474095368048 0 0.3835650523466978 0.28674428453153389 0 0.37365920531941482 0.29256323315514088 0 0.38344205845178941 0.31450928092107872 0 0.37365920531941482 0.29256323315514088 0 0.39607960742750148 0.30145201124144261 0 0.37365920531941482 0.29256323315514088 0 0.39607960742750148 0.30145201124144261 0 0.38344205845178941 0.31450928092107872 0 0.39607960742750148 0.30145201124144261 0 0.38344205845178941 0.31450928092107872 0 0.39607960742750148 0.30145201124144261 0 0.41171900995673311 0.30765239863032401 0 0.39607960742750148 0.30145201124144261 0 0.40180855328970211 0.31771482892023301 0 0.38344205845178941 0.31450928092107872 0 0.39607960742750148 0.30145201124144261 0 0.41171900995673311 0.30765239863032401 0 0.40180855328970211 0.31771482892023301 0 0.39607960742750148 0.30145201124144261 0 0.41458541728074011 0.28233158287687199 0 0.39607960742750148 0.30145201124144261 0 0.39791803613933863 0.28525745266872682 0 0.41458541728074011 0.28233158287687199 0 0.3835650523466978 0.28674428453153389 0 0.39607960742750148 0.30145201124144261 0 0.39791803613933863 0.28525745266872682 0 0.40299558863996582 0.27638599447600759 0 0.39791803613933863 0.28525745266872682 0 0.41458541728074011 0.28233158287687199 0 0.39236451500178787 0.2793733902177778 0 0.3835650523466978 0.28674428453153389 0 0.39791803613933863 0.28525745266872682 0 0.41458541728074011 0.28233158287687199 0 0.42606234888386729 0.29444413700454602 0 0.41967901752852599 0.27706881299930808 0 0.39607960742750148 0.30145201124144261 0 0.41458541728074011 0.28233158287687199 0 0.41387778040586171 0.2971951023965243 0 0.41458541728074011 0.28233158287687199 0 0.41387778040586171 0.2971951023965243 0 0.42606234888386729 0.29444413700454602 0 0.41171900995673311 0.30765239863032401 0 0.42735841248596412 0.31385278601920702 0 0.39607960742750148 0.30145201124144261 0 0.41171900995673311 0.30765239863032401 0 0.41387778040586171 0.2971951023965243 0 0.41171900995673311 0.30765239863032401 0 0.42224161638182611 0.3049433873388871 0 0.42735841248596412 0.31385278601920702 0 0.41171900995673311 0.30765239863032401 0 0.41387778040586171 0.2971951023965243 0 0.42224161638182611 0.3049433873388871 0 0.41387778040586171 0.2971951023965243 0 0.42224161638182611 0.3049433873388871 0 0.42606234888386729 0.29444413700454602 0 0.42224161638182611 0.3049433873388871 0 0.43219053017670339 0.31157251264383562 0 0.42606234888386729 0.29444413700454602 0 0.43219053017670339 0.31157251264383562 0 0.42606234888386729 0.29444413700454602 0 0.43219053017670339 0.31157251264383562 0 0.42606234888386729 0.29444413700454602 0 0.43758485962659133 0.29708608803108388 0 0.42224161638182611 0.3049433873388871 0 0.43219053017670339 0.31157251264383562 0 0.42735841248596412 0.31385278601920702 0 0.43044450528158618 0.28321583480542672 0 0.44192913161497788 0.28040481701385722 0 0.43758485962659133 0.29708608803108388 0 0.42606234888386729 0.29444413700454602 0 0.41967901752852599 0.27706881299930808 0 0.42606234888386729 0.29444413700454602 0 0.43044450528158618 0.28321583480542672 0 0.41967901752852599 0.27706881299930808 0 0.42606234888386729 0.29444413700454602 0 0.43044450528158618 0.28321583480542672 0 0.43758485962659133 0.29708608803108388 0 0.43044450528158618 0.28321583480542672 0 0.43309122713397852 0.26321115451230181 0 0.44192913161497788 0.28040481701385722 0 0.43044450528158618 0.28321583480542672 0 0.41967901752852599 0.27706881299930808 0 0.43309122713397852 0.26321115451230181 0 0.41967901752852599 0.27706881299930808 0 0.43309122713397852 0.26321115451230181 0 0.41967901752852599 0.27706881299930808 0 0.41787876602090268 0.26827882017650251 0 0.43309122713397852 0.26321115451230181 0 0.41458541728074011 0.28233158287687199 0 0.41967901752852599 0.27706881299930808 0 0.41787876602090268 0.26827882017650251 0 0.41458541728074011 0.28233158287687199 0 0.41787876602090268 0.26827882017650251 0 0.41036550085858431 0.27305424334817552 0 0.41458541728074011 0.28233158287687199 0 0.41967901752852599 0.27706881299930808 0 0.40299558863996582 0.27638599447600759 0 0.40600223149272868 0.26522057586331982 0 0.41036550085858431 0.27305424334817552 0 0.40600223149272868 0.26522057586331982 0 0.41787876602090268 0.26827882017650251 0 0.41036550085858431 0.27305424334817552 0 0.40299558863996582 0.27638599447600759 0 0.41458541728074011 0.28233158287687199 0 0.41036550085858431 0.27305424334817552 0 0.40600223149272868 0.26522057586331982 0 0.41787876602090268 0.26827882017650251 0 0.41737497171560728 0.2553433948634441 0 0.41737497171560728 0.2553433948634441 0 0.43309122713397852 0.26321115451230181 0 0.43433825968054462 0.24367271220235689 0 0.41787876602090268 0.26827882017650251 0 0.41737497171560728 0.2553433948634441 0 0.43309122713397852 0.26321115451230181 0 0.44612469056025261 0.26581623901831081 0 0.4565865535107988 0.26259854073841282 0 0.45159703698721698 0.24409072614773139 0 0.43309122713397852 0.26321115451230181 0 0.45159703698721698 0.24409072614773139 0 0.43309122713397852 0.26321115451230181 0 0.43433825968054462 0.24367271220235689 0 0.45159703698721698 0.24409072614773139 0 0.43309122713397852 0.26321115451230181 0 0.44612469056025261 0.26581623901831081 0 0.45159703698721698 0.24409072614773139 0 0.43309122713397852 0.26321115451230181 0 0.44192913161497788 0.28040481701385722 0 0.44612469056025261 0.26581623901831081 0 0.44612469056025261 0.26581623901831081 0 0.45373673779763413 0.27532481952114429 0 0.4565865535107988 0.26259854073841282 0 0.44192913161497788 0.28040481701385722 0 0.44612469056025261 0.26581623901831081 0 0.45373673779763413 0.27532481952114429 0 0.45373673779763413 0.27532481952114429 0 0.46564864986430682 0.26900876188121409 0 0.46309289831620998 0.28273845954035892 0 0.45373673779763413 0.27532481952114429 0 0.46564864986430682 0.26900876188121409 0 0.4565865535107988 0.26259854073841282 0 0.46564864986430682 0.26900876188121409 0 0.47522655330816987 0.27500637668917549 0 0.46309289831620998 0.28273845954035892 0 0.4565865535107988 0.26259854073841282 0 0.46678025207759838 0.25530295550532839 0 0.45159703698721698 0.24409072614773139 0 0.46564864986430682 0.26900876188121409 0 0.4565865535107988 0.26259854073841282 0 0.46678025207759838 0.25530295550532839 0 0.46678025207759838 0.25530295550532839 0 0.47952388047089167 0.25315782589811098 0 0.47731273344601532 0.26338119304944929 0 0.47952388047089167 0.25315782589811098 0 0.47731273344601532 0.26338119304944929 0 0.48773704957557512 0.25812902323177361 0 0.47731273344601532 0.26338119304944929 0 0.48795795753203441 0.27189289139699802 0 0.48773704957557512 0.25812902323177361 0 0.46564864986430682 0.26900876188121409 0 0.46678025207759838 0.25530295550532839 0 0.47731273344601532 0.26338119304944929 0 0.46564864986430682 0.26900876188121409 0 0.47731273344601532 0.26338119304944929 0 0.47522655330816987 0.27500637668917549 0 0.47522655330816987 0.27500637668917549 0 0.48795795753203441 0.27189289139699802 0 0.48212052738228311 0.2880105775778577 0 0.47731273344601532 0.26338119304944929 0 0.47522655330816987 0.27500637668917549 0 0.48795795753203441 0.27189289139699802 0 0.48795795753203441 0.27189289139699802 0 0.50000000000000044 0.27957326541262639 0 0.49999999999999478 0.25664427527361022 0 0.48795795753203441 0.27189289139699802 0 0.50000000000000044 0.27957326541262639 0 0.48212052738228311 0.2880105775778577 0 0.47952388047089167 0.25315782589811098 0 0.48773704957557512 0.25812902323177361 0 0.49607062883462488 0.24859002652155709 0 0.49999999999999478 0.25664427527361022 0 0.49999999999999528 0.24994857611952551 0 0.49607062883462488 0.24859002652155709 0 0.49999999999999478 0.25664427527361022 0 0.49607062883462488 0.24859002652155709 0 0.49999999999999478 0.25664427527361022 0 0.48773704957557512 0.25812902323177361 0 0.49607062883462488 0.24859002652155709 0 0.48795795753203441 0.27189289139699802 0 0.49999999999999478 0.25664427527361022 0 0.48773704957557512 0.25812902323177361 0 0.5 0.30783998785836131 0 0.47865082052397689 0.30456198755615221 0 0.47887208197857739 0.32024228879046618 0 0.5 0.30783998785836131 0 0.48212052738228311 0.2880105775778577 0 0.47865082052397689 0.30456198755615221 0 0.50000000000000044 0.27957326541262639 0 0.48212052738228311 0.2880105775778577 0 0.50000000000000044 0.27957326541262639 0 0.5 0.30783998785836131 0 0.48212052738228311 0.2880105775778577 0 0.48212052738228311 0.2880105775778577 0 0.46309289831620998 0.28273845954035892 0 0.4642410547645659 0.29644788974308922 0 0.48212052738228311 0.2880105775778577 0 0.47865082052397689 0.30456198755615221 0 0.4642410547645659 0.29644788974308922 0 0.47522655330816987 0.27500637668917549 0 0.48212052738228311 0.2880105775778577 0 0.46309289831620998 0.28273845954035892 0 0.48212052738228311 0.2880105775778577 0 0.4642410547645659 0.29644788974308922 0 0.47865082052397689 0.30456198755615221 0 0.4642410547645659 0.29644788974308922 0 0.46562825030328342 0.31301153874996401 0 0.4642410547645659 0.29644788974308922 0 0.44821579247063459 0.30401020119346239 0 0.46562825030328342 0.31301153874996401 0 0.4642410547645659 0.29644788974308922 0 0.45192447826929089 0.29030706482441232 0 0.44821579247063459 0.30401020119346239 0 0.4642410547645659 0.29644788974308922 0 0.44821579247063459 0.30401020119346239 0 0.4642410547645659 0.29644788974308922 0 0.46562825030328342 0.31301153874996401 0 0.46309289831620998 0.28273845954035892 0 0.4642410547645659 0.29644788974308922 0 0.46309289831620998 0.28273845954035892 0 0.4642410547645659 0.29644788974308922 0 0.45192447826929089 0.29030706482441232 0 0.45373673779763413 0.27532481952114429 0 0.46309289831620998 0.28273845954035892 0 0.45192447826929089 0.29030706482441232 0 0.44192913161497788 0.28040481701385722 0 0.45192447826929089 0.29030706482441232 0 0.43758485962659133 0.29708608803108388 0 0.44192913161497788 0.28040481701385722 0 0.45373673779763413 0.27532481952114429 0 0.45192447826929089 0.29030706482441232 0 0.43219053017670339 0.31157251264383562 0 0.44821579247063459 0.30401020119346239 0 0.44444593206584609 0.31409758550438999 0 0.44821579247063459 0.30401020119346239 0 0.44444593206584609 0.31409758550438999 0 0.46562825030328342 0.31301153874996401 0 0.43219053017670339 0.31157251264383562 0 0.44821579247063459 0.30401020119346239 0 0.43219053017670339 0.31157251264383562 0 0.44821579247063459 0.30401020119346239 0 0.43758485962659133 0.29708608803108388 0 0.45192447826929089 0.29030706482441232 0 0.44821579247063459 0.30401020119346239 0 0.43758485962659133 0.29708608803108388 0 0.44444593206584609 0.31409758550438999 0 0.45047768248893127 0.32301863681808379 0 0.43393991913586621 0.31646208587933122 0 0.45047768248893127 0.32301863681808379 0 0.44204741247972068 0.33912267388268452 0 0.43393991913586621 0.31646208587933122 0 0.44204741247972068 0.33912267388268452 0 0.43393991913586621 0.31646208587933122 0 0.45047768248893127 0.32301863681808379 0 0.43393991913586621 0.31646208587933122 0 0.45047768248893127 0.32301863681808379 0 0.44204741247972068 0.33912267388268452 0 0.45595280423391082 0.33806602867950408 0 0.45047768248893127 0.32301863681808379 0 0.45595280423391082 0.33806602867950408 0 0.46701544584199528 0.32957518775683942 0 0.45595280423391082 0.33806602867950408 0 0.46701544584199528 0.32957518775683942 0 0.46827364058121712 0.34459851753335979 0 0.46701544584199528 0.32957518775683942 0 0.46827364058121712 0.34459851753335979 0 0.46701544584199528 0.32957518775683942 0 0.46562825030328342 0.31301153874996401 0 0.44444593206584609 0.31409758550438999 0 0.45047768248893127 0.32301863681808379 0 0.46562825030328342 0.31301153874996401 0 0.45047768248893127 0.32301863681808379 0 0.46701544584199528 0.32957518775683942 0 0.45047768248893127 0.32301863681808379 0 0.46701544584199528 0.32957518775683942 0 0.46562825030328342 0.31301153874996401 0 0.47865082052397689 0.30456198755615221 0 0.46562825030328342 0.31301153874996401 0 0.47887208197857739 0.32024228879046618 0 0.46701544584199528 0.32957518775683942 0 0.46562825030328342 0.31301153874996401 0 0.47887208197857739 0.32024228879046618 0 0.47887208197857739 0.32024228879046618 0 0.48111268384829808 0.33516416959863271 0 0.49103893753629552 0.32802126159839617 0 0.46701544584199528 0.32957518775683942 0 0.48111268384829808 0.33516416959863271 0 0.46701544584199528 0.32957518775683942 0 0.47343971426999681 0.33969874628353208 0 0.48111268384829808 0.33516416959863271 0 0.46701544584199528 0.32957518775683942 0 0.47887208197857739 0.32024228879046618 0 0.48111268384829808 0.33516416959863271 0 0.46701544584199528 0.32957518775683942 0 0.47343971426999681 0.33969874628353208 0 0.46827364058121712 0.34459851753335979 0 0.47343971426999681 0.33969874628353208 0 0.46827364058121712 0.34459851753335979 0 0.47343971426999681 0.33969874628353208 0 0.48000361061534469 0.34273255895134558 0 0.48111268384829808 0.33516416959863271 0 0.48000361061534469 0.34273255895134558 0 0.48111268384829808 0.33516416959863271 0 0.485270367948336 0.34176598342176301 0 0.48111268384829808 0.33516416959863271 0 0.49520992185460172 0.34075315144042417 0 0.49103893753629552 0.32802126159839617 0 0.48111268384829808 0.33516416959863271 0 0.49520992185460172 0.34075315144042417 0 0.48111268384829808 0.33516416959863271 0 0.485270367948336 0.34176598342176301 0 0.49520992185460172 0.34075315144042417 0 0.5 0.33610671030409622 0 0.49520992185460172 0.34075315144042417 0 0.49103893753629552 0.32802126159839617 0 0.5 0.30783998785836131 0 0.47887208197857739 0.32024228879046618 0 0.49103893753629552 0.32802126159839617 0 0.5 0.30783998785836131 0 0.5 0.33610671030409622 0 0.49103893753629552 0.32802126159839617 0 0.5 0.36437343274983108 0 0.48369367717097372 0.36207292457270279 0 0.4842548305112635 0.37818943324201948 0 0.5 0.36437343274983108 0 0.48472716005931482 0.34905255384292833 0 0.48369367717097372 0.36207292457270279 0 0.5 0.33610671030409622 0 0.49520992185460172 0.34075315144042417 0 0.5 0.36437343274983108 0 0.49520992185460172 0.34075315144042417 0 0.5 0.36437343274983108 0 0.48472716005931482 0.34905255384292833 0 0.485270367948336 0.34176598342176301 0 0.49520992185460172 0.34075315144042417 0 0.48472716005931482 0.34905255384292833 0 0.47665894776435602 0.35019479963441003 0 0.46981588388928802 0.36301349662259008 0 0.48369367717097372 0.36207292457270279 0 0.46981588388928802 0.36301349662259008 0 0.46827364058121712 0.34459851753335979 0 0.47665894776435602 0.35019479963441003 0 0.46981588388928802 0.36301349662259008 0 0.46827364058121712 0.34459851753335979 0 0.48472716005931482 0.34905255384292833 0 0.47665894776435602 0.35019479963441003 0 0.48369367717097372 0.36207292457270279 0 0.47343971426999681 0.33969874628353208 0 0.48000361061534469 0.34273255895134558 0 0.47665894776435602 0.35019479963441003 0 0.48000361061534469 0.34273255895134558 0 0.48472716005931482 0.34905255384292833 0 0.47665894776435602 0.35019479963441003 0 0.48000361061534469 0.34273255895134558 0 0.485270367948336 0.34176598342176301 0 0.48472716005931482 0.34905255384292833 0 0.47343971426999681 0.33969874628353208 0 0.47665894776435602 0.35019479963441003 0 0.46827364058121712 0.34459851753335979 0 0.46981588388928802 0.36301349662259008 0 0.48369367717097372 0.36207292457270279 0 0.4842548305112635 0.37818943324201948 0 0.46981588388928802 0.36301349662259008 0 0.46596535205413242 0.37650568064204509 0 0.4842548305112635 0.37818943324201948 0 0.46981588388928802 0.36301349662259008 0 0.4610883749684499 0.36354271678263012 0 0.46596535205413242 0.37650568064204509 0 0.4610883749684499 0.36354271678263012 0 0.45360536749974689 0.37142736360140788 0 0.45015490582358297 0.36178326188603499 0 0.4610883749684499 0.36354271678263012 0 0.45360536749974689 0.37142736360140788 0 0.46596535205413242 0.37650568064204509 0 0.4610883749684499 0.36354271678263012 0 0.46827364058121712 0.34459851753335979 0 0.45015490582358297 0.36178326188603499 0 0.46827364058121712 0.34459851753335979 0 0.45015490582358297 0.36178326188603499 0 0.46981588388928802 0.36301349662259008 0 0.4610883749684499 0.36354271678263012 0 0.46827364058121712 0.34459851753335979 0 0.45595280423391082 0.33806602867950408 0 0.46827364058121712 0.34459851753335979 0 0.45015490582358297 0.36178326188603499 0 0.44204741247972068 0.33912267388268452 0 0.45595280423391082 0.33806602867950408 0 0.45015490582358297 0.36178326188603499 0 0.44204741247972068 0.33912267388268452 0 0.45015490582358297 0.36178326188603499 0 0.42597447117483811 0.36036774375026243 0 0.44204741247972068 0.33912267388268452 0 0.45015490582358297 0.36178326188603499 0 0.45015490582358297 0.36178326188603499 0 0.43066518200159409 0.3802683231149363 0 0.45015490582358297 0.36178326188603499 0 0.43066518200159409 0.3802683231149363 0 0.44574378936915648 0.3792697771578008 0 0.45360536749974689 0.37142736360140788 0 0.45015490582358297 0.36178326188603499 0 0.44574378936915648 0.3792697771578008 0 0.45360536749974689 0.37142736360140788 0 0.45015490582358297 0.36178326188603499 0 0.45015490582358297 0.36178326188603499 0 0.42597447117483811 0.36036774375026243 0 0.43066518200159409 0.3802683231149363 0 0.42597447117483811 0.36036774375026243 0 0.40889358801948611 0.37160514815444451 0 0.43066518200159409 0.3802683231149363 0 0.42597447117483811 0.36036774375026243 0 0.40889358801948611 0.37160514815444451 0 0.40040974483025232 0.35257319240998991 0 0.42597447117483811 0.36036774375026243 0 0.42107563191472153 0.34157977415908269 0 0.40040974483025232 0.35257319240998991 0 0.44204741247972068 0.33912267388268452 0 0.42597447117483811 0.36036774375026243 0 0.42107563191472153 0.34157977415908269 0 0.44204741247972068 0.33912267388268452 0 0.4257201651538543 0.32628341661587212 0 0.42107563191472153 0.34157977415908269 0 0.44204741247972068 0.33912267388268452 0 0.43393991913586621 0.31646208587933122 0 0.4257201651538543 0.32628341661587212 0 0.43219053017670339 0.31157251264383562 0 0.44444593206584609 0.31409758550438999 0 0.43393991913586621 0.31646208587933122 0 0.43219053017670339 0.31157251264383562 0 0.43393991913586621 0.31646208587933122 0 0.42735841248596412 0.31385278601920702 0 0.43219053017670339 0.31157251264383562 0 0.43393991913586621 0.31646208587933122 0 0.43219053017670339 0.31157251264383562 0 0.42735841248596412 0.31385278601920702 0 0.43393991913586621 0.31646208587933122 0 0.42735841248596412 0.31385278601920702 0 0.43393991913586621 0.31646208587933122 0 0.4257201651538543 0.32628341661587212 0 0.42735841248596412 0.31385278601920702 0 0.42735841248596412 0.31385278601920702 0 0.41738123992859483 0.31856100763137762 0 0.4257201651538543 0.32628341661587212 0 0.42735841248596412 0.31385278601920702 0 0.41738123992859483 0.31856100763137762 0 0.41171900995673311 0.30765239863032401 0 0.42735841248596412 0.31385278601920702 0 0.41738123992859483 0.31856100763137762 0 0.4257201651538543 0.32628341661587212 0 0.41738123992859483 0.31856100763137762 0 0.40972020612635718 0.33170890940034842 0 0.41738123992859483 0.31856100763137762 0 0.40972020612635718 0.33170890940034842 0 0.40180855328970211 0.31771482892023301 0 0.41171900995673311 0.30765239863032401 0 0.41738123992859483 0.31856100763137762 0 0.40180855328970211 0.31771482892023301 0 0.42107563191472153 0.34157977415908269 0 0.40972020612635718 0.33170890940034842 0 0.40040974483025232 0.35257319240998991 0 0.4257201651538543 0.32628341661587212 0 0.42107563191472153 0.34157977415908269 0 0.40972020612635718 0.33170890940034842 0 0.39192590164101859 0.33354123666553531 0 0.40040974483025232 0.35257319240998991 0 0.40972020612635718 0.33170890940034842 0 0.39192590164101859 0.33354123666553531 0 0.40040974483025232 0.35257319240998991 0 0.39192590164101859 0.33354123666553531 0 0.40180855328970211 0.31771482892023301 0 0.38344205845178941 0.31450928092107872 0 0.40972020612635718 0.33170890940034842 0 0.39192590164101859 0.33354123666553531 0 0.40180855328970211 0.31771482892023301 0 0.36971880587079747 0.32868831280267391 0 0.39192590164101859 0.33354123666553531 0 0.38344205845178941 0.31450928092107872 0 0.39192590164101859 0.33354123666553531 0 0.38344205845178941 0.31450928092107872 0 0.36971880587079747 0.32868831280267391 0 0.38344205845178941 0.31450928092107872 0 0.36971880587079747 0.32868831280267391 0 0.39192590164101859 0.33354123666553531 0 0.37760875528064552 0.34775643304867943 0 0.39192590164101859 0.33354123666553531 0 0.37760875528064552 0.34775643304867943 0 0.40040974483025232 0.35257319240998991 0 0.37760875528064552 0.34775643304867943 0 0.38745214835223862 0.3682624752470452 0 0.40040974483025232 0.35257319240998991 0 0.36647059910353308 0.364695216264532 0 0.37760875528064552 0.34775643304867943 0 0.38745214835223862 0.3682624752470452 0 0.36647059910353308 0.364695216264532 0 0.38745214835223862 0.3682624752470452 0 0.37694564491726767 0.38652308784479511 0 0.40889358801948611 0.37160514815444451 0 0.40040974483025232 0.35257319240998991 0 0.40889358801948611 0.37160514815444451 0 0.38745214835223862 0.3682624752470452 0 0.40040974483025232 0.35257319240998991 0 0.39475525413129348 0.38666161397789839 0 0.38742069073100183 0.4083509594250585 0 0.41117545817960521 0.39875338434383728 0 0.40889358801948611 0.37160514815444451 0 0.39475525413129348 0.38666161397789839 0 0.41117545817960521 0.39875338434383728 0 0.40889358801948611 0.37160514815444451 0 0.38745214835223862 0.3682624752470452 0 0.39475525413129348 0.38666161397789839 0 0.38745214835223862 0.3682624752470452 0 0.39475525413129348 0.38666161397789839 0 0.37694564491726767 0.38652308784479511 0 0.37694564491726767 0.38652308784479511 0 0.38742069073100183 0.4083509594250585 0 0.37694564491726767 0.38652308784479511 0 0.38056987605974119 0.40038726064772479 0 0.38742069073100183 0.4083509594250585 0 0.39475525413129348 0.38666161397789839 0 0.37694564491726767 0.38652308784479511 0 0.38742069073100183 0.4083509594250585 0 0.37008702394707638 0.3957217900659209 0 0.37694564491726767 0.38652308784479511 0 0.38056987605974119 0.40038726064772479 0 0.37469191018849241 0.41147560564509428 0 0.38056987605974119 0.40038726064772479 0 0.38742069073100183 0.4083509594250585 0 0.38742069073100183 0.4083509594250585 0 0.37605217227525772 0.42334359542022432 0 0.37469191018849241 0.41147560564509428 0 0.38742069073100183 0.4083509594250585 0 0.37605217227525772 0.42334359542022432 0 0.38742069073100183 0.4083509594250585 0 0.38613562408756041 0.42250245696182431 0 0.39168573435761572 0.41723844557273781 0 0.38742069073100183 0.4083509594250585 0 0.37605217227525772 0.42334359542022432 0 0.38613562408756041 0.42250245696182431 0 0.38613562408756041 0.42250245696182431 0 0.39168573435761572 0.41723844557273781 0 0.39373660935642579 0.42186840017746102 0 0.38613562408756041 0.42250245696182431 0 0.39168573435761572 0.41723844557273781 0 0.38742069073100183 0.4083509594250585 0 0.39168573435761572 0.41723844557273781 0 0.37654561744134379 0.43159811484082028 0 0.38280161133169233 0.43265729058174851 0 0.37822304894532882 0.43966646236554541 0 0.37654561744134379 0.43159811484082028 0 0.38280161133169233 0.43265729058174851 0 0.37654561744134379 0.43159811484082028 0 0.38280161133169233 0.43265729058174851 0 0.38613562408756041 0.42250245696182431 0 0.37654561744134379 0.43159811484082028 0 0.37605217227525772 0.42334359542022432 0 0.38613562408756041 0.42250245696182431 0 0.37605217227525772 0.42334359542022432 0 0.38613562408756041 0.42250245696182431 0 0.37654561744134379 0.43159811484082028 0 0.38613562408756041 0.42250245696182431 0 0.38613562408756041 0.42250245696182431 0 0.38877112097405159 0.43210910903472632 0 0.39655626812487071 0.43154846470899783 0 0.38280161133169233 0.43265729058174851 0 0.38613562408756041 0.42250245696182431 0 0.38877112097405159 0.43210910903472632 0 0.38613562408756041 0.42250245696182431 0 0.39373660935642579 0.42186840017746102 0 0.38280161133169233 0.43265729058174851 0 0.38877112097405159 0.43210910903472632 0 0.38959098035208201 0.44172822388633343 0 0.38877112097405159 0.43210910903472632 0 0.39655626812487071 0.43154846470899783 0 0.38959098035208201 0.44172822388633343 0 0.38613562408756041 0.42250245696182431 0 0.39655626812487071 0.43154846470899783 0 0.39373660935642579 0.42186840017746102 0 0.39655626812487071 0.43154846470899783 0 0.4077701901064022 0.42069775100913781 0 0.40765871161633749 0.43324108497597319 0 0.39655626812487071 0.43154846470899783 0 0.39373660935642579 0.42186840017746102 0 0.4077701901064022 0.42069775100913781 0 0.39655626812487071 0.43154846470899783 0 0.40765871161633749 0.43324108497597319 0 0.40646306554234107 0.44584379894524601 0 0.38742069073100183 0.4083509594250585 0 0.39168573435761572 0.41723844557273781 0 0.41117545817960521 0.39875338434383728 0 0.39168573435761572 0.41723844557273781 0 0.39373660935642579 0.42186840017746102 0 0.4077701901064022 0.42069775100913781 0 0.39168573435761572 0.41723844557273781 0 0.41117545817960521 0.39875338434383728 0 0.39168573435761572 0.41723844557273781 0 0.4077701901064022 0.42069775100913781 0 0.41117545817960521 0.39875338434383728 0 0.39168573435761572 0.41723844557273781 0 0.39373660935642579 0.42186840017746102 0 0.39373660935642579 0.42186840017746102 0 0.4077701901064022 0.42069775100913781 0 0.4077701901064022 0.42069775100913781 0 0.42940475612524409 0.41889304505645331 0 0.41927156662888593 0.40988069215973261 0 0.4077701901064022 0.42069775100913781 0 0.41117545817960521 0.39875338434383728 0 0.41927156662888593 0.40988069215973261 0 0.4077701901064022 0.42069775100913781 0 0.42940475612524409 0.41889304505645331 0 0.4077701901064022 0.42069775100913781 0 0.41984532269173619 0.43487432524051173 0 0.42940475612524409 0.41889304505645331 0 0.4077701901064022 0.42069775100913781 0 0.40765871161633749 0.43324108497597319 0 0.41984532269173619 0.43487432524051173 0 0.42940475612524409 0.41889304505645331 0 0.44386429480162137 0.42860751806433961 0 0.43361524732623757 0.43848820522999671 0 0.41984532269173619 0.43487432524051173 0 0.42940475612524409 0.41889304505645331 0 0.43361524732623757 0.43848820522999671 0 0.41927156662888593 0.40988069215973261 0 0.42940475612524409 0.41889304505645331 0 0.42873586210429232 0.40117858822950181 0 0.42940475612524409 0.41889304505645331 0 0.42873586210429232 0.40117858822950181 0 0.44527072363852788 0.40756981298918982 0 0.42873586210429232 0.40117858822950181 0 0.41117545817960521 0.39875338434383728 0 0.43066518200159409 0.3802683231149363 0 0.42873586210429232 0.40117858822950181 0 0.43066518200159409 0.3802683231149363 0 0.44061283008227531 0.39204813634965519 0 0.41927156662888593 0.40988069215973261 0 0.42873586210429232 0.40117858822950181 0 0.41117545817960521 0.39875338434383728 0 0.40889358801948611 0.37160514815444451 0 0.41117545817960521 0.39875338434383728 0 0.43066518200159409 0.3802683231149363 0 0.41117545817960521 0.39875338434383728 0 0.43066518200159409 0.3802683231149363 0 0.45360536749974689 0.37142736360140788 0 0.44574378936915648 0.3792697771578008 0 0.45471272957936087 0.38968942141709129 0 0.43066518200159409 0.3802683231149363 0 0.44574378936915648 0.3792697771578008 0 0.44061283008227531 0.39204813634965519 0 0.44574378936915648 0.3792697771578008 0 0.44061283008227531 0.39204813634965519 0 0.45471272957936087 0.38968942141709129 0 0.42873586210429232 0.40117858822950181 0 0.44061283008227531 0.39204813634965519 0 0.44527072363852788 0.40756981298918982 0 0.44061283008227531 0.39204813634965519 0 0.45471272957936087 0.38968942141709129 0 0.44527072363852788 0.40756981298918982 0 0.46235114817929601 0.40403840911403988 0 0.45471272957936087 0.38968942141709129 0 0.47350156337954419 0.3929790203726764 0 0.46235114817929601 0.40403840911403988 0 0.45471272957936087 0.38968942141709129 0 0.44527072363852788 0.40756981298918982 0 0.45471272957936087 0.38968942141709129 0 0.46596535205413242 0.37650568064204509 0 0.47350156337954419 0.3929790203726764 0 0.45360536749974689 0.37142736360140788 0 0.45471272957936087 0.38968942141709129 0 0.46596535205413242 0.37650568064204509 0 0.46596535205413242 0.37650568064204509 0 0.4842548305112635 0.37818943324201948 0 0.47350156337954419 0.3929790203726764 0 0.46235114817929601 0.40403840911403988 0 0.47350156337954419 0.3929790203726764 0 0.48165678734838058 0.41095085553879479 0 0.47350156337954419 0.3929790203726764 0 0.5 0.39264015519556622 0 0.48165678734838058 0.41095085553879479 0 0.4842548305112635 0.37818943324201948 0 0.47350156337954419 0.3929790203726764 0 0.5 0.39264015519556622 0 0.5 0.36437343274983108 0 0.4842548305112635 0.37818943324201948 0 0.5 0.39264015519556622 0 0.5 0.42090687764130108 0 0.47781902377272178 0.43648539503478379 0 0.5 0.44917360008703611 0 0.5 0.42090687764130108 0 0.48165678734838058 0.41095085553879479 0 0.47781902377272178 0.43648539503478379 0 0.5 0.39264015519556622 0 0.5 0.42090687764130108 0 0.48165678734838058 0.41095085553879479 0 0.46235114817929601 0.40403840911403988 0 0.48165678734838058 0.41095085553879479 0 0.46255477131864531 0.4203009205875643 0 0.48165678734838058 0.41095085553879479 0 0.47781902377272178 0.43648539503478379 0 0.46255477131864531 0.4203009205875643 0 0.46255477131864531 0.4203009205875643 0 0.44386429480162137 0.42860751806433961 0 0.45742452659957972 0.43847382756282188 0 0.47781902377272178 0.43648539503478379 0 0.46255477131864531 0.4203009205875643 0 0.45742452659957972 0.43847382756282188 0 0.46235114817929601 0.40403840911403988 0 0.46255477131864531 0.4203009205875643 0 0.44527072363852788 0.40756981298918982 0 0.46255477131864531 0.4203009205875643 0 0.44527072363852788 0.40756981298918982 0 0.44386429480162137 0.42860751806433961 0 0.42940475612524409 0.41889304505645331 0 0.44527072363852788 0.40756981298918982 0 0.44386429480162137 0.42860751806433961 0 0.44527072363852788 0.40756981298918982 0 0.44386429480162137 0.42860751806433961 0 0.44386429480162137 0.42860751806433961 0 0.44245786596471492 0.44964522313948951 0 0.43361524732623757 0.43848820522999671 0 0.44386429480162137 0.42860751806433961 0 0.44245786596471492 0.44964522313948951 0 0.44386429480162137 0.42860751806433961 0 0.44245786596471492 0.44964522313948951 0 0.45742452659957972 0.43847382756282188 0 0.44245786596471492 0.44964522313948951 0 0.44105143712775879 0.47068292821463598 0 0.44245786596471492 0.44964522313948951 0 0.46042667714019481 0.45733008098793237 0 0.44105143712775879 0.47068292821463598 0 0.46042667714019481 0.45733008098793237 0 0.47052571856390402 0.47406162537370189 0 0.44105143712775879 0.47068292821463598 0 0.44245786596471492 0.44964522313948951 0 0.46042667714019481 0.45733008098793237 0 0.45742452659957972 0.43847382756282188 0 0.47781902377272178 0.43648539503478379 0 0.46042667714019481 0.45733008098793237 0 0.45742452659957972 0.43847382756282188 0 0.47781902377272178 0.43648539503478379 0 0.46042667714019481 0.45733008098793237 0 0.48199179991998609 0.45774377689493229 0 0.46042667714019481 0.45733008098793237 0 0.48199179991998609 0.45774377689493229 0 0.47052571856390402 0.47406162537370189 0 0.48199179991998609 0.45774377689493229 0 0.5 0.44917360008703611 0 0.50000000000004907 0.47744032253277102 0 0.47781902377272178 0.43648539503478379 0 0.48199179991998609 0.45774377689493229 0 0.5 0.44917360008703611 0 0.5 0.5 0 0.47052571856390402 0.47406162537370189 0 0.43909150970106248 0.49999999999999589 0 0.5 0.5 0 0.50000000000004907 0.47744032253277102 0 0.47052571856390402 0.47406162537370189 0 0.50000000000004907 0.47744032253277102 0 0.47052571856390402 0.47406162537370189 0 0.48199179991998609 0.45774377689493229 0 0.50000000000004907 0.47744032253277102 0 0.47052571856390402 0.47406162537370189 0 0.47052571856390402 0.47406162537370189 0 0.44105143712775879 0.47068292821463598 0 0.43909150970106248 0.49999999999999589 0 0.47052571856390402 0.47406162537370189 0 0.44105143712775879 0.47068292821463598 0 0.44105143712775879 0.47068292821463598 0 0.43909150970106248 0.49999999999999589 0 0.43909150970106248 0.49999999999999589 0 0.4249501150915016 0.48451547502080561 0 0.41619049358067262 0.5 0 0.44105143712775879 0.47068292821463598 0 0.43909150970106248 0.49999999999999589 0 0.4249501150915016 0.48451547502080561 0 0.4249501150915016 0.48451547502080561 0 0.41619049358067262 0.5 0 0.40473998552047702 0.48340558267962702 0 0.4249501150915016 0.48451547502080561 0 0.41829537642881143 0.46807435443815532 0 0.40473998552047702 0.48340558267962702 0 0.44105143712775879 0.47068292821463598 0 0.41829537642881143 0.46807435443815532 0 0.44105143712775879 0.47068292821463598 0 0.4249501150915016 0.48451547502080561 0 0.41829537642881143 0.46807435443815532 0 0.44105143712775879 0.47068292821463598 0 0.42495308634940571 0.45174897592015739 0 0.41829537642881143 0.46807435443815532 0 0.44245786596471492 0.44964522313948951 0 0.44105143712775879 0.47068292821463598 0 0.42495308634940571 0.45174897592015739 0 0.44245786596471492 0.44964522313948951 0 0.42495308634940571 0.45174897592015739 0 0.43361524732623757 0.43848820522999671 0 0.41984532269173619 0.43487432524051173 0 0.42495308634940571 0.45174897592015739 0 0.43361524732623757 0.43848820522999671 0 0.41984532269173619 0.43487432524051173 0 0.42495308634940571 0.45174897592015739 0 0.40646306554234107 0.44584379894524601 0 0.40765871161633749 0.43324108497597319 0 0.41984532269173619 0.43487432524051173 0 0.40646306554234107 0.44584379894524601 0 0.41829537642881143 0.46807435443815532 0 0.39553931572986439 0.46546578066167221 0 0.40646306554234107 0.44584379894524601 0 0.41829537642881143 0.46807435443815532 0 0.39553931572986439 0.46546578066167221 0 0.42495308634940571 0.45174897592015739 0 0.40646306554234107 0.44584379894524601 0 0.41829537642881143 0.46807435443815532 0 0.40646306554234107 0.44584379894524601 0 0.39553931572986439 0.46546578066167221 0 0.38959098035208201 0.44172822388633343 0 0.39655626812487071 0.43154846470899783 0 0.40646306554234107 0.44584379894524601 0 0.38959098035208201 0.44172822388633343 0 0.39553931572986439 0.46546578066167221 0 0.38959098035208201 0.44172822388633343 0 0.37765471967194852 0.4493470472049339 0 0.38280161133169233 0.43265729058174851 0 0.38959098035208201 0.44172822388633343 0 0.37822304894532882 0.43966646236554541 0 0.38959098035208201 0.44172822388633343 0 0.37765471967194852 0.4493470472049339 0 0.37822304894532882 0.43966646236554541 0 0.37278325503091708 0.46285720688518911 0 0.39553931572986439 0.46546578066167221 0 0.37278325503091708 0.46285720688518911 0 0.39553931572986439 0.46546578066167221 0 0.37765471967194852 0.4493470472049339 0 0.37278325503091708 0.46285720688518911 0 0.39553931572986439 0.46546578066167221 0 0.38336087708708061 0.47815606702472441 0 0.37444257882095089 0.49172544424091202 0 0.39328947746028248 0.50000000000000067 0 0.37444257882095089 0.49172544424091202 0 0.36993201381769819 0.50000000000000078 0 0.39328947746028248 0.50000000000000067 0 0.37444257882095089 0.49172544424091202 0 0.38336087708708061 0.47815606702472441 0 0.39328947746028248 0.50000000000000067 0 0.38336087708708061 0.47815606702472441 0 0.39328947746028248 0.50000000000000067 0 0.40473998552047702 0.48340558267962702 0 0.41619049358067262 0.5 0 0.39328947746028248 0.50000000000000067 0 0.40473998552047702 0.48340558267962702 0 0.41829537642881143 0.46807435443815532 0 0.39553931572986439 0.46546578066167221 0 0.40473998552047702 0.48340558267962702 0 0.39553931572986439 0.46546578066167221 0 0.38336087708708061 0.47815606702472441 0 0.40473998552047702 0.48340558267962702 0 0.32926337844781473 0.085457759298392305 0 0.30420284643408368 0.072864608055861091 0 0.31045138659992572 0.1081987620712542 0 0.32926337844781473 0.085457759298392305 0 0.32804943454227298 0.064197808434570805 0 0.34807537029570368 0.062716756525530534 0 0.32926337844781473 0.085457759298392305 0 0.34807537029570368 0.062716756525530534 0 0.32926337844781473 0.085457759298392305 0 0.32804943454227298 0.064197808434570805 0 0.30420284643408368 0.072864608055861091 0 0.32926337844781473 0.085457759298392305 0 0.31045138659992572 0.1081987620712542 0 0.32926337844781473 0.085457759298392305 0 0.33844510344733209 0.1212051252658551 0 0.36144868190829321 0.1080884312464771 0 0.32926337844781473 0.085457759298392305 0 0.33844510344733209 0.1212051252658551 0 0.31045138659992572 0.1081987620712542 0 0.31045138659992572 0.1081987620712542 0 0.30788634092488831 0.13265454854521169 0 0.3239898667328549 0.13211107516418141 0 0.33844510344733209 0.1212051252658551 0 0.31045138659992572 0.1081987620712542 0 0.3239898667328549 0.13211107516418141 0 0.33844510344733209 0.1212051252658551 0 0.36144868190829321 0.1080884312464771 0 0.36507023307528408 0.13889383233261399 0 0.36144868190829321 0.1080884312464771 0 0.36507023307528408 0.13889383233261399 0 0.39144185736937359 0.12547822700719599 0 0.36144868190829321 0.1080884312464771 0 0.36472463029980251 0.082326120275194703 0 0.38169244657672918 0.097827825900414611 0 0.32926337844781473 0.085457759298392305 0 0.36144868190829321 0.1080884312464771 0 0.36472463029980251 0.082326120275194703 0 0.32926337844781473 0.085457759298392305 0 0.36472463029980251 0.082326120275194703 0 0.34807537029570368 0.062716756525530534 0 0.36472463029980251 0.082326120275194703 0 0.34807537029570368 0.062716756525530534 0 0.37790170490670638 0.063205605184670555 0 0.3668873621435943 0.039975753752670061 0 0.37790170490670638 0.063205605184670555 0 0.34807537029570368 0.062716756525530534 0 0.3668873621435943 0.039975753752670061 0 0.37790170490670638 0.063205605184670555 0 0.34807537029570368 0.062716756525530534 0 0.3668873621435943 0.039975753752670061 0 0.33844451314342477 0.036765449728314442 0 0.3668873621435943 0.039975753752670061 0 0.35822859290792203 0.02171393575273383 0 0.33844451314342477 0.036765449728314442 0 0.34807537029570368 0.062716756525530534 0 0.3668873621435943 0.039975753752670061 0 0.36101844616959972 0.0067641871573688121 0 0.37171322382200922 0.0021667819060980629 0 0.36189309977134992 -0.003702113273154502 0 0.37171322382200922 0.0021667819060980629 0 0.36985279079329769 0.01084781346102812 0 0.38098303473067507 0.0092994415462710218 0 0.36101844616959972 0.0067641871573688121 0 0.37171322382200922 0.0021667819060980629 0 0.36985279079329769 0.01084781346102812 0 0.36101844616959972 0.0067641871573688121 0 0.36985279079329769 0.01084781346102812 0 0.35822859290792203 0.02171393575273383 0 0.3668873621435943 0.039975753752670061 0 0.38242332751286212 0.021194997605292129 0 0.3668873621435943 0.039975753752670061 0 0.35822859290792203 0.02171393575273383 0 0.36985279079329769 0.01084781346102812 0 0.35822859290792203 0.02171393575273383 0 0.38242332751286212 0.021194997605292129 0 0.3668873621435943 0.039975753752670061 0 0.35822859290792203 0.02171393575273383 0 0.38242332751286212 0.021194997605292129 0 0.3444798644180585 0.01894287642528545 0 0.35822859290792203 0.02171393575273383 0 0.33844451314342477 0.036765449728314442 0 0.36101844616959972 0.0067641871573688121 0 0.35822859290792203 0.02171393575273383 0 0.34956982367224609 0.0034521177527992212 0 0.35822859290792203 0.02171393575273383 0 0.34956982367224609 0.0034521177527992212 0 0.3444798644180585 0.01894287642528545 0 0.35822859290792203 0.02171393575273383 0 0.34956982367224609 0.0034521177527992212 0 0.36101844616959972 0.0067641871573688121 0 0.34956982367224609 0.0034521177527992212 0 0.36189309977134992 -0.003702113273154502 0 0.34956982367224609 0.0034521177527992212 0 0.33167652794864122 0.01384000246729432 0 0.33785068458949391 -0.0025643709947998782 0 0.34956982367224609 0.0034521177527992212 0 0.33167652794864122 0.01384000246729432 0 0.3444798644180585 0.01894287642528545 0 0.34956982367224609 0.0034521177527992212 0 0.33167652794864122 0.01384000246729432 0 0.33167652794864122 0.01384000246729432 0 0.33785068458949391 -0.0025643709947998782 0 0.32635125696986839 -0.0033442034079895931 0 0.3444798644180585 0.01894287642528545 0 0.33167652794864122 0.01384000246729432 0 0.33844451314342477 0.036765449728314442 0 0.33167652794864122 0.01384000246729432 0 0.31378323222503618 0.024227887181789309 0 0.33844451314342477 0.036765449728314442 0 0.33167652794864122 0.01384000246729432 0 0.31378323222503618 0.024227887181789309 0 0.33167652794864122 0.01384000246729432 0 0.31378323222503618 0.024227887181789309 0 0.31751081809402287 0.0081359636167634714 0 0.33167652794864122 0.01384000246729432 0 0.31751081809402287 0.0081359636167634714 0 0.32635125696986839 -0.0033442034079895931 0 0.32804943454227298 0.064197808434570805 0 0.34807537029570368 0.062716756525530534 0 0.33844451314342477 0.036765449728314442 0 0.31378323222503618 0.024227887181789309 0 0.33844451314342477 0.036765449728314442 0 0.31496748683951009 0.049175637384023162 0 0.32804943454227298 0.064197808434570805 0 0.31496748683951009 0.049175637384023162 0 0.30420284643408368 0.072864608055861091 0 0.32804943454227298 0.064197808434570805 0 0.33844451314342477 0.036765449728314442 0 0.31496748683951009 0.049175637384023162 0 0.31496748683951009 0.049175637384023162 0 0.29414296539808349 0.053730065913392487 0 0.30420284643408368 0.072864608055861091 0 0.31378323222503618 0.024227887181789309 0 0.31496748683951009 0.049175637384023162 0 0.29588993650143142 0.034615771896284293 0 0.31496748683951009 0.049175637384023162 0 0.29588993650143142 0.034615771896284293 0 0.29414296539808349 0.053730065913392487 0 0.29588993650143142 0.034615771896284293 0 0.29414296539808349 0.053730065913392487 0 0.27226481263818891 0.045475655116993953 0 0.30368321262709658 0.010934391213377539 0 0.2965674916674631 -0.005892833431666954 0 0.31205986069947189 -0.0049782593706542196 0 0.31751081809402287 0.0081359636167634714 0 0.30368321262709658 0.010934391213377539 0 0.31205986069947189 -0.0049782593706542196 0 0.31378323222503618 0.024227887181789309 0 0.31751081809402287 0.0081359636167634714 0 0.30368321262709658 0.010934391213377539 0 0.31378323222503618 0.024227887181789309 0 0.29588993650143142 0.034615771896284293 0 0.31378323222503618 0.024227887181789309 0 0.29588993650143142 0.034615771896284293 0 0.30368321262709658 0.010934391213377539 0 0.29588993650143142 0.034615771896284293 0 0.2850598880502595 0.0097200540804723429 0 0.27387307889720169 0.025882316680737771 0 0.29588993650143142 0.034615771896284293 0 0.30368321262709658 0.010934391213377539 0 0.2850598880502595 0.0097200540804723429 0 0.30368321262709658 0.010934391213377539 0 0.2850598880502595 0.0097200540804723429 0 0.2965674916674631 -0.005892833431666954 0 0.2850598880502595 0.0097200540804723429 0 0.27387307889720169 0.025882316680737771 0 0.25935681487488282 0.0032901558470991299 0 0.27387307889720169 0.025882316680737771 0 0.25415398646272769 0.030625775086944751 0 0.25935681487488282 0.0032901558470991299 0 0.25415398646272769 0.030625775086944751 0 0.25935681487488282 0.0032901558470991299 0 0.2489511580505735 0.057961394326790622 0 0.27226481263818891 0.045475655116993953 0 0.27657700224233023 0.065413001191319681 0 0.29414296539808349 0.053730065913392487 0 0.27226481263818891 0.045475655116993953 0 0.27657700224233023 0.065413001191319681 0 0.27387307889720169 0.025882316680737771 0 0.25415398646272769 0.030625775086944751 0 0.27226481263818891 0.045475655116993953 0 0.29588993650143142 0.034615771896284293 0 0.27387307889720169 0.025882316680737771 0 0.27226481263818891 0.045475655116993953 0 0.2489511580505735 0.057961394326790622 0 0.25415398646272769 0.030625775086944751 0 0.2489511580505735 0.057961394326790622 0 0.25415398646272769 0.030625775086944751 0 0.27226481263818891 0.045475655116993953 0 0.2489511580505735 0.057961394326790622 0 0.27657700224233023 0.065413001191319681 0 0.24544774149804099 0.07636831712571171 0 0.2489511580505735 0.057961394326790622 0 0.25814507412550652 0.08207270088773827 0 0.2489511580505735 0.057961394326790622 0 0.25814507412550652 0.08207270088773827 0 0.27657700224233023 0.065413001191319681 0 0.2419443249455106 0.094775239924633187 0 0.25814507412550652 0.08207270088773827 0 0.25554390584474829 0.095747355308678631 0 0.25814507412550652 0.08207270088773827 0 0.27198164934112701 0.08880706487793677 0 0.25554390584474829 0.095747355308678631 0 0.25814507412550652 0.08207270088773827 0 0.27198164934112701 0.08880706487793677 0 0.27657700224233023 0.065413001191319681 0 0.27198164934112701 0.08880706487793677 0 0.27657700224233023 0.065413001191319681 0 0.28969012985178783 0.085053958767572477 0 0.28969012985178783 0.085053958767572477 0 0.30420284643408368 0.072864608055861091 0 0.31045138659992572 0.1081987620712542 0 0.27657700224233023 0.065413001191319681 0 0.28969012985178783 0.085053958767572477 0 0.30420284643408368 0.072864608055861091 0 0.29414296539808349 0.053730065913392487 0 0.27657700224233023 0.065413001191319681 0 0.30420284643408368 0.072864608055861091 0 0.27657700224233023 0.065413001191319681 0 0.30420284643408368 0.072864608055861091 0 0.27198164934112701 0.08880706487793677 0 0.28969012985178783 0.085053958767572477 0 0.28359300015265548 0.1004065268756409 0 0.31045138659992572 0.1081987620712542 0 0.2916393947520366 0.1309397648441161 0 0.31045138659992572 0.1081987620712542 0 0.30788634092488831 0.13265454854521169 0 0.2916393947520366 0.1309397648441161 0 0.28969012985178783 0.085053958767572477 0 0.31045138659992572 0.1081987620712542 0 0.28359300015265548 0.1004065268756409 0 0.31045138659992572 0.1081987620712542 0 0.28359300015265548 0.1004065268756409 0 0.2808382459620628 0.1173109404828384 0 0.31045138659992572 0.1081987620712542 0 0.2808382459620628 0.1173109404828384 0 0.2916393947520366 0.1309397648441161 0 0.2808382459620628 0.1173109404828384 0 0.26314337889019401 0.1203761973752507 0 0.26979857724452438 0.13342245161393321 0 0.2808382459620628 0.1173109404828384 0 0.26815216404890629 0.10534381977269711 0 0.26314337889019401 0.1203761973752507 0 0.28359300015265548 0.1004065268756409 0 0.2808382459620628 0.1173109404828384 0 0.26815216404890629 0.10534381977269711 0 0.27198164934112701 0.08880706487793677 0 0.28359300015265548 0.1004065268756409 0 0.26815216404890629 0.10534381977269711 0 0.26815216404890629 0.10534381977269711 0 0.25554390584474829 0.095747355308678631 0 0.251790880876404 0.1108994014901991 0 0.27198164934112701 0.08880706487793677 0 0.26815216404890629 0.10534381977269711 0 0.25554390584474829 0.095747355308678631 0 0.2493254696813656 0.1321640205800898 0 0.251790880876404 0.1108994014901991 0 0.26314337889019401 0.1203761973752507 0 0.26815216404890629 0.10534381977269711 0 0.251790880876404 0.1108994014901991 0 0.26314337889019401 0.1203761973752507 0 0.2493254696813656 0.1321640205800898 0 0.26979857724452438 0.13342245161393321 0 0.26101757127734021 0.14606301878432629 0 0.2493254696813656 0.1321640205800898 0 0.26314337889019401 0.1203761973752507 0 0.26979857724452438 0.13342245161393321 0 0.26979857724452438 0.13342245161393321 0 0.2728274029041472 0.15368076761697741 0 0.2916393947520366 0.1309397648441161 0 0.2808382459620628 0.1173109404828384 0 0.26979857724452438 0.13342245161393321 0 0.2916393947520366 0.1309397648441161 0 0.26979857724452438 0.13342245161393321 0 0.2728274029041472 0.15368076761697741 0 0.26101757127734021 0.14606301878432629 0 0.2728274029041472 0.15368076761697741 0 0.2852042284687113 0.14212613310567351 0 0.24472819154328501 0.15589805884118429 0 0.26101757127734021 0.14606301878432629 0 0.2728274029041472 0.15368076761697741 0 0.26101757127734021 0.14606301878432629 0 0.26091661592412763 0.16480032243159209 0 0.24472819154328501 0.15589805884118429 0 0.26101757127734021 0.14606301878432629 0 0.26091661592412763 0.16480032243159209 0 0.24472819154328501 0.15589805884118429 0 0.2475437006404492 0.14414899757342611 0 0.26101757127734021 0.14606301878432629 0 0.2475437006404492 0.14414899757342611 0 0.2493254696813656 0.1321640205800898 0 0.26101757127734021 0.14606301878432629 0 0.26091661592412763 0.16480032243159209 0 0.26423174298130547 0.164071688882543 0 0.25027958451938309 0.18093784940587171 0 0.24406137605986569 0.16850494461668031 0 0.26091661592412763 0.16480032243159209 0 0.26423174298130547 0.164071688882543 0 0.26198385394036849 0.17397334306733581 0 0.265788870143642 0.16971824598665711 0 0.26091661592412763 0.16480032243159209 0 0.26423174298130547 0.164071688882543 0 0.24127671145533749 0.1831355503775616 0 0.26091661592412763 0.16480032243159209 0 0.26423174298130547 0.164071688882543 0 0.25027958451938309 0.18093784940587171 0 0.24127671145533749 0.1831355503775616 0 0.26091661592412763 0.16480032243159209 0 0.25027958451938309 0.18093784940587171 0 0.26423174298130547 0.164071688882543 0 0.25027958451938309 0.18093784940587171 0 0.26198385394036849 0.17397334306733581 0 0.25027958451938309 0.18093784940587171 0 0.25965090747053149 0.18014543694089791 0 0.26178626724534582 0.1865240661260871 0 0.25027958451938309 0.18093784940587171 0 0.26178626724534582 0.1865240661260871 0 0.25101603294849978 0.19316925088699061 0 0.25027958451938309 0.18093784940587171 0 0.26198385394036849 0.17397334306733581 0 0.25965090747053149 0.18014543694089791 0 0.26198385394036849 0.17397334306733581 0 0.26886256623161681 0.17467540196369721 0 0.265788870143642 0.16971824598665711 0 0.26198385394036849 0.17397334306733581 0 0.26455392417702878 0.17914648916429721 0 0.25965090747053149 0.18014543694089791 0 0.26198385394036849 0.17397334306733581 0 0.26455392417702878 0.17914648916429721 0 0.26886256623161681 0.17467540196369721 0 0.26455392417702878 0.17914648916429721 0 0.26178626724534582 0.1865240661260871 0 0.27049078977431201 0.18122929765550319 0 0.26455392417702878 0.17914648916429721 0 0.25965090747053149 0.18014543694089791 0 0.26178626724534582 0.1865240661260871 0 0.26178626724534582 0.1865240661260871 0 0.27049078977431201 0.18122929765550319 0 0.27303751581833108 0.1877170928921551 0 0.27049078977431201 0.18122929765550319 0 0.26886256623161681 0.17467540196369721 0 0.27441221136255362 0.17697432039293751 0 0.26455392417702878 0.17914648916429721 0 0.27049078977431201 0.18122929765550319 0 0.26886256623161681 0.17467540196369721 0 0.26886256623161681 0.17467540196369721 0 0.27453199745507512 0.17209879190745761 0 0.26951460924094689 0.16954227606873451 0 0.26886256623161681 0.17467540196369721 0 0.27453199745507512 0.17209879190745761 0 0.27441221136255362 0.17697432039293751 0 0.27453199745507512 0.17209879190745761 0 0.27441221136255362 0.17697432039293751 0 0.28135292065112488 0.17486826017507279 0 0.27916391298339532 0.16987730021362479 0 0.28292730536062982 0.17140328978787359 0 0.28135292065112488 0.17486826017507279 0 0.27453199745507512 0.17209879190745761 0 0.27916391298339532 0.16987730021362479 0 0.28135292065112488 0.17486826017507279 0 0.27756584835796272 0.1801117178144451 0 0.28206455854444912 0.17853284736019789 0 0.28135292065112488 0.17486826017507279 0 0.27441221136255362 0.17697432039293751 0 0.27756584835796272 0.1801117178144451 0 0.28135292065112488 0.17486826017507279 0 0.27049078977431201 0.18122929765550319 0 0.27441221136255362 0.17697432039293751 0 0.27756584835796272 0.1801117178144451 0 0.27756584835796272 0.1801117178144451 0 0.28209606964026501 0.18110392210324769 0 0.27303751581833108 0.1877170928921551 0 0.27049078977431201 0.18122929765550319 0 0.27756584835796272 0.1801117178144451 0 0.27303751581833108 0.1877170928921551 0 0.27756584835796272 0.1801117178144451 0 0.28209606964026501 0.18110392210324769 0 0.28206455854444912 0.17853284736019789 0 0.2728274029041472 0.15368076761697741 0 0.26423174298130547 0.164071688882543 0 0.2858472030867914 0.15932081534454531 0 0.26423174298130547 0.164071688882543 0 0.27538209307951789 0.16708792755585139 0 0.2858472030867914 0.15932081534454531 0 0.26423174298130547 0.164071688882543 0 0.2858472030867914 0.15932081534454531 0 0.2728274029041472 0.15368076761697741 0 0.26091661592412763 0.16480032243159209 0 0.26423174298130547 0.164071688882543 0 0.2728274029041472 0.15368076761697741 0 0.26423174298130547 0.164071688882543 0 0.2728274029041472 0.15368076761697741 0 0.26091661592412763 0.16480032243159209 0 0.26423174298130547 0.164071688882543 0 0.26951460924094689 0.16954227606873451 0 0.27538209307951789 0.16708792755585139 0 0.26423174298130547 0.164071688882543 0 0.265788870143642 0.16971824598665711 0 0.26951460924094689 0.16954227606873451 0 0.26886256623161681 0.17467540196369721 0 0.265788870143642 0.16971824598665711 0 0.26951460924094689 0.16954227606873451 0 0.27453199745507512 0.17209879190745761 0 0.26951460924094689 0.16954227606873451 0 0.27538209307951789 0.16708792755585139 0 0.27538209307951789 0.16708792755585139 0 0.2858472030867914 0.15932081534454531 0 0.28176680359970602 0.16670103903838671 0 0.27453199745507512 0.17209879190745761 0 0.27538209307951789 0.16708792755585139 0 0.27916391298339532 0.16987730021362479 0 0.27538209307951789 0.16708792755585139 0 0.27916391298339532 0.16987730021362479 0 0.28176680359970602 0.16670103903838671 0 0.28639752937590718 0.1664292012034152 0 0.29448098367258979 0.15873454338384321 0 0.28595536019301537 0.1791406483088685 0 0.29448098367258979 0.15873454338384321 0 0.28595536019301537 0.1791406483088685 0 0.2858472030867914 0.15932081534454531 0 0.28639752937590718 0.1664292012034152 0 0.29448098367258979 0.15873454338384321 0 0.2858472030867914 0.15932081534454531 0 0.28176680359970602 0.16670103903838671 0 0.28639752937590718 0.1664292012034152 0 0.27916391298339532 0.16987730021362479 0 0.28176680359970602 0.16670103903838671 0 0.28292730536062982 0.17140328978787359 0 0.28176680359970602 0.16670103903838671 0 0.28292730536062982 0.17140328978787359 0 0.28639752937590718 0.1664292012034152 0 0.2858472030867914 0.15932081534454531 0 0.29448098367258979 0.15873454338384321 0 0.28898411229873427 0.15093095560867231 0 0.28595536019301537 0.1791406483088685 0 0.29901523274496339 0.18266236337439171 0 0.2912395328017327 0.19619503221117421 0 0.28209606964026501 0.18110392210324769 0 0.28595536019301537 0.1791406483088685 0 0.28292730536062982 0.17140328978787359 0 0.28639752937590718 0.1664292012034152 0 0.28595536019301537 0.1791406483088685 0 0.28209606964026501 0.18110392210324769 0 0.28595536019301537 0.1791406483088685 0 0.28206455854444912 0.17853284736019789 0 0.28595536019301537 0.1791406483088685 0 0.28206455854444912 0.17853284736019789 0 0.28135292065112488 0.17486826017507279 0 0.28292730536062982 0.17140328978787359 0 0.28595536019301537 0.1791406483088685 0 0.28135292065112488 0.17486826017507279 0 0.28595536019301537 0.1791406483088685 0 0.29901523274496339 0.18266236337439171 0 0.31232698448710472 0.16572504298345009 0 0.29901523274496339 0.18266236337439171 0 0.31232698448710472 0.16572504298345009 0 0.30653905349800092 0.18958872999407389 0 0.28595536019301537 0.1791406483088685 0 0.31232698448710472 0.16572504298345009 0 0.29448098367258979 0.15873454338384321 0 0.28595536019301537 0.1791406483088685 0 0.31232698448710472 0.16572504298345009 0 0.29448098367258979 0.15873454338384321 0 0.31232698448710472 0.16572504298345009 0 0.30573116413224682 0.15469520738708831 0 0.29795397735993367 0.1458996694716394 0 0.30788634092488831 0.13265454854521169 0 0.31471031246775522 0.1461186232716507 0 0.30573116413224682 0.15469520738708831 0 0.29795397735993367 0.1458996694716394 0 0.31471031246775522 0.1461186232716507 0 0.31232698448710472 0.16572504298345009 0 0.30573116413224682 0.15469520738708831 0 0.31471031246775522 0.1461186232716507 0 0.29448098367258979 0.15873454338384321 0 0.30573116413224682 0.15469520738708831 0 0.29795397735993367 0.1458996694716394 0 0.29795397735993367 0.1458996694716394 0 0.30788634092488831 0.13265454854521169 0 0.2916393947520366 0.1309397648441161 0 0.29795397735993367 0.1458996694716394 0 0.2916393947520366 0.1309397648441161 0 0.2852042284687113 0.14212613310567351 0 0.2728274029041472 0.15368076761697741 0 0.2852042284687113 0.14212613310567351 0 0.28898411229873427 0.15093095560867231 0 0.2728274029041472 0.15368076761697741 0 0.2858472030867914 0.15932081534454531 0 0.28898411229873427 0.15093095560867231 0 0.2728274029041472 0.15368076761697741 0 0.2916393947520366 0.1309397648441161 0 0.2728274029041472 0.15368076761697741 0 0.2916393947520366 0.1309397648441161 0 0.2852042284687113 0.14212613310567351 0 0.29448098367258979 0.15873454338384321 0 0.29795397735993367 0.1458996694716394 0 0.28898411229873427 0.15093095560867231 0 0.29795397735993367 0.1458996694716394 0 0.2852042284687113 0.14212613310567351 0 0.28898411229873427 0.15093095560867231 0 0.26867444526007311 0.25094104323580468 0 0.26483108965893792 0.22970165208950361 0 0.28475769765093017 0.23917056952590779 0 0.24242825524523789 0.24053549575596991 0 0.26867444526007311 0.25094104323580468 0 0.24242825524523789 0.24053549575596991 0 0.26867444526007311 0.25094104323580468 0 0.26483108965893792 0.22970165208950361 0 0.24242825524523789 0.24053549575596991 0 0.26483108965893792 0.22970165208950361 0 0.25399362891722022 0.2147551623774705 0 0.26483108965893792 0.22970165208950361 0 0.28257661459277139 0.22194443709761891 0 0.28475769765093017 0.23917056952590779 0 0.26483108965893792 0.22970165208950361 0 0.27539322492597679 0.20442115019918619 0 0.28257661459277139 0.22194443709761891 0 0.26483108965893792 0.22970165208950361 0 0.27539322492597679 0.20442115019918619 0 0.27539322492597679 0.20442115019918619 0 0.25399362891722022 0.2147551623774705 0 0.25982036600206998 0.19741720226982121 0 0.26483108965893792 0.22970165208950361 0 0.27539322492597679 0.20442115019918619 0 0.25399362891722022 0.2147551623774705 0 0.2468665209182411 0.20316312670397371 0 0.25399362891722022 0.2147551623774705 0 0.25982036600206998 0.19741720226982121 0 0.2468665209182411 0.20316312670397371 0 0.25982036600206998 0.19741720226982121 0 0.25101603294849978 0.19316925088699061 0 0.26178626724534582 0.1865240661260871 0 0.25982036600206998 0.19741720226982121 0 0.25101603294849978 0.19316925088699061 0 0.26178626724534582 0.1865240661260871 0 0.25982036600206998 0.19741720226982121 0 0.27303751581833108 0.1877170928921551 0 0.28595536019301537 0.1791406483088685 0 0.27539322492597679 0.20442115019918619 0 0.28209606964026501 0.18110392210324769 0 0.28595536019301537 0.1791406483088685 0 0.27539322492597679 0.20442115019918619 0 0.28209606964026501 0.18110392210324769 0 0.27539322492597679 0.20442115019918619 0 0.27303751581833108 0.1877170928921551 0 0.27539322492597679 0.20442115019918619 0 0.25982036600206998 0.19741720226982121 0 0.27303751581833108 0.1877170928921551 0 0.28595536019301537 0.1791406483088685 0 0.27539322492597679 0.20442115019918619 0 0.2912395328017327 0.19619503221117421 0 0.29901523274496339 0.18266236337439171 0 0.2912395328017327 0.19619503221117421 0 0.30653905349800092 0.18958872999407389 0 0.2912395328017327 0.19619503221117421 0 0.30653905349800092 0.18958872999407389 0 0.29918975399943099 0.21043715454080009 0 0.30653905349800092 0.18958872999407389 0 0.29918975399943099 0.21043715454080009 0 0.31904383339893461 0.19944833866734271 0 0.29918975399943099 0.21043715454080009 0 0.31392062184667457 0.22198797714647009 0 0.31904383339893461 0.19944833866734271 0 0.27539322492597679 0.20442115019918619 0 0.29918975399943099 0.21043715454080009 0 0.28257661459277139 0.22194443709761891 0 0.27539322492597679 0.20442115019918619 0 0.2912395328017327 0.19619503221117421 0 0.29918975399943099 0.21043715454080009 0 0.28257661459277139 0.22194443709761891 0 0.29543681867429111 0.2275888221984694 0 0.28475769765093017 0.23917056952590779 0 0.29918975399943099 0.21043715454080009 0 0.28257661459277139 0.22194443709761891 0 0.29543681867429111 0.2275888221984694 0 0.29543681867429111 0.2275888221984694 0 0.30614492804101112 0.24370767114134911 0 0.31392062184667457 0.22198797714647009 0 0.29918975399943099 0.21043715454080009 0 0.29543681867429111 0.2275888221984694 0 0.31392062184667457 0.22198797714647009 0 0.29492063527490819 0.26134659071563948 0 0.30614492804101112 0.24370767114134911 0 0.28475769765093017 0.23917056952590779 0 0.29543681867429111 0.2275888221984694 0 0.30614492804101112 0.24370767114134911 0 0.28475769765093017 0.23917056952590779 0 0.34452689156915561 0.25493736741178102 0 0.32857447559835679 0.23870878053399791 0 0.35250849891588698 0.225619357656379 0 0.30614492804101112 0.24370767114134911 0 0.32857447559835679 0.23870878053399791 0 0.31392062184667457 0.22198797714647009 0 0.32857447559835679 0.23870878053399791 0 0.31392062184667457 0.22198797714647009 0 0.33513392136802278 0.21203709579686131 0 0.32857447559835679 0.23870878053399791 0 0.33513392136802278 0.21203709579686131 0 0.35250849891588698 0.225619357656379 0 0.31392062184667457 0.22198797714647009 0 0.33513392136802278 0.21203709579686131 0 0.31904383339893461 0.19944833866734271 0 0.31904383339893461 0.19944833866734271 0 0.32219197925858623 0.17903914632504761 0 0.33847695805998212 0.18547618098309121 0 0.30653905349800092 0.18958872999407389 0 0.31904383339893461 0.19944833866734271 0 0.32219197925858623 0.17903914632504761 0 0.33513392136802278 0.21203709579686131 0 0.31904383339893461 0.19944833866734271 0 0.33847695805998212 0.18547618098309121 0 0.33513392136802278 0.21203709579686131 0 0.35557985643207468 0.20065634267733101 0 0.33847695805998212 0.18547618098309121 0 0.35557985643207468 0.20065634267733101 0 0.37081083063658282 0.2129512227913278 0 0.37850218402099628 0.1933976045285607 0 0.35557985643207468 0.20065634267733101 0 0.36006203573440088 0.17147871821311059 0 0.37850218402099628 0.1933976045285607 0 0.35557985643207468 0.20065634267733101 0 0.37081083063658282 0.2129512227913278 0 0.35250849891588698 0.225619357656379 0 0.33513392136802278 0.21203709579686131 0 0.35557985643207468 0.20065634267733101 0 0.35250849891588698 0.225619357656379 0 0.35250849891588698 0.225619357656379 0 0.36782436287914722 0.24498410137385199 0 0.37863741383634192 0.2305093462368468 0 0.37081083063658282 0.2129512227913278 0 0.35250849891588698 0.225619357656379 0 0.37863741383634192 0.2305093462368468 0 0.34452689156915561 0.25493736741178102 0 0.35250849891588698 0.225619357656379 0 0.36782436287914722 0.24498410137385199 0 0.33844510344733209 0.1212051252658551 0 0.3386986087811944 0.15230943765803201 0 0.3239898667328549 0.13211107516418141 0 0.30788634092488831 0.13265454854521169 0 0.3239898667328549 0.13211107516418141 0 0.31471031246775522 0.1461186232716507 0 0.3386986087811944 0.15230943765803201 0 0.3239898667328549 0.13211107516418141 0 0.31471031246775522 0.1461186232716507 0 0.31232698448710472 0.16572504298345009 0 0.3386986087811944 0.15230943765803201 0 0.31471031246775522 0.1461186232716507 0 0.31232698448710472 0.16572504298345009 0 0.3386986087811944 0.15230943765803201 0 0.3386986087811944 0.15230943765803201 0 0.32219197925858623 0.17903914632504761 0 0.33847695805998212 0.18547618098309121 0 0.31232698448710472 0.16572504298345009 0 0.3386986087811944 0.15230943765803201 0 0.32219197925858623 0.17903914632504761 0 0.31232698448710472 0.16572504298345009 0 0.30653905349800092 0.18958872999407389 0 0.32219197925858623 0.17903914632504761 0 0.36006203573440088 0.17147871821311059 0 0.36507023307528408 0.13889383233261399 0 0.38569831790732279 0.16364068571869109 0 0.3386986087811944 0.15230943765803201 0 0.33847695805998212 0.18547618098309121 0 0.36006203573440088 0.17147871821311059 0 0.35557985643207468 0.20065634267733101 0 0.33847695805998212 0.18547618098309121 0 0.36006203573440088 0.17147871821311059 0 0.36006203573440088 0.17147871821311059 0 0.38569831790732279 0.16364068571869109 0 0.37850218402099628 0.1933976045285607 0 0.3386986087811944 0.15230943765803201 0 0.36006203573440088 0.17147871821311059 0 0.36507023307528408 0.13889383233261399 0 0.3386986087811944 0.15230943765803201 0 0.36507023307528408 0.13889383233261399 0 0.33844510344733209 0.1212051252658551 0 0.3386986087811944 0.15230943765803201 0 0.36507023307528408 0.13889383233261399 0 0.36507023307528408 0.13889383233261399 0 0.39144185736937359 0.12547822700719599 0 0.38569831790732279 0.16364068571869109 0 0.39144185736937359 0.12547822700719599 0 0.38569831790732279 0.16364068571869109 0 0.40665267681316691 0.15316567012348839 0 0.36507023307528408 0.13889383233261399 0 0.39144185736937359 0.12547822700719599 0 0.39144185736937359 0.12547822700719599 0 0.41636232693654618 0.13648852878779941 0 0.40665267681316691 0.15316567012348839 0 0.38569831790732279 0.16364068571869109 0 0.37850218402099628 0.1933976045285607 0 0.39852120280680448 0.190350402798593 0 0.38569831790732279 0.16364068571869109 0 0.41376553345665679 0.17617654476886141 0 0.39852120280680448 0.190350402798593 0 0.38569831790732279 0.16364068571869109 0 0.41376553345665679 0.17617654476886141 0 0.40665267681316691 0.15316567012348839 0 0.41376553345665679 0.17617654476886141 0 0.42738716323699538 0.1562881900649809 0 0.40665267681316691 0.15316567012348839 0 0.41376553345665679 0.17617654476886141 0 0.41915656521143257 0.20360217130365449 0 0.43833023312647951 0.1803931633331195 0 0.41376553345665679 0.17617654476886141 0 0.42738716323699538 0.1562881900649809 0 0.43833023312647951 0.1803931633331195 0 0.42738716323699538 0.1562881900649809 0 0.41636232693654618 0.13648852878779941 0 0.43896933010418282 0.13154634581901031 0 0.41636232693654618 0.13648852878779941 0 0.43896933010418282 0.13154634581901031 0 0.4178134816634631 0.112062621681778 0 0.42738716323699538 0.1562881900649809 0 0.41636232693654618 0.13648852878779941 0 0.40665267681316691 0.15316567012348839 0 0.39409708900996032 0.25138288549760918 0 0.39904591866038402 0.2328705611967839 0 0.4188422569555294 0.2402942209285745 0 0.39409708900996032 0.25138288549760918 0 0.36782436287914722 0.24498410137385199 0 0.37863741383634192 0.2305093462368468 0 0.39409708900996032 0.25138288549760918 0 0.37863741383634192 0.2305093462368468 0 0.39904591866038402 0.2328705611967839 0 0.37081083063658282 0.2129512227913278 0 0.37863741383634192 0.2305093462368468 0 0.39548341343761412 0.21493500767319759 0 0.37863741383634192 0.2305093462368468 0 0.39904591866038402 0.2328705611967839 0 0.39548341343761412 0.21493500767319759 0 0.39904591866038402 0.2328705611967839 0 0.39548341343761412 0.21493500767319759 0 0.41172811819487137 0.22406281584084459 0 0.37081083063658282 0.2129512227913278 0 0.39548341343761412 0.21493500767319759 0 0.37850218402099628 0.1933976045285607 0 0.39548341343761412 0.21493500767319759 0 0.37850218402099628 0.1933976045285607 0 0.39852120280680448 0.190350402798593 0 0.39548341343761412 0.21493500767319759 0 0.39852120280680448 0.190350402798593 0 0.41915656521143257 0.20360217130365449 0 0.41376553345665679 0.17617654476886141 0 0.39852120280680448 0.190350402798593 0 0.41915656521143257 0.20360217130365449 0 0.41915656521143257 0.20360217130365449 0 0.44540001424117631 0.20382155411243921 0 0.43833023312647951 0.1803931633331195 0 0.41915656521143257 0.20360217130365449 0 0.4278917857755955 0.22702785319858859 0 0.44540001424117631 0.20382155411243921 0 0.4278917857755955 0.22702785319858859 0 0.44540001424117631 0.20382155411243921 0 0.41915656521143257 0.20360217130365449 0 0.41172811819487137 0.22406281584084459 0 0.4278917857755955 0.22702785319858859 0 0.39548341343761412 0.21493500767319759 0 0.41915656521143257 0.20360217130365449 0 0.41172811819487137 0.22406281584084459 0 0.39904591866038402 0.2328705611967839 0 0.41172811819487137 0.22406281584084459 0 0.4188422569555294 0.2402942209285745 0 0.41172811819487137 0.22406281584084459 0 0.4278917857755955 0.22702785319858859 0 0.4188422569555294 0.2402942209285745 0 0.4278917857755955 0.22702785319858859 0 0.4188422569555294 0.2402942209285745 0 0.44395468753809869 0.23057134411254221 0 0.41737497171560728 0.2553433948634441 0 0.43433825968054462 0.24367271220235689 0 0.4188422569555294 0.2402942209285745 0 0.4188422569555294 0.2402942209285745 0 0.44395468753809869 0.23057134411254221 0 0.43433825968054462 0.24367271220235689 0 0.4188422569555294 0.2402942209285745 0 0.44395468753809869 0.23057134411254221 0 0.39409708900996032 0.25138288549760918 0 0.41737497171560728 0.2553433948634441 0 0.4188422569555294 0.2402942209285745 0 0.39409708900996032 0.25138288549760918 0 0.4188422569555294 0.2402942209285745 0 0.44395468753809869 0.23057134411254221 0 0.47001265818636118 0.23958068531705179 0 0.46678025207759838 0.25530295550532839 0 0.45159703698721698 0.24409072614773139 0 0.47001265818636118 0.23958068531705179 0 0.45159703698721698 0.24409072614773139 0 0.44395468753809869 0.23057134411254221 0 0.47001265818636118 0.23958068531705179 0 0.43433825968054462 0.24367271220235689 0 0.45159703698721698 0.24409072614773139 0 0.44395468753809869 0.23057134411254221 0 0.4278917857755955 0.22702785319858859 0 0.44395468753809869 0.23057134411254221 0 0.44540001424117631 0.20382155411243921 0 0.45647184086805659 0.22936861939490971 0 0.46833259284666778 0.218116891790505 0 0.47001265818636118 0.23958068531705179 0 0.44395468753809869 0.23057134411254221 0 0.46833259284666778 0.218116891790505 0 0.44395468753809869 0.23057134411254221 0 0.45647184086805659 0.22936861939490971 0 0.47001265818636118 0.23958068531705179 0 0.44395468753809869 0.23057134411254221 0 0.45647184086805659 0.22936861939490971 0 0.46833259284666778 0.218116891790505 0 0.44395468753809869 0.23057134411254221 0 0.46833259284666778 0.218116891790505 0 0.45467298042392978 0.21453288242654309 0 0.46105524032691603 0.20407201910943121 0 0.45467298042392978 0.21453288242654309 0 0.44540001424117631 0.20382155411243921 0 0.46833259284666778 0.218116891790505 0 0.46105524032691603 0.20407201910943121 0 0.45467298042392978 0.21453288242654309 0 0.46833259284666778 0.218116891790505 0 0.46105524032691603 0.20407201910943121 0 0.47396237141604808 0.2032735121913786 0 0.44395468753809869 0.23057134411254221 0 0.45467298042392978 0.21453288242654309 0 0.44540001424117631 0.20382155411243921 0 0.44540001424117631 0.20382155411243921 0 0.43833023312647951 0.1803931633331195 0 0.46290824270675779 0.18061525502629031 0 0.46105524032691603 0.20407201910943121 0 0.44540001424117631 0.20382155411243921 0 0.46290824270675779 0.18061525502629031 0 0.46105524032691603 0.20407201910943121 0 0.47396237141604808 0.2032735121913786 0 0.46290824270675779 0.18061525502629031 0 0.44540001424117631 0.20382155411243921 0 0.46290824270675779 0.18061525502629031 0 0.47396237141604808 0.2032735121913786 0 0.46290824270675779 0.18061525502629031 0 0.488445155515561 0.21023347513056359 0 0.47396237141604808 0.2032735121913786 0 0.48437002620164871 0.18726318297539599 0 0.47396237141604808 0.2032735121913786 0 0.46290824270675779 0.18061525502629031 0 0.48437002620164871 0.18726318297539599 0 0.5 0.19906755876295781 0 0.488445155515561 0.21023347513056359 0 0.48437002620164871 0.18726318297539599 0 0.5 0.19906755876295781 0 0.488445155515561 0.21023347513056359 0 0.5 0.2245080674412416 0 0.47396237141604808 0.2032735121913786 0 0.48501650012533798 0.22593176935646711 0 0.46833259284666778 0.218116891790505 0 0.47396237141604808 0.2032735121913786 0 0.48501650012533798 0.22593176935646711 0 0.488445155515561 0.21023347513056359 0 0.47396237141604808 0.2032735121913786 0 0.48501650012533798 0.22593176935646711 0 0.46833259284666778 0.218116891790505 0 0.48501650012533798 0.22593176935646711 0 0.47001265818636118 0.23958068531705179 0 0.48501650012533798 0.22593176935646711 0 0.5 0.2245080674412416 0 0.49607062883462488 0.24859002652155709 0 0.488445155515561 0.21023347513056359 0 0.48501650012533798 0.22593176935646711 0 0.5 0.2245080674412416 0 0.48501650012533798 0.22593176935646711 0 0.49607062883462488 0.24859002652155709 0 0.5 0.2245080674412416 0 0.49999999999999528 0.24994857611952551 0 0.49607062883462488 0.24859002652155709 0 0.49999999999999528 0.24994857611952551 0 0.49607062883462488 0.24859002652155709 0 0.49607062883462488 0.24859002652155709 0 0.47001265818636118 0.23958068531705179 0 0.46678025207759838 0.25530295550532839 0 0.47952388047089167 0.25315782589811098 0 0.47001265818636118 0.23958068531705179 0 0.48501650012533798 0.22593176935646711 0 0.49607062883462488 0.24859002652155709 0 0.47001265818636118 0.23958068531705179 0 0.47952388047089167 0.25315782589811098 0 0.49607062883462488 0.24859002652155709 0 0.47001265818636118 0.23958068531705179 0 0.46504590221683262 0.13573846044831159 0 0.45093878640547053 0.15608080042265021 0 0.48090438757152532 0.15676224665651159 0 0.46504590221683262 0.13573846044831159 0 0.43896933010418282 0.13154634581901031 0 0.45819787912090298 0.11916032911521129 0 0.42738716323699538 0.1562881900649809 0 0.43896933010418282 0.13154634581901031 0 0.45093878640547053 0.15608080042265021 0 0.46504590221683262 0.13573846044831159 0 0.43896933010418282 0.13154634581901031 0 0.45093878640547053 0.15608080042265021 0 0.43896933010418282 0.13154634581901031 0 0.45093878640547053 0.15608080042265021 0 0.42738716323699538 0.1562881900649809 0 0.45093878640547053 0.15608080042265021 0 0.43833023312647951 0.1803931633331195 0 0.45093878640547053 0.15608080042265021 0 0.43833023312647951 0.1803931633331195 0 0.46290824270675779 0.18061525502629031 0 0.45093878640547053 0.15608080042265021 0 0.46290824270675779 0.18061525502629031 0 0.48090438757152532 0.15676224665651159 0 0.45093878640547053 0.15608080042265021 0 0.46290824270675779 0.18061525502629031 0 0.46290824270675779 0.18061525502629031 0 0.48090438757152532 0.15676224665651159 0 0.46290824270675779 0.18061525502629031 0 0.48090438757152532 0.15676224665651159 0 0.48437002620164871 0.18726318297539599 0 0.48090438757152532 0.15676224665651159 0 0.48437002620164871 0.18726318297539599 0 0.5 0.17362705008467411 0 0.5 0.19906755876295781 0 0.48437002620164871 0.18726318297539599 0 0.5 0.17362705008467411 0 0.48090438757152532 0.15676224665651159 0 0.5 0.17362705008467411 0 0.5 0.1481865414063902 0 0.48090438757152532 0.15676224665651159 0 0.5 0.1481865414063902 0 0.48434883325895478 0.13508169785470789 0 0.46504590221683262 0.13573846044831159 0 0.48090438757152532 0.15676224665651159 0 0.48434883325895478 0.13508169785470789 0 0.46504590221683262 0.13573846044831159 0 0.48434883325895478 0.13508169785470789 0 0.47579387650641652 0.11197520803421961 0 0.5 0.1481865414063902 0 0.48434883325895478 0.13508169785470789 0 0.50000000000000333 0.1227460327281065 0 0.50000000000000333 0.1227460327281065 0 0.47579387650641652 0.11197520803421961 0 0.5 0.09354776212188165 0 0.48434883325895478 0.13508169785470789 0 0.50000000000000333 0.1227460327281065 0 0.47579387650641652 0.11197520803421961 0 0.50000000000000333 0.1227460327281065 0 0.47579387650641652 0.11197520803421961 0 0.47579387650641652 0.11197520803421961 0 0.5 0.09354776212188165 0 0.47080886971017882 0.090592829617900439 0 0.5 0.06434949151565672 0 0.5 0.09354776212188165 0 0.48407356015515751 0.075990794897831532 0 0.5 0.06434949151565672 0 0.48407356015515751 0.075990794897831532 0 0.4771901421352302 0.050099682141575362 0 0.5 0.09354776212188165 0 0.47080886971017882 0.090592829617900439 0 0.48407356015515751 0.075990794897831532 0 0.47080886971017882 0.090592829617900439 0 0.48407356015515751 0.075990794897831532 0 0.46615461500373612 0.06800811920309667 0 0.48407356015515751 0.075990794897831532 0 0.46615461500373612 0.06800811920309667 0 0.4771901421352302 0.050099682141575362 0 0.46615461500373612 0.06800811920309667 0 0.44612543561517221 0.074384456340849447 0 0.45569534231271952 0.053937264861482898 0 0.47080886971017882 0.090592829617900439 0 0.46615461500373612 0.06800811920309667 0 0.44612543561517221 0.074384456340849447 0 0.47080886971017882 0.090592829617900439 0 0.44612543561517221 0.074384456340849447 0 0.45158775301282911 0.10120438334033401 0 0.44612543561517221 0.074384456340849447 0 0.45158775301282911 0.10120438334033401 0 0.42738162951924158 0.090433558646448364 0 0.47579387650641652 0.11197520803421961 0 0.45819787912090298 0.11916032911521129 0 0.45158775301282911 0.10120438334033401 0 0.46504590221683262 0.13573846044831159 0 0.47579387650641652 0.11197520803421961 0 0.45819787912090298 0.11916032911521129 0 0.47579387650641652 0.11197520803421961 0 0.47080886971017882 0.090592829617900439 0 0.45158775301282911 0.10120438334033401 0 0.47579387650641652 0.11197520803421961 0 0.45158775301282911 0.10120438334033401 0 0.45158775301282911 0.10120438334033401 0 0.42738162951924158 0.090433558646448364 0 0.45158775301282911 0.10120438334033401 0 0.4435450462630588 0.11480058369886099 0 0.42699987380289511 0.1070118912153704 0 0.45819787912090298 0.11916032911521129 0 0.45158775301282911 0.10120438334033401 0 0.4435450462630588 0.11480058369886099 0 0.43896933010418282 0.13154634581901031 0 0.45819787912090298 0.11916032911521129 0 0.4435450462630588 0.11480058369886099 0 0.43896933010418282 0.13154634581901031 0 0.42699987380289511 0.1070118912153704 0 0.43896933010418282 0.13154634581901031 0 0.4435450462630588 0.11480058369886099 0 0.42699987380289511 0.1070118912153704 0 0.43896933010418282 0.13154634581901031 0 0.4178134816634631 0.112062621681778 0 0.42699987380289511 0.1070118912153704 0 0.39144185736937359 0.12547822700719599 0 0.41636232693654618 0.13648852878779941 0 0.4178134816634631 0.112062621681778 0 0.4178134816634631 0.112062621681778 0 0.41408102405307312 0.097525243533068184 0 0.39877885286872428 0.1072731574335585 0 0.4178134816634631 0.112062621681778 0 0.41408102405307312 0.097525243533068184 0 0.42699987380289511 0.1070118912153704 0 0.45158775301282911 0.10120438334033401 0 0.42699987380289511 0.1070118912153704 0 0.42738162951924158 0.090433558646448364 0 0.41408102405307312 0.097525243533068184 0 0.42699987380289511 0.1070118912153704 0 0.42738162951924158 0.090433558646448364 0 0.44612543561517221 0.074384456340849447 0 0.41550388570011437 0.066897538848419674 0 0.43622278230483102 0.050449824017648547 0 0.44612543561517221 0.074384456340849447 0 0.42738162951924158 0.090433558646448364 0 0.41550388570011437 0.066897538848419674 0 0.41550388570011437 0.066897538848419674 0 0.41313782624801743 0.083669367432404468 0 0.39478498909539811 0.083345253679190684 0 0.41408102405307312 0.097525243533068184 0 0.41313782624801743 0.083669367432404468 0 0.39478498909539811 0.083345253679190684 0 0.42738162951924158 0.090433558646448364 0 0.41550388570011437 0.066897538848419674 0 0.41313782624801743 0.083669367432404468 0 0.41408102405307312 0.097525243533068184 0 0.42738162951924158 0.090433558646448364 0 0.41313782624801743 0.083669367432404468 0 0.41550388570011437 0.066897538848419674 0 0.39478498909539811 0.083345253679190684 0 0.39708091643663851 0.061200425027350382 0 0.41550388570011437 0.066897538848419674 0 0.39478498909539811 0.083345253679190684 0 0.39478498909539811 0.083345253679190684 0 0.37790170490670638 0.063205605184670555 0 0.39708091643663851 0.061200425027350382 0 0.36472463029980251 0.082326120275194703 0 0.39478498909539811 0.083345253679190684 0 0.37790170490670638 0.063205605184670555 0 0.36472463029980251 0.082326120275194703 0 0.39478498909539811 0.083345253679190684 0 0.38169244657672918 0.097827825900414611 0 0.36144868190829321 0.1080884312464771 0 0.39144185736937359 0.12547822700719599 0 0.38169244657672918 0.097827825900414611 0 0.39144185736937359 0.12547822700719599 0 0.4178134816634631 0.112062621681778 0 0.39144185736937359 0.12547822700719599 0 0.38169244657672918 0.097827825900414611 0 0.39877885286872428 0.1072731574335585 0 0.39144185736937359 0.12547822700719599 0 0.4178134816634631 0.112062621681778 0 0.39877885286872428 0.1072731574335585 0 0.41408102405307312 0.097525243533068184 0 0.39478498909539811 0.083345253679190684 0 0.39877885286872428 0.1072731574335585 0 0.39478498909539811 0.083345253679190684 0 0.38169244657672918 0.097827825900414611 0 0.39877885286872428 0.1072731574335585 0 0.40326687553142471 0.021835348110277319 0 0.38242332751286212 0.021194997605292129 0 0.40126964637129048 0.042377103218813127 0 0.40326687553142471 0.021835348110277319 0 0.39795929288213161 0.0024142414579153911 0 0.38242332751286212 0.021194997605292129 0 0.40326687553142471 0.021835348110277319 0 0.39795929288213161 0.0024142414579153911 0 0.41621535358432032 0.0048469464942716683 0 0.39795929288213161 0.0024142414579153911 0 0.38596381344665681 0.0029401426095767352 0 0.39268916153251843 -0.00083517866344857798 0 0.39795929288213161 0.0024142414579153911 0 0.39742910386485641 -0.0008993112535870193 0 0.39268916153251843 -0.00083517866344857798 0 0.39795929288213161 0.0024142414579153911 0 0.38098303473067507 0.0092994415462710218 0 0.38242332751286212 0.021194997605292129 0 0.39795929288213161 0.0024142414579153911 0 0.38596381344665681 0.0029401426095767352 0 0.38098303473067507 0.0092994415462710218 0 0.39795929288213161 0.0024142414579153911 0 0.38242332751286212 0.021194997605292129 0 0.38596381344665681 0.0029401426095767352 0 0.38098303473067507 0.0092994415462710218 0 0.37964459177568571 -0.0020913856927347149 0 0.37171322382200922 0.0021667819060980629 0 0.38098303473067507 0.0092994415462710218 0 0.37964459177568571 -0.0020913856927347149 0 0.36985279079329769 0.01084781346102812 0 0.38098303473067507 0.0092994415462710218 0 0.38242332751286212 0.021194997605292129 0 0.38242332751286212 0.021194997605292129 0 0.38372640743413278 0.046217715989016257 0 0.40126964637129048 0.042377103218813127 0 0.3668873621435943 0.039975753752670061 0 0.38242332751286212 0.021194997605292129 0 0.38372640743413278 0.046217715989016257 0 0.3668873621435943 0.039975753752670061 0 0.37790170490670638 0.063205605184670555 0 0.38372640743413278 0.046217715989016257 0 0.37790170490670638 0.063205605184670555 0 0.38372640743413278 0.046217715989016257 0 0.39708091643663851 0.061200425027350382 0 0.41550388570011437 0.066897538848419674 0 0.39708091643663851 0.061200425027350382 0 0.40126964637129048 0.042377103218813127 0 0.38372640743413278 0.046217715989016257 0 0.39708091643663851 0.061200425027350382 0 0.40126964637129048 0.042377103218813127 0 0.40326687553142471 0.021835348110277319 0 0.40126964637129048 0.042377103218813127 0 0.41991937479549718 0.041333932446219503 0 0.41550388570011437 0.066897538848419674 0 0.40126964637129048 0.042377103218813127 0 0.41991937479549718 0.041333932446219503 0 0.41550388570011437 0.066897538848419674 0 0.43622278230483102 0.050449824017648547 0 0.41550388570011437 0.066897538848419674 0 0.41991937479549718 0.041333932446219503 0 0.43622278230483102 0.050449824017648547 0 0.41991937479549718 0.041333932446219503 0 0.43622278230483102 0.050449824017648547 0 0.43747143836104552 0.027054988067679579 0 0.41991937479549718 0.041333932446219503 0 0.42194840834365149 0.022103780628284959 0 0.43747143836104552 0.027054988067679579 0 0.42194840834365149 0.022103780628284959 0 0.43747143836104552 0.027054988067679579 0 0.43366692706425769 0.007151105383316936 0 0.40326687553142471 0.021835348110277319 0 0.41991937479549718 0.041333932446219503 0 0.42194840834365149 0.022103780628284959 0 0.40326687553142471 0.021835348110277319 0 0.42194840834365149 0.022103780628284959 0 0.41621535358432032 0.0048469464942716683 0 0.41621535358432032 0.0048469464942716683 0 0.43366692706425769 0.007151105383316936 0 0.42813627571855267 -0.0078651388369397821 0 0.42194840834365149 0.022103780628284959 0 0.41621535358432032 0.0048469464942716683 0 0.43366692706425769 0.007151105383316936 0 0.43366692706425769 0.007151105383316936 0 0.45612945874848809 0.0072891767437300407 0 0.44291034288065401 -0.0057572181368568589 0 0.43747143836104552 0.027054988067679579 0 0.43366692706425769 0.007151105383316936 0 0.45612945874848809 0.0072891767437300407 0 0.43747143836104552 0.027054988067679579 0 0.45612945874848809 0.0072891767437300407 0 0.45694167890954751 0.034002109186877481 0 0.45612945874848809 0.0072891767437300407 0 0.45694167890954751 0.034002109186877481 0 0.47794262682289612 0.020091098566035082 0 0.44612543561517221 0.074384456340849447 0 0.43622278230483102 0.050449824017648547 0 0.45569534231271952 0.053937264861482898 0 0.43622278230483102 0.050449824017648547 0 0.45694167890954751 0.034002109186877481 0 0.43622278230483102 0.050449824017648547 0 0.45694167890954751 0.034002109186877481 0 0.45569534231271952 0.053937264861482898 0 0.43622278230483102 0.050449824017648547 0 0.43747143836104552 0.027054988067679579 0 0.45694167890954751 0.034002109186877481 0 0.45694167890954751 0.034002109186877481 0 0.45569534231271952 0.053937264861482898 0 0.4771901421352302 0.050099682141575362 0 0.46615461500373612 0.06800811920309667 0 0.45569534231271952 0.053937264861482898 0 0.4771901421352302 0.050099682141575362 0 0.45694167890954751 0.034002109186877481 0 0.4771901421352302 0.050099682141575362 0 0.47794262682289612 0.020091098566035082 0 0.4771901421352302 0.050099682141575362 0 0.5 0.03515122090943168 0 0.47794262682289612 0.020091098566035082 0 0.5 0.06434949151565672 0 0.4771901421352302 0.050099682141575362 0 0.5 0.03515122090943168 0 0.45612945874848809 0.0072891767437300407 0 0.47794262682289612 0.020091098566035082 0 0.47645959232495338 -0.0093833077921325492 0 0.5 0.03515122090943168 0 0.47794262682289612 0.020091098566035082 0 0.5 0.0059529503032067499 0 0.47794262682289612 0.020091098566035082 0 0.5 0.0059529503032067499 0 0.47645959232495338 -0.0093833077921325492 0 0.5 0.0059529503032067499 0 0.47645959232495338 -0.0093833077921325492 0 0.50000000000000044 -0.023245320303018169 0 0.47645959232495338 -0.0093833077921325492 0 0.47978542830082649 -0.035044676227961473 0 0.46508383655153779 -0.02610996102192335 0 0.47645959232495338 -0.0093833077921325492 0 0.50000000000000044 -0.023245320303018169 0 0.47978542830082649 -0.035044676227961473 0 0.50000000000000044 -0.023245320303018169 0 0.49656435912740809 -0.043730501202123268 0 0.50000000000000044 -0.023245320303018169 0 0.49656435912740809 -0.043730501202123268 0 0.47978542830082649 -0.035044676227961473 0 0.50000000000000044 -0.023245320303018169 0 0.5 -0.0438437634674953 0 0.49656435912740809 -0.043730501202123268 0 0.49656435912740809 -0.043730501202123268 0 0.48259298517662391 -0.054587535941302723 0 0.47978542830082649 -0.035044676227961473 0 0.49656435912740809 -0.043730501202123268 0 0.4931287182548153 -0.064215682101228341 0 0.5 -0.0438437634674953 0 0.49656435912740809 -0.043730501202123268 0 0.5 -0.064442206631972365 0 0.49656435912740809 -0.043730501202123268 0 0.5 -0.064442206631972365 0 0.4931287182548153 -0.064215682101228341 0 0.49656435912740809 -0.043730501202123268 0 0.48259298517662391 -0.054587535941302723 0 0.4931287182548153 -0.064215682101228341 0 0.48259298517662391 -0.054587535941302723 0 0.46961876203497988 -0.049701851083470458 0 0.47095069809214779 -0.061735526814588507 0 0.46961876203497988 -0.049701851083470458 0 0.47978542830082649 -0.035044676227961473 0 0.46177948429169402 -0.038283915618346008 0 0.48259298517662391 -0.054587535941302723 0 0.46961876203497988 -0.049701851083470458 0 0.47978542830082649 -0.035044676227961473 0 0.47978542830082649 -0.035044676227961473 0 0.46177948429169402 -0.038283915618346008 0 0.46508383655153779 -0.02610996102192335 0 0.46961876203497988 -0.049701851083470458 0 0.46177948429169402 -0.038283915618346008 0 0.45672782921449429 -0.04912110413516594 0 0.46177948429169402 -0.038283915618346008 0 0.45672782921449429 -0.04912110413516594 0 0.45197572726112262 -0.039113053055622973 0 0.46177948429169402 -0.038283915618346008 0 0.45197572726112262 -0.039113053055622973 0 0.45281042455409959 -0.028160641297308081 0 0.46961876203497988 -0.049701851083470458 0 0.47095069809214779 -0.061735526814588507 0 0.46113928485338712 -0.058034614184050343 0 0.46961876203497988 -0.049701851083470458 0 0.46113928485338712 -0.058034614184050343 0 0.45672782921449429 -0.04912110413516594 0 0.46113928485338712 -0.058034614184050343 0 0.44797606594767292 -0.058048870804208591 0 0.46006209219409933 -0.070952297555228361 0 0.46113928485338712 -0.058034614184050343 0 0.45672782921449429 -0.04912110413516594 0 0.44797606594767292 -0.058048870804208591 0 0.44797606594767292 -0.058048870804208591 0 0.43967728928854782 -0.058697181014549293 0 0.43073566209953701 -0.037207692746834942 0 0.44797606594767292 -0.058048870804208591 0 0.43073566209953701 -0.037207692746834942 0 0.45672782921449429 -0.04912110413516594 0 0.44797606594767292 -0.058048870804208591 0 0.44564343862643641 -0.043199305184581149 0 0.44797606594767292 -0.058048870804208591 0 0.44564343862643641 -0.043199305184581149 0 0.43073566209953701 -0.037207692746834942 0 0.45197572726112262 -0.039113053055622973 0 0.44225870577296489 -0.031721020045772187 0 0.45281042455409959 -0.028160641297308081 0 0.44564343862643641 -0.043199305184581149 0 0.45197572726112262 -0.039113053055622973 0 0.44225870577296489 -0.031721020045772187 0 0.45672782921449429 -0.04912110413516594 0 0.44564343862643641 -0.043199305184581149 0 0.45197572726112262 -0.039113053055622973 0 0.44564343862643641 -0.043199305184581149 0 0.44225870577296489 -0.031721020045772187 0 0.43073566209953701 -0.037207692746834942 0 0.44225870577296489 -0.031721020045772187 0 0.44146096763402082 -0.019880331416186791 0 0.43092601446257328 -0.022765096574099222 0 0.44225870577296489 -0.031721020045772187 0 0.45281042455409959 -0.028160641297308081 0 0.44146096763402082 -0.019880331416186791 0 0.45281042455409959 -0.028160641297308081 0 0.44146096763402082 -0.019880331416186791 0 0.45576062297686698 -0.01307078149069606 0 0.45612945874848809 0.0072891767437300407 0 0.44291034288065401 -0.0057572181368568589 0 0.45576062297686698 -0.01307078149069606 0 0.44146096763402082 -0.019880331416186791 0 0.44291034288065401 -0.0057572181368568589 0 0.42813627571855267 -0.0078651388369397821 0 0.44146096763402082 -0.019880331416186791 0 0.44291034288065401 -0.0057572181368568589 0 0.45576062297686698 -0.01307078149069606 0 0.45612945874848809 0.0072891767437300407 0 0.47645959232495338 -0.0093833077921325492 0 0.45576062297686698 -0.01307078149069606 0 0.47645959232495338 -0.0093833077921325492 0 0.45576062297686698 -0.01307078149069606 0 0.46508383655153779 -0.02610996102192335 0 0.46177948429169402 -0.038283915618346008 0 0.45281042455409959 -0.028160641297308081 0 0.46508383655153779 -0.02610996102192335 0 0.45281042455409959 -0.028160641297308081 0 0.45576062297686698 -0.01307078149069606 0 0.46508383655153779 -0.02610996102192335 0 0.47327779786886198 -0.12092666891404261 0 0.4851618443683644 -0.1117185669534331 0 0.48063061135450619 -0.1387362709065327 0 0.47327779786886198 -0.12092666891404261 0 0.4715553263154682 -0.108768489117367 0 0.46339311442042558 -0.11677945349361139 0 0.47327779786886198 -0.12092666891404261 0 0.4851618443683644 -0.1117185669534331 0 0.4715553263154682 -0.108768489117367 0 0.5 -0.1157955659525326 0 0.4851618443683644 -0.1117185669534331 0 0.48063061135450619 -0.1387362709065327 0 0.4851618443683644 -0.1117185669534331 0 0.50000000000000089 -0.08504064979644943 0 0.4896930773822209 -0.084700863000333193 0 0.5 -0.1157955659525326 0 0.4851618443683644 -0.1117185669534331 0 0.50000000000000089 -0.08504064979644943 0 0.4851618443683644 -0.1117185669534331 0 0.4896930773822209 -0.084700863000333193 0 0.4851618443683644 -0.1117185669534331 0 0.47585734130668672 -0.097671985198025099 0 0.4896930773822209 -0.084700863000333193 0 0.47585734130668672 -0.097671985198025099 0 0.46800043218020759 -0.083985724768891545 0 0.46367878293529657 -0.099902830988160884 0 0.4851618443683644 -0.1117185669534331 0 0.4715553263154682 -0.108768489117367 0 0.47585734130668672 -0.097671985198025099 0 0.4715553263154682 -0.108768489117367 0 0.47585734130668672 -0.097671985198025099 0 0.46367878293529657 -0.099902830988160884 0 0.47585734130668672 -0.097671985198025099 0 0.4896930773822209 -0.084700863000333193 0 0.46800043218020759 -0.083985724768891545 0 0.4896930773822209 -0.084700863000333193 0 0.47923992594535031 -0.072417036564991044 0 0.46800043218020759 -0.083985724768891545 0 0.4896930773822209 -0.084700863000333193 0 0.46800043218020759 -0.083985724768891545 0 0.50000000000000089 -0.08504064979644943 0 0.4896930773822209 -0.084700863000333193 0 0.50000000000000089 -0.08504064979644943 0 0.5 -0.064442206631972365 0 0.4931287182548153 -0.064215682101228341 0 0.4896930773822209 -0.084700863000333193 0 0.4931287182548153 -0.064215682101228341 0 0.50000000000000089 -0.08504064979644943 0 0.4896930773822209 -0.084700863000333193 0 0.4931287182548153 -0.064215682101228341 0 0.4896930773822209 -0.084700863000333193 0 0.4931287182548153 -0.064215682101228341 0 0.47923992594535031 -0.072417036564991044 0 0.48259298517662391 -0.054587535941302723 0 0.4931287182548153 -0.064215682101228341 0 0.47923992594535031 -0.072417036564991044 0 0.48259298517662391 -0.054587535941302723 0 0.47095069809214779 -0.061735526814588507 0 0.47923992594535031 -0.072417036564991044 0 0.47095069809214779 -0.061735526814588507 0 0.47923992594535031 -0.072417036564991044 0 0.46006209219409933 -0.070952297555228361 0 0.47923992594535031 -0.072417036564991044 0 0.46006209219409933 -0.070952297555228361 0 0.46800043218020759 -0.083985724768891545 0 0.46006209219409933 -0.070952297555228361 0 0.45022951813110029 -0.074579048179649471 0 0.46800043218020759 -0.083985724768891545 0 0.47095069809214779 -0.061735526814588507 0 0.46113928485338712 -0.058034614184050343 0 0.46006209219409933 -0.070952297555228361 0 0.43967728928854782 -0.058697181014549293 0 0.44124772828564152 -0.07047659669855541 0 0.45022951813110029 -0.074579048179649471 0 0.43967728928854782 -0.058697181014549293 0 0.46006209219409933 -0.070952297555228361 0 0.43967728928854782 -0.058697181014549293 0 0.46006209219409933 -0.070952297555228361 0 0.45022951813110029 -0.074579048179649471 0 0.44797606594767292 -0.058048870804208591 0 0.43967728928854782 -0.058697181014549293 0 0.46006209219409933 -0.070952297555228361 0 0.43967728928854782 -0.058697181014549293 0 0.44124772828564152 -0.07047659669855541 0 0.43691369877112463 -0.065750886024393981 0 0.44097988278896982 -0.076983112467275461 0 0.44124772828564152 -0.07047659669855541 0 0.45022951813110029 -0.074579048179649471 0 0.44097988278896982 -0.076983112467275461 0 0.45022951813110029 -0.074579048179649471 0 0.44630778697819412 -0.08327058653745012 0 0.44097988278896982 -0.076983112467275461 0 0.44630778697819412 -0.08327058653745012 0 0.4379827652445899 -0.085375050122623308 0 0.44630778697819412 -0.08327058653745012 0 0.4379827652445899 -0.085375050122623308 0 0.45287700808233772 -0.093863416306574049 0 0.46800043218020759 -0.083985724768891545 0 0.46367878293529657 -0.099902830988160884 0 0.45287700808233772 -0.093863416306574049 0 0.44630778697819412 -0.08327058653745012 0 0.46800043218020759 -0.083985724768891545 0 0.44630778697819412 -0.08327058653745012 0 0.46800043218020759 -0.083985724768891545 0 0.45287700808233772 -0.093863416306574049 0 0.45022951813110029 -0.074579048179649471 0 0.44630778697819412 -0.08327058653745012 0 0.46800043218020759 -0.083985724768891545 0 0.4715553263154682 -0.108768489117367 0 0.46367878293529657 -0.099902830988160884 0 0.46336527405443101 -0.1083819643601992 0 0.46367878293529657 -0.099902830988160884 0 0.46336527405443101 -0.1083819643601992 0 0.45508969387738751 -0.1081488669369768 0 0.46367878293529657 -0.099902830988160884 0 0.45508969387738751 -0.1081488669369768 0 0.45287700808233772 -0.093863416306574049 0 0.4379827652445899 -0.085375050122623308 0 0.44620258727835121 -0.10249743848534169 0 0.44634108133205258 -0.1109201792693145 0 0.44155739733164118 -0.1215430272924946 0 0.43566017027123438 -0.094897844526199981 0 0.4379827652445899 -0.085375050122623308 0 0.45287700808233772 -0.093863416306574049 0 0.44620258727835121 -0.10249743848534169 0 0.4379827652445899 -0.085375050122623308 0 0.44620258727835121 -0.10249743848534169 0 0.43566017027123438 -0.094897844526199981 0 0.44620258727835121 -0.10249743848534169 0 0.44634108133205258 -0.1109201792693145 0 0.43566017027123438 -0.094897844526199981 0 0.45508969387738751 -0.1081488669369768 0 0.45287700808233772 -0.093863416306574049 0 0.44620258727835121 -0.10249743848534169 0 0.44155739733164118 -0.1215430272924946 0 0.43566017027123438 -0.094897844526199981 0 0.45508969387738751 -0.1081488669369768 0 0.44620258727835121 -0.10249743848534169 0 0.44634108133205258 -0.1109201792693145 0 0.44634108133205258 -0.1109201792693145 0 0.44787025746428388 -0.1197049733623321 0 0.45276450990210748 -0.1180260047280255 0 0.45508969387738751 -0.1081488669369768 0 0.44634108133205258 -0.1109201792693145 0 0.45276450990210748 -0.1180260047280255 0 0.44155739733164118 -0.1215430272924946 0 0.43493031122513681 -0.1072329745905668 0 0.44634108133205258 -0.1109201792693145 0 0.44155739733164118 -0.1215430272924946 0 0.44787025746428388 -0.1197049733623321 0 0.44787025746428388 -0.1197049733623321 0 0.45276450990210748 -0.1180260047280255 0 0.45230690512834848 -0.12781912004790591 0 0.44155739733164118 -0.1215430272924946 0 0.44787025746428388 -0.1197049733623321 0 0.45230690512834848 -0.12781912004790591 0 0.45276450990210748 -0.1180260047280255 0 0.45852276292261668 -0.1235958146492238 0 0.46339311442042558 -0.11677945349361139 0 0.45276450990210748 -0.1180260047280255 0 0.45852276292261668 -0.1235958146492238 0 0.45230690512834848 -0.12781912004790591 0 0.46336527405443101 -0.1083819643601992 0 0.45508969387738751 -0.1081488669369768 0 0.46339311442042558 -0.11677945349361139 0 0.45508969387738751 -0.1081488669369768 0 0.45276450990210748 -0.1180260047280255 0 0.46339311442042558 -0.11677945349361139 0 0.4715553263154682 -0.108768489117367 0 0.46336527405443101 -0.1083819643601992 0 0.46339311442042558 -0.11677945349361139 0 0.47327779786886198 -0.12092666891404261 0 0.46339311442042558 -0.11677945349361139 0 0.46564809288554548 -0.12863056409926921 0 0.45852276292261668 -0.1235958146492238 0 0.46339311442042558 -0.11677945349361139 0 0.46564809288554548 -0.12863056409926921 0 0.40739249555499718 -0.1189769155672836 0 0.41737061461936581 -0.1147109992383066 0 0.41469705803584811 -0.12530176831054421 0 0.40739249555499718 -0.1189769155672836 0 0.40315076589356452 -0.12889937872394999 0 0.41469705803584811 -0.12530176831054421 0 0.40739249555499718 -0.1189769155672836 0 0.41737061461936581 -0.1147109992383066 0 0.40655259483680772 -0.108869164722951 0 0.41737061461936581 -0.1147109992383066 0 0.42401600644171938 -0.12286193192251001 0 0.41469705803584811 -0.12530176831054421 0 0.41737061461936581 -0.1147109992383066 0 0.42401600644171938 -0.12286193192251001 0 0.42750867773713019 -0.11608628668136479 0 0.42401600644171938 -0.12286193192251001 0 0.42966419740269751 -0.12230215386284191 0 0.42750867773713019 -0.11608628668136479 0 0.42966419740269751 -0.12230215386284191 0 0.43595995829762513 -0.1211887926118566 0 0.43003812124509899 -0.13015238112980959 0 0.42966419740269751 -0.12230215386284191 0 0.43595995829762513 -0.1211887926118566 0 0.42750867773713019 -0.11608628668136479 0 0.44155739733164118 -0.1215430272924946 0 0.43595995829762513 -0.1211887926118566 0 0.43493031122513681 -0.1072329745905668 0 0.43595995829762513 -0.1211887926118566 0 0.42750867773713019 -0.11608628668136479 0 0.43493031122513681 -0.1072329745905668 0 0.42750867773713019 -0.11608628668136479 0 0.42482285018649413 -0.1084975853977463 0 0.43493031122513681 -0.1072329745905668 0 0.41737061461936581 -0.1147109992383066 0 0.42750867773713019 -0.11608628668136479 0 0.42482285018649413 -0.1084975853977463 0 0.42482285018649413 -0.1084975853977463 0 0.42639173346136772 -0.10248015081625041 0 0.41791291388946999 -0.1019775156622429 0 0.42482285018649413 -0.1084975853977463 0 0.42639173346136772 -0.10248015081625041 0 0.43493031122513681 -0.1072329745905668 0 0.44155739733164118 -0.1215430272924946 0 0.43493031122513681 -0.1072329745905668 0 0.43566017027123438 -0.094897844526199981 0 0.43493031122513681 -0.1072329745905668 0 0.42830322511863228 -0.09292292188863896 0 0.43493031122513681 -0.1072329745905668 0 0.43566017027123438 -0.094897844526199981 0 0.42830322511863228 -0.09292292188863896 0 0.42639173346136772 -0.10248015081625041 0 0.43493031122513681 -0.1072329745905668 0 0.42830322511863228 -0.09292292188863896 0 0.42639173346136772 -0.10248015081625041 0 0.41791291388946999 -0.1019775156622429 0 0.42830322511863228 -0.09292292188863896 0 0.41791291388946999 -0.1019775156622429 0 0.41724583949484018 -0.090819531034186801 0 0.42830322511863228 -0.09292292188863896 0 0.41737061461936581 -0.1147109992383066 0 0.42482285018649413 -0.1084975853977463 0 0.41791291388946999 -0.1019775156622429 0 0.41791291388946999 -0.1019775156622429 0 0.40655259483680772 -0.108869164722951 0 0.40562573605847518 -0.096236836654232882 0 0.41737061461936581 -0.1147109992383066 0 0.41791291388946999 -0.1019775156622429 0 0.40655259483680772 -0.108869164722951 0 0.41791291388946999 -0.1019775156622429 0 0.41724583949484018 -0.090819531034186801 0 0.40562573605847518 -0.096236836654232882 0 0.41724583949484018 -0.090819531034186801 0 0.40512656371908101 -0.084795647296065757 0 0.40562573605847518 -0.096236836654232882 0 0.41594866777431228 -0.080585545628159047 0 0.41724583949484018 -0.090819531034186801 0 0.40512656371908101 -0.084795647296065757 0 0.41594866777431228 -0.080585545628159047 0 0.40518563113423961 -0.073523386913743494 0 0.40512656371908101 -0.084795647296065757 0 0.41594866777431228 -0.080585545628159047 0 0.42189813957107092 -0.086538359288679978 0 0.42609482589649889 -0.081825438603735104 0 0.41594866777431228 -0.080585545628159047 0 0.41724583949484018 -0.090819531034186801 0 0.42189813957107092 -0.086538359288679978 0 0.41724583949484018 -0.090819531034186801 0 0.42189813957107092 -0.086538359288679978 0 0.42830322511863228 -0.09292292188863896 0 0.42189813957107092 -0.086538359288679978 0 0.42830322511863228 -0.09292292188863896 0 0.42609482589649889 -0.081825438603735104 0 0.4379827652445899 -0.085375050122623308 0 0.43566017027123438 -0.094897844526199981 0 0.42976294321082809 -0.068252661759905103 0 0.43566017027123438 -0.094897844526199981 0 0.42609482589649889 -0.081825438603735104 0 0.42976294321082809 -0.068252661759905103 0 0.43566017027123438 -0.094897844526199981 0 0.42976294321082809 -0.068252661759905103 0 0.43566017027123438 -0.094897844526199981 0 0.42830322511863228 -0.09292292188863896 0 0.42609482589649889 -0.081825438603735104 0 0.42609482589649889 -0.081825438603735104 0 0.42976294321082809 -0.068252661759905103 0 0.41796801823272017 -0.070676300204087161 0 0.44097988278896982 -0.076983112467275461 0 0.4379827652445899 -0.085375050122623308 0 0.42976294321082809 -0.068252661759905103 0 0.4379827652445899 -0.085375050122623308 0 0.42976294321082809 -0.068252661759905103 0 0.44097988278896982 -0.076983112467275461 0 0.44124772828564152 -0.07047659669855541 0 0.42976294321082809 -0.068252661759905103 0 0.44124772828564152 -0.07047659669855541 0 0.43691369877112463 -0.065750886024393981 0 0.42976294321082809 -0.068252661759905103 0 0.42976294321082809 -0.068252661759905103 0 0.41796801823272017 -0.070676300204087161 0 0.41621438906800479 -0.059306037862196508 0 0.41594866777431228 -0.080585545628159047 0 0.42609482589649889 -0.081825438603735104 0 0.41796801823272017 -0.070676300204087161 0 0.41594866777431228 -0.080585545628159047 0 0.41796801823272017 -0.070676300204087161 0 0.40518563113423961 -0.073523386913743494 0 0.41796801823272017 -0.070676300204087161 0 0.41621438906800479 -0.059306037862196508 0 0.40467711810691648 -0.061537056650873008 0 0.41796801823272017 -0.070676300204087161 0 0.40518563113423961 -0.073523386913743494 0 0.40467711810691648 -0.061537056650873008 0 0.40518563113423961 -0.073523386913743494 0 0.3935220011393733 -0.065868734272706175 0 0.40467711810691648 -0.061537056650873008 0 0.40518563113423961 -0.073523386913743494 0 0.39266135238594269 -0.077756916199105797 0 0.3935220011393733 -0.065868734272706175 0 0.39266135238594269 -0.077756916199105797 0 0.3935220011393733 -0.065868734272706175 0 0.38055134365397808 -0.06525711053220154 0 0.38055134365397808 -0.06525711053220154 0 0.38167018139295938 -0.084507878053466129 0 0.36738458512405048 -0.079311980035486354 0 0.39266135238594269 -0.077756916199105797 0 0.38055134365397808 -0.06525711053220154 0 0.38167018139295938 -0.084507878053466129 0 0.39266135238594269 -0.077756916199105797 0 0.38167018139295938 -0.084507878053466129 0 0.39293719163788082 -0.091052190118037696 0 0.38167018139295938 -0.084507878053466129 0 0.37780042569659988 -0.099951078673651078 0 0.36738458512405048 -0.079311980035486354 0 0.38167018139295938 -0.084507878053466129 0 0.39293719163788082 -0.091052190118037696 0 0.37780042569659988 -0.099951078673651078 0 0.39266135238594269 -0.077756916199105797 0 0.39293719163788082 -0.091052190118037696 0 0.40512656371908101 -0.084795647296065757 0 0.40518563113423961 -0.073523386913743494 0 0.39266135238594269 -0.077756916199105797 0 0.40512656371908101 -0.084795647296065757 0 0.39293719163788082 -0.091052190118037696 0 0.40512656371908101 -0.084795647296065757 0 0.40562573605847518 -0.096236836654232882 0 0.40655259483680772 -0.108869164722951 0 0.40562573605847518 -0.096236836654232882 0 0.39418851700177032 -0.10426864708745399 0 0.39293719163788082 -0.091052190118037696 0 0.40562573605847518 -0.096236836654232882 0 0.39418851700177032 -0.10426864708745399 0 0.39293719163788082 -0.091052190118037696 0 0.39418851700177032 -0.10426864708745399 0 0.37780042569659988 -0.099951078673651078 0 0.39418851700177032 -0.10426864708745399 0 0.37780042569659988 -0.099951078673651078 0 0.381933554035225 -0.1137198788022257 0 0.381933554035225 -0.1137198788022257 0 0.36933840742977242 -0.12537698317616569 0 0.38767074651732192 -0.12655120065739819 0 0.381933554035225 -0.1137198788022257 0 0.39725525176712811 -0.1170284970985864 0 0.38767074651732192 -0.12655120065739819 0 0.39725525176712811 -0.1170284970985864 0 0.40315076589356452 -0.12889937872394999 0 0.38767074651732192 -0.12655120065739819 0 0.39418851700177032 -0.10426864708745399 0 0.381933554035225 -0.1137198788022257 0 0.39725525176712811 -0.1170284970985864 0 0.40655259483680772 -0.108869164722951 0 0.39418851700177032 -0.10426864708745399 0 0.39725525176712811 -0.1170284970985864 0 0.40739249555499718 -0.1189769155672836 0 0.40655259483680772 -0.108869164722951 0 0.39725525176712811 -0.1170284970985864 0 0.40739249555499718 -0.1189769155672836 0 0.39725525176712811 -0.1170284970985864 0 0.40315076589356452 -0.12889937872394999 0 0.40673794048682349 -0.02029018312304558 0 0.41349525825140188 -0.016366514689460581 0 0.43073566209953701 -0.037207692746834942 0 0.40673794048682349 -0.02029018312304558 0 0.41349525825140188 -0.016366514689460581 0 0.41621535358432032 0.0048469464942716683 0 0.41349525825140188 -0.016366514689460581 0 0.42813627571855267 -0.0078651388369397821 0 0.39795929288213161 0.0024142414579153911 0 0.41621535358432032 0.0048469464942716683 0 0.41349525825140188 -0.016366514689460581 0 0.41349525825140188 -0.016366514689460581 0 0.42813627571855267 -0.0078651388369397821 0 0.43366692706425769 0.007151105383316936 0 0.44291034288065401 -0.0057572181368568589 0 0.42813627571855267 -0.0078651388369397821 0 0.41349525825140188 -0.016366514689460581 0 0.43092601446257328 -0.022765096574099222 0 0.43073566209953701 -0.037207692746834942 0 0.44146096763402082 -0.019880331416186791 0 0.42813627571855267 -0.0078651388369397821 0 0.43092601446257328 -0.022765096574099222 0 0.41349525825140188 -0.016366514689460581 0 0.42813627571855267 -0.0078651388369397821 0 0.43092601446257328 -0.022765096574099222 0 0.41349525825140188 -0.016366514689460581 0 0.43073566209953701 -0.037207692746834942 0 0.44225870577296489 -0.031721020045772187 0 0.43092601446257328 -0.022765096574099222 0 0.43073566209953701 -0.037207692746834942 0 0.43967728928854782 -0.058697181014549293 0 0.41929248638299582 -0.046442064473870739 0 0.43691369877112463 -0.065750886024393981 0 0.42976294321082809 -0.068252661759905103 0 0.42611319769665318 -0.05176217643866686 0 0.42976294321082809 -0.068252661759905103 0 0.42611319769665318 -0.05176217643866686 0 0.43967728928854782 -0.058697181014549293 0 0.42611319769665318 -0.05176217643866686 0 0.41929248638299582 -0.046442064473870739 0 0.42976294321082809 -0.068252661759905103 0 0.41929248638299582 -0.046442064473870739 0 0.42976294321082809 -0.068252661759905103 0 0.42611319769665318 -0.05176217643866686 0 0.41929248638299582 -0.046442064473870739 0 0.43967728928854782 -0.058697181014549293 0 0.43073566209953701 -0.037207692746834942 0 0.41929248638299582 -0.046442064473870739 0 0.43967728928854782 -0.058697181014549293 0 0.43691369877112463 -0.065750886024393981 0 0.42611319769665318 -0.05176217643866686 0 0.42976294321082809 -0.068252661759905103 0 0.41621438906800479 -0.059306037862196508 0 0.41929248638299582 -0.046442064473870739 0 0.41621438906800479 -0.059306037862196508 0 0.40759156943543662 -0.050117478812453563 0 0.41929248638299582 -0.046442064473870739 0 0.41621438906800479 -0.059306037862196508 0 0.40759156943543662 -0.050117478812453563 0 0.40467711810691648 -0.061537056650873008 0 0.40673794048682349 -0.02029018312304558 0 0.43073566209953701 -0.037207692746834942 0 0.41929248638299582 -0.046442064473870739 0 0.40673794048682349 -0.02029018312304558 0 0.41929248638299582 -0.046442064473870739 0 0.40673794048682349 -0.02029018312304558 0 0.41929248638299582 -0.046442064473870739 0 0.40514436300598289 -0.037936370226025251 0 0.40759156943543662 -0.050117478812453563 0 0.41929248638299582 -0.046442064473870739 0 0.40514436300598289 -0.037936370226025251 0 0.41929248638299582 -0.046442064473870739 0 0.40514436300598289 -0.037936370226025251 0 0.40514436300598289 -0.037936370226025251 0 0.39182246825046629 -0.050005713998878973 0 0.39099623962896929 -0.029430675978181092 0 0.40759156943543662 -0.050117478812453563 0 0.40514436300598289 -0.037936370226025251 0 0.39182246825046629 -0.050005713998878973 0 0.40514436300598289 -0.037936370226025251 0 0.39099623962896929 -0.029430675978181092 0 0.3935220011393733 -0.065868734272706175 0 0.39182246825046629 -0.050005713998878973 0 0.40467711810691648 -0.061537056650873008 0 0.40759156943543662 -0.050117478812453563 0 0.39182246825046629 -0.050005713998878973 0 0.40467711810691648 -0.061537056650873008 0 0.3935220011393733 -0.065868734272706175 0 0.38055134365397808 -0.06525711053220154 0 0.39182246825046629 -0.050005713998878973 0 0.38055134365397808 -0.06525711053220154 0 0.39182246825046629 -0.050005713998878973 0 0.36971651528909127 -0.041786848290459512 0 0.39099623962896929 -0.029430675978181092 0 0.36719633320180012 -0.02882550184664924 0 0.36971651528909127 -0.041786848290459512 0 0.39182246825046629 -0.050005713998878973 0 0.39099623962896929 -0.029430675978181092 0 0.36971651528909127 -0.041786848290459512 0 0.39099623962896929 -0.029430675978181092 0 0.36971651528909127 -0.041786848290459512 0 0.39099623962896929 -0.029430675978181092 0 0.38035445994512612 -0.012605543404780629 0 0.36807500823961531 -0.015650686873850631 0 0.39099623962896929 -0.029430675978181092 0 0.36719633320180012 -0.02882550184664924 0 0.36807500823961531 -0.015650686873850631 0 0.39099623962896929 -0.029430675978181092 0 0.36807500823961531 -0.015650686873850631 0 0.39099623962896929 -0.029430675978181092 0 0.38938007387723911 -0.01407540514711275 0 0.38035445994512612 -0.012605543404780629 0 0.40673794048682349 -0.02029018312304558 0 0.40514436300598289 -0.037936370226025251 0 0.39099623962896929 -0.029430675978181092 0 0.40673794048682349 -0.02029018312304558 0 0.39099623962896929 -0.029430675978181092 0 0.39628887981559341 -0.018365812694376149 0 0.40673794048682349 -0.02029018312304558 0 0.39099623962896929 -0.029430675978181092 0 0.39099623962896929 -0.029430675978181092 0 0.39628887981559341 -0.018365812694376149 0 0.38938007387723911 -0.01407540514711275 0 0.40673794048682349 -0.02029018312304558 0 0.39628887981559341 -0.018365812694376149 0 0.39563931914964529 -0.010358107134252011 0 0.40673794048682349 -0.02029018312304558 0 0.39742910386485641 -0.0008993112535870193 0 0.40673794048682349 -0.02029018312304558 0 0.41349525825140188 -0.016366514689460581 0 0.39742910386485641 -0.0008993112535870193 0 0.39795929288213161 0.0024142414579153911 0 0.41349525825140188 -0.016366514689460581 0 0.40673794048682349 -0.02029018312304558 0 0.39563931914964529 -0.010358107134252011 0 0.39742910386485641 -0.0008993112535870193 0 0.39795929288213161 0.0024142414579153911 0 0.41349525825140188 -0.016366514689460581 0 0.39742910386485641 -0.0008993112535870193 0 0.39563931914964529 -0.010358107134252011 0 0.38874780537613213 -0.0046426160256726554 0 0.38938007387723911 -0.01407540514711275 0 0.39628887981559341 -0.018365812694376149 0 0.39563931914964529 -0.010358107134252011 0 0.38938007387723911 -0.01407540514711275 0 0.39563931914964529 -0.010358107134252011 0 0.39334579209281523 -0.0039883501054753419 0 0.39742910386485641 -0.0008993112535870193 0 0.39563931914964529 -0.010358107134252011 0 0.39334579209281523 -0.0039883501054753419 0 0.38874780537613213 -0.0046426160256726554 0 0.39334579209281523 -0.0039883501054753419 0 0.39742910386485641 -0.0008993112535870193 0 0.39268916153251843 -0.00083517866344857798 0 0.39334579209281523 -0.0039883501054753419 0 0.39268916153251843 -0.00083517866344857798 0 0.38874780537613213 -0.0046426160256726554 0 0.38596381344665681 0.0029401426095767352 0 0.38874780537613213 -0.0046426160256726554 0 0.37964459177568571 -0.0020913856927347149 0 0.38596381344665681 0.0029401426095767352 0 0.39268916153251843 -0.00083517866344857798 0 0.38874780537613213 -0.0046426160256726554 0 0.38874780537613213 -0.0046426160256726554 0 0.38453173274354568 -0.0083537375675751865 0 0.37964459177568571 -0.0020913856927347149 0 0.38938007387723911 -0.01407540514711275 0 0.38453173274354568 -0.0083537375675751865 0 0.38035445994512612 -0.012605543404780629 0 0.38874780537613213 -0.0046426160256726554 0 0.38938007387723911 -0.01407540514711275 0 0.38453173274354568 -0.0083537375675751865 0 0.38453173274354568 -0.0083537375675751865 0 0.38035445994512612 -0.012605543404780629 0 0.37964459177568571 -0.0020913856927347149 0 0.38035445994512612 -0.012605543404780629 0 0.37964459177568571 -0.0020913856927347149 0 0.37090283671530277 -0.0067829923989991816 0 0.37171322382200922 0.0021667819060980629 0 0.37090283671530277 -0.0067829923989991816 0 0.36189309977134992 -0.003702113273154502 0 0.37171322382200922 0.0021667819060980629 0 0.37964459177568571 -0.0020913856927347149 0 0.37090283671530277 -0.0067829923989991816 0 0.38035445994512612 -0.012605543404780629 0 0.37090283671530277 -0.0067829923989991816 0 0.36807500823961531 -0.015650686873850631 0 0.37090283671530277 -0.0067829923989991816 0 0.36165714462364762 -0.011414322498351731 0 0.36807500823961531 -0.015650686873850631 0 0.37090283671530277 -0.0067829923989991816 0 0.36165714462364762 -0.011414322498351731 0 0.36189309977134992 -0.003702113273154502 0 0.36719633320180012 -0.02882550184664924 0 0.36807500823961531 -0.015650686873850631 0 0.35783097190094432 -0.019909428421208231 0 0.36165714462364762 -0.011414322498351731 0 0.36807500823961531 -0.015650686873850631 0 0.35783097190094432 -0.019909428421208231 0 0.36719633320180012 -0.02882550184664924 0 0.35783097190094432 -0.019909428421208231 0 0.35492092597579389 -0.032127951780330309 0 0.34807711029166383 -0.022089854096023692 0 0.35389789175896508 -0.0090310694387353771 0 0.33342517700126117 -0.020248264637551489 0 0.35783097190094432 -0.019909428421208231 0 0.34807711029166383 -0.022089854096023692 0 0.35492092597579389 -0.032127951780330309 0 0.35783097190094432 -0.019909428421208231 0 0.34807711029166383 -0.022089854096023692 0 0.35389789175896508 -0.0090310694387353771 0 0.34807711029166383 -0.022089854096023692 0 0.3408993133286754 -0.033617296415722489 0 0.35492092597579389 -0.032127951780330309 0 0.34956982367224609 0.0034521177527992212 0 0.35389789175896508 -0.0090310694387353771 0 0.34108641477389517 -0.014439855702545809 0 0.34956982367224609 0.0034521177527992212 0 0.34108641477389517 -0.014439855702545809 0 0.34956982367224609 0.0034521177527992212 0 0.36189309977134992 -0.003702113273154502 0 0.34956982367224609 0.0034521177527992212 0 0.36189309977134992 -0.003702113273154502 0 0.35389789175896508 -0.0090310694387353771 0 0.36165714462364762 -0.011414322498351731 0 0.36189309977134992 -0.003702113273154502 0 0.35389789175896508 -0.0090310694387353771 0 0.36165714462364762 -0.011414322498351731 0 0.35783097190094432 -0.019909428421208231 0 0.35389789175896508 -0.0090310694387353771 0 0.34956982367224609 0.0034521177527992212 0 0.33785068458949391 -0.0025643709947998782 0 0.34108641477389517 -0.014439855702545809 0 0.35389789175896508 -0.0090310694387353771 0 0.33342517700126117 -0.020248264637551489 0 0.35389789175896508 -0.0090310694387353771 0 0.34108641477389517 -0.014439855702545809 0 0.33342517700126117 -0.020248264637551489 0 0.33785068458949391 -0.0025643709947998782 0 0.33176594781649732 -0.011320954321497779 0 0.32635125696986839 -0.0033442034079895931 0 0.33176594781649732 -0.011320954321497779 0 0.34108641477389517 -0.014439855702545809 0 0.33342517700126117 -0.020248264637551489 0 0.33785068458949391 -0.0025643709947998782 0 0.33176594781649732 -0.011320954321497779 0 0.34108641477389517 -0.014439855702545809 0 0.34807711029166383 -0.022089854096023692 0 0.33342517700126117 -0.020248264637551489 0 0.3408993133286754 -0.033617296415722489 0 0.33342517700126117 -0.020248264637551489 0 0.32947952598646901 -0.031967934686090348 0 0.3408993133286754 -0.033617296415722489 0 0.33176594781649732 -0.011320954321497779 0 0.33342517700126117 -0.020248264637551489 0 0.32011620574796762 -0.01600807686460215 0 0.33342517700126117 -0.020248264637551489 0 0.32011620574796762 -0.01600807686460215 0 0.31295246224355727 -0.031465459836367622 0 0.33342517700126117 -0.020248264637551489 0 0.31295246224355727 -0.031465459836367622 0 0.33342517700126117 -0.020248264637551489 0 0.31295246224355727 -0.031465459836367622 0 0.32947952598646901 -0.031967934686090348 0 0.32011620574796762 -0.01600807686460215 0 0.31295246224355727 -0.031465459836367622 0 0.30542548794333862 -0.017452862054825831 0 0.32011620574796762 -0.01600807686460215 0 0.32635125696986839 -0.0033442034079895931 0 0.31205986069947189 -0.0049782593706542196 0 0.32011620574796762 -0.01600807686460215 0 0.31205986069947189 -0.0049782593706542196 0 0.30542548794333862 -0.017452862054825831 0 0.31751081809402287 0.0081359636167634714 0 0.32635125696986839 -0.0033442034079895931 0 0.31205986069947189 -0.0049782593706542196 0 0.33176594781649732 -0.011320954321497779 0 0.32011620574796762 -0.01600807686460215 0 0.32635125696986839 -0.0033442034079895931 0 0.31677697458005522 -0.04915936896060609 0 0.33064115137238231 -0.042540717854719808 0 0.32715706660933419 -0.066499192915014688 0 0.31677697458005522 -0.04915936896060609 0 0.32715706660933419 -0.066499192915014688 0 0.30816325296115998 -0.06215994685964054 0 0.31295246224355727 -0.031465459836367622 0 0.33064115137238231 -0.042540717854719808 0 0.32947952598646901 -0.031967934686090348 0 0.31677697458005522 -0.04915936896060609 0 0.31295246224355727 -0.031465459836367622 0 0.33064115137238231 -0.042540717854719808 0 0.33064115137238231 -0.042540717854719808 0 0.3408993133286754 -0.033617296415722489 0 0.34843679094921243 -0.054143020602736493 0 0.33064115137238231 -0.042540717854719808 0 0.32947952598646901 -0.031967934686090348 0 0.3408993133286754 -0.033617296415722489 0 0.33064115137238231 -0.042540717854719808 0 0.34843679094921243 -0.054143020602736493 0 0.32715706660933419 -0.066499192915014688 0 0.34843679094921243 -0.054143020602736493 0 0.32715706660933419 -0.066499192915014688 0 0.34843679094921243 -0.054143020602736493 0 0.36971651528909127 -0.041786848290459512 0 0.34843679094921243 -0.054143020602736493 0 0.35492092597579389 -0.032127951780330309 0 0.36971651528909127 -0.041786848290459512 0 0.3408993133286754 -0.033617296415722489 0 0.34843679094921243 -0.054143020602736493 0 0.35492092597579389 -0.032127951780330309 0 0.36719633320180012 -0.02882550184664924 0 0.35492092597579389 -0.032127951780330309 0 0.36971651528909127 -0.041786848290459512 0 0.38055134365397808 -0.06525711053220154 0 0.36971651528909127 -0.041786848290459512 0 0.36308965869282672 -0.062788454194100674 0 0.34843679094921243 -0.054143020602736493 0 0.36971651528909127 -0.041786848290459512 0 0.36308965869282672 -0.062788454194100674 0 0.36308965869282672 -0.062788454194100674 0 0.36738458512405048 -0.079311980035486354 0 0.34818775727651069 -0.071303775249545481 0 0.38055134365397808 -0.06525711053220154 0 0.36308965869282672 -0.062788454194100674 0 0.36738458512405048 -0.079311980035486354 0 0.37780042569659988 -0.099951078673651078 0 0.36738458512405048 -0.079311980035486354 0 0.35619694286703091 -0.092317504342236692 0 0.35619694286703091 -0.092317504342236692 0 0.34818775727651069 -0.071303775249545481 0 0.33353764742759628 -0.087000238031909344 0 0.36738458512405048 -0.079311980035486354 0 0.35619694286703091 -0.092317504342236692 0 0.34818775727651069 -0.071303775249545481 0 0.34843679094921243 -0.054143020602736493 0 0.36308965869282672 -0.062788454194100674 0 0.34818775727651069 -0.071303775249545481 0 0.381933554035225 -0.1137198788022257 0 0.36451542260587172 -0.1095901093026217 0 0.36933840742977242 -0.12537698317616569 0 0.36451542260587172 -0.1095901093026217 0 0.35490181206500487 -0.1200535065167765 0 0.36933840742977242 -0.12537698317616569 0 0.37780042569659988 -0.099951078673651078 0 0.35619694286703091 -0.092317504342236692 0 0.36451542260587172 -0.1095901093026217 0 0.37780042569659988 -0.099951078673651078 0 0.381933554035225 -0.1137198788022257 0 0.36451542260587172 -0.1095901093026217 0 0.35619694286703091 -0.092317504342236692 0 0.34492326587867028 -0.1071950879427287 0 0.33353764742759628 -0.087000238031909344 0 0.35619694286703091 -0.092317504342236692 0 0.36451542260587172 -0.1095901093026217 0 0.34492326587867028 -0.1071950879427287 0 0.36451542260587172 -0.1095901093026217 0 0.34492326587867028 -0.1071950879427287 0 0.35490181206500487 -0.1200535065167765 0 0.34492326587867028 -0.1071950879427287 0 0.35490181206500487 -0.1200535065167765 0 0.34056824760847199 -0.1224932653972988 0 0.34492326587867028 -0.1071950879427287 0 0.32610515825644759 -0.1048291388253416 0 0.32143394968203309 -0.120366113192308 0 0.34056824760847199 -0.1224932653972988 0 0.32143394968203309 -0.120366113192308 0 0.32804369334856182 -0.12919058244744289 0 0.34492326587867028 -0.1071950879427287 0 0.32143394968203309 -0.120366113192308 0 0.34492326587867028 -0.1071950879427287 0 0.34056824760847199 -0.1224932653972988 0 0.32143394968203309 -0.120366113192308 0 0.34492326587867028 -0.1071950879427287 0 0.32610515825644759 -0.1048291388253416 0 0.33353764742759628 -0.087000238031909344 0 0.3137145187421943 -0.095249373234182172 0 0.32610515825644759 -0.1048291388253416 0 0.33353764742759628 -0.087000238031909344 0 0.3137145187421943 -0.095249373234182172 0 0.31691640955174621 -0.11433488172557919 0 0.3137145187421943 -0.095249373234182172 0 0.32610515825644759 -0.1048291388253416 0 0.31691640955174621 -0.11433488172557919 0 0.32610515825644759 -0.1048291388253416 0 0.31691640955174621 -0.11433488172557919 0 0.32143394968203309 -0.120366113192308 0 0.31691640955174621 -0.11433488172557919 0 0.31822966962249399 -0.1221628301855867 0 0.32143394968203309 -0.120366113192308 0 0.31691640955174621 -0.11433488172557919 0 0.31822966962249399 -0.1221628301855867 0 0.30543849479878632 -0.11934815343831159 0 0.31691640955174621 -0.11433488172557919 0 0.31822966962249399 -0.1221628301855867 0 0.31691640955174621 -0.11433488172557919 0 0.32143394968203309 -0.120366113192308 0 0.31822966962249399 -0.1221628301855867 0 0.32143394968203309 -0.120366113192308 0 0.31822966962249399 -0.1221628301855867 0 0.32143394968203309 -0.120366113192308 0 0.32804369334856182 -0.12919058244744289 0 0.32143394968203309 -0.120366113192308 0 0.32804369334856182 -0.12919058244744289 0 0.34843679094921243 -0.054143020602736493 0 0.34818775727651069 -0.071303775249545481 0 0.32715706660933419 -0.066499192915014688 0 0.34818775727651069 -0.071303775249545481 0 0.32715706660933419 -0.066499192915014688 0 0.34818775727651069 -0.071303775249545481 0 0.33353764742759628 -0.087000238031909344 0 0.32715706660933419 -0.066499192915014688 0 0.3137145187421943 -0.095249373234182172 0 0.33353764742759628 -0.087000238031909344 0 0.31051262793264361 -0.076163864742784998 0 0.32715706660933419 -0.066499192915014688 0 0.30816325296115998 -0.06215994685964054 0 0.32715706660933419 -0.066499192915014688 0 0.31051262793264361 -0.076163864742784998 0 0.33353764742759628 -0.087000238031909344 0 0.32715706660933419 -0.066499192915014688 0 0.31051262793264361 -0.076163864742784998 0 0.32715706660933419 -0.066499192915014688 0 0.31051262793264361 -0.076163864742784998 0 0.30816325296115998 -0.06215994685964054 0 0.29737125428036282 -0.071169503475368587 0 0.31051262793264361 -0.076163864742784998 0 0.30816325296115998 -0.06215994685964054 0 0.31051262793264361 -0.076163864742784998 0 0.30816325296115998 -0.06215994685964054 0 0.29737125428036282 -0.071169503475368587 0 0.30816325296115998 -0.06215994685964054 0 0.29008514284465459 -0.058029898546821321 0 0.29737125428036282 -0.071169503475368587 0 0.31051262793264361 -0.076163864742784998 0 0.29505032062044939 -0.085142126417760727 0 0.3137145187421943 -0.095249373234182172 0 0.31051262793264361 -0.076163864742784998 0 0.30497539680992669 -0.089100749099169985 0 0.3137145187421943 -0.095249373234182172 0 0.31051262793264361 -0.076163864742784998 0 0.29505032062044939 -0.085142126417760727 0 0.30598336508609919 -0.099738504071668954 0 0.30497539680992669 -0.089100749099169985 0 0.29505032062044939 -0.085142126417760727 0 0.30598336508609919 -0.099738504071668954 0 0.31051262793264361 -0.076163864742784998 0 0.29505032062044939 -0.085142126417760727 0 0.31051262793264361 -0.076163864742784998 0 0.30497539680992669 -0.089100749099169985 0 0.29505032062044939 -0.085142126417760727 0 0.29505032062044939 -0.085142126417760727 0 0.28403282853042178 -0.081256171918505843 0 0.27806538261697228 -0.095004510785723514 0 0.29505032062044939 -0.085142126417760727 0 0.27806538261697228 -0.095004510785723514 0 0.29505032062044939 -0.085142126417760727 0 0.28403282853042178 -0.081256171918505843 0 0.28340178253659049 -0.069590514831236155 0 0.29737125428036282 -0.071169503475368587 0 0.28340178253659049 -0.069590514831236155 0 0.29008514284465459 -0.058029898546821321 0 0.29737125428036282 -0.071169503475368587 0 0.29505032062044939 -0.085142126417760727 0 0.28340178253659049 -0.069590514831236155 0 0.29505032062044939 -0.085142126417760727 0 0.28340178253659049 -0.069590514831236155 0 0.30543849479878632 -0.11934815343831159 0 0.29367230878615042 -0.11541589981144861 0 0.2955372147342275 -0.13488703610993949 0 0.31691640955174621 -0.11433488172557919 0 0.30543849479878632 -0.11934815343831159 0 0.30300029895285291 -0.110523822243265 0 0.30543849479878632 -0.11934815343831159 0 0.30300029895285291 -0.110523822243265 0 0.29367230878615042 -0.11541589981144861 0 0.3137145187421943 -0.095249373234182172 0 0.31691640955174621 -0.11433488172557919 0 0.30598336508609919 -0.099738504071668954 0 0.29505032062044939 -0.085142126417760727 0 0.30598336508609919 -0.099738504071668954 0 0.29299091654148463 -0.1037816721693165 0 0.30300029895285291 -0.110523822243265 0 0.30598336508609919 -0.099738504071668954 0 0.29299091654148463 -0.1037816721693165 0 0.31691640955174621 -0.11433488172557919 0 0.30598336508609919 -0.099738504071668954 0 0.31691640955174621 -0.11433488172557919 0 0.30300029895285291 -0.110523822243265 0 0.30598336508609919 -0.099738504071668954 0 0.3137145187421943 -0.095249373234182172 0 0.30497539680992669 -0.089100749099169985 0 0.30598336508609919 -0.099738504071668954 0 0.29299091654148463 -0.1037816721693165 0 0.28233725083992361 -0.1174488725702922 0 0.27806538261697228 -0.095004510785723514 0 0.29505032062044939 -0.085142126417760727 0 0.29299091654148463 -0.1037816721693165 0 0.27806538261697228 -0.095004510785723514 0 0.30300029895285291 -0.110523822243265 0 0.29299091654148463 -0.1037816721693165 0 0.29367230878615042 -0.11541589981144861 0 0.29299091654148463 -0.1037816721693165 0 0.29367230878615042 -0.11541589981144861 0 0.28233725083992361 -0.1174488725702922 0 0.29367230878615042 -0.11541589981144861 0 0.28233725083992361 -0.1174488725702922 0 0.28953897335579448 -0.12691126071163511 0 0.28233725083992361 -0.1174488725702922 0 0.26667556061423242 -0.1195619168005688 0 0.27344703825998012 -0.13305179063506101 0 0.28233725083992361 -0.1174488725702922 0 0.26667556061423242 -0.1195619168005688 0 0.27806538261697228 -0.095004510785723514 0 0.26667556061423242 -0.1195619168005688 0 0.27806538261697228 -0.095004510785723514 0 0.25347137480431198 -0.1092851374296199 0 0.28233725083992361 -0.1174488725702922 0 0.27806538261697228 -0.095004510785723514 0 0.27806538261697228 -0.095004510785723514 0 0.25347137480431198 -0.1092851374296199 0 0.27806538261697228 -0.095004510785723514 0 0.25347137480431198 -0.1092851374296199 0 0.25423757924488499 -0.084574533875597505 0 0.26667556061423242 -0.1195619168005688 0 0.25347137480431198 -0.1092851374296199 0 0.25038660859628642 -0.12916482769145279 0 0.27423697503191358 -0.074890087677792455 0 0.27040856744685648 -0.054775664569861132 0 0.28340178253659049 -0.069590514831236155 0 0.27423697503191358 -0.074890087677792455 0 0.27040856744685648 -0.054775664569861132 0 0.27423697503191358 -0.074890087677792455 0 0.26203643244860381 -0.070150505755945253 0 0.27040856744685648 -0.054775664569861132 0 0.28403282853042178 -0.081256171918505843 0 0.28340178253659049 -0.069590514831236155 0 0.27423697503191358 -0.074890087677792455 0 0.27806538261697228 -0.095004510785723514 0 0.27423697503191358 -0.074890087677792455 0 0.28403282853042178 -0.081256171918505843 0 0.27806538261697228 -0.095004510785723514 0 0.27423697503191358 -0.074890087677792455 0 0.27806538261697228 -0.095004510785723514 0 0.27423697503191358 -0.074890087677792455 0 0.25423757924488499 -0.084574533875597505 0 0.25423757924488499 -0.084574533875597505 0 0.26203643244860381 -0.070150505755945253 0 0.24926260807076001 -0.066361736900529933 0 0.27423697503191358 -0.074890087677792455 0 0.25423757924488499 -0.084574533875597505 0 0.26203643244860381 -0.070150505755945253 0 0.26203643244860381 -0.070150505755945253 0 0.27040856744685648 -0.054775664569861132 0 0.24926260807076001 -0.066361736900529933 0 0.27040856744685648 -0.054775664569861132 0 0.26976247169918549 -0.051381082632593569 0 0.24559753116350999 -0.047866447589777733 0 0.25885758417910643 -0.055620526606733008 0 0.24559753116350999 -0.047866447589777733 0 0.24926260807076001 -0.066361736900529933 0 0.25885758417910643 -0.055620526606733008 0 0.27040856744685648 -0.054775664569861132 0 0.24559753116350999 -0.047866447589777733 0 0.27040856744685648 -0.054775664569861132 0 0.24926260807076001 -0.066361736900529933 0 0.27040856744685648 -0.054775664569861132 0 0.24559753116350999 -0.047866447589777733 0 0.25885758417910643 -0.055620526606733008 0 0.27040856744685648 -0.054775664569861132 0 0.24926260807076001 -0.066361736900529933 0 0.26976247169918549 -0.051381082632593569 0 0.27200703272814952 -0.0538998502340002 0 0.27684712716857318 -0.035869709196996773 0 0.28340178253659049 -0.069590514831236155 0 0.27040856744685648 -0.054775664569861132 0 0.27200703272814952 -0.0538998502340002 0 0.27200703272814952 -0.0538998502340002 0 0.29008514284465459 -0.058029898546821321 0 0.27040856744685648 -0.054775664569861132 0 0.26976247169918549 -0.051381082632593569 0 0.27200703272814952 -0.0538998502340002 0 0.27040856744685648 -0.054775664569861132 0 0.26976247169918549 -0.051381082632593569 0 0.27040856744685648 -0.054775664569861132 0 0.27200703272814952 -0.0538998502340002 0 0.28340178253659049 -0.069590514831236155 0 0.27040856744685648 -0.054775664569861132 0 0.27200703272814952 -0.0538998502340002 0 0.27684712716857318 -0.035869709196996773 0 0.29247974748585331 -0.042682655035183772 0 0.26976247169918549 -0.051381082632593569 0 0.27684712716857318 -0.035869709196996773 0 0.26455964328703802 -0.024045463392746588 0 0.26976247169918549 -0.051381082632593569 0 0.26455964328703802 -0.024045463392746588 0 0.26976247169918549 -0.051381082632593569 0 0.25297361813098018 -0.02896679100252595 0 0.26976247169918549 -0.051381082632593569 0 0.25297361813098018 -0.02896679100252595 0 0.24559753116350999 -0.047866447589777733 0 0.26976247169918549 -0.051381082632593569 0 0.25297361813098018 -0.02896679100252595 0 0.26455964328703802 -0.024045463392746588 0 0.25297361813098018 -0.02896679100252595 0 0.25111446573260982 -0.016114302864572851 0 0.26455964328703802 -0.024045463392746588 0 0.25935681487488282 0.0032901558470991299 0 0.26455964328703802 -0.024045463392746588 0 0.25935681487488282 0.0032901558470991299 0 0.25111446573260982 -0.016114302864572851 0 0.26455964328703802 -0.024045463392746588 0 0.25935681487488282 0.0032901558470991299 0 0.26455964328703802 -0.024045463392746588 0 0.28036173605600218 -0.014577390042185299 0 0.2850598880502595 0.0097200540804723429 0 0.25935681487488282 0.0032901558470991299 0 0.28036173605600218 -0.014577390042185299 0 0.27684712716857318 -0.035869709196996773 0 0.26455964328703802 -0.024045463392746588 0 0.28036173605600218 -0.014577390042185299 0 0.27684712716857318 -0.035869709196996773 0 0.28036173605600218 -0.014577390042185299 0 0.28820518735693967 -0.028264958548733551 0 0.28036173605600218 -0.014577390042185299 0 0.28820518735693967 -0.028264958548733551 0 0.29281476462861011 -0.019002934416186262 0 0.28820518735693967 -0.028264958548733551 0 0.29281476462861011 -0.019002934416186262 0 0.29852256144565997 -0.02919210405311564 0 0.2850598880502595 0.0097200540804723429 0 0.28036173605600218 -0.014577390042185299 0 0.2965674916674631 -0.005892833431666954 0 0.28036173605600218 -0.014577390042185299 0 0.29281476462861011 -0.019002934416186262 0 0.2965674916674631 -0.005892833431666954 0 0.29281476462861011 -0.019002934416186262 0 0.2965674916674631 -0.005892833431666954 0 0.30542548794333862 -0.017452862054825831 0 0.2965674916674631 -0.005892833431666954 0 0.31205986069947189 -0.0049782593706542196 0 0.30542548794333862 -0.017452862054825831 0 0.29281476462861011 -0.019002934416186262 0 0.29852256144565997 -0.02919210405311564 0 0.30542548794333862 -0.017452862054825831 0 0.31295246224355727 -0.031465459836367622 0 0.29852256144565997 -0.02919210405311564 0 0.30542548794333862 -0.017452862054825831 0 0.31295246224355727 -0.031465459836367622 0 0.29852256144565997 -0.02919210405311564 0 0.29247974748585331 -0.042682655035183772 0 0.31295246224355727 -0.031465459836367622 0 0.29247974748585331 -0.042682655035183772 0 0.31677697458005522 -0.04915936896060609 0 0.31295246224355727 -0.031465459836367622 0 0.30497093971384293 -0.04313152733728752 0 0.31295246224355727 -0.031465459836367622 0 0.30497093971384293 -0.04313152733728752 0 0.29247974748585331 -0.042682655035183772 0 0.30497093971384293 -0.04313152733728752 0 0.2984176499965473 -0.051469570822725998 0 0.29247974748585331 -0.042682655035183772 0 0.30816325296115998 -0.06215994685964054 0 0.29008514284465459 -0.058029898546821321 0 0.30497093971384293 -0.04313152733728752 0 0.30816325296115998 -0.06215994685964054 0 0.2984176499965473 -0.051469570822725998 0 0.31677697458005522 -0.04915936896060609 0 0.30497093971384293 -0.04313152733728752 0 0.30816325296115998 -0.06215994685964054 0 0.30497093971384293 -0.04313152733728752 0 0.30816325296115998 -0.06215994685964054 0 0.30816325296115998 -0.06215994685964054 0 0.2984176499965473 -0.051469570822725998 0 0.29008514284465459 -0.058029898546821321 0 0.27200703272814952 -0.0538998502340002 0 0.29008514284465459 -0.058029898546821321 0 0.29247974748585331 -0.042682655035183772 0 0.27200703272814952 -0.0538998502340002 0 0.29247974748585331 -0.042682655035183772 0 0.2984176499965473 -0.051469570822725998 0 0.29008514284465459 -0.058029898546821321 0 0.29247974748585331 -0.042682655035183772 0 0.28340178253659049 -0.069590514831236155 0 0.27200703272814952 -0.0538998502340002 0 0.29008514284465459 -0.058029898546821321 0 0.27684712716857318 -0.035869709196996773 0 0.28820518735693967 -0.028264958548733551 0 0.29247974748585331 -0.042682655035183772 0 0.28820518735693967 -0.028264958548733551 0 0.29852256144565997 -0.02919210405311564 0 0.29247974748585331 -0.042682655035183772 0 0.29344651124225801 -0.21124864191992829 0 0.28899423514754852 -0.2043978099961696 0 0.29918018921418849 -0.20594153729155221 0 0.29344651124225801 -0.21124864191992829 0 0.28438501512909858 -0.21313115730486201 0 0.29117233672752679 -0.2206314192765276 0 0.29344651124225801 -0.21124864191992829 0 0.30297620737443598 -0.21500161218047009 0 0.29117233672752679 -0.2206314192765276 0 0.29344651124225801 -0.21124864191992829 0 0.28438501512909858 -0.21313115730486201 0 0.28899423514754852 -0.2043978099961696 0 0.28438501512909858 -0.21313115730486201 0 0.28899423514754852 -0.2043978099961696 0 0.27807018056412458 -0.20526517326096849 0 0.28899423514754852 -0.2043978099961696 0 0.28520641600381191 -0.19601852277380771 0 0.27807018056412458 -0.20526517326096849 0 0.28899423514754852 -0.2043978099961696 0 0.28520641600381191 -0.19601852277380771 0 0.2917463978119848 -0.195799199109329 0 0.2917463978119848 -0.195799199109329 0 0.29918018921418849 -0.20594153729155221 0 0.2949898324970846 -0.18392543631265501 0 0.28520641600381191 -0.19601852277380771 0 0.28839860824914432 -0.18869399407380349 0 0.28301595160159593 -0.18680151928286051 0 0.28520641600381191 -0.19601852277380771 0 0.28839860824914432 -0.18869399407380349 0 0.2917463978119848 -0.195799199109329 0 0.28839860824914432 -0.18869399407380349 0 0.2917463978119848 -0.195799199109329 0 0.2949898324970846 -0.18392543631265501 0 0.28899423514754852 -0.2043978099961696 0 0.2917463978119848 -0.195799199109329 0 0.29918018921418849 -0.20594153729155221 0 0.30179608408340408 -0.20023472739587261 0 0.29970979430034528 -0.17845216363389491 0 0.30179608408340408 -0.20023472739587261 0 0.29918018921418849 -0.20594153729155221 0 0.2949898324970846 -0.18392543631265501 0 0.29918018921418849 -0.20594153729155221 0 0.2949898324970846 -0.18392543631265501 0 0.30179608408340408 -0.20023472739587261 0 0.30546718165367009 -0.1907533254779212 0 0.29970979430034528 -0.17845216363389491 0 0.30179608408340408 -0.20023472739587261 0 0.2949898324970846 -0.18392543631265501 0 0.29970979430034528 -0.17845216363389491 0 0.30807107595418132 -0.1885318480726953 0 0.30546718165367009 -0.1907533254779212 0 0.30570726771881818 -0.18352400054802859 0 0.30546718165367009 -0.1907533254779212 0 0.30843700451987072 -0.19839762384532941 0 0.31273131650314662 -0.19308994163935581 0 0.30807107595418132 -0.1885318480726953 0 0.31196616365846253 -0.1882694656153909 0 0.31273131650314662 -0.19308994163935581 0 0.30807107595418132 -0.1885318480726953 0 0.30546718165367009 -0.1907533254779212 0 0.31273131650314662 -0.19308994163935581 0 0.30843700451987072 -0.19839762384532941 0 0.31436141584033289 -0.20176043102133009 0 0.31273131650314662 -0.19308994163935581 0 0.30179608408340408 -0.20023472739587261 0 0.30546718165367009 -0.1907533254779212 0 0.30843700451987072 -0.19839762384532941 0 0.30179608408340408 -0.20023472739587261 0 0.30843700451987072 -0.19839762384532941 0 0.3071699256729839 -0.20562968438042489 0 0.30843700451987072 -0.19839762384532941 0 0.3071699256729839 -0.20562968438042489 0 0.31436141584033289 -0.20176043102133009 0 0.3071699256729839 -0.20562968438042489 0 0.30297620737443598 -0.21500161218047009 0 0.31524235038447418 -0.21135002433051969 0 0.3071699256729839 -0.20562968438042489 0 0.31524235038447418 -0.21135002433051969 0 0.31436141584033289 -0.20176043102133009 0 0.30179608408340408 -0.20023472739587261 0 0.3071699256729839 -0.20562968438042489 0 0.29918018921418849 -0.20594153729155221 0 0.29344651124225801 -0.21124864191992829 0 0.29918018921418849 -0.20594153729155221 0 0.30297620737443598 -0.21500161218047009 0 0.3071699256729839 -0.20562968438042489 0 0.29918018921418849 -0.20594153729155221 0 0.30297620737443598 -0.21500161218047009 0 0.30297620737443598 -0.21500161218047009 0 0.31524235038447418 -0.21135002433051969 0 0.31320602035539857 -0.22240085411650501 0 0.30144583056798091 -0.22540632753434461 0 0.29095791185984371 -0.2356923499818982 0 0.31412379042705901 -0.23499273852468669 0 0.30297620737443598 -0.21500161218047009 0 0.30144583056798091 -0.22540632753434461 0 0.31320602035539857 -0.22240085411650501 0 0.30144583056798091 -0.22540632753434461 0 0.31412379042705901 -0.23499273852468669 0 0.31320602035539857 -0.22240085411650501 0 0.30297620737443598 -0.21500161218047009 0 0.30144583056798091 -0.22540632753434461 0 0.29117233672752679 -0.2206314192765276 0 0.31412379042705901 -0.23499273852468669 0 0.31071280805396301 -0.25322095810988843 0 0.29515246101341941 -0.25144823455394449 0 0.29095791185984371 -0.2356923499818982 0 0.31412379042705901 -0.23499273852468669 0 0.29515246101341941 -0.25144823455394449 0 0.29095791185984371 -0.2356923499818982 0 0.27791199290933438 -0.23941071217572971 0 0.29515246101341941 -0.25144823455394449 0 0.30144583056798091 -0.22540632753434461 0 0.29095791185984371 -0.2356923499818982 0 0.29117233672752679 -0.2206314192765276 0 0.29095791185984371 -0.2356923499818982 0 0.29117233672752679 -0.2206314192765276 0 0.27933874570334521 -0.22565628193602191 0 0.29095791185984371 -0.2356923499818982 0 0.27933874570334521 -0.22565628193602191 0 0.27791199290933438 -0.23941071217572971 0 0.28438501512909858 -0.21313115730486201 0 0.29117233672752679 -0.2206314192765276 0 0.27933874570334521 -0.22565628193602191 0 0.27933874570334521 -0.22565628193602191 0 0.27791199290933438 -0.23941071217572971 0 0.26435146501768447 -0.23359666611803381 0 0.27933874570334521 -0.22565628193602191 0 0.26421581656556747 -0.22176688605932171 0 0.26435146501768447 -0.23359666611803381 0 0.27933874570334521 -0.22565628193602191 0 0.26421581656556747 -0.22176688605932171 0 0.27172975065613458 -0.2138359428445504 0 0.27791199290933438 -0.23941071217572971 0 0.26435146501768447 -0.23359666611803381 0 0.26910092132095192 -0.25375690703995157 0 0.27791199290933438 -0.23941071217572971 0 0.29515246101341941 -0.25144823455394449 0 0.26910092132095192 -0.25375690703995157 0 0.25254176980284321 -0.24245692298047161 0 0.26435146501768447 -0.23359666611803381 0 0.26910092132095192 -0.25375690703995157 0 0.25254176980284321 -0.24245692298047161 0 0.25404973924343338 -0.25618606862097643 0 0.24396828193444881 -0.25131377364279722 0 0.25254176980284321 -0.24245692298047161 0 0.26435146501768447 -0.23359666611803381 0 0.25061808270443731 -0.22383476374792011 0 0.26421581656556747 -0.22176688605932171 0 0.25061808270443731 -0.22383476374792011 0 0.25886490064090328 -0.21083623355577349 0 0.26421581656556747 -0.22176688605932171 0 0.26435146501768447 -0.23359666611803381 0 0.25061808270443731 -0.22383476374792011 0 0.25061808270443731 -0.22383476374792011 0 0.25886490064090328 -0.21083623355577349 0 0.24458048830593099 -0.20694120463227139 0 0.25886490064090328 -0.21083623355577349 0 0.25460667917070579 -0.19812350440861901 0 0.24458048830593099 -0.20694120463227139 0 0.26421581656556747 -0.22176688605932171 0 0.25886490064090328 -0.21083623355577349 0 0.27172975065613458 -0.2138359428445504 0 0.25886490064090328 -0.21083623355577349 0 0.27172975065613458 -0.2138359428445504 0 0.2669050420652439 -0.20015853755835031 0 0.27172975065613458 -0.2138359428445504 0 0.27807018056412458 -0.20526517326096849 0 0.2669050420652439 -0.20015853755835031 0 0.28438501512909858 -0.21313115730486201 0 0.27172975065613458 -0.2138359428445504 0 0.27807018056412458 -0.20526517326096849 0 0.28438501512909858 -0.21313115730486201 0 0.27933874570334521 -0.22565628193602191 0 0.27172975065613458 -0.2138359428445504 0 0.28520641600381191 -0.19601852277380771 0 0.27546917874396659 -0.19643075274112951 0 0.28301595160159593 -0.18680151928286051 0 0.27546917874396659 -0.19643075274112951 0 0.27314430081269808 -0.18796119701023009 0 0.28301595160159593 -0.18680151928286051 0 0.27807018056412458 -0.20526517326096849 0 0.27546917874396659 -0.19643075274112951 0 0.2669050420652439 -0.20015853755835031 0 0.28520641600381191 -0.19601852277380771 0 0.27807018056412458 -0.20526517326096849 0 0.27546917874396659 -0.19643075274112951 0 0.2669050420652439 -0.20015853755835031 0 0.27314430081269808 -0.18796119701023009 0 0.25934289229493679 -0.18554747239811101 0 0.27546917874396659 -0.19643075274112951 0 0.2669050420652439 -0.20015853755835031 0 0.27314430081269808 -0.18796119701023009 0 0.2669050420652439 -0.20015853755835031 0 0.25460667917070579 -0.19812350440861901 0 0.25934289229493679 -0.18554747239811101 0 0.25460667917070579 -0.19812350440861901 0 0.25934289229493679 -0.18554747239811101 0 0.23695519764032669 -0.18649711799157889 0 0.25886490064090328 -0.21083623355577349 0 0.2669050420652439 -0.20015853755835031 0 0.25460667917070579 -0.19812350440861901 0 0.25934289229493679 -0.18554747239811101 0 0.26190186637392798 -0.17248459558814541 0 0.26994117677060658 -0.17826584494954309 0 0.25934289229493679 -0.18554747239811101 0 0.26190186637392798 -0.17248459558814541 0 0.24973517137850049 -0.17418223310583419 0 0.25615440679916007 -0.1630088425133232 0 0.24510980772627189 -0.16261656135264829 0 0.24973517137850049 -0.17418223310583419 0 0.26190186637392798 -0.17248459558814541 0 0.25615440679916007 -0.1630088425133232 0 0.24973517137850049 -0.17418223310583419 0 0.25615440679916007 -0.1630088425133232 0 0.2492368802989727 -0.1525917679456707 0 0.24510980772627189 -0.16261656135264829 0 0.25615440679916007 -0.1630088425133232 0 0.26614519673428472 -0.16181837538514199 0 0.26042692582537558 -0.152953099684706 0 0.26190186637392798 -0.17248459558814541 0 0.25615440679916007 -0.1630088425133232 0 0.26614519673428472 -0.16181837538514199 0 0.26190186637392798 -0.17248459558814541 0 0.27249163123675768 -0.16888165298689889 0 0.26614519673428472 -0.16181837538514199 0 0.27249163123675768 -0.16888165298689889 0 0.26614519673428472 -0.16181837538514199 0 0.27533376826973721 -0.16042582164974539 0 0.26614519673428472 -0.16181837538514199 0 0.27533376826973721 -0.16042582164974539 0 0.27087504337173041 -0.1529302470767552 0 0.27533376826973721 -0.16042582164974539 0 0.28037816100858781 -0.15391238448776581 0 0.28165770881765051 -0.16491793959949899 0 0.27249163123675768 -0.16888165298689889 0 0.27997007045433953 -0.17537734074931891 0 0.28165770881765051 -0.16491793959949899 0 0.27249163123675768 -0.16888165298689889 0 0.27533376826973721 -0.16042582164974539 0 0.28165770881765051 -0.16491793959949899 0 0.27249163123675768 -0.16888165298689889 0 0.27997007045433953 -0.17537734074931891 0 0.26994117677060658 -0.17826584494954309 0 0.27314430081269808 -0.18796119701023009 0 0.27997007045433953 -0.17537734074931891 0 0.28301595160159593 -0.18680151928286051 0 0.27314430081269808 -0.18796119701023009 0 0.27997007045433953 -0.17537734074931891 0 0.26994117677060658 -0.17826584494954309 0 0.27314430081269808 -0.18796119701023009 0 0.25934289229493679 -0.18554747239811101 0 0.26994117677060658 -0.17826584494954309 0 0.26190186637392798 -0.17248459558814541 0 0.27249163123675768 -0.16888165298689889 0 0.26994117677060658 -0.17826584494954309 0 0.26667556061423242 -0.1195619168005688 0 0.25038660859628642 -0.12916482769145279 0 0.26234570856792189 -0.13341636169126289 0 0.25038660859628642 -0.12916482769145279 0 0.26234570856792189 -0.13341636169126289 0 0.25552941609067897 -0.1423190848585997 0 0.26234570856792189 -0.13341636169126289 0 0.25552941609067897 -0.1423190848585997 0 0.26653089873354119 -0.1433663157808775 0 0.25552941609067897 -0.1423190848585997 0 0.26042692582537558 -0.152953099684706 0 0.26653089873354119 -0.1433663157808775 0 0.25552941609067897 -0.1423190848585997 0 0.26042692582537558 -0.152953099684706 0 0.2492368802989727 -0.1525917679456707 0 0.25615440679916007 -0.1630088425133232 0 0.26042692582537558 -0.152953099684706 0 0.2492368802989727 -0.1525917679456707 0 0.26042692582537558 -0.152953099684706 0 0.27087504337173041 -0.1529302470767552 0 0.26653089873354119 -0.1433663157808775 0 0.26614519673428472 -0.16181837538514199 0 0.26042692582537558 -0.152953099684706 0 0.27087504337173041 -0.1529302470767552 0 0.27533376826973721 -0.16042582164974539 0 0.27087504337173041 -0.1529302470767552 0 0.28037816100858781 -0.15391238448776581 0 0.27087504337173041 -0.1529302470767552 0 0.28037816100858781 -0.15391238448776581 0 0.27656126028556038 -0.14552731073888051 0 0.28037816100858781 -0.15391238448776581 0 0.27656126028556038 -0.14552731073888051 0 0.28660911906287678 -0.13989323435486059 0 0.27087504337173041 -0.1529302470767552 0 0.27656126028556038 -0.14552731073888051 0 0.26653089873354119 -0.1433663157808775 0 0.27656126028556038 -0.14552731073888051 0 0.26653089873354119 -0.1433663157808775 0 0.27344703825998012 -0.13305179063506101 0 0.28233725083992361 -0.1174488725702922 0 0.27344703825998012 -0.13305179063506101 0 0.28660911906287678 -0.13989323435486059 0 0.26234570856792189 -0.13341636169126289 0 0.26653089873354119 -0.1433663157808775 0 0.27344703825998012 -0.13305179063506101 0 0.27656126028556038 -0.14552731073888051 0 0.27344703825998012 -0.13305179063506101 0 0.28660911906287678 -0.13989323435486059 0 0.26667556061423242 -0.1195619168005688 0 0.26234570856792189 -0.13341636169126289 0 0.27344703825998012 -0.13305179063506101 0 0.29367230878615042 -0.11541589981144861 0 0.2955372147342275 -0.13488703610993949 0 0.29367230878615042 -0.11541589981144861 0 0.28953897335579448 -0.12691126071163511 0 0.2955372147342275 -0.13488703610993949 0 0.28233725083992361 -0.1174488725702922 0 0.28660911906287678 -0.13989323435486059 0 0.28233725083992361 -0.1174488725702922 0 0.28953897335579448 -0.12691126071163511 0 0.28660911906287678 -0.13989323435486059 0 0.28953897335579448 -0.12691126071163511 0 0.28660911906287678 -0.13989323435486059 0 0.2955372147342275 -0.13488703610993949 0 0.28660911906287678 -0.13989323435486059 0 0.2955372147342275 -0.13488703610993949 0 0.2955372147342275 -0.13488703610993949 0 0.29762350451728659 -0.15666959987191709 0 0.28660911906287678 -0.13989323435486059 0 0.29079947577998072 -0.16190933533375779 0 0.28660911906287678 -0.13989323435486059 0 0.29079947577998072 -0.16190933533375779 0 0.29762350451728659 -0.15666959987191709 0 0.28660911906287678 -0.13989323435486059 0 0.2955372147342275 -0.13488703610993949 0 0.29762350451728659 -0.15666959987191709 0 0.28037816100858781 -0.15391238448776581 0 0.28660911906287678 -0.13989323435486059 0 0.29079947577998072 -0.16190933533375779 0 0.27656126028556038 -0.14552731073888051 0 0.28660911906287678 -0.13989323435486059 0 0.2955372147342275 -0.13488703610993949 0 0.30812837300979551 -0.14455484186410991 0 0.29762350451728659 -0.15666959987191709 0 0.30812837300979551 -0.14455484186410991 0 0.30853934051601062 -0.15694153157034099 0 0.31404480893025299 -0.15076614371676 0 0.30812837300979551 -0.14455484186410991 0 0.29762350451728659 -0.15666959987191709 0 0.30853934051601062 -0.15694153157034099 0 0.31822966962249399 -0.1221628301855867 0 0.2955372147342275 -0.13488703610993949 0 0.30812837300979551 -0.14455484186410991 0 0.31822966962249399 -0.1221628301855867 0 0.30543849479878632 -0.11934815343831159 0 0.2955372147342275 -0.13488703610993949 0 0.31822966962249399 -0.1221628301855867 0 0.2955372147342275 -0.13488703610993949 0 0.2949898324970846 -0.18392543631265501 0 0.29079947577998072 -0.16190933533375779 0 0.2949898324970846 -0.18392543631265501 0 0.29079947577998072 -0.16190933533375779 0 0.29970979430034528 -0.17845216363389491 0 0.2949898324970846 -0.18392543631265501 0 0.28717188983063568 -0.17302210845361449 0 0.29079947577998072 -0.16190933533375779 0 0.2949898324970846 -0.18392543631265501 0 0.28703444333124478 -0.18092529289036549 0 0.28717188983063568 -0.17302210845361449 0 0.28839860824914432 -0.18869399407380349 0 0.2949898324970846 -0.18392543631265501 0 0.28703444333124478 -0.18092529289036549 0 0.27997007045433953 -0.17537734074931891 0 0.28703444333124478 -0.18092529289036549 0 0.28301595160159593 -0.18680151928286051 0 0.28839860824914432 -0.18869399407380349 0 0.28703444333124478 -0.18092529289036549 0 0.28301595160159593 -0.18680151928286051 0 0.27997007045433953 -0.17537734074931891 0 0.28703444333124478 -0.18092529289036549 0 0.28717188983063568 -0.17302210845361449 0 0.29079947577998072 -0.16190933533375779 0 0.29762350451728659 -0.15666959987191709 0 0.29970979430034528 -0.17845216363389491 0 0.28717188983063568 -0.17302210845361449 0 0.28165770881765051 -0.16491793959949899 0 0.29079947577998072 -0.16190933533375779 0 0.27997007045433953 -0.17537734074931891 0 0.28717188983063568 -0.17302210845361449 0 0.28165770881765051 -0.16491793959949899 0 0.28037816100858781 -0.15391238448776581 0 0.28165770881765051 -0.16491793959949899 0 0.29079947577998072 -0.16190933533375779 0 0.30416714011673068 -0.16579521667046929 0 0.29762350451728659 -0.15666959987191709 0 0.29970979430034528 -0.17845216363389491 0 0.29762350451728659 -0.15666959987191709 0 0.29970979430034528 -0.17845216363389491 0 0.30416714011673068 -0.16579521667046929 0 0.29762350451728659 -0.15666959987191709 0 0.30853934051601062 -0.15694153157034099 0 0.30853934051601062 -0.15694153157034099 0 0.30824955557672601 -0.16511509115144149 0 0.31320468068968921 -0.16332012370631299 0 0.30416714011673068 -0.16579521667046929 0 0.30853934051601062 -0.15694153157034099 0 0.30824955557672601 -0.16511509115144149 0 0.30416714011673068 -0.16579521667046929 0 0.30671350567328481 -0.17179769712475201 0 0.30824955557672601 -0.16511509115144149 0 0.30824955557672601 -0.16511509115144149 0 0.31328180057510152 -0.170094980977372 0 0.31320468068968921 -0.16332012370631299 0 0.30671350567328481 -0.17179769712475201 0 0.30824955557672601 -0.16511509115144149 0 0.31328180057510152 -0.170094980977372 0 0.30671350567328481 -0.17179769712475201 0 0.31061765874017461 -0.17739364353507719 0 0.31328180057510152 -0.170094980977372 0 0.30671350567328481 -0.17179769712475201 0 0.31061765874017461 -0.17739364353507719 0 0.30568023013732359 -0.17847056343557591 0 0.30416714011673068 -0.16579521667046929 0 0.30671350567328481 -0.17179769712475201 0 0.29970979430034528 -0.17845216363389491 0 0.30671350567328481 -0.17179769712475201 0 0.30568023013732359 -0.17847056343557591 0 0.29970979430034528 -0.17845216363389491 0 0.30546718165367009 -0.1907533254779212 0 0.29970979430034528 -0.17845216363389491 0 0.30570726771881818 -0.18352400054802859 0 0.30568023013732359 -0.17847056343557591 0 0.29970979430034528 -0.17845216363389491 0 0.30570726771881818 -0.18352400054802859 0 0.30807107595418132 -0.1885318480726953 0 0.31196616365846253 -0.1882694656153909 0 0.30570726771881818 -0.18352400054802859 0 0.31061765874017461 -0.17739364353507719 0 0.30568023013732359 -0.17847056343557591 0 0.30570726771881818 -0.18352400054802859 0 0.31061765874017461 -0.17739364353507719 0 0.30570726771881818 -0.18352400054802859 0 0.31312454446662219 -0.1830469320772615 0 0.31196616365846253 -0.1882694656153909 0 0.30570726771881818 -0.18352400054802859 0 0.31312454446662219 -0.1830469320772615 0 0.31974544467475369 -0.17132853880640239 0 0.32994050939219322 -0.19196762527708131 0 0.32544783100097929 -0.1963219592480609 0 0.31829874148889808 -0.18445363716334109 0 0.31974544467475369 -0.17132853880640239 0 0.32544783100097929 -0.1963219592480609 0 0.31312454446662219 -0.1830469320772615 0 0.31829874148889808 -0.18445363716334109 0 0.31554035149596049 -0.18801335652099169 0 0.32603689613562709 -0.16869936024658311 0 0.32994050939219322 -0.19196762527708131 0 0.31974544467475369 -0.17132853880640239 0 0.32544783100097929 -0.1963219592480609 0 0.31196616365846253 -0.1882694656153909 0 0.31312454446662219 -0.1830469320772615 0 0.31554035149596049 -0.18801335652099169 0 0.31974544467475369 -0.17132853880640239 0 0.32603689613562709 -0.16869936024658311 0 0.32994050939219322 -0.19196762527708131 0 0.31312454446662219 -0.1830469320772615 0 0.31829874148889808 -0.18445363716334109 0 0.31529822913221839 -0.17696034432553701 0 0.31829874148889808 -0.18445363716334109 0 0.31529822913221839 -0.17696034432553701 0 0.31974544467475369 -0.17132853880640239 0 0.31061765874017461 -0.17739364353507719 0 0.31312454446662219 -0.1830469320772615 0 0.31529822913221839 -0.17696034432553701 0 0.31061765874017461 -0.17739364353507719 0 0.31529822913221839 -0.17696034432553701 0 0.31328180057510152 -0.170094980977372 0 0.31529822913221839 -0.17696034432553701 0 0.31328180057510152 -0.170094980977372 0 0.31974544467475369 -0.17132853880640239 0 0.31791267849488619 -0.158100745653346 0 0.32603689613562709 -0.16869936024658311 0 0.32213328287906101 -0.1454310952160848 0 0.32603689613562709 -0.16869936024658311 0 0.33077851092374633 -0.15647836663630499 0 0.32213328287906101 -0.1454310952160848 0 0.32603689613562709 -0.16869936024658311 0 0.32213328287906101 -0.1454310952160848 0 0.31328180057510152 -0.170094980977372 0 0.31804002828572142 -0.16634826917906431 0 0.31320468068968921 -0.16332012370631299 0 0.31328180057510152 -0.170094980977372 0 0.31804002828572142 -0.16634826917906431 0 0.31974544467475369 -0.17132853880640239 0 0.31804002828572142 -0.16634826917906431 0 0.31791267849488619 -0.158100745653346 0 0.31320468068968921 -0.16332012370631299 0 0.30853934051601062 -0.15694153157034099 0 0.31791267849488619 -0.158100745653346 0 0.31320468068968921 -0.16332012370631299 0 0.31804002828572142 -0.16634826917906431 0 0.31791267849488619 -0.158100745653346 0 0.32603689613562709 -0.16869936024658311 0 0.31804002828572142 -0.16634826917906431 0 0.31974544467475369 -0.17132853880640239 0 0.32603689613562709 -0.16869936024658311 0 0.32603689613562709 -0.16869936024658311 0 0.33256514201772541 -0.16588324748619601 0 0.33504892164288991 -0.17189481323824221 0 0.33256514201772541 -0.16588324748619601 0 0.33913060940223921 -0.16507706012613799 0 0.33504892164288991 -0.17189481323824221 0 0.33256514201772541 -0.16588324748619601 0 0.33077851092374633 -0.15647836663630499 0 0.33913060940223921 -0.16507706012613799 0 0.32603689613562709 -0.16869936024658311 0 0.33256514201772541 -0.16588324748619601 0 0.33077851092374633 -0.15647836663630499 0 0.33913060940223921 -0.16507706012613799 0 0.34181883386278411 -0.15485541195805619 0 0.35023106898755563 -0.1608861175511474 0 0.33077851092374633 -0.15647836663630499 0 0.33913060940223921 -0.16507706012613799 0 0.34181883386278411 -0.15485541195805619 0 0.33913060940223921 -0.16507706012613799 0 0.34121888947390983 -0.17223561887941699 0 0.34802500456473129 -0.16954005062185101 0 0.33913060940223921 -0.16507706012613799 0 0.34121888947390983 -0.17223561887941699 0 0.33504892164288991 -0.17189481323824221 0 0.32603689613562709 -0.16869936024658311 0 0.33375142177329581 -0.17954791428398659 0 0.32994050939219322 -0.19196762527708131 0 0.34121888947390983 -0.17223561887941699 0 0.33977524284417648 -0.17854031336117579 0 0.33504892164288991 -0.17189481323824221 0 0.33977524284417648 -0.17854031336117579 0 0.33504892164288991 -0.17189481323824221 0 0.33375142177329581 -0.17954791428398659 0 0.34121888947390983 -0.17223561887941699 0 0.33977524284417648 -0.17854031336117579 0 0.34686800317315508 -0.177231357564341 0 0.33977524284417648 -0.17854031336117579 0 0.33795553885159241 -0.18663745929685049 0 0.33375142177329581 -0.17954791428398659 0 0.33977524284417648 -0.17854031336117579 0 0.33795553885159241 -0.18663745929685049 0 0.34389748921919783 -0.1836398822915469 0 0.33977524284417648 -0.17854031336117579 0 0.34389748921919783 -0.1836398822915469 0 0.34686800317315508 -0.177231357564341 0 0.33795553885159241 -0.18663745929685049 0 0.34389748921919783 -0.1836398822915469 0 0.34440588432682973 -0.19098081679465259 0 0.33795553885159241 -0.18663745929685049 0 0.33375142177329581 -0.17954791428398659 0 0.32994050939219322 -0.19196762527708131 0 0.32603689613562709 -0.16869936024658311 0 0.33504892164288991 -0.17189481323824221 0 0.33375142177329581 -0.17954791428398659 0 0.31822966962249399 -0.1221628301855867 0 0.30812837300979551 -0.14455484186410991 0 0.32213328287906101 -0.1454310952160848 0 0.31822966962249399 -0.1221628301855867 0 0.32804369334856182 -0.12919058244744289 0 0.32213328287906101 -0.1454310952160848 0 0.31822966962249399 -0.1221628301855867 0 0.32213328287906101 -0.1454310952160848 0 0.30812837300979551 -0.14455484186410991 0 0.32213328287906101 -0.1454310952160848 0 0.31404480893025299 -0.15076614371676 0 0.30853934051601062 -0.15694153157034099 0 0.31791267849488619 -0.158100745653346 0 0.31404480893025299 -0.15076614371676 0 0.31791267849488619 -0.158100745653346 0 0.32213328287906101 -0.1454310952160848 0 0.31404480893025299 -0.15076614371676 0 0.33077851092374633 -0.15647836663630499 0 0.34181883386278411 -0.15485541195805619 0 0.33652787627133418 -0.1414739758271332 0 0.33077851092374633 -0.15647836663630499 0 0.32213328287906101 -0.1454310952160848 0 0.33652787627133418 -0.1414739758271332 0 0.32804369334856182 -0.12919058244744289 0 0.32213328287906101 -0.1454310952160848 0 0.33652787627133418 -0.1414739758271332 0 0.34056824760847199 -0.1224932653972988 0 0.33652787627133418 -0.1414739758271332 0 0.35380066021137752 -0.133130952836954 0 0.34056824760847199 -0.1224932653972988 0 0.32804369334856182 -0.12919058244744289 0 0.33652787627133418 -0.1414739758271332 0 0.35490181206500487 -0.1200535065167765 0 0.35380066021137752 -0.133130952836954 0 0.36933840742977242 -0.12537698317616569 0 0.35490181206500487 -0.1200535065167765 0 0.34056824760847199 -0.1224932653972988 0 0.35380066021137752 -0.133130952836954 0 0.35380066021137752 -0.133130952836954 0 0.35430491500187983 -0.14913127935118331 0 0.36708523324301251 -0.14006653572946831 0 0.33652787627133418 -0.1414739758271332 0 0.35380066021137752 -0.133130952836954 0 0.35430491500187983 -0.14913127935118331 0 0.34181883386278411 -0.15485541195805619 0 0.33652787627133418 -0.1414739758271332 0 0.35430491500187983 -0.14913127935118331 0 0.34181883386278411 -0.15485541195805619 0 0.35430491500187983 -0.14913127935118331 0 0.35023106898755563 -0.1608861175511474 0 0.35430491500187983 -0.14913127935118331 0 0.36867578007779911 -0.15134633385457991 0 0.36190916452552557 -0.15960242225597651 0 0.36867578007779911 -0.15134633385457991 0 0.37206785749971077 -0.16101989254045621 0 0.37936738043850132 -0.15160285791263661 0 0.36867578007779911 -0.15134633385457991 0 0.37533467357446471 -0.14470738300536351 0 0.37936738043850132 -0.15160285791263661 0 0.36867578007779911 -0.15134633385457991 0 0.36708523324301251 -0.14006653572946831 0 0.37533467357446471 -0.14470738300536351 0 0.35430491500187983 -0.14913127935118331 0 0.36867578007779911 -0.15134633385457991 0 0.36708523324301251 -0.14006653572946831 0 0.35380066021137752 -0.133130952836954 0 0.36708523324301251 -0.14006653572946831 0 0.36933840742977242 -0.12537698317616569 0 0.36708523324301251 -0.14006653572946831 0 0.37927479843875939 -0.13639819909812231 0 0.37533467357446471 -0.14470738300536351 0 0.36708523324301251 -0.14006653572946831 0 0.36933840742977242 -0.12537698317616569 0 0.37927479843875939 -0.13639819909812231 0 0.35696947399903051 -0.17532730465997409 0 0.35132191893788511 -0.18410497557208119 0 0.34686800317315508 -0.177231357564341 0 0.35696947399903051 -0.17532730465997409 0 0.35132191893788511 -0.18410497557208119 0 0.36039825127603292 -0.18320738151080709 0 0.35132191893788511 -0.18410497557208119 0 0.36039825127603292 -0.18320738151080709 0 0.35785985819441329 -0.1892600548686223 0 0.35132191893788511 -0.18410497557208119 0 0.34389748921919783 -0.1836398822915469 0 0.34440588432682973 -0.19098081679465259 0 0.35132191893788511 -0.18410497557208119 0 0.34389748921919783 -0.1836398822915469 0 0.34686800317315508 -0.177231357564341 0 0.35696947399903051 -0.17532730465997409 0 0.34686800317315508 -0.177231357564341 0 0.34802500456473129 -0.16954005062185101 0 0.34121888947390983 -0.17223561887941699 0 0.34686800317315508 -0.177231357564341 0 0.34802500456473129 -0.16954005062185101 0 0.34802500456473129 -0.16954005062185101 0 0.35023106898755563 -0.1608861175511474 0 0.35619788656817392 -0.16711048099367939 0 0.33913060940223921 -0.16507706012613799 0 0.34802500456473129 -0.16954005062185101 0 0.35023106898755563 -0.1608861175511474 0 0.35430491500187983 -0.14913127935118331 0 0.35023106898755563 -0.1608861175511474 0 0.36190916452552557 -0.15960242225597651 0 0.35023106898755563 -0.1608861175511474 0 0.35619788656817392 -0.16711048099367939 0 0.36190916452552557 -0.15960242225597651 0 0.35696947399903051 -0.17532730465997409 0 0.34802500456473129 -0.16954005062185101 0 0.35619788656817392 -0.16711048099367939 0 0.35619788656817392 -0.16711048099367939 0 0.36512584454129859 -0.1686596526250265 0 0.36190916452552557 -0.15960242225597651 0 0.35696947399903051 -0.17532730465997409 0 0.35619788656817392 -0.16711048099367939 0 0.36512584454129859 -0.1686596526250265 0 0.36512584454129859 -0.1686596526250265 0 0.36190916452552557 -0.15960242225597651 0 0.37206785749971077 -0.16101989254045621 0 0.36867578007779911 -0.15134633385457991 0 0.36190916452552557 -0.15960242225597651 0 0.37206785749971077 -0.16101989254045621 0 0.36512584454129859 -0.1686596526250265 0 0.37206785749971077 -0.16101989254045621 0 0.37477023193034043 -0.17018223131065499 0 0.37477023193034043 -0.17018223131065499 0 0.36861784751445359 -0.17962973374099259 0 0.37696722687249701 -0.17810659931479569 0 0.36512584454129859 -0.1686596526250265 0 0.37477023193034043 -0.17018223131065499 0 0.36861784751445359 -0.17962973374099259 0 0.35696947399903051 -0.17532730465997409 0 0.36512584454129859 -0.1686596526250265 0 0.36861784751445359 -0.17962973374099259 0 0.35696947399903051 -0.17532730465997409 0 0.36861784751445359 -0.17962973374099259 0 0.36039825127603292 -0.18320738151080709 0 0.36861784751445359 -0.17962973374099259 0 0.36039825127603292 -0.18320738151080709 0 0.36540661011686171 -0.1898404458983787 0 0.36039825127603292 -0.18320738151080709 0 0.36540661011686171 -0.1898404458983787 0 0.35785985819441329 -0.1892600548686223 0 0.36861784751445359 -0.17962973374099259 0 0.36540661011686171 -0.1898404458983787 0 0.37569440289929701 -0.18908095338766351 0 0.36861784751445359 -0.17962973374099259 0 0.37569440289929701 -0.18908095338766351 0 0.37696722687249701 -0.17810659931479569 0 0.36940420716837608 -0.2025618654341283 0 0.36540661011686171 -0.1898404458983787 0 0.37569440289929701 -0.18908095338766351 0 0.36940420716837608 -0.2025618654341283 0 0.37569440289929701 -0.18908095338766351 0 0.37947720105245142 -0.19891803980197861 0 0.36940420716837608 -0.2025618654341283 0 0.36016713539636008 -0.1979736372311664 0 0.3613708116485192 -0.20854876209755641 0 0.36940420716837608 -0.2025618654341283 0 0.36016713539636008 -0.1979736372311664 0 0.36540661011686171 -0.1898404458983787 0 0.36016713539636008 -0.1979736372311664 0 0.36540661011686171 -0.1898404458983787 0 0.35785985819441329 -0.1892600548686223 0 0.36938575523495981 -0.2129546954157579 0 0.37324002167403708 -0.2233365813548463 0 0.38077987067828128 -0.21132005644263979 0 0.36940420716837608 -0.2025618654341283 0 0.36938575523495981 -0.2129546954157579 0 0.38077987067828128 -0.21132005644263979 0 0.36940420716837608 -0.2025618654341283 0 0.36938575523495981 -0.2129546954157579 0 0.3613708116485192 -0.20854876209755641 0 0.36938575523495981 -0.2129546954157579 0 0.3613708116485192 -0.20854876209755641 0 0.361994713882269 -0.22066574640683001 0 0.3613708116485192 -0.20854876209755641 0 0.34919427722781782 -0.21411079365218549 0 0.361994713882269 -0.22066574640683001 0 0.3613708116485192 -0.20854876209755641 0 0.34919427722781782 -0.21411079365218549 0 0.35475796259121928 -0.20275485681921671 0 0.34919427722781782 -0.21411079365218549 0 0.34634236535730661 -0.20091625680692071 0 0.33934318983444439 -0.20631914095594769 0 0.34919427722781782 -0.21411079365218549 0 0.35475796259121928 -0.20275485681921671 0 0.34634236535730661 -0.20091625680692071 0 0.36016713539636008 -0.1979736372311664 0 0.352203362658772 -0.19487583826909621 0 0.35785985819441329 -0.1892600548686223 0 0.35132191893788511 -0.18410497557208119 0 0.352203362658772 -0.19487583826909621 0 0.35785985819441329 -0.1892600548686223 0 0.36016713539636008 -0.1979736372311664 0 0.3613708116485192 -0.20854876209755641 0 0.35475796259121928 -0.20275485681921671 0 0.36016713539636008 -0.1979736372311664 0 0.352203362658772 -0.19487583826909621 0 0.35475796259121928 -0.20275485681921671 0 0.352203362658772 -0.19487583826909621 0 0.34634236535730661 -0.20091625680692071 0 0.34440588432682973 -0.19098081679465259 0 0.352203362658772 -0.19487583826909621 0 0.35475796259121928 -0.20275485681921671 0 0.34634236535730661 -0.20091625680692071 0 0.35132191893788511 -0.18410497557208119 0 0.352203362658772 -0.19487583826909621 0 0.34440588432682973 -0.19098081679465259 0 0.33795553885159241 -0.18663745929685049 0 0.34440588432682973 -0.19098081679465259 0 0.3385148703964303 -0.19609091051900579 0 0.33795553885159241 -0.18663745929685049 0 0.32994050939219322 -0.19196762527708131 0 0.3385148703964303 -0.19609091051900579 0 0.32994050939219322 -0.19196762527708131 0 0.33310173461621567 -0.1997241639825823 0 0.3385148703964303 -0.19609091051900579 0 0.32994050939219322 -0.19196762527708131 0 0.33310173461621567 -0.1997241639825823 0 0.32544783100097929 -0.1963219592480609 0 0.33310173461621567 -0.1997241639825823 0 0.3385148703964303 -0.19609091051900579 0 0.33934318983444439 -0.20631914095594769 0 0.34634236535730661 -0.20091625680692071 0 0.3385148703964303 -0.19609091051900579 0 0.33934318983444439 -0.20631914095594769 0 0.34634236535730661 -0.20091625680692071 0 0.34440588432682973 -0.19098081679465259 0 0.3385148703964303 -0.19609091051900579 0 0.32544783100097929 -0.1963219592480609 0 0.33115021732720501 -0.2213153796897192 0 0.34919427722781782 -0.21411079365218549 0 0.33934318983444439 -0.20631914095594769 0 0.33115021732720501 -0.2213153796897192 0 0.33310173461621567 -0.1997241639825823 0 0.33934318983444439 -0.20631914095594769 0 0.33115021732720501 -0.2213153796897192 0 0.33310173461621567 -0.1997241639825823 0 0.32544783100097929 -0.1963219592480609 0 0.33115021732720501 -0.2213153796897192 0 0.32125445375639983 -0.20566953596149881 0 0.32544783100097929 -0.1963219592480609 0 0.33115021732720501 -0.2213153796897192 0 0.32125445375639983 -0.20566953596149881 0 0.31524235038447418 -0.21135002433051969 0 0.33115021732720501 -0.2213153796897192 0 0.31524235038447418 -0.21135002433051969 0 0.31320602035539857 -0.22240085411650501 0 0.33115021732720501 -0.2213153796897192 0 0.32125445375639983 -0.20566953596149881 0 0.31524235038447418 -0.21135002433051969 0 0.31436141584033289 -0.20176043102133009 0 0.31436141584033289 -0.20176043102133009 0 0.31867947963578902 -0.19784687875623841 0 0.31273131650314662 -0.19308994163935581 0 0.32125445375639983 -0.20566953596149881 0 0.31436141584033289 -0.20176043102133009 0 0.31867947963578902 -0.19784687875623841 0 0.31196616365846253 -0.1882694656153909 0 0.31273131650314662 -0.19308994163935581 0 0.31554035149596049 -0.18801335652099169 0 0.31273131650314662 -0.19308994163935581 0 0.31554035149596049 -0.18801335652099169 0 0.31894328223227031 -0.19187251659920421 0 0.31829874148889808 -0.18445363716334109 0 0.31554035149596049 -0.18801335652099169 0 0.31894328223227031 -0.19187251659920421 0 0.31867947963578902 -0.19784687875623841 0 0.31273131650314662 -0.19308994163935581 0 0.31894328223227031 -0.19187251659920421 0 0.31829874148889808 -0.18445363716334109 0 0.31894328223227031 -0.19187251659920421 0 0.32544783100097929 -0.1963219592480609 0 0.32125445375639983 -0.20566953596149881 0 0.31867947963578902 -0.19784687875623841 0 0.32544783100097929 -0.1963219592480609 0 0.31867947963578902 -0.19784687875623841 0 0.31894328223227031 -0.19187251659920421 0 0.32544783100097929 -0.1963219592480609 0 0.31412379042705901 -0.23499273852468669 0 0.33685260365343173 -0.2463088001313774 0 0.32654545347095221 -0.25186039630760082 0 0.31412379042705901 -0.23499273852468669 0 0.33685260365343173 -0.2463088001313774 0 0.31412379042705901 -0.23499273852468669 0 0.32654545347095221 -0.25186039630760082 0 0.31071280805396301 -0.25322095810988843 0 0.31412379042705901 -0.23499273852468669 0 0.33115021732720501 -0.2213153796897192 0 0.33685260365343173 -0.2463088001313774 0 0.31412379042705901 -0.23499273852468669 0 0.31320602035539857 -0.22240085411650501 0 0.33115021732720501 -0.2213153796897192 0 0.33115021732720501 -0.2213153796897192 0 0.33685260365343173 -0.2463088001313774 0 0.33115021732720501 -0.2213153796897192 0 0.33685260365343173 -0.2463088001313774 0 0.34804623417465941 -0.231915223107199 0 0.34919427722781782 -0.21411079365218549 0 0.33115021732720501 -0.2213153796897192 0 0.34804623417465941 -0.231915223107199 0 0.33685260365343173 -0.2463088001313774 0 0.33944546394251268 -0.24759971516845311 0 0.34804623417465941 -0.231915223107199 0 0.33944546394251268 -0.24759971516845311 0 0.34804623417465941 -0.231915223107199 0 0.33685260365343173 -0.2463088001313774 0 0.32654545347095221 -0.25186039630760082 0 0.33782242653950922 -0.25055951023045853 0 0.33685260365343173 -0.2463088001313774 0 0.33782242653950922 -0.25055951023045853 0 0.33685260365343173 -0.2463088001313774 0 0.33944546394251268 -0.24759971516845311 0 0.33782242653950922 -0.25055951023045853 0 0.33685260365343173 -0.2463088001313774 0 0.33944546394251268 -0.24759971516845311 0 0.33944546394251268 -0.24759971516845311 0 0.33782242653950922 -0.25055951023045853 0 0.33944546394251268 -0.24759971516845311 0 0.34930020236879228 -0.24140354895737459 0 0.34804623417465941 -0.231915223107199 0 0.33944546394251268 -0.24759971516845311 0 0.34930020236879228 -0.24140354895737459 0 0.35665706999084779 -0.24683748449447171 0 0.34930020236879228 -0.24140354895737459 0 0.35665706999084779 -0.24683748449447171 0 0.36337947908745982 -0.2351605420419412 0 0.34930020236879228 -0.24140354895737459 0 0.34804623417465941 -0.231915223107199 0 0.36337947908745982 -0.2351605420419412 0 0.34919427722781782 -0.21411079365218549 0 0.34804623417465941 -0.231915223107199 0 0.361994713882269 -0.22066574640683001 0 0.34804623417465941 -0.231915223107199 0 0.361994713882269 -0.22066574640683001 0 0.36337947908745982 -0.2351605420419412 0 0.37324002167403708 -0.2233365813548463 0 0.36337947908745982 -0.2351605420419412 0 0.37903636979621641 -0.23424517283508089 0 0.361994713882269 -0.22066574640683001 0 0.37324002167403708 -0.2233365813548463 0 0.36337947908745982 -0.2351605420419412 0 0.36938575523495981 -0.2129546954157579 0 0.361994713882269 -0.22066574640683001 0 0.37324002167403708 -0.2233365813548463 0 0.36337947908745982 -0.2351605420419412 0 0.37672301458721702 -0.24879166597254401 0 0.37903636979621641 -0.23424517283508089 0 0.35665706999084779 -0.24683748449447171 0 0.36337947908745982 -0.2351605420419412 0 0.37672301458721702 -0.24879166597254401 0 0.37672301458721702 -0.24879166597254401 0 0.3973952125896163 -0.24379175872089739 0 0.37903636979621641 -0.23424517283508089 0 0.3973952125896163 -0.24379175872089739 0 0.38486394136503671 -0.22567327498682799 0 0.37903636979621641 -0.23424517283508089 0 0.39372908096371623 -0.2173323402378867 0 0.40572550678857422 -0.21443440553658449 0 0.41361157874586418 -0.22656373092425211 0 0.3973952125896163 -0.24379175872089739 0 0.39372908096371623 -0.2173323402378867 0 0.41361157874586418 -0.22656373092425211 0 0.3973952125896163 -0.24379175872089739 0 0.38486394136503671 -0.22567327498682799 0 0.39372908096371623 -0.2173323402378867 0 0.3973952125896163 -0.24379175872089739 0 0.39372908096371623 -0.2173323402378867 0 0.39372908096371623 -0.2173323402378867 0 0.41361157874586418 -0.22656373092425211 0 0.37324002167403708 -0.2233365813548463 0 0.38486394136503671 -0.22567327498682799 0 0.37903636979621641 -0.23424517283508089 0 0.37324002167403708 -0.2233365813548463 0 0.38486394136503671 -0.22567327498682799 0 0.38077987067828128 -0.21132005644263979 0 0.38077987067828128 -0.21132005644263979 0 0.37947720105245142 -0.19891803980197861 0 0.38617757298634259 -0.20138970358339589 0 0.36940420716837608 -0.2025618654341283 0 0.38077987067828128 -0.21132005644263979 0 0.37947720105245142 -0.19891803980197861 0 0.38077987067828128 -0.21132005644263979 0 0.39001345001057142 -0.21067327489458379 0 0.39100278093874141 -0.2061220412469372 0 0.38077987067828128 -0.21132005644263979 0 0.38617757298634259 -0.20138970358339589 0 0.39100278093874141 -0.2061220412469372 0 0.38077987067828128 -0.21132005644263979 0 0.39001345001057142 -0.21067327489458379 0 0.39339308864599482 -0.21490739693282221 0 0.38077987067828128 -0.21132005644263979 0 0.39339308864599482 -0.21490739693282221 0 0.39372908096371623 -0.2173323402378867 0 0.38077987067828128 -0.21132005644263979 0 0.39372908096371623 -0.2173323402378867 0 0.38486394136503671 -0.22567327498682799 0 0.38077987067828128 -0.21132005644263979 0 0.39372908096371623 -0.2173323402378867 0 0.37569440289929701 -0.18908095338766351 0 0.38549636990362302 -0.19215003702582109 0 0.38530182081399911 -0.18137950340613079 0 0.37569440289929701 -0.18908095338766351 0 0.37947720105245142 -0.19891803980197861 0 0.38549636990362302 -0.19215003702582109 0 0.38617757298634259 -0.20138970358339589 0 0.38549636990362302 -0.19215003702582109 0 0.39322689945600398 -0.1975896843530687 0 0.37947720105245142 -0.19891803980197861 0 0.38617757298634259 -0.20138970358339589 0 0.38549636990362302 -0.19215003702582109 0 0.38617757298634259 -0.20138970358339589 0 0.39322689945600398 -0.1975896843530687 0 0.39100278093874141 -0.2061220412469372 0 0.38549636990362302 -0.19215003702582109 0 0.39278796046266617 -0.18906637912490321 0 0.39322689945600398 -0.1975896843530687 0 0.38549636990362302 -0.19215003702582109 0 0.39278796046266617 -0.18906637912490321 0 0.38530182081399911 -0.18137950340613079 0 0.39278796046266617 -0.18906637912490321 0 0.39322689945600398 -0.1975896843530687 0 0.40348603252509929 -0.19301792898597869 0 0.39278796046266617 -0.18906637912490321 0 0.40348603252509929 -0.19301792898597869 0 0.39642867961460559 -0.18119474185351669 0 0.39322689945600398 -0.1975896843530687 0 0.39100278093874141 -0.2061220412469372 0 0.39958065429805589 -0.20563543714296259 0 0.40348603252509929 -0.19301792898597869 0 0.39958065429805589 -0.20563543714296259 0 0.41304780708889022 -0.20596197442129649 0 0.39322689945600398 -0.1975896843530687 0 0.40348603252509929 -0.19301792898597869 0 0.39958065429805589 -0.20563543714296259 0 0.39339308864599482 -0.21490739693282221 0 0.3948780597792681 -0.2103436049559361 0 0.39847564232486399 -0.21323379251010449 0 0.39339308864599482 -0.21490739693282221 0 0.39372908096371623 -0.2173323402378867 0 0.39847564232486399 -0.21323379251010449 0 0.39339308864599482 -0.21490739693282221 0 0.39372908096371623 -0.2173323402378867 0 0.39001345001057142 -0.21067327489458379 0 0.39339308864599482 -0.21490739693282221 0 0.3948780597792681 -0.2103436049559361 0 0.39100278093874141 -0.2061220412469372 0 0.3948780597792681 -0.2103436049559361 0 0.39958065429805589 -0.20563543714296259 0 0.39001345001057142 -0.21067327489458379 0 0.39100278093874141 -0.2061220412469372 0 0.3948780597792681 -0.2103436049559361 0 0.3948780597792681 -0.2103436049559361 0 0.39958065429805589 -0.20563543714296259 0 0.39847564232486399 -0.21323379251010449 0 0.39958065429805589 -0.20563543714296259 0 0.40572550678857422 -0.21443440553658449 0 0.41304780708889022 -0.20596197442129649 0 0.39958065429805589 -0.20563543714296259 0 0.40572550678857422 -0.21443440553658449 0 0.39847564232486399 -0.21323379251010449 0 0.39372908096371623 -0.2173323402378867 0 0.40572550678857422 -0.21443440553658449 0 0.39847564232486399 -0.21323379251010449 0 0.40572550678857422 -0.21443440553658449 0 0.41304780708889022 -0.20596197442129649 0 0.41361157874586418 -0.22656373092425211 0 0.41304780708889022 -0.20596197442129649 0 0.43411054697041851 -0.20714353936092289 0 0.41361157874586418 -0.22656373092425211 0 0.40348603252509929 -0.19301792898597869 0 0.41304780708889022 -0.20596197442129649 0 0.41843954575400999 -0.19013032164706831 0 0.41304780708889022 -0.20596197442129649 0 0.41843954575400999 -0.19013032164706831 0 0.43411054697041851 -0.20714353936092289 0 0.40348603252509929 -0.19301792898597869 0 0.41843954575400999 -0.19013032164706831 0 0.40755478917084742 -0.18168949263246251 0 0.43411054697041851 -0.20714353936092289 0 0.43472701741282072 -0.178491957111234 0 0.41843954575400999 -0.19013032164706831 0 0.43411054697041851 -0.20714353936092289 0 0.43472701741282072 -0.178491957111234 0 0.43411054697041851 -0.20714353936092289 0 0.43349407652801503 -0.23579512161061181 0 0.41361157874586418 -0.22656373092425211 0 0.43411054697041851 -0.20714353936092289 0 0.43349407652801503 -0.23579512161061181 0 0.43349407652801503 -0.23579512161061181 0 0.41361157874586418 -0.22656373092425211 0 0.43349407652801503 -0.23579512161061181 0 0.42060738714082829 -0.24998755682490831 0 0.41361157874586418 -0.22656373092425211 0 0.43349407652801503 -0.23579512161061181 0 0.42060738714082829 -0.24998755682490831 0 0.4330183628140124 -0.257904779538356 0 0.43349407652801503 -0.23579512161061181 0 0.4330183628140124 -0.257904779538356 0 0.43349407652801503 -0.23579512161061181 0 0.44419334338856431 -0.25303554784386001 0 0.4330183628140124 -0.257904779538356 0 0.3973952125896163 -0.24379175872089739 0 0.4087190745768125 -0.2497113282607418 0 0.41361157874586418 -0.22656373092425211 0 0.42060738714082829 -0.24998755682490831 0 0.4087190745768125 -0.2497113282607418 0 0.41361157874586418 -0.22656373092425211 0 0.40315076589356452 -0.12889937872394999 0 0.39235665506414469 -0.138376061662455 0 0.40558629314776301 -0.1443196897469827 0 0.40315076589356452 -0.12889937872394999 0 0.39235665506414469 -0.138376061662455 0 0.38767074651732192 -0.12655120065739819 0 0.36933840742977242 -0.12537698317616569 0 0.38767074651732192 -0.12655120065739819 0 0.37927479843875939 -0.13639819909812231 0 0.39235665506414469 -0.138376061662455 0 0.37927479843875939 -0.13639819909812231 0 0.38481243903985979 -0.14512539508184119 0 0.39235665506414469 -0.138376061662455 0 0.38767074651732192 -0.12655120065739819 0 0.37927479843875939 -0.13639819909812231 0 0.39235665506414469 -0.138376061662455 0 0.38481243903985979 -0.14512539508184119 0 0.39470292202027579 -0.14971752780875169 0 0.37927479843875939 -0.13639819909812231 0 0.38481243903985979 -0.14512539508184119 0 0.37533467357446471 -0.14470738300536351 0 0.38481243903985979 -0.14512539508184119 0 0.37533467357446471 -0.14470738300536351 0 0.37936738043850132 -0.15160285791263661 0 0.38481243903985979 -0.14512539508184119 0 0.38778198957037502 -0.15584137474660351 0 0.39470292202027579 -0.14971752780875169 0 0.38481243903985979 -0.14512539508184119 0 0.37936738043850132 -0.15160285791263661 0 0.38778198957037502 -0.15584137474660351 0 0.38778198957037502 -0.15584137474660351 0 0.39470292202027579 -0.14971752780875169 0 0.3955348941036812 -0.15966688315301569 0 0.39470292202027579 -0.14971752780875169 0 0.40362721187313921 -0.15729492227249511 0 0.3955348941036812 -0.15966688315301569 0 0.39235665506414469 -0.138376061662455 0 0.39470292202027579 -0.14971752780875169 0 0.40558629314776301 -0.1443196897469827 0 0.39470292202027579 -0.14971752780875169 0 0.40558629314776301 -0.1443196897469827 0 0.40362721187313921 -0.15729492227249511 0 0.40362721187313921 -0.15729492227249511 0 0.40202970432080593 -0.1695952493269148 0 0.3955348941036812 -0.15966688315301569 0 0.40202970432080593 -0.1695952493269148 0 0.39102987554714458 -0.16641284232356929 0 0.39070986731134899 -0.17459663710282389 0 0.40202970432080593 -0.1695952493269148 0 0.39102987554714458 -0.16641284232356929 0 0.3955348941036812 -0.15966688315301569 0 0.38778198957037502 -0.15584137474660351 0 0.39102987554714458 -0.16641284232356929 0 0.3955348941036812 -0.15966688315301569 0 0.38778198957037502 -0.15584137474660351 0 0.39102987554714458 -0.16641284232356929 0 0.38124442627278782 -0.1625227421998067 0 0.37936738043850132 -0.15160285791263661 0 0.38778198957037502 -0.15584137474660351 0 0.38124442627278782 -0.1625227421998067 0 0.37206785749971077 -0.16101989254045621 0 0.37936738043850132 -0.15160285791263661 0 0.38124442627278782 -0.1625227421998067 0 0.37206785749971077 -0.16101989254045621 0 0.37477023193034043 -0.17018223131065499 0 0.38124442627278782 -0.1625227421998067 0 0.37477023193034043 -0.17018223131065499 0 0.38124442627278782 -0.1625227421998067 0 0.38333724145801962 -0.17220009260963021 0 0.39102987554714458 -0.16641284232356929 0 0.38124442627278782 -0.1625227421998067 0 0.38333724145801962 -0.17220009260963021 0 0.39102987554714458 -0.16641284232356929 0 0.38333724145801962 -0.17220009260963021 0 0.39070986731134899 -0.17459663710282389 0 0.38333724145801962 -0.17220009260963021 0 0.38530182081399911 -0.18137950340613079 0 0.39070986731134899 -0.17459663710282389 0 0.38333724145801962 -0.17220009260963021 0 0.37696722687249701 -0.17810659931479569 0 0.38530182081399911 -0.18137950340613079 0 0.37477023193034043 -0.17018223131065499 0 0.38333724145801962 -0.17220009260963021 0 0.37696722687249701 -0.17810659931479569 0 0.37569440289929701 -0.18908095338766351 0 0.37696722687249701 -0.17810659931479569 0 0.38530182081399911 -0.18137950340613079 0 0.39278796046266617 -0.18906637912490321 0 0.38530182081399911 -0.18137950340613079 0 0.39642867961460559 -0.18119474185351669 0 0.38530182081399911 -0.18137950340613079 0 0.39642867961460559 -0.18119474185351669 0 0.39070986731134899 -0.17459663710282389 0 0.40202970432080593 -0.1695952493269148 0 0.39642867961460559 -0.18119474185351669 0 0.39070986731134899 -0.17459663710282389 0 0.40202970432080593 -0.1695952493269148 0 0.39642867961460559 -0.18119474185351669 0 0.40755478917084742 -0.18168949263246251 0 0.40348603252509929 -0.19301792898597869 0 0.39642867961460559 -0.18119474185351669 0 0.40755478917084742 -0.18168949263246251 0 0.40202970432080593 -0.1695952493269148 0 0.40755478917084742 -0.18168949263246251 0 0.41803217907225121 -0.1744448533921969 0 0.41843954575400999 -0.19013032164706831 0 0.40755478917084742 -0.18168949263246251 0 0.41803217907225121 -0.1744448533921969 0 0.41843954575400999 -0.19013032164706831 0 0.41803217907225121 -0.1744448533921969 0 0.43472701741282072 -0.178491957111234 0 0.41803217907225121 -0.1744448533921969 0 0.43472701741282072 -0.178491957111234 0 0.42466005243914351 -0.16341965727025981 0 0.43472701741282072 -0.178491957111234 0 0.42466005243914351 -0.16341965727025981 0 0.43534348785522292 -0.14984037486154531 0 0.43472701741282072 -0.178491957111234 0 0.43534348785522292 -0.14984037486154531 0 0.42466005243914351 -0.16341965727025981 0 0.41357801116924608 -0.16162353051233549 0 0.42071490682801171 -0.15224602451033309 0 0.40202970432080593 -0.1695952493269148 0 0.41803217907225121 -0.1744448533921969 0 0.41357801116924608 -0.16162353051233549 0 0.41803217907225121 -0.1744448533921969 0 0.42466005243914351 -0.16341965727025981 0 0.41357801116924608 -0.16162353051233549 0 0.40362721187313921 -0.15729492227249511 0 0.41357801116924608 -0.16162353051233549 0 0.41153058143579252 -0.15188377239260459 0 0.40362721187313921 -0.15729492227249511 0 0.40202970432080593 -0.1695952493269148 0 0.41357801116924608 -0.16162353051233549 0 0.40558629314776301 -0.1443196897469827 0 0.40362721187313921 -0.15729492227249511 0 0.41153058143579252 -0.15188377239260459 0 0.40558629314776301 -0.1443196897469827 0 0.41153058143579252 -0.15188377239260459 0 0.4146347222802339 -0.14492349157750081 0 0.40558629314776301 -0.1443196897469827 0 0.4146347222802339 -0.14492349157750081 0 0.41386404347115252 -0.13602350937805521 0 0.4146347222802339 -0.14492349157750081 0 0.42071490682801171 -0.15224602451033309 0 0.42245426275731351 -0.14212205517277671 0 0.4146347222802339 -0.14492349157750081 0 0.42245426275731351 -0.14212205517277671 0 0.41386404347115252 -0.13602350937805521 0 0.41153058143579252 -0.15188377239260459 0 0.4146347222802339 -0.14492349157750081 0 0.42071490682801171 -0.15224602451033309 0 0.41357801116924608 -0.16162353051233549 0 0.41153058143579252 -0.15188377239260459 0 0.42071490682801171 -0.15224602451033309 0 0.42466005243914351 -0.16341965727025981 0 0.42071490682801171 -0.15224602451033309 0 0.43534348785522292 -0.14984037486154531 0 0.42071490682801171 -0.15224602451033309 0 0.43534348785522292 -0.14984037486154531 0 0.42245426275731351 -0.14212205517277671 0 0.43534348785522292 -0.14984037486154531 0 0.42245426275731351 -0.14212205517277671 0 0.42804835664617058 -0.1379993207003534 0 0.43534348785522292 -0.14984037486154531 0 0.42804835664617058 -0.1379993207003534 0 0.43003812124509899 -0.13015238112980959 0 0.43595995829762513 -0.1211887926118566 0 0.43534348785522292 -0.14984037486154531 0 0.43003812124509899 -0.13015238112980959 0 0.42245426275731351 -0.14212205517277671 0 0.42804835664617058 -0.1379993207003534 0 0.42260829758252172 -0.13268840666549631 0 0.42804835664617058 -0.1379993207003534 0 0.43003812124509899 -0.13015238112980959 0 0.42260829758252172 -0.13268840666549631 0 0.43595995829762513 -0.1211887926118566 0 0.43534348785522292 -0.14984037486154531 0 0.42401600644171938 -0.12286193192251001 0 0.42966419740269751 -0.12230215386284191 0 0.43003812124509899 -0.13015238112980959 0 0.42401600644171938 -0.12286193192251001 0 0.43003812124509899 -0.13015238112980959 0 0.42260829758252172 -0.13268840666549631 0 0.42260829758252172 -0.13268840666549631 0 0.41469705803584811 -0.12530176831054421 0 0.41386404347115252 -0.13602350937805521 0 0.42401600644171938 -0.12286193192251001 0 0.42260829758252172 -0.13268840666549631 0 0.41469705803584811 -0.12530176831054421 0 0.42245426275731351 -0.14212205517277671 0 0.42260829758252172 -0.13268840666549631 0 0.41386404347115252 -0.13602350937805521 0 0.40315076589356452 -0.12889937872394999 0 0.40558629314776301 -0.1443196897469827 0 0.41386404347115252 -0.13602350937805521 0 0.40315076589356452 -0.12889937872394999 0 0.41469705803584811 -0.12530176831054421 0 0.41386404347115252 -0.13602350937805521 0 0.45735510069358182 -0.13748563016374191 0 0.45230690512834848 -0.12781912004790591 0 0.45249301214388188 -0.1451566067414701 0 0.46564809288554548 -0.12863056409926921 0 0.46583820349549798 -0.14034970000957511 0 0.45735510069358182 -0.13748563016374191 0 0.46583820349549798 -0.14034970000957511 0 0.45735510069358182 -0.13748563016374191 0 0.46051755110314202 -0.14401363776782899 0 0.46564809288554548 -0.12863056409926921 0 0.45735510069358182 -0.13748563016374191 0 0.45671655298681108 -0.12892141324890261 0 0.45852276292261668 -0.1235958146492238 0 0.46564809288554548 -0.12863056409926921 0 0.45671655298681108 -0.12892141324890261 0 0.45735510069358182 -0.13748563016374191 0 0.45671655298681108 -0.12892141324890261 0 0.45230690512834848 -0.12781912004790591 0 0.45852276292261668 -0.1235958146492238 0 0.45671655298681108 -0.12892141324890261 0 0.45230690512834848 -0.12781912004790591 0 0.44155739733164118 -0.1215430272924946 0 0.45249301214388188 -0.1451566067414701 0 0.4459239556491007 -0.14127225651101011 0 0.44155739733164118 -0.1215430272924946 0 0.45230690512834848 -0.12781912004790591 0 0.45249301214388188 -0.1451566067414701 0 0.44155739733164118 -0.1215430272924946 0 0.43595995829762513 -0.1211887926118566 0 0.4459239556491007 -0.14127225651101011 0 0.44155739733164118 -0.1215430272924946 0 0.4459239556491007 -0.14127225651101011 0 0.44155739733164118 -0.1215430272924946 0 0.45249301214388188 -0.1451566067414701 0 0.43595995829762513 -0.1211887926118566 0 0.43534348785522292 -0.14984037486154531 0 0.4459239556491007 -0.14127225651101011 0 0.4459239556491007 -0.14127225651101011 0 0.45029051396656028 -0.16100148572952569 0 0.45249301214388188 -0.1451566067414701 0 0.4459239556491007 -0.14127225651101011 0 0.45029051396656028 -0.16100148572952569 0 0.43534348785522292 -0.14984037486154531 0 0.4459239556491007 -0.14127225651101011 0 0.45029051396656028 -0.16100148572952569 0 0.45249301214388188 -0.1451566067414701 0 0.46638388807960651 -0.1530626141565288 0 0.46342862695612252 -0.16877018619044559 0 0.45735510069358182 -0.13748563016374191 0 0.45249301214388188 -0.1451566067414701 0 0.46051755110314202 -0.14401363776782899 0 0.45249301214388188 -0.1451566067414701 0 0.46051755110314202 -0.14401363776782899 0 0.46638388807960651 -0.1530626141565288 0 0.46583820349549798 -0.14034970000957511 0 0.46051755110314202 -0.14401363776782899 0 0.46638388807960651 -0.1530626141565288 0 0.45249301214388188 -0.1451566067414701 0 0.46342862695612252 -0.16877018619044559 0 0.46638388807960651 -0.1530626141565288 0 0.46342862695612252 -0.16877018619044559 0 0.47609937834064819 -0.1657539748596322 0 0.45249301214388188 -0.1451566067414701 0 0.46342862695612252 -0.16877018619044559 0 0.45029051396656028 -0.16100148572952569 0 0.46342862695612252 -0.16877018619044559 0 0.45029051396656028 -0.16100148572952569 0 0.45202750898867738 -0.18558598130110701 0 0.43472701741282072 -0.178491957111234 0 0.43534348785522292 -0.14984037486154531 0 0.45029051396656028 -0.16100148572952569 0 0.43472701741282072 -0.178491957111234 0 0.45029051396656028 -0.16100148572952569 0 0.45202750898867738 -0.18558598130110701 0 0.46342862695612252 -0.16877018619044559 0 0.45202750898867738 -0.18558598130110701 0 0.47156814532679009 -0.1927716788127318 0 0.5 -0.15730045814164781 0 0.47609937834064819 -0.1657539748596322 0 0.47156814532679009 -0.1927716788127318 0 0.46342862695612252 -0.16877018619044559 0 0.47609937834064819 -0.1657539748596322 0 0.47156814532679009 -0.1927716788127318 0 0.47609937834064819 -0.1657539748596322 0 0.47156814532679009 -0.1927716788127318 0 0.5 -0.1157955659525326 0 0.5 -0.15730045814164781 0 0.48063061135450619 -0.1387362709065327 0 0.47609937834064819 -0.1657539748596322 0 0.48063061135450619 -0.1387362709065327 0 0.46638388807960651 -0.1530626141565288 0 0.47609937834064819 -0.1657539748596322 0 0.48063061135450619 -0.1387362709065327 0 0.46583820349549798 -0.14034970000957511 0 0.46638388807960651 -0.1530626141565288 0 0.48063061135450619 -0.1387362709065327 0 0.5 -0.15730045814164781 0 0.47609937834064819 -0.1657539748596322 0 0.48063061135450619 -0.1387362709065327 0 0.47327779786886198 -0.12092666891404261 0 0.46564809288554548 -0.12863056409926921 0 0.48063061135450619 -0.1387362709065327 0 0.4851618443683644 -0.1117185669534331 0 0.48063061135450619 -0.1387362709065327 0 0.46564809288554548 -0.12863056409926921 0 0.46583820349549798 -0.14034970000957511 0 0.48063061135450619 -0.1387362709065327 0 0.45836587297538439 -0.22583757282115741 0 0.46703691231293198 -0.2197893827658314 0 0.45093083342036411 -0.22071135708031689 0 0.45717671605450039 -0.2335121760558154 0 0.45836587297538439 -0.22583757282115741 0 0.46607061642802572 -0.22555097041088301 0 0.45717671605450039 -0.2335121760558154 0 0.45836587297538439 -0.22583757282115741 0 0.45157021704082462 -0.23108396848324159 0 0.45836587297538439 -0.22583757282115741 0 0.45157021704082462 -0.23108396848324159 0 0.45093083342036411 -0.22071135708031689 0 0.45836587297538439 -0.22583757282115741 0 0.46703691231293198 -0.2197893827658314 0 0.46607061642802572 -0.22555097041088301 0 0.46703691231293198 -0.2197893827658314 0 0.46607061642802572 -0.22555097041088301 0 0.45717671605450039 -0.2335121760558154 0 0.46607061642802572 -0.22555097041088301 0 0.45647705107458492 -0.24646605538859381 0 0.46607061642802572 -0.22555097041088301 0 0.46250567929907382 -0.24680708671893101 0 0.46607061642802572 -0.22555097041088301 0 0.45647705107458492 -0.24646605538859381 0 0.46607061642802572 -0.22555097041088301 0 0.46250567929907382 -0.24680708671893101 0 0.45647705107458492 -0.24646605538859381 0 0.45717671605450039 -0.2335121760558154 0 0.45384274261745589 -0.2390676871648314 0 0.45157021704082462 -0.23108396848324159 0 0.45717671605450039 -0.2335121760558154 0 0.45647705107458492 -0.24646605538859381 0 0.45384274261745589 -0.2390676871648314 0 0.43349407652801503 -0.23579512161061181 0 0.45647705107458492 -0.24646605538859381 0 0.45384274261745589 -0.2390676871648314 0 0.43349407652801503 -0.23579512161061181 0 0.45647705107458492 -0.24646605538859381 0 0.43349407652801503 -0.23579512161061181 0 0.45647705107458492 -0.24646605538859381 0 0.44419334338856431 -0.25303554784386001 0 0.43349407652801503 -0.23579512161061181 0 0.45384274261745589 -0.2390676871648314 0 0.45157021704082462 -0.23108396848324159 0 0.43411054697041851 -0.20714353936092289 0 0.43349407652801503 -0.23579512161061181 0 0.45093083342036411 -0.22071135708031689 0 0.43349407652801503 -0.23579512161061181 0 0.45157021704082462 -0.23108396848324159 0 0.45093083342036411 -0.22071135708031689 0 0.43411054697041851 -0.20714353936092289 0 0.45093083342036411 -0.22071135708031689 0 0.45535828278041451 -0.20521089961322811 0 0.43411054697041851 -0.20714353936092289 0 0.45202750898867738 -0.18558598130110701 0 0.45535828278041451 -0.20521089961322811 0 0.43411054697041851 -0.20714353936092289 0 0.43472701741282072 -0.178491957111234 0 0.45202750898867738 -0.18558598130110701 0 0.45202750898867738 -0.18558598130110701 0 0.45535828278041451 -0.20521089961322811 0 0.47156814532679009 -0.1927716788127318 0 0.46703691231293198 -0.2197893827658314 0 0.45535828278041451 -0.20521089961322811 0 0.47156814532679009 -0.1927716788127318 0 0.46703691231293198 -0.2197893827658314 0 0.45093083342036411 -0.22071135708031689 0 0.45535828278041451 -0.20521089961322811 0 0.46703691231293198 -0.2197893827658314 0 0.5 -0.21334511590057151 0 0.47156814532679009 -0.1927716788127318 0 0.46703691231293198 -0.2197893827658314 0 0.47156814532679009 -0.1927716788127318 0 0.5 -0.15730045814164781 0 0.5 -0.21334511590057151 0 0.47156814532679009 -0.1927716788127318 0 0.46250567929907382 -0.24680708671893101 0 0.5 -0.21334511590057151 0 0.47877394920403449 -0.2613294679601465 0 0.46703691231293198 -0.2197893827658314 0 0.46607061642802572 -0.22555097041088301 0 0.5 -0.21334511590057151 0 0.46607061642802572 -0.22555097041088301 0 0.46250567929907382 -0.24680708671893101 0 0.5 -0.21334511590057151 0 0.5 -0.21334511590057151 0 0.47877394920403449 -0.2613294679601465 0 0.5 -0.28901189165706631 0 0.47877394920403449 -0.2613294679601465 0 0.47338962043588462 -0.28365845485213342 0 0.5 -0.28901189165706631 0 0.47877394920403449 -0.2613294679601465 0 0.457974446285214 -0.2738247906720303 0 0.47338962043588462 -0.28365845485213342 0 0.46250567929907382 -0.24680708671893101 0 0.457974446285214 -0.2738247906720303 0 0.44779979316313367 -0.26733416520303011 0 0.46250567929907382 -0.24680708671893101 0 0.47877394920403449 -0.2613294679601465 0 0.457974446285214 -0.2738247906720303 0 0.46250567929907382 -0.24680708671893101 0 0.45647705107458492 -0.24646605538859381 0 0.44779979316313367 -0.26733416520303011 0 0.46250567929907382 -0.24680708671893101 0 0.457974446285214 -0.2738247906720303 0 0.457974446285214 -0.2738247906720303 0 0.47338962043588462 -0.28365845485213342 0 0.457974446285214 -0.2738247906720303 0 0.44779979316313367 -0.26733416520303011 0 0.4493134435977692 -0.27677943440580488 0 0.44779979316313367 -0.26733416520303011 0 0.44070530085073262 -0.28409224241375791 0 0.44779979316313367 -0.26733416520303011 0 0.43928189036785509 -0.27058531200912328 0 0.44070530085073262 -0.28409224241375791 0 0.44779979316313367 -0.26733416520303011 0 0.4493134435977692 -0.27677943440580488 0 0.44070530085073262 -0.28409224241375791 0 0.457974446285214 -0.2738247906720303 0 0.44779979316313367 -0.26733416520303011 0 0.4493134435977692 -0.27677943440580488 0 0.44070530085073262 -0.28409224241375791 0 0.45077423409199668 -0.28186653933440159 0 0.457974446285214 -0.2738247906720303 0 0.4493134435977692 -0.27677943440580488 0 0.45077423409199668 -0.28186653933440159 0 0.43928189036785509 -0.27058531200912328 0 0.44070530085073262 -0.28409224241375791 0 0.43558883646162477 -0.27737960603493678 0 0.44070530085073262 -0.28409224241375791 0 0.43558883646162477 -0.27737960603493678 0 0.45647705107458492 -0.24646605538859381 0 0.44779979316313367 -0.26733416520303011 0 0.44779979316313367 -0.26733416520303011 0 0.4330183628140124 -0.257904779538356 0 0.45647705107458492 -0.24646605538859381 0 0.44779979316313367 -0.26733416520303011 0 0.44419334338856431 -0.25303554784386001 0 0.44779979316313367 -0.26733416520303011 0 0.43928189036785509 -0.27058531200912328 0 0.4330183628140124 -0.257904779538356 0 0.44779979316313367 -0.26733416520303011 0 0.44419334338856431 -0.25303554784386001 0 0.4330183628140124 -0.257904779538356 0 0.44282426803510277 -0.30038533326724048 0 0.44070530085073262 -0.28409224241375791 0 0.43031337330776792 -0.30863927361272397 0 0.44381487606661402 -0.31057411655831868 0 0.45538517562963537 -0.30335176500268352 0 0.45524068180283012 -0.31531018252620169 0 0.44381487606661402 -0.31057411655831868 0 0.44282426803510277 -0.30038533326724048 0 0.45538517562963537 -0.30335176500268352 0 0.44381487606661402 -0.31057411655831868 0 0.44282426803510277 -0.30038533326724048 0 0.43031337330776792 -0.30863927361272397 0 0.44070530085073262 -0.28409224241375791 0 0.45455172836917379 -0.29423291779499522 0 0.45538517562963537 -0.30335176500268352 0 0.44070530085073262 -0.28409224241375791 0 0.45538517562963537 -0.30335176500268352 0 0.44282426803510277 -0.30038533326724048 0 0.44070530085073262 -0.28409224241375791 0 0.45538517562963537 -0.30335176500268352 0 0.44070530085073262 -0.28409224241375791 0 0.45077423409199668 -0.28186653933440159 0 0.45455172836917379 -0.29423291779499522 0 0.457974446285214 -0.2738247906720303 0 0.45455172836917379 -0.29423291779499522 0 0.457974446285214 -0.2738247906720303 0 0.45455172836917379 -0.29423291779499522 0 0.46234424907634442 -0.28629082923132448 0 0.45455172836917379 -0.29423291779499522 0 0.46234424907634442 -0.28629082923132448 0 0.46346120121510531 -0.2934471536061391 0 0.457974446285214 -0.2738247906720303 0 0.45077423409199668 -0.28186653933440159 0 0.45455172836917379 -0.29423291779499522 0 0.457974446285214 -0.2738247906720303 0 0.46234424907634442 -0.28629082923132448 0 0.47338962043588462 -0.28365845485213342 0 0.46234424907634442 -0.28629082923132448 0 0.46346120121510531 -0.2934471536061391 0 0.47338962043588462 -0.28365845485213342 0 0.46346120121510531 -0.2934471536061391 0 0.45538517562963537 -0.30335176500268352 0 0.47225462780709437 -0.30104776430745411 0 0.45538517562963537 -0.30335176500268352 0 0.47225462780709437 -0.30104776430745411 0 0.47006505040853969 -0.32261128759160818 0 0.45455172836917379 -0.29423291779499522 0 0.46346120121510531 -0.2934471536061391 0 0.45538517562963537 -0.30335176500268352 0 0.47225462780709437 -0.30104776430745411 0 0.48880479458655779 -0.29349211903223249 0 0.47006505040853969 -0.32261128759160818 0 0.5 -0.28901189165706631 0 0.48880479458655779 -0.29349211903223249 0 0.48474492518744389 -0.34187081018053289 0 0.47225462780709437 -0.30104776430745411 0 0.47338962043588462 -0.28365845485213342 0 0.48880479458655779 -0.29349211903223249 0 0.46346120121510531 -0.2934471536061391 0 0.47225462780709437 -0.30104776430745411 0 0.47338962043588462 -0.28365845485213342 0 0.47338962043588462 -0.28365845485213342 0 0.48880479458655779 -0.29349211903223249 0 0.47338962043588462 -0.28365845485213342 0 0.5 -0.28901189165706631 0 0.48880479458655779 -0.29349211903223249 0 0.48880479458655779 -0.29349211903223249 0 0.48474492518744389 -0.34187081018053289 0 0.47006505040853969 -0.32261128759160818 0 0.5 -0.28901189165706631 0 0.48474492518744389 -0.34187081018053289 0 0.5 -0.39015304902202891 0 0.48474492518744389 -0.34187081018053289 0 0.47006505040853969 -0.32261128759160818 0 0.48474492518744389 -0.34187081018053289 0 0.47006505040853969 -0.32261128759160818 0 0.45657762850408362 -0.34508589279332952 0 0.48474492518744389 -0.34187081018053289 0 0.46926535097693128 -0.36506249466282309 0 0.5 -0.39015304902202891 0 0.48474492518744389 -0.34187081018053289 0 0.46926535097693128 -0.36506249466282309 0 0.45657762850408362 -0.34508589279332952 0 0.46926535097693128 -0.36506249466282309 0 0.45657762850408362 -0.34508589279332952 0 0.45216000120187583 -0.36925785966150781 0 0.46926535097693128 -0.36506249466282309 0 0.45216000120187583 -0.36925785966150781 0 0.46751625200281788 -0.38515548735985061 0 0.45657762850408362 -0.34508589279332952 0 0.44049332843598799 -0.35640700658967389 0 0.45216000120187583 -0.36925785966150781 0 0.45657762850408362 -0.34508589279332952 0 0.43790027896486999 -0.34410658215301182 0 0.44049332843598799 -0.35640700658967389 0 0.44049332843598799 -0.35640700658967389 0 0.45216000120187583 -0.36925785966150781 0 0.43724297958625208 -0.37753688457051032 0 0.47006505040853969 -0.32261128759160818 0 0.45524068180283012 -0.31531018252620169 0 0.45169762510653111 -0.32470356095219671 0 0.45538517562963537 -0.30335176500268352 0 0.47006505040853969 -0.32261128759160818 0 0.45524068180283012 -0.31531018252620169 0 0.45538517562963537 -0.30335176500268352 0 0.47006505040853969 -0.32261128759160818 0 0.47006505040853969 -0.32261128759160818 0 0.45657762850408362 -0.34508589279332952 0 0.45169762510653111 -0.32470356095219671 0 0.45657762850408362 -0.34508589279332952 0 0.43790027896486999 -0.34410658215301182 0 0.44320619060737371 -0.333989446084337 0 0.45657762850408362 -0.34508589279332952 0 0.44320619060737371 -0.333989446084337 0 0.45169762510653111 -0.32470356095219671 0 0.43790027896486999 -0.34410658215301182 0 0.44320619060737371 -0.333989446084337 0 0.43287856860754897 -0.33394107548558771 0 0.44320619060737371 -0.333989446084337 0 0.43690687187107291 -0.32251596217232831 0 0.43287856860754897 -0.33394107548558771 0 0.44320619060737371 -0.333989446084337 0 0.45169762510653111 -0.32470356095219671 0 0.43690687187107291 -0.32251596217232831 0 0.44381487606661402 -0.31057411655831868 0 0.45524068180283012 -0.31531018252620169 0 0.45169762510653111 -0.32470356095219671 0 0.44381487606661402 -0.31057411655831868 0 0.45169762510653111 -0.32470356095219671 0 0.43690687187107291 -0.32251596217232831 0 0.41992144576480239 -0.3331863048116897 0 0.43031337330776792 -0.30863927361272397 0 0.43690687187107291 -0.32251596217232831 0 0.41992144576480239 -0.3331863048116897 0 0.43031337330776792 -0.30863927361272397 0 0.44381487606661402 -0.31057411655831868 0 0.43690687187107291 -0.32251596217232831 0 0.43031337330776792 -0.30863927361272397 0 0.43287856860754897 -0.33394107548558771 0 0.41710474156102439 -0.33568870858729849 0 0.41992144576480239 -0.3331863048116897 0 0.43690687187107291 -0.32251596217232831 0 0.43287856860754897 -0.33394107548558771 0 0.41992144576480239 -0.3331863048116897 0 0.43287856860754897 -0.33394107548558771 0 0.41710474156102439 -0.33568870858729849 0 0.43287856860754897 -0.33394107548558771 0 0.42646555170307471 -0.34045641009412392 0 0.41710474156102439 -0.33568870858729849 0 0.43790027896486999 -0.34410658215301182 0 0.43287856860754897 -0.33394107548558771 0 0.42646555170307471 -0.34045641009412392 0 0.41710474156102439 -0.33568870858729849 0 0.41992144576480239 -0.3331863048116897 0 0.41398914193898112 -0.32569256401282348 0 0.41710474156102439 -0.33568870858729849 0 0.40133091451449981 -0.33743634168900921 0 0.41710474156102439 -0.33568870858729849 0 0.41398914193898112 -0.32569256401282348 0 0.40133091451449981 -0.33743634168900921 0 0.41710474156102439 -0.33568870858729849 0 0.41218661264157319 -0.34899227608957772 0 0.40133091451449981 -0.33743634168900921 0 0.42646555170307471 -0.34045641009412392 0 0.41710474156102439 -0.33568870858729849 0 0.42001671868967289 -0.34506396843977721 0 0.41710474156102439 -0.33568870858729849 0 0.42001671868967289 -0.34506396843977721 0 0.41218661264157319 -0.34899227608957772 0 0.40627799794393937 -0.32236216919152988 0 0.41398914193898112 -0.32569256401282348 0 0.40133091451449981 -0.33743634168900921 0 0.41992144576480239 -0.3331863048116897 0 0.41398914193898112 -0.32569256401282348 0 0.43031337330776792 -0.30863927361272397 0 0.41398914193898112 -0.32569256401282348 0 0.43031337330776792 -0.30863927361272397 0 0.41134197970401037 -0.31093648218773168 0 0.40627799794393937 -0.32236216919152988 0 0.41398914193898112 -0.32569256401282348 0 0.41134197970401037 -0.31093648218773168 0 0.44049332843598799 -0.35640700658967389 0 0.42518309060006382 -0.37019068555879803 0 0.43724297958625208 -0.37753688457051032 0 0.44049332843598799 -0.35640700658967389 0 0.42518309060006382 -0.37019068555879803 0 0.42125670489438188 -0.35723651617475649 0 0.44049332843598799 -0.35640700658967389 0 0.42518309060006382 -0.37019068555879803 0 0.44049332843598799 -0.35640700658967389 0 0.42747343650526493 -0.3474914039925352 0 0.42125670489438188 -0.35723651617475649 0 0.43790027896486999 -0.34410658215301182 0 0.44049332843598799 -0.35640700658967389 0 0.42747343650526493 -0.3474914039925352 0 0.43790027896486999 -0.34410658215301182 0 0.42646555170307471 -0.34045641009412392 0 0.42747343650526493 -0.3474914039925352 0 0.42747343650526493 -0.3474914039925352 0 0.42001671868967289 -0.34506396843977721 0 0.42125670489438188 -0.35723651617475649 0 0.42646555170307471 -0.34045641009412392 0 0.42747343650526493 -0.3474914039925352 0 0.42001671868967289 -0.34506396843977721 0 0.41218661264157319 -0.34899227608957772 0 0.40667180643118378 -0.36653448577935271 0 0.40133091451449981 -0.33743634168900921 0 0.41218661264157319 -0.34899227608957772 0 0.42125670489438188 -0.35723651617475649 0 0.40667180643118378 -0.36653448577935271 0 0.41218661264157319 -0.34899227608957772 0 0.40667180643118378 -0.36653448577935271 0 0.42001671868967289 -0.34506396843977721 0 0.41218661264157319 -0.34899227608957772 0 0.42125670489438188 -0.35723651617475649 0 0.42518309060006382 -0.37019068555879803 0 0.42125670489438188 -0.35723651617475649 0 0.40667180643118378 -0.36653448577935271 0 0.42518309060006382 -0.37019068555879803 0 0.40667180643118378 -0.36653448577935271 0 0.40987285276413959 -0.38397436452792211 0 0.40667180643118378 -0.36653448577935271 0 0.38811578495972909 -0.36135373948894051 0 0.38909492009491031 -0.37589311409485771 0 0.40667180643118378 -0.36653448577935271 0 0.40133091451449981 -0.33743634168900921 0 0.40667180643118378 -0.36653448577935271 0 0.39057026422823232 -0.3488108457609852 0 0.38811578495972909 -0.36135373948894051 0 0.40667180643118378 -0.36653448577935271 0 0.39057026422823232 -0.3488108457609852 0 0.40133091451449981 -0.33743634168900921 0 0.39057026422823232 -0.3488108457609852 0 0.37943243478071031 -0.35354406210900052 0 0.37824998550195549 -0.33999355215173233 0 0.39057026422823232 -0.3488108457609852 0 0.37943243478071031 -0.35354406210900052 0 0.38811578495972909 -0.36135373948894051 0 0.37943243478071031 -0.35354406210900052 0 0.38811578495972909 -0.36135373948894051 0 0.37695186048652118 -0.36885426210637501 0 0.38811578495972909 -0.36135373948894051 0 0.37695186048652118 -0.36885426210637501 0 0.38909492009491031 -0.37589311409485771 0 0.39681057181036311 -0.31280869795560629 0 0.40133091451449981 -0.33743634168900921 0 0.40627799794393937 -0.32236216919152988 0 0.39681057181036311 -0.31280869795560629 0 0.40133091451449981 -0.33743634168900921 0 0.39681057181036311 -0.31280869795560629 0 0.40133091451449981 -0.33743634168900921 0 0.39111716067476748 -0.32878050971666167 0 0.39681057181036311 -0.31280869795560629 0 0.39111716067476748 -0.32878050971666167 0 0.38656582044377019 -0.31773067385827941 0 0.40627799794393937 -0.32236216919152988 0 0.39681057181036311 -0.31280869795560629 0 0.41134197970401037 -0.31093648218773168 0 0.40133091451449981 -0.33743634168900921 0 0.37824998550195549 -0.33999355215173233 0 0.40133091451449981 -0.33743634168900921 0 0.39111716067476748 -0.32878050971666167 0 0.37824998550195549 -0.33999355215173233 0 0.39111716067476748 -0.32878050971666167 0 0.37824998550195549 -0.33999355215173233 0 0.38057046934759559 -0.33132220354073461 0 0.39057026422823232 -0.3488108457609852 0 0.40133091451449981 -0.33743634168900921 0 0.37824998550195549 -0.33999355215173233 0 0.38057046934759559 -0.33132220354073461 0 0.37467564707276402 -0.31995789090040938 0 0.38057046934759559 -0.33132220354073461 0 0.38213635947272312 -0.32329893696978063 0 0.37467564707276402 -0.31995789090040938 0 0.39111716067476748 -0.32878050971666167 0 0.38057046934759559 -0.33132220354073461 0 0.38213635947272312 -0.32329893696978063 0 0.39111716067476748 -0.32878050971666167 0 0.38213635947272312 -0.32329893696978063 0 0.38656582044377019 -0.31773067385827941 0 0.38656582044377019 -0.31773067385827941 0 0.37774300116696669 -0.31640522816030747 0 0.3850220090940305 -0.30735999648904078 0 0.39681057181036311 -0.31280869795560629 0 0.38656582044377019 -0.31773067385827941 0 0.3850220090940305 -0.30735999648904078 0 0.38213635947272312 -0.32329893696978063 0 0.38656582044377019 -0.31773067385827941 0 0.37774300116696669 -0.31640522816030747 0 0.37774300116696669 -0.31640522816030747 0 0.37403223464996899 -0.30575991864250951 0 0.37467564707276402 -0.31995789090040938 0 0.38213635947272312 -0.32329893696978063 0 0.37774300116696669 -0.31640522816030747 0 0.37467564707276402 -0.31995789090040938 0 0.37774300116696669 -0.31640522816030747 0 0.37467564707276402 -0.31995789090040938 0 0.37774300116696669 -0.31640522816030747 0 0.3850220090940305 -0.30735999648904078 0 0.37403223464996899 -0.30575991864250951 0 0.38223714728668179 -0.29774951471953298 0 0.37378481346472991 -0.29296134938855722 0 0.37403223464996899 -0.30575991864250951 0 0.38223714728668179 -0.29774951471953298 0 0.3850220090940305 -0.30735999648904078 0 0.37403223464996899 -0.30575991864250951 0 0.38223714728668179 -0.29774951471953298 0 0.3850220090940305 -0.30735999648904078 0 0.3909147456428288 -0.29592025652449983 0 0.39681057181036311 -0.31280869795560629 0 0.40472747584141328 -0.29671059568691888 0 0.41134197970401037 -0.31093648218773168 0 0.39681057181036311 -0.31280869795560629 0 0.40472747584141328 -0.29671059568691888 0 0.3909147456428288 -0.29592025652449983 0 0.39681057181036311 -0.31280869795560629 0 0.3850220090940305 -0.30735999648904078 0 0.3909147456428288 -0.29592025652449983 0 0.40472747584141328 -0.29671059568691888 0 0.40106134421551481 -0.27025117720390812 0 0.4096291098324446 -0.28487281484600141 0 0.40472747584141328 -0.29671059568691888 0 0.3909147456428288 -0.29592025652449983 0 0.39339983739043721 -0.27446213899173028 0 0.40472747584141328 -0.29671059568691888 0 0.40106134421551481 -0.27025117720390812 0 0.3909147456428288 -0.29592025652449983 0 0.38329143243404712 -0.28643059530416992 0 0.39339983739043721 -0.27446213899173028 0 0.38223714728668179 -0.29774951471953298 0 0.3909147456428288 -0.29592025652449983 0 0.38329143243404712 -0.28643059530416992 0 0.38223714728668179 -0.29774951471953298 0 0.38329143243404712 -0.28643059530416992 0 0.37378481346472991 -0.29296134938855722 0 0.38329143243404712 -0.28643059530416992 0 0.37437745269440093 -0.28151076411347892 0 0.37378481346472991 -0.29296134938855722 0 0.38329143243404712 -0.28643059530416992 0 0.38135063037518829 -0.27874274945546001 0 0.37437745269440093 -0.28151076411347892 0 0.38135063037518829 -0.27874274945546001 0 0.37522903347685821 -0.27329080538693917 0 0.39339983739043721 -0.27446213899173028 0 0.37522903347685821 -0.27329080538693917 0 0.39339983739043721 -0.27446213899173028 0 0.36642265066647561 -0.26103092708009029 0 0.39339983739043721 -0.27446213899173028 0 0.36642265066647561 -0.26103092708009029 0 0.38135063037518829 -0.27874274945546001 0 0.37522903347685821 -0.27329080538693917 0 0.37437745269440093 -0.28151076411347892 0 0.38329143243404712 -0.28643059530416992 0 0.38135063037518829 -0.27874274945546001 0 0.39339983739043721 -0.27446213899173028 0 0.37672301458721702 -0.24879166597254401 0 0.38953979511922882 -0.25836387293607382 0 0.36642265066647561 -0.26103092708009029 0 0.38953979511922882 -0.25836387293607382 0 0.39339983739043721 -0.27446213899173028 0 0.36642265066647561 -0.26103092708009029 0 0.37672301458721702 -0.24879166597254401 0 0.3973952125896163 -0.24379175872089739 0 0.38953979511922882 -0.25836387293607382 0 0.3973952125896163 -0.24379175872089739 0 0.40106134421551481 -0.27025117720390812 0 0.3973952125896163 -0.24379175872089739 0 0.38953979511922882 -0.25836387293607382 0 0.40106134421551481 -0.27025117720390812 0 0.3973952125896163 -0.24379175872089739 0 0.4087190745768125 -0.2497113282607418 0 0.40106134421551481 -0.27025117720390812 0 0.38953979511922882 -0.25836387293607382 0 0.39339983739043721 -0.27446213899173028 0 0.40106134421551481 -0.27025117720390812 0 0.40472747584141328 -0.29671059568691888 0 0.39339983739043721 -0.27446213899173028 0 0.40106134421551481 -0.27025117720390812 0 0.40914960942741818 -0.27487479519779068 0 0.41506734143609442 -0.27560816888127071 0 0.4096291098324446 -0.28487281484600141 0 0.40106134421551481 -0.27025117720390812 0 0.40914960942741818 -0.27487479519779068 0 0.4096291098324446 -0.28487281484600141 0 0.41102705684239338 -0.26944577220711352 0 0.41780063605128981 -0.26716990605139751 0 0.4124280414333884 -0.2607808606724612 0 0.40106134421551481 -0.27025117720390812 0 0.40914960942741818 -0.27487479519779068 0 0.41102705684239338 -0.26944577220711352 0 0.40106134421551481 -0.27025117720390812 0 0.41102705684239338 -0.26944577220711352 0 0.4124280414333884 -0.2607808606724612 0 0.40914960942741818 -0.27487479519779068 0 0.41102705684239338 -0.26944577220711352 0 0.41506734143609442 -0.27560816888127071 0 0.41780063605128981 -0.26716990605139751 0 0.41506734143609442 -0.27560816888127071 0 0.42318351256748088 -0.274210647046089 0 0.41102705684239338 -0.26944577220711352 0 0.41780063605128981 -0.26716990605139751 0 0.41506734143609442 -0.27560816888127071 0 0.41506734143609442 -0.27560816888127071 0 0.4096291098324446 -0.28487281484600141 0 0.41964626934716481 -0.28158884701657338 0 0.41506734143609442 -0.27560816888127071 0 0.42318351256748088 -0.274210647046089 0 0.41964626934716481 -0.28158884701657338 0 0.4087190745768125 -0.2497113282607418 0 0.40106134421551481 -0.27025117720390812 0 0.4124280414333884 -0.2607808606724612 0 0.42060738714082829 -0.24998755682490831 0 0.4087190745768125 -0.2497113282607418 0 0.4124280414333884 -0.2607808606724612 0 0.41780063605128981 -0.26716990605139751 0 0.42080547322513379 -0.25930764982681809 0 0.42480402737740941 -0.26594894382583861 0 0.41780063605128981 -0.26716990605139751 0 0.4124280414333884 -0.2607808606724612 0 0.42080547322513379 -0.25930764982681809 0 0.42060738714082829 -0.24998755682490831 0 0.4124280414333884 -0.2607808606724612 0 0.42080547322513379 -0.25930764982681809 0 0.42060738714082829 -0.24998755682490831 0 0.4330183628140124 -0.257904779538356 0 0.42060738714082829 -0.24998755682490831 0 0.42080547322513379 -0.25930764982681809 0 0.4330183628140124 -0.257904779538356 0 0.42080547322513379 -0.25930764982681809 0 0.4330183628140124 -0.257904779538356 0 0.42480402737740941 -0.26594894382583861 0 0.4330183628140124 -0.257904779538356 0 0.42480402737740941 -0.26594894382583861 0 0.42847399551636323 -0.26971003183117781 0 0.43928189036785509 -0.27058531200912328 0 0.4330183628140124 -0.257904779538356 0 0.43265828951473317 -0.27463983938976277 0 0.4330183628140124 -0.257904779538356 0 0.42847399551636323 -0.26971003183117781 0 0.43265828951473317 -0.27463983938976277 0 0.4330183628140124 -0.257904779538356 0 0.43265828951473317 -0.27463983938976277 0 0.42318351256748088 -0.274210647046089 0 0.42794778444489512 -0.28261554404628469 0 0.41964626934716481 -0.28158884701657338 0 0.42883116986076819 -0.27604807333130482 0 0.42318351256748088 -0.274210647046089 0 0.42794778444489512 -0.28261554404628469 0 0.42883116986076819 -0.27604807333130482 0 0.43189226726036922 -0.27906430434320939 0 0.42794778444489512 -0.28261554404628469 0 0.42318351256748088 -0.274210647046089 0 0.42480402737740941 -0.26594894382583861 0 0.42847399551636323 -0.26971003183117781 0 0.41780063605128981 -0.26716990605139751 0 0.42318351256748088 -0.274210647046089 0 0.42480402737740941 -0.26594894382583861 0 0.42883116986076819 -0.27604807333130482 0 0.42318351256748088 -0.274210647046089 0 0.42847399551636323 -0.26971003183117781 0 0.44070530085073262 -0.28409224241375791 0 0.43189226726036922 -0.27906430434320939 0 0.43558883646162477 -0.27737960603493678 0 0.43928189036785509 -0.27058531200912328 0 0.43265828951473317 -0.27463983938976277 0 0.43558883646162477 -0.27737960603493678 0 0.42883116986076819 -0.27604807333130482 0 0.42847399551636323 -0.26971003183117781 0 0.43265828951473317 -0.27463983938976277 0 0.43265828951473317 -0.27463983938976277 0 0.43189226726036922 -0.27906430434320939 0 0.43558883646162477 -0.27737960603493678 0 0.42883116986076819 -0.27604807333130482 0 0.43265828951473317 -0.27463983938976277 0 0.43189226726036922 -0.27906430434320939 0 0.44070530085073262 -0.28409224241375791 0 0.42402919252743382 -0.29020238576702162 0 0.43031337330776792 -0.30863927361272397 0 0.44070530085073262 -0.28409224241375791 0 0.42794778444489512 -0.28261554404628469 0 0.42402919252743382 -0.29020238576702162 0 0.44070530085073262 -0.28409224241375791 0 0.43031337330776792 -0.30863927361272397 0 0.44070530085073262 -0.28409224241375791 0 0.43189226726036922 -0.27906430434320939 0 0.42794778444489512 -0.28261554404628469 0 0.42794778444489512 -0.28261554404628469 0 0.42402919252743382 -0.29020238576702162 0 0.41964626934716481 -0.28158884701657338 0 0.42402919252743382 -0.29020238576702162 0 0.43031337330776792 -0.30863927361272397 0 0.41593331738159789 -0.29940559266678812 0 0.43031337330776792 -0.30863927361272397 0 0.41593331738159789 -0.29940559266678812 0 0.41134197970401037 -0.31093648218773168 0 0.40472747584141328 -0.29671059568691888 0 0.41593331738159789 -0.29940559266678812 0 0.41134197970401037 -0.31093648218773168 0 0.40472747584141328 -0.29671059568691888 0 0.41593331738159789 -0.29940559266678812 0 0.4096291098324446 -0.28487281484600141 0 0.42402919252743382 -0.29020238576702162 0 0.4096291098324446 -0.28487281484600141 0 0.41964626934716481 -0.28158884701657338 0 0.42402919252743382 -0.29020238576702162 0 0.41593331738159789 -0.29940559266678812 0 0.4096291098324446 -0.28487281484600141 0 0.5 -0.5 0 0.48645126940308753 -0.49147917457311702 0 0.5 -0.39015304902202891 0 0.48645126940308753 -0.49147917457311702 0 0.46981321797127329 -0.47040283948141209 0 0.5 -0.39015304902202891 0 0.46107319809678321 -0.49999999999999922 0 0.4356074026854565 -0.48393595381122062 0 0.46107319809678321 -0.49999999999999922 0 0.4356074026854565 -0.48393595381122062 0 0.43419438364345331 -0.5 0 0.45270527890879542 -0.47715667941033968 0 0.46107319809678321 -0.49999999999999922 0 0.4356074026854565 -0.48393595381122062 0 0.45270527890879542 -0.47715667941033968 0 0.43963431679413317 -0.46421659122871922 0 0.4356074026854565 -0.48393595381122062 0 0.45270527890879542 -0.47715667941033968 0 0.46107319809678321 -0.49999999999999922 0 0.46981321797127329 -0.47040283948141209 0 0.46107319809678321 -0.49999999999999922 0 0.5 -0.5 0 0.48645126940308753 -0.49147917457311702 0 0.46107319809678321 -0.49999999999999922 0 0.48645126940308753 -0.49147917457311702 0 0.46981321797127329 -0.47040283948141209 0 0.48645126940308753 -0.49147917457311702 0 0.46981321797127329 -0.47040283948141209 0 0.46981321797127329 -0.47040283948141209 0 0.45317516653945911 -0.44932650438970712 0 0.46103192043749908 -0.42937455928255391 0 0.45270527890879542 -0.47715667941033968 0 0.46981321797127329 -0.47040283948141209 0 0.45317516653945911 -0.44932650438970712 0 0.46981321797127329 -0.47040283948141209 0 0.45317516653945911 -0.44932650438970712 0 0.45317516653945911 -0.44932650438970712 0 0.43963431679413317 -0.46421659122871922 0 0.427224103492856 -0.44673487737016693 0 0.45270527890879542 -0.47715667941033968 0 0.45317516653945911 -0.44932650438970712 0 0.43963431679413317 -0.46421659122871922 0 0.45317516653945911 -0.44932650438970712 0 0.43653711510764492 -0.42825016929800219 0 0.45317516653945911 -0.44932650438970712 0 0.43653711510764492 -0.42825016929800219 0 0.427224103492856 -0.44673487737016693 0 0.46981321797127329 -0.47040283948141209 0 0.46103192043749908 -0.42937455928255391 0 0.5 -0.39015304902202891 0 0.45317516653945911 -0.44932650438970712 0 0.46103192043749908 -0.42937455928255391 0 0.43653711510764492 -0.42825016929800219 0 0.45576496596111732 -0.40745411021404132 0 0.46103192043749908 -0.42937455928255391 0 0.43653711510764492 -0.42825016929800219 0 0.45576496596111732 -0.40745411021404132 0 0.4361800018288714 -0.41044281959415929 0 0.43653711510764492 -0.42825016929800219 0 0.45576496596111732 -0.40745411021404132 0 0.46103192043749908 -0.42937455928255391 0 0.5 -0.39015304902202891 0 0.45576496596111732 -0.40745411021404132 0 0.5 -0.39015304902202891 0 0.46751625200281788 -0.38515548735985061 0 0.46926535097693128 -0.36506249466282309 0 0.5 -0.39015304902202891 0 0.46751625200281788 -0.38515548735985061 0 0.45216000120187583 -0.36925785966150781 0 0.46751625200281788 -0.38515548735985061 0 0.44820961534416692 -0.38503974627731119 0 0.45576496596111732 -0.40745411021404132 0 0.46751625200281788 -0.38515548735985061 0 0.44820961534416692 -0.38503974627731119 0 0.45576496596111732 -0.40745411021404132 0 0.44820961534416692 -0.38503974627731119 0 0.43405433950999928 -0.39610679024180401 0 0.45576496596111732 -0.40745411021404132 0 0.43405433950999928 -0.39610679024180401 0 0.4361800018288714 -0.41044281959415929 0 0.44820961534416692 -0.38503974627731119 0 0.43405433950999928 -0.39610679024180401 0 0.44820961534416692 -0.38503974627731119 0 0.43724297958625208 -0.37753688457051032 0 0.43405433950999928 -0.39610679024180401 0 0.45216000120187583 -0.36925785966150781 0 0.44820961534416692 -0.38503974627731119 0 0.43724297958625208 -0.37753688457051032 0 0.42518309060006382 -0.37019068555879803 0 0.43724297958625208 -0.37753688457051032 0 0.42335750242541897 -0.38821921909396723 0 0.43724297958625208 -0.37753688457051032 0 0.42335750242541897 -0.38821921909396723 0 0.43405433950999928 -0.39610679024180401 0 0.42335750242541897 -0.38821921909396723 0 0.43405433950999928 -0.39610679024180401 0 0.41723418285668051 -0.40379808306416098 0 0.43405433950999928 -0.39610679024180401 0 0.41723418285668051 -0.40379808306416098 0 0.41989906367583157 -0.40717383420629683 0 0.43405433950999928 -0.39610679024180401 0 0.41989906367583157 -0.40717383420629683 0 0.4361800018288714 -0.41044281959415929 0 0.43405433950999928 -0.39610679024180401 0 0.41989906367583157 -0.40717383420629683 0 0.40987285276413959 -0.38397436452792211 0 0.4148549101949579 -0.41111751350936959 0 0.42335750242541897 -0.38821921909396723 0 0.41723418285668051 -0.40379808306416098 0 0.40987285276413959 -0.38397436452792211 0 0.41723418285668051 -0.40379808306416098 0 0.40987285276413959 -0.38397436452792211 0 0.4148549101949579 -0.41111751350936959 0 0.40987285276413959 -0.38397436452792211 0 0.39776124928126377 -0.39487833976321141 0 0.4148549101949579 -0.41111751350936959 0 0.41723418285668051 -0.40379808306416098 0 0.41989906367583157 -0.40717383420629683 0 0.40667180643118378 -0.36653448577935271 0 0.40987285276413959 -0.38397436452792211 0 0.42518309060006382 -0.37019068555879803 0 0.42335750242541897 -0.38821921909396723 0 0.40987285276413959 -0.38397436452792211 0 0.42518309060006382 -0.37019068555879803 0 0.40987285276413959 -0.38397436452792211 0 0.40667180643118378 -0.36653448577935271 0 0.40987285276413959 -0.38397436452792211 0 0.39776124928126377 -0.39487833976321141 0 0.40667180643118378 -0.36653448577935271 0 0.38909492009491031 -0.37589311409485771 0 0.39776124928126377 -0.39487833976321141 0 0.40667180643118378 -0.36653448577935271 0 0.39776124928126377 -0.39487833976321141 0 0.40987285276413959 -0.38397436452792211 0 0.39776124928126377 -0.39487833976321141 0 0.37807376375083379 -0.38825733796244277 0 0.38909492009491031 -0.37589311409485771 0 0.39776124928126377 -0.39487833976321141 0 0.37695186048652118 -0.36885426210637501 0 0.37807376375083379 -0.38825733796244277 0 0.38909492009491031 -0.37589311409485771 0 0.39776124928126377 -0.39487833976321141 0 0.38090260943556398 -0.41005603210081443 0 0.37807376375083379 -0.38825733796244277 0 0.38090260943556398 -0.41005603210081443 0 0.3669823844485528 -0.40180526575862158 0 0.37807376375083379 -0.38825733796244277 0 0.39776124928126377 -0.39487833976321141 0 0.38090260943556398 -0.41005603210081443 0 0.39776124928126377 -0.39487833976321141 0 0.4020098762794172 -0.41092872807375752 0 0.4148549101949579 -0.41111751350936959 0 0.39776124928126377 -0.39487833976321141 0 0.39159152558029442 -0.4145037958103317 0 0.39776124928126377 -0.39487833976321141 0 0.4020098762794172 -0.41092872807375752 0 0.39159152558029442 -0.4145037958103317 0 0.4020098762794172 -0.41092872807375752 0 0.40013835603714032 -0.42262338268341021 0 0.4148549101949579 -0.41111751350936959 0 0.4020098762794172 -0.41092872807375752 0 0.39159152558029442 -0.4145037958103317 0 0.40013835603714032 -0.42262338268341021 0 0.39776124928126377 -0.39487833976321141 0 0.39159152558029442 -0.4145037958103317 0 0.38090260943556398 -0.41005603210081443 0 0.39159152558029442 -0.4145037958103317 0 0.38090260943556398 -0.41005603210081443 0 0.37893103285242241 -0.42370022859020678 0 0.39159152558029442 -0.4145037958103317 0 0.37893103285242241 -0.42370022859020678 0 0.38542180187932351 -0.43412925185745183 0 0.39159152558029442 -0.4145037958103317 0 0.38542180187932351 -0.43412925185745183 0 0.37893103285242241 -0.42370022859020678 0 0.38542180187932351 -0.43412925185745183 0 0.37043146183030851 -0.43455429844877907 0 0.39159152558029442 -0.4145037958103317 0 0.38542180187932351 -0.43412925185745183 0 0.40013835603714032 -0.42262338268341021 0 0.38542180187932351 -0.43412925185745183 0 0.40013835603714032 -0.42262338268341021 0 0.40598857684038442 -0.44321160096444823 0 0.38542180187932351 -0.43412925185745183 0 0.40013835603714032 -0.42262338268341021 0 0.40013835603714032 -0.42262338268341021 0 0.41786783840138569 -0.42753249071768262 0 0.40598857684038442 -0.44321160096444823 0 0.41786783840138569 -0.42753249071768262 0 0.4148549101949579 -0.41111751350936959 0 0.41989906367583157 -0.40717383420629683 0 0.40013835603714032 -0.42262338268341021 0 0.41786783840138569 -0.42753249071768262 0 0.4148549101949579 -0.41111751350936959 0 0.41786783840138569 -0.42753249071768262 0 0.4148549101949579 -0.41111751350936959 0 0.40013835603714032 -0.42262338268341021 0 0.4148549101949579 -0.41111751350936959 0 0.41723418285668051 -0.40379808306416098 0 0.4148549101949579 -0.41111751350936959 0 0.41989906367583157 -0.40717383420629683 0 0.4148549101949579 -0.41111751350936959 0 0.41989906367583157 -0.40717383420629683 0 0.41989906367583157 -0.40717383420629683 0 0.43653711510764492 -0.42825016929800219 0 0.41786783840138569 -0.42753249071768262 0 0.41989906367583157 -0.40717383420629683 0 0.43653711510764492 -0.42825016929800219 0 0.41989906367583157 -0.40717383420629683 0 0.4361800018288714 -0.41044281959415929 0 0.43653711510764492 -0.42825016929800219 0 0.41786783840138569 -0.42753249071768262 0 0.43653711510764492 -0.42825016929800219 0 0.427224103492856 -0.44673487737016693 0 0.43963431679413317 -0.46421659122871922 0 0.427224103492856 -0.44673487737016693 0 0.41014160727412952 -0.46787190762244241 0 0.427224103492856 -0.44673487737016693 0 0.41014160727412952 -0.46787190762244241 0 0.40598857684038442 -0.44321160096444823 0 0.41786783840138569 -0.42753249071768262 0 0.427224103492856 -0.44673487737016693 0 0.40598857684038442 -0.44321160096444823 0 0.38542180187932351 -0.43412925185745183 0 0.40598857684038442 -0.44321160096444823 0 0.39597326993358201 -0.45804919763297652 0 0.38542180187932351 -0.43412925185745183 0 0.3794762097545199 -0.45304176116497369 0 0.38542180187932351 -0.43412925185745183 0 0.3794762097545199 -0.45304176116497369 0 0.36325857587208848 -0.45145716545592779 0 0.38542180187932351 -0.43412925185745183 0 0.3794762097545199 -0.45304176116497369 0 0.39597326993358201 -0.45804919763297652 0 0.3794762097545199 -0.45304176116497369 0 0.3872248239169912 -0.4745955186762052 0 0.37080875233841742 -0.46431963568614132 0 0.3794762097545199 -0.45304176116497369 0 0.39597326993358201 -0.45804919763297652 0 0.3872248239169912 -0.4745955186762052 0 0.41014160727412952 -0.46787190762244241 0 0.39597326993358201 -0.45804919763297652 0 0.3872248239169912 -0.4745955186762052 0 0.41014160727412952 -0.46787190762244241 0 0.40598857684038442 -0.44321160096444823 0 0.39597326993358201 -0.45804919763297652 0 0.41014160727412952 -0.46787190762244241 0 0.3872248239169912 -0.4745955186762052 0 0.40731556919012352 -0.5 0 0.3872248239169912 -0.4745955186762052 0 0.36699069976529591 -0.47941442300101939 0 0.37080875233841742 -0.46431963568614132 0 0.3872248239169912 -0.4745955186762052 0 0.38043675473679361 -0.5 0 0.36699069976529591 -0.47941442300101939 0 0.3872248239169912 -0.4745955186762052 0 0.38043675473679361 -0.5 0 0.40731556919012352 -0.5 0 0.4210308417545387 -0.49000217962552822 0 0.40731556919012352 -0.5 0 0.43419438364345331 -0.5 0 0.41014160727412952 -0.46787190762244241 0 0.4210308417545387 -0.49000217962552822 0 0.40731556919012352 -0.5 0 0.41014160727412952 -0.46787190762244241 0 0.4356074026854565 -0.48393595381122062 0 0.41014160727412952 -0.46787190762244241 0 0.4210308417545387 -0.49000217962552822 0 0.4356074026854565 -0.48393595381122062 0 0.43963431679413317 -0.46421659122871922 0 0.41014160727412952 -0.46787190762244241 0 0.4356074026854565 -0.48393595381122062 0 0.4210308417545387 -0.49000217962552822 0 0.4356074026854565 -0.48393595381122062 0 0.43419438364345331 -0.5 0 0.32667912583013392 -0.5 0 0.31542192219823251 -0.49079845650423348 0 0.29980031137680418 -0.5 0 0.31542192219823251 -0.49079845650423348 0 0.32725462706772912 -0.4830494191977136 0 0.30795362451826258 -0.48014440681922033 0 0.32667912583013392 -0.5 0 0.31542192219823251 -0.49079845650423348 0 0.32725462706772912 -0.4830494191977136 0 0.32725462706772912 -0.4830494191977136 0 0.32776610693099412 -0.45789438052584808 0 0.32725462706772912 -0.4830494191977136 0 0.31987971869171411 -0.46499442984454781 0 0.30795362451826258 -0.48014440681922033 0 0.32725462706772912 -0.4830494191977136 0 0.33424934133788547 -0.47139464726482072 0 0.33949419077960852 -0.47698088993762372 0 0.32725462706772912 -0.4830494191977136 0 0.33424934133788547 -0.47139464726482072 0 0.32776610693099412 -0.45789438052584808 0 0.33424934133788547 -0.47139464726482072 0 0.34109534986485379 -0.46878507905440409 0 0.33949419077960852 -0.47698088993762372 0 0.32725462706772912 -0.4830494191977136 0 0.33949419077960852 -0.47698088993762372 0 0.34241931274853898 -0.48626627592747629 0 0.32667912583013392 -0.5 0 0.32725462706772912 -0.4830494191977136 0 0.34241931274853898 -0.48626627592747629 0 0.32667912583013392 -0.5 0 0.34241931274853898 -0.48626627592747629 0 0.35355794028346382 -0.5 0 0.35355794028346382 -0.5 0 0.36699069976529591 -0.47941442300101939 0 0.35245232287903488 -0.47540902824370401 0 0.34241931274853898 -0.48626627592747629 0 0.35355794028346382 -0.5 0 0.35245232287903488 -0.47540902824370401 0 0.38043675473679361 -0.5 0 0.35355794028346382 -0.5 0 0.36699069976529591 -0.47941442300101939 0 0.36699069976529591 -0.47941442300101939 0 0.35892114014393811 -0.46787706628823927 0 0.37080875233841742 -0.46431963568614132 0 0.36699069976529591 -0.47941442300101939 0 0.35245232287903488 -0.47540902824370401 0 0.35892114014393811 -0.46787706628823927 0 0.34109534986485379 -0.46878507905440409 0 0.35245232287903488 -0.47540902824370401 0 0.35892114014393811 -0.46787706628823927 0 0.33949419077960852 -0.47698088993762372 0 0.34241931274853898 -0.48626627592747629 0 0.35245232287903488 -0.47540902824370401 0 0.34109534986485379 -0.46878507905440409 0 0.33949419077960852 -0.47698088993762372 0 0.35245232287903488 -0.47540902824370401 0 0.34109534986485379 -0.46878507905440409 0 0.35892114014393811 -0.46787706628823927 0 0.36325857587208848 -0.45145716545592779 0 0.34109534986485379 -0.46878507905440409 0 0.36325857587208848 -0.45145716545592779 0 0.34230919137919402 -0.4623449690782036 0 0.34109534986485379 -0.46878507905440409 0 0.36325857587208848 -0.45145716545592779 0 0.3794762097545199 -0.45304176116497369 0 0.37080875233841742 -0.46431963568614132 0 0.36325857587208848 -0.45145716545592779 0 0.35892114014393811 -0.46787706628823927 0 0.37080875233841742 -0.46431963568614132 0 0.36325857587208848 -0.45145716545592779 0 0.38542180187932351 -0.43412925185745183 0 0.36325857587208848 -0.45145716545592779 0 0.38542180187932351 -0.43412925185745183 0 0.36325857587208848 -0.45145716545592779 0 0.37043146183030851 -0.43455429844877907 0 0.36325857587208848 -0.45145716545592779 0 0.36050192895784322 -0.43825112190189108 0 0.37043146183030851 -0.43455429844877907 0 0.36325857587208848 -0.45145716545592779 0 0.34718532974416522 -0.44041141677602158 0 0.34230919137919402 -0.4623449690782036 0 0.36325857587208848 -0.45145716545592779 0 0.36050192895784322 -0.43825112190189108 0 0.34718532974416522 -0.44041141677602158 0 0.34718532974416522 -0.44041141677602158 0 0.34230919137919402 -0.4623449690782036 0 0.34718532974416522 -0.44041141677602158 0 0.32776610693099412 -0.45789438052584808 0 0.32820026904744942 -0.43654189802635179 0 0.34718532974416522 -0.44041141677602158 0 0.32776610693099412 -0.45789438052584808 0 0.34718532974416522 -0.44041141677602158 0 0.34230919137919402 -0.4623449690782036 0 0.32776610693099412 -0.45789438052584808 0 0.33424934133788547 -0.47139464726482072 0 0.34109534986485379 -0.46878507905440409 0 0.33563229936007949 -0.46481209465838608 0 0.34109534986485379 -0.46878507905440409 0 0.34230919137919402 -0.4623449690782036 0 0.33563229936007949 -0.46481209465838608 0 0.34230919137919402 -0.4623449690782036 0 0.33563229936007949 -0.46481209465838608 0 0.32776610693099412 -0.45789438052584808 0 0.33424934133788547 -0.47139464726482072 0 0.33563229936007949 -0.46481209465838608 0 0.32776610693099412 -0.45789438052584808 0 0.32725462706772912 -0.4830494191977136 0 0.32776610693099412 -0.45789438052584808 0 0.31987971869171411 -0.46499442984454781 0 0.32776610693099412 -0.45789438052584808 0 0.31987971869171411 -0.46499442984454781 0 0.31777529573362018 -0.45094571413883378 0 0.32776610693099412 -0.45789438052584808 0 0.31987971869171411 -0.46499442984454781 0 0.31987971869171411 -0.46499442984454781 0 0.31777529573362018 -0.45094571413883378 0 0.30694629494490039 -0.46148627959408978 0 0.31777529573362018 -0.45094571413883378 0 0.31348856467504582 -0.43974397925662578 0 0.30732241957864842 -0.44799002724206849 0 0.32776610693099412 -0.45789438052584808 0 0.31777529573362018 -0.45094571413883378 0 0.32820026904744942 -0.43654189802635179 0 0.32776610693099412 -0.45789438052584808 0 0.32820026904744942 -0.43654189802635179 0 0.31777529573362018 -0.45094571413883378 0 0.31348856467504582 -0.43974397925662578 0 0.32820026904744942 -0.43654189802635179 0 0.31348856467504582 -0.43974397925662578 0 0.32820026904744942 -0.43654189802635179 0 0.31155012279120792 -0.4261799084966188 0 0.3286344311639029 -0.41518941552685562 0 0.32820026904744942 -0.43654189802635179 0 0.31155012279120792 -0.4261799084966188 0 0.31580171997356049 -0.41408001043718501 0 0.3286344311639029 -0.41518941552685562 0 0.31155012279120792 -0.4261799084966188 0 0.31580171997356049 -0.41408001043718501 0 0.31939328908479531 -0.40420036587536351 0 0.3117458912064936 -0.40887966575935469 0 0.31580171997356049 -0.41408001043718501 0 0.3286344311639029 -0.41518941552685562 0 0.31939328908479531 -0.40420036587536351 0 0.33912473210084182 -0.42158041434692528 0 0.35371004971308728 -0.41106231386221448 0 0.33789358083560422 -0.40469702754318282 0 0.3286344311639029 -0.41518941552685562 0 0.33912473210084182 -0.42158041434692528 0 0.33789358083560422 -0.40469702754318282 0 0.3286344311639029 -0.41518941552685562 0 0.32820026904744942 -0.43654189802635179 0 0.34718532974416522 -0.44041141677602158 0 0.33912473210084182 -0.42158041434692528 0 0.32820026904744942 -0.43654189802635179 0 0.3286344311639029 -0.41518941552685562 0 0.33912473210084182 -0.42158041434692528 0 0.32820026904744942 -0.43654189802635179 0 0.34718532974416522 -0.44041141677602158 0 0.36404396958986479 -0.42523372443841828 0 0.34718532974416522 -0.44041141677602158 0 0.35371004971308728 -0.41106231386221448 0 0.36050192895784322 -0.43825112190189108 0 0.34718532974416522 -0.44041141677602158 0 0.36404396958986479 -0.42523372443841828 0 0.34718532974416522 -0.44041141677602158 0 0.36404396958986479 -0.42523372443841828 0 0.35371004971308728 -0.41106231386221448 0 0.34718532974416522 -0.44041141677602158 0 0.33912473210084182 -0.42158041434692528 0 0.35371004971308728 -0.41106231386221448 0 0.36050192895784322 -0.43825112190189108 0 0.36404396958986479 -0.42523372443841828 0 0.37043146183030851 -0.43455429844877907 0 0.37893103285242241 -0.42370022859020678 0 0.36404396958986479 -0.42523372443841828 0 0.37043146183030851 -0.43455429844877907 0 0.38090260943556398 -0.41005603210081443 0 0.36404396958986479 -0.42523372443841828 0 0.38090260943556398 -0.41005603210081443 0 0.36404396958986479 -0.42523372443841828 0 0.3669823844485528 -0.40180526575862158 0 0.38090260943556398 -0.41005603210081443 0 0.37893103285242241 -0.42370022859020678 0 0.36404396958986479 -0.42523372443841828 0 0.36404396958986479 -0.42523372443841828 0 0.35371004971308728 -0.41106231386221448 0 0.3669823844485528 -0.40180526575862158 0 0.35371004971308728 -0.41106231386221448 0 0.34448826113717101 -0.39033312735923509 0 0.33789358083560422 -0.40469702754318282 0 0.35371004971308728 -0.41106231386221448 0 0.36023476968201051 -0.3817132109484076 0 0.35371004971308728 -0.41106231386221448 0 0.36023476968201051 -0.3817132109484076 0 0.34448826113717101 -0.39033312735923509 0 0.35371004971308728 -0.41106231386221448 0 0.3669823844485528 -0.40180526575862158 0 0.36023476968201051 -0.3817132109484076 0 0.37695186048652118 -0.36885426210637501 0 0.37807376375083379 -0.38825733796244277 0 0.36023476968201051 -0.3817132109484076 0 0.37807376375083379 -0.38825733796244277 0 0.3669823844485528 -0.40180526575862158 0 0.36023476968201051 -0.3817132109484076 0 0.36023476968201051 -0.3817132109484076 0 0.34448826113717101 -0.39033312735923509 0 0.34639511780885779 -0.37427017529119 0 0.33696056854412382 -0.37917019109103228 0 0.32906859328035643 -0.39383693302735928 0 0.32064839962369818 -0.382533186437779 0 0.34448826113717101 -0.39033312735923509 0 0.33696056854412382 -0.37917019109103228 0 0.34639511780885779 -0.37427017529119 0 0.34448826113717101 -0.39033312735923509 0 0.33696056854412382 -0.37917019109103228 0 0.32906859328035643 -0.39383693302735928 0 0.34448826113717101 -0.39033312735923509 0 0.33789358083560422 -0.40469702754318282 0 0.32906859328035643 -0.39383693302735928 0 0.3286344311639029 -0.41518941552685562 0 0.32906859328035643 -0.39383693302735928 0 0.3286344311639029 -0.41518941552685562 0 0.33789358083560422 -0.40469702754318282 0 0.32906859328035643 -0.39383693302735928 0 0.32906859328035643 -0.39383693302735928 0 0.31939328908479531 -0.40420036587536351 0 0.31690841417972909 -0.39719100016278119 0 0.31690841417972909 -0.39719100016278119 0 0.32064839962369818 -0.382533186437779 0 0.30338807119084188 -0.40252439834944098 0 0.32906859328035643 -0.39383693302735928 0 0.31690841417972909 -0.39719100016278119 0 0.32064839962369818 -0.382533186437779 0 0.3286344311639029 -0.41518941552685562 0 0.32906859328035643 -0.39383693302735928 0 0.31939328908479531 -0.40420036587536351 0 0.31939328908479531 -0.40420036587536351 0 0.31690841417972909 -0.39719100016278119 0 0.31204371771895389 -0.40286011712396319 0 0.31939328908479531 -0.40420036587536351 0 0.31204371771895389 -0.40286011712396319 0 0.3117458912064936 -0.40887966575935469 0 0.32064839962369818 -0.382533186437779 0 0.30348702133364058 -0.37836537210184418 0 0.30524500321297648 -0.38904310817564253 0 0.30348702133364058 -0.37836537210184418 0 0.30524500321297648 -0.38904310817564253 0 0.29345652070372541 -0.39274947581350561 0 0.32064839962369818 -0.382533186437779 0 0.30338807119084188 -0.40252439834944098 0 0.32064839962369818 -0.382533186437779 0 0.30524500321297648 -0.38904310817564253 0 0.30338807119084188 -0.40252439834944098 0 0.31690841417972909 -0.39719100016278119 0 0.31204371771895389 -0.40286011712396319 0 0.30338807119084188 -0.40252439834944098 0 0.31204371771895389 -0.40286011712396319 0 0.30338807119084188 -0.40252439834944098 0 0.30536061425678651 -0.40726864231872928 0 0.30524500321297648 -0.38904310817564253 0 0.30338807119084188 -0.40252439834944098 0 0.29345652070372541 -0.39274947581350561 0 0.30338807119084188 -0.40252439834944098 0 0.29345652070372541 -0.39274947581350561 0 0.2818509000828377 -0.40933688977778621 0 0.29345652070372541 -0.39274947581350561 0 0.28059913151510613 -0.39396490926737321 0 0.2818509000828377 -0.40933688977778621 0 0.30348702133364058 -0.37836537210184418 0 0.2863626641732081 -0.3818537904257514 0 0.28553059043963769 -0.36725497998784901 0 0.29345652070372541 -0.39274947581350561 0 0.2863626641732081 -0.3818537904257514 0 0.28059913151510613 -0.39396490926737321 0 0.30348702133364058 -0.37836537210184418 0 0.29345652070372541 -0.39274947581350561 0 0.2863626641732081 -0.3818537904257514 0 0.30348702133364058 -0.37836537210184418 0 0.2863626641732081 -0.3818537904257514 0 0.2863626641732081 -0.3818537904257514 0 0.27682442903643628 -0.3779906594642013 0 0.28553059043963769 -0.36725497998784901 0 0.2863626641732081 -0.3818537904257514 0 0.26923830701277551 -0.38534220874965819 0 0.28059913151510613 -0.39396490926737321 0 0.2863626641732081 -0.3818537904257514 0 0.27682442903643628 -0.3779906594642013 0 0.26923830701277551 -0.38534220874965819 0 0.2863626641732081 -0.3818537904257514 0 0.26923830701277551 -0.38534220874965819 0 0.27040713458229709 -0.37871380043184177 0 0.26544419704030642 -0.37912344317440089 0 0.26868156352043798 -0.37129987208895321 0 0.27682442903643628 -0.3779906594642013 0 0.27040713458229709 -0.37871380043184177 0 0.26868156352043798 -0.37129987208895321 0 0.27682442903643628 -0.3779906594642013 0 0.26923830701277551 -0.38534220874965819 0 0.27040713458229709 -0.37871380043184177 0 0.26923830701277551 -0.38534220874965819 0 0.27040713458229709 -0.37871380043184177 0 0.26544419704030642 -0.37912344317440089 0 0.26923830701277551 -0.38534220874965819 0 0.25692860890622188 -0.38028312234872991 0 0.2459272988079019 -0.39009091536730189 0 0.26544419704030642 -0.37912344317440089 0 0.25692860890622188 -0.38028312234872991 0 0.25498720319204082 -0.36900585364671662 0 0.26923830701277551 -0.38534220874965819 0 0.26544419704030642 -0.37912344317440089 0 0.25692860890622188 -0.38028312234872991 0 0.26923830701277551 -0.38534220874965819 0 0.2459272988079019 -0.39009091536730189 0 0.25692860890622188 -0.38028312234872991 0 0.25498720319204082 -0.36900585364671662 0 0.242832845791846 -0.37596734926023812 0 0.26923830701277551 -0.38534220874965819 0 0.25557679531285399 -0.3975260680781334 0 0.2459272988079019 -0.39009091536730189 0 0.26923830701277551 -0.38534220874965819 0 0.25557679531285399 -0.3975260680781334 0 0.25834118590888883 -0.41140513723684341 0 0.26923830701277551 -0.38534220874965819 0 0.25834118590888883 -0.41140513723684341 0 0.25557679531285399 -0.3975260680781334 0 0.25834118590888883 -0.41140513723684341 0 0.24465775561146269 -0.40136153150520643 0 0.26923830701277551 -0.38534220874965819 0 0.27228632093789817 -0.39976997299683747 0 0.25834118590888883 -0.41140513723684341 0 0.26923830701277551 -0.38534220874965819 0 0.27228632093789817 -0.39976997299683747 0 0.28059913151510613 -0.39396490926737321 0 0.27228632093789817 -0.39976997299683747 0 0.28059913151510613 -0.39396490926737321 0 0.2818509000828377 -0.40933688977778621 0 0.25834118590888883 -0.41140513723684341 0 0.2818509000828377 -0.40933688977778621 0 0.25834118590888883 -0.41140513723684341 0 0.2723769632952695 -0.42523757835172082 0 0.2818509000828377 -0.40933688977778621 0 0.27228632093789817 -0.39976997299683747 0 0.25834118590888883 -0.41140513723684341 0 0.2818509000828377 -0.40933688977778621 0 0.25834118590888883 -0.41140513723684341 0 0.25126052337721477 -0.42834014231255368 0 0.24082720742464031 -0.41294591485880849 0 0.25834118590888883 -0.41140513723684341 0 0.25126052337721477 -0.42834014231255368 0 0.25834118590888883 -0.41140513723684341 0 0.25126052337721477 -0.42834014231255368 0 0.2723769632952695 -0.42523757835172082 0 0.25126052337721477 -0.42834014231255368 0 0.2723769632952695 -0.42523757835172082 0 0.26599167183246902 -0.44282250895753322 0 0.2723769632952695 -0.42523757835172082 0 0.28780348281939833 -0.4403698705268031 0 0.26599167183246902 -0.44282250895753322 0 0.2723769632952695 -0.42523757835172082 0 0.29480390451374527 -0.42125540147881407 0 0.28780348281939833 -0.4403698705268031 0 0.29480390451374527 -0.42125540147881407 0 0.30259471622430351 -0.43706234837925578 0 0.28780348281939833 -0.4403698705268031 0 0.2723769632952695 -0.42523757835172082 0 0.2818509000828377 -0.40933688977778621 0 0.29480390451374527 -0.42125540147881407 0 0.30338807119084188 -0.40252439834944098 0 0.2818509000828377 -0.40933688977778621 0 0.30536061425678651 -0.40726864231872928 0 0.2818509000828377 -0.40933688977778621 0 0.29480390451374527 -0.42125540147881407 0 0.30536061425678651 -0.40726864231872928 0 0.2818509000828377 -0.40933688977778621 0 0.30536061425678651 -0.40726864231872928 0 0.29480390451374527 -0.42125540147881407 0 0.30536061425678651 -0.40726864231872928 0 0.30685767964209298 -0.41729850363643189 0 0.29480390451374527 -0.42125540147881407 0 0.30685767964209298 -0.41729850363643189 0 0.31155012279120792 -0.4261799084966188 0 0.31580171997356049 -0.41408001043718501 0 0.3117458912064936 -0.40887966575935469 0 0.30685767964209298 -0.41729850363643189 0 0.30536061425678651 -0.40726864231872928 0 0.3117458912064936 -0.40887966575935469 0 0.30685767964209298 -0.41729850363643189 0 0.31204371771895389 -0.40286011712396319 0 0.30536061425678651 -0.40726864231872928 0 0.3117458912064936 -0.40887966575935469 0 0.31580171997356049 -0.41408001043718501 0 0.30685767964209298 -0.41729850363643189 0 0.31155012279120792 -0.4261799084966188 0 0.29480390451374527 -0.42125540147881407 0 0.31155012279120792 -0.4261799084966188 0 0.30259471622430351 -0.43706234837925578 0 0.31348856467504582 -0.43974397925662578 0 0.31155012279120792 -0.4261799084966188 0 0.30259471622430351 -0.43706234837925578 0 0.30259471622430351 -0.43706234837925578 0 0.30732241957864842 -0.44799002724206849 0 0.2956289731597373 -0.45254563720417301 0 0.31348856467504582 -0.43974397925662578 0 0.30259471622430351 -0.43706234837925578 0 0.30732241957864842 -0.44799002724206849 0 0.31777529573362018 -0.45094571413883378 0 0.30732241957864842 -0.44799002724206849 0 0.30694629494490039 -0.46148627959408978 0 0.30694629494490039 -0.46148627959408978 0 0.2956289731597373 -0.45254563720417301 0 0.29122965654909971 -0.47128834531678648 0 0.30732241957864842 -0.44799002724206849 0 0.30694629494490039 -0.46148627959408978 0 0.2956289731597373 -0.45254563720417301 0 0.2956289731597373 -0.45254563720417301 0 0.27787726884207359 -0.45707695216603411 0 0.29122965654909971 -0.47128834531678648 0 0.2956289731597373 -0.45254563720417301 0 0.28780348281939833 -0.4403698705268031 0 0.27787726884207359 -0.45707695216603411 0 0.30259471622430351 -0.43706234837925578 0 0.2956289731597373 -0.45254563720417301 0 0.28780348281939833 -0.4403698705268031 0 0.28780348281939833 -0.4403698705268031 0 0.26599167183246902 -0.44282250895753322 0 0.27787726884207359 -0.45707695216603411 0 0.26599167183246902 -0.44282250895753322 0 0.25614324648350772 -0.45631004300875472 0 0.27787726884207359 -0.45707695216603411 0 0.28780348281939833 -0.4403698705268031 0 0.26599167183246902 -0.44282250895753322 0 0.25126052337721477 -0.42834014231255368 0 0.26599167183246902 -0.44282250895753322 0 0.24417986084553961 -0.44527514738826363 0 0.26599167183246902 -0.44282250895753322 0 0.25614324648350772 -0.45631004300875472 0 0.24417986084553961 -0.44527514738826363 0 0.26599167183246902 -0.44282250895753322 0 0.24417986084553961 -0.44527514738826363 0 0.25614324648350772 -0.45631004300875472 0 0.27787726884207359 -0.45707695216603411 0 0.25706748600020718 -0.47222361103605193 0 0.27787726884207359 -0.45707695216603411 0 0.27580640162159731 -0.48196383510826152 0 0.25706748600020718 -0.47222361103605193 0 0.27580640162159731 -0.48196383510826152 0 0.25706748600020718 -0.47222361103605193 0 0.25890284990802231 -0.48765868210896662 0 0.25706748600020718 -0.47222361103605193 0 0.25890284990802231 -0.48765868210896662 0 0.24284983233876559 -0.48389860352274389 0 0.25890284990802231 -0.48765868210896662 0 0.27292149692347428 -0.5 0 0.24604268247014441 -0.5 0 0.27580640162159731 -0.48196383510826152 0 0.25890284990802231 -0.48765868210896662 0 0.27292149692347428 -0.5 0 0.27580640162159731 -0.48196383510826152 0 0.27292149692347428 -0.5 0 0.29980031137680418 -0.5 0 0.27580640162159731 -0.48196383510826152 0 0.29122965654909971 -0.47128834531678648 0 0.29980031137680418 -0.5 0 0.27787726884207359 -0.45707695216603411 0 0.27580640162159731 -0.48196383510826152 0 0.29122965654909971 -0.47128834531678648 0 0.30694629494490039 -0.46148627959408978 0 0.29122965654909971 -0.47128834531678648 0 0.30795362451826258 -0.48014440681922033 0 0.29122965654909971 -0.47128834531678648 0 0.30795362451826258 -0.48014440681922033 0 0.29980031137680418 -0.5 0 0.31987971869171411 -0.46499442984454781 0 0.30694629494490039 -0.46148627959408978 0 0.30795362451826258 -0.48014440681922033 0 0.31542192219823251 -0.49079845650423348 0 0.30795362451826258 -0.48014440681922033 0 0.29980031137680418 -0.5 0 0.33885337876562532 -0.29440636115076219 0 0.34582104006026432 -0.28561723856343929 0 0.34633431705332007 -0.30203892294892759 0 0.33191425607908348 -0.28763079222839139 0 0.3313439018698332 -0.30233849086229042 0 0.32314312110165211 -0.29427648690177921 0 0.33191425607908348 -0.28763079222839139 0 0.33885337876562532 -0.29440636115076219 0 0.3313439018698332 -0.30233849086229042 0 0.33191425607908348 -0.28763079222839139 0 0.33583307750929042 -0.27937812473527179 0 0.34582104006026432 -0.28561723856343929 0 0.33191425607908348 -0.28763079222839139 0 0.33885337876562532 -0.29440636115076219 0 0.34582104006026432 -0.28561723856343929 0 0.3313439018698332 -0.30233849086229042 0 0.33951260742318801 -0.32168540229175302 0 0.32317977866177072 -0.31323277933141169 0 0.3313439018698332 -0.30233849086229042 0 0.34633431705332007 -0.30203892294892759 0 0.33951260742318801 -0.32168540229175302 0 0.33885337876562532 -0.29440636115076219 0 0.3313439018698332 -0.30233849086229042 0 0.34633431705332007 -0.30203892294892759 0 0.3313439018698332 -0.30233849086229042 0 0.31975139505035599 -0.30463799995813551 0 0.32314312110165211 -0.29427648690177921 0 0.3313439018698332 -0.30233849086229042 0 0.31975139505035599 -0.30463799995813551 0 0.32317977866177072 -0.31323277933141169 0 0.31975139505035599 -0.30463799995813551 0 0.32317977866177072 -0.31323277933141169 0 0.31136203896217979 -0.31154956542103862 0 0.31975139505035599 -0.30463799995813551 0 0.30972813465634452 -0.30179267727415732 0 0.31136203896217979 -0.31154956542103862 0 0.31975139505035599 -0.30463799995813551 0 0.32314312110165211 -0.29427648690177921 0 0.30972813465634452 -0.30179267727415732 0 0.32314312110165211 -0.29427648690177921 0 0.32377528059792637 -0.27617609375230762 0 0.30972813465634452 -0.30179267727415732 0 0.32377528059792637 -0.27617609375230762 0 0.30972813465634452 -0.30179267727415732 0 0.30593962381117101 -0.28105107859749251 0 0.32377528059792637 -0.27617609375230762 0 0.30972813465634452 -0.30179267727415732 0 0.33191425607908348 -0.28763079222839139 0 0.32314312110165211 -0.29427648690177921 0 0.32377528059792637 -0.27617609375230762 0 0.32377528059792637 -0.27617609375230762 0 0.31348716137170268 -0.26553265526387199 0 0.30593962381117101 -0.28105107859749251 0 0.31348716137170268 -0.26553265526387199 0 0.32654545347095221 -0.25186039630760082 0 0.31071280805396301 -0.25322095810988843 0 0.32377528059792637 -0.27617609375230762 0 0.31348716137170268 -0.26553265526387199 0 0.32654545347095221 -0.25186039630760082 0 0.32377528059792637 -0.27617609375230762 0 0.33782242653950922 -0.25055951023045853 0 0.34182173329988758 -0.26808837439694883 0 0.32377528059792637 -0.27617609375230762 0 0.32654545347095221 -0.25186039630760082 0 0.33782242653950922 -0.25055951023045853 0 0.32377528059792637 -0.27617609375230762 0 0.33782242653950922 -0.25055951023045853 0 0.34364355802833713 -0.26013278586049449 0 0.33782242653950922 -0.25055951023045853 0 0.34182173329988758 -0.26808837439694883 0 0.33782242653950922 -0.25055951023045853 0 0.34182173329988758 -0.26808837439694883 0 0.33944546394251268 -0.24759971516845311 0 0.34364355802833713 -0.26013278586049449 0 0.33782242653950922 -0.25055951023045853 0 0.32377528059792637 -0.27617609375230762 0 0.34182173329988758 -0.26808837439694883 0 0.33583307750929042 -0.27937812473527179 0 0.34182173329988758 -0.26808837439694883 0 0.33583307750929042 -0.27937812473527179 0 0.34582104006026432 -0.28561723856343929 0 0.33191425607908348 -0.28763079222839139 0 0.32377528059792637 -0.27617609375230762 0 0.33583307750929042 -0.27937812473527179 0 0.34364355802833713 -0.26013278586049449 0 0.35398758770981331 -0.28007448754046588 0 0.34364355802833713 -0.26013278586049449 0 0.34182173329988758 -0.26808837439694883 0 0.35398758770981331 -0.28007448754046588 0 0.34182173329988758 -0.26808837439694883 0 0.35398758770981331 -0.28007448754046588 0 0.34582104006026432 -0.28561723856343929 0 0.34364355802833713 -0.26013278586049449 0 0.35653445796633942 -0.26832741004342209 0 0.35398758770981331 -0.28007448754046588 0 0.34182173329988758 -0.26808837439694883 0 0.34582104006026432 -0.28561723856343929 0 0.35653445796633942 -0.26832741004342209 0 0.35398758770981331 -0.28007448754046588 0 0.36489172183374191 -0.27417931597143241 0 0.33944546394251268 -0.24759971516845311 0 0.36642265066647561 -0.26103092708009029 0 0.33944546394251268 -0.24759971516845311 0 0.34364355802833713 -0.26013278586049449 0 0.36642265066647561 -0.26103092708009029 0 0.33944546394251268 -0.24759971516845311 0 0.35665706999084779 -0.24683748449447171 0 0.36642265066647561 -0.26103092708009029 0 0.34364355802833713 -0.26013278586049449 0 0.35653445796633942 -0.26832741004342209 0 0.36642265066647561 -0.26103092708009029 0 0.35665706999084779 -0.24683748449447171 0 0.37672301458721702 -0.24879166597254401 0 0.36642265066647561 -0.26103092708009029 0 0.35398758770981331 -0.28007448754046588 0 0.36489172183374191 -0.27417931597143241 0 0.36613343536596399 -0.28579093609951589 0 0.35653445796633942 -0.26832741004342209 0 0.36642265066647561 -0.26103092708009029 0 0.36489172183374191 -0.27417931597143241 0 0.37522903347685821 -0.27329080538693917 0 0.36642265066647561 -0.26103092708009029 0 0.36489172183374191 -0.27417931597143241 0 0.36489172183374191 -0.27417931597143241 0 0.37437745269440093 -0.28151076411347892 0 0.36613343536596399 -0.28579093609951589 0 0.37522903347685821 -0.27329080538693917 0 0.36489172183374191 -0.27417931597143241 0 0.37437745269440093 -0.28151076411347892 0 0.37437745269440093 -0.28151076411347892 0 0.37378481346472991 -0.29296134938855722 0 0.36613343536596399 -0.28579093609951589 0 0.35398758770981331 -0.28007448754046588 0 0.36613343536596399 -0.28579093609951589 0 0.3643316173912895 -0.30001618922043721 0 0.37378481346472991 -0.29296134938855722 0 0.36613343536596399 -0.28579093609951589 0 0.3643316173912895 -0.30001618922043721 0 0.34582104006026432 -0.28561723856343929 0 0.34633431705332007 -0.30203892294892759 0 0.3643316173912895 -0.30001618922043721 0 0.35398758770981331 -0.28007448754046588 0 0.3643316173912895 -0.30001618922043721 0 0.35398758770981331 -0.28007448754046588 0 0.34582104006026432 -0.28561723856343929 0 0.3643316173912895 -0.30001618922043721 0 0.3534789725297327 -0.31000168959135932 0 0.34633431705332007 -0.30203892294892759 0 0.33951260742318801 -0.32168540229175302 0 0.3534789725297327 -0.31000168959135932 0 0.34633431705332007 -0.30203892294892759 0 0.3643316173912895 -0.30001618922043721 0 0.3534789725297327 -0.31000168959135932 0 0.3643316173912895 -0.30001618922043721 0 0.36373734825113307 -0.31626624390431962 0 0.3643316173912895 -0.30001618922043721 0 0.36373734825113307 -0.31626624390431962 0 0.37467564707276402 -0.31995789090040938 0 0.3643316173912895 -0.30001618922043721 0 0.37467564707276402 -0.31995789090040938 0 0.3643316173912895 -0.30001618922043721 0 0.37403223464996899 -0.30575991864250951 0 0.37467564707276402 -0.31995789090040938 0 0.37378481346472991 -0.29296134938855722 0 0.3643316173912895 -0.30001618922043721 0 0.37403223464996899 -0.30575991864250951 0 0.36373734825113307 -0.31626624390431962 0 0.37467564707276402 -0.31995789090040938 0 0.35379550038179008 -0.32785877097711869 0 0.37824998550195549 -0.33999355215173233 0 0.35516905648941122 -0.34255076261445522 0 0.37467564707276402 -0.31995789090040938 0 0.35516905648941122 -0.34255076261445522 0 0.37467564707276402 -0.31995789090040938 0 0.35516905648941122 -0.34255076261445522 0 0.35379550038179008 -0.32785877097711869 0 0.38057046934759559 -0.33132220354073461 0 0.37467564707276402 -0.31995789090040938 0 0.35516905648941122 -0.34255076261445522 0 0.37824998550195549 -0.33999355215173233 0 0.38057046934759559 -0.33132220354073461 0 0.35516905648941122 -0.34255076261445522 0 0.35516905648941122 -0.34255076261445522 0 0.35379550038179008 -0.32785877097711869 0 0.33970312645525519 -0.34426428281451299 0 0.35379550038179008 -0.32785877097711869 0 0.33970312645525519 -0.34426428281451299 0 0.33951260742318801 -0.32168540229175302 0 0.35516905648941122 -0.34255076261445522 0 0.33970312645525519 -0.34426428281451299 0 0.36373734825113307 -0.31626624390431962 0 0.35379550038179008 -0.32785877097711869 0 0.33951260742318801 -0.32168540229175302 0 0.36373734825113307 -0.31626624390431962 0 0.33951260742318801 -0.32168540229175302 0 0.3534789725297327 -0.31000168959135932 0 0.36373734825113307 -0.31626624390431962 0 0.33951260742318801 -0.32168540229175302 0 0.37695186048652118 -0.36885426210637501 0 0.36023476968201051 -0.3817132109484076 0 0.36675948965093358 -0.35236410803460089 0 0.36023476968201051 -0.3817132109484076 0 0.36675948965093358 -0.35236410803460089 0 0.35238326162442918 -0.35759237253115789 0 0.36023476968201051 -0.3817132109484076 0 0.36675948965093358 -0.35236410803460089 0 0.37943243478071031 -0.35354406210900052 0 0.37695186048652118 -0.36885426210637501 0 0.36675948965093358 -0.35236410803460089 0 0.37824998550195549 -0.33999355215173233 0 0.35516905648941122 -0.34255076261445522 0 0.36675948965093358 -0.35236410803460089 0 0.37943243478071031 -0.35354406210900052 0 0.37824998550195549 -0.33999355215173233 0 0.36675948965093358 -0.35236410803460089 0 0.35516905648941122 -0.34255076261445522 0 0.35238326162442918 -0.35759237253115789 0 0.33790872805655459 -0.36254197452611708 0 0.35516905648941122 -0.34255076261445522 0 0.33790872805655459 -0.36254197452611708 0 0.35516905648941122 -0.34255076261445522 0 0.33790872805655459 -0.36254197452611708 0 0.33970312645525519 -0.34426428281451299 0 0.35516905648941122 -0.34255076261445522 0 0.36675948965093358 -0.35236410803460089 0 0.35238326162442918 -0.35759237253115789 0 0.36023476968201051 -0.3817132109484076 0 0.35238326162442918 -0.35759237253115789 0 0.34639511780885779 -0.37427017529119 0 0.35238326162442918 -0.35759237253115789 0 0.34639511780885779 -0.37427017529119 0 0.33790872805655459 -0.36254197452611708 0 0.33696056854412382 -0.37917019109103228 0 0.32064839962369818 -0.382533186437779 0 0.33790872805655459 -0.36254197452611708 0 0.32064839962369818 -0.382533186437779 0 0.33790872805655459 -0.36254197452611708 0 0.33696056854412382 -0.37917019109103228 0 0.34639511780885779 -0.37427017529119 0 0.33790872805655459 -0.36254197452611708 0 0.32064839962369818 -0.382533186437779 0 0.33790872805655459 -0.36254197452611708 0 0.32676405694028299 -0.35781631989411922 0 0.33790872805655459 -0.36254197452611708 0 0.33970312645525519 -0.34426428281451299 0 0.32676405694028299 -0.35781631989411922 0 0.33970312645525519 -0.34426428281451299 0 0.32423719642109922 -0.34597780301457048 0 0.32676405694028299 -0.35781631989411922 0 0.33970312645525519 -0.34426428281451299 0 0.32423719642109922 -0.34597780301457048 0 0.32423719642109922 -0.34597780301457048 0 0.31339811963427661 -0.3603557194742753 0 0.30753395186059512 -0.34233973996546557 0 0.32423719642109922 -0.34597780301457048 0 0.32676405694028299 -0.35781631989411922 0 0.31339811963427661 -0.3603557194742753 0 0.32064839962369818 -0.382533186437779 0 0.32676405694028299 -0.35781631989411922 0 0.31339811963427661 -0.3603557194742753 0 0.32064839962369818 -0.382533186437779 0 0.30348702133364058 -0.37836537210184418 0 0.31339811963427661 -0.3603557194742753 0 0.33951260742318801 -0.32168540229175302 0 0.32995595236787378 -0.33427017249997709 0 0.31528786659524299 -0.32710456067918631 0 0.33970312645525519 -0.34426428281451299 0 0.33951260742318801 -0.32168540229175302 0 0.32995595236787378 -0.33427017249997709 0 0.33970312645525519 -0.34426428281451299 0 0.32423719642109922 -0.34597780301457048 0 0.32995595236787378 -0.33427017249997709 0 0.32423719642109922 -0.34597780301457048 0 0.32995595236787378 -0.33427017249997709 0 0.31528786659524299 -0.32710456067918631 0 0.32423719642109922 -0.34597780301457048 0 0.31528786659524299 -0.32710456067918631 0 0.30753395186059512 -0.34233973996546557 0 0.33951260742318801 -0.32168540229175302 0 0.31528786659524299 -0.32710456067918631 0 0.32317977866177072 -0.31323277933141169 0 0.33951260742318801 -0.32168540229175302 0 0.31528786659524299 -0.32710456067918631 0 0.31528786659524299 -0.32710456067918631 0 0.32317977866177072 -0.31323277933141169 0 0.31136203896217979 -0.31154956542103862 0 0.31528786659524299 -0.32710456067918631 0 0.29106312576729809 -0.33252371906661948 0 0.29590793107210478 -0.31839339810666162 0 0.31528786659524299 -0.32710456067918631 0 0.29590793107210478 -0.31839339810666162 0 0.31136203896217979 -0.31154956542103862 0 0.30753395186059512 -0.34233973996546557 0 0.29106312576729809 -0.33252371906661948 0 0.29771809162634338 -0.35510189543187382 0 0.31528786659524299 -0.32710456067918631 0 0.29106312576729809 -0.33252371906661948 0 0.31528786659524299 -0.32710456067918631 0 0.30753395186059512 -0.34233973996546557 0 0.29106312576729809 -0.33252371906661948 0 0.29106312576729809 -0.33252371906661948 0 0.29590793107210478 -0.31839339810666162 0 0.27627542773723512 -0.32535514728647558 0 0.29590793107210478 -0.31839339810666162 0 0.27627542773723512 -0.32535514728647558 0 0.2772032834049557 -0.30780168760098991 0 0.30348702133364058 -0.37836537210184418 0 0.31339811963427661 -0.3603557194742753 0 0.29771809162634338 -0.35510189543187382 0 0.31339811963427661 -0.3603557194742753 0 0.30753395186059512 -0.34233973996546557 0 0.29771809162634338 -0.35510189543187382 0 0.29106312576729809 -0.33252371906661948 0 0.29771809162634338 -0.35510189543187382 0 0.28022169187585499 -0.34960308900527082 0 0.29771809162634338 -0.35510189543187382 0 0.28553059043963769 -0.36725497998784901 0 0.28022169187585499 -0.34960308900527082 0 0.30348702133364058 -0.37836537210184418 0 0.29771809162634338 -0.35510189543187382 0 0.28553059043963769 -0.36725497998784901 0 0.26868156352043798 -0.37129987208895321 0 0.27611478877502349 -0.36943417169444831 0 0.2736536800120577 -0.36120860083818429 0 0.27682442903643628 -0.3779906594642013 0 0.28553059043963769 -0.36725497998784901 0 0.27611478877502349 -0.36943417169444831 0 0.27682442903643628 -0.3779906594642013 0 0.26868156352043798 -0.37129987208895321 0 0.27611478877502349 -0.36943417169444831 0 0.28553059043963769 -0.36725497998784901 0 0.27611478877502349 -0.36943417169444831 0 0.2736536800120577 -0.36120860083818429 0 0.26868156352043798 -0.37129987208895321 0 0.2736536800120577 -0.36120860083818429 0 0.26243895115967791 -0.36126560689837661 0 0.2736536800120577 -0.36120860083818429 0 0.28022169187585499 -0.34960308900527082 0 0.26363462204014693 -0.35151243856530862 0 0.28022169187585499 -0.34960308900527082 0 0.26363462204014693 -0.35151243856530862 0 0.26683838493935308 -0.33794287745405288 0 0.28553059043963769 -0.36725497998784901 0 0.2736536800120577 -0.36120860083818429 0 0.28022169187585499 -0.34960308900527082 0 0.2736536800120577 -0.36120860083818429 0 0.26363462204014693 -0.35151243856530862 0 0.26243895115967791 -0.36126560689837661 0 0.26363462204014693 -0.35151243856530862 0 0.26683838493935308 -0.33794287745405288 0 0.25639758549380293 -0.34191423803772991 0 0.26363462204014693 -0.35151243856530862 0 0.25123768703370608 -0.35330126935272038 0 0.25639758549380293 -0.34191423803772991 0 0.25123768703370608 -0.35330126935272038 0 0.25639758549380293 -0.34191423803772991 0 0.2431082137690814 -0.33809774968166451 0 0.26363462204014693 -0.35151243856530862 0 0.25123768703370608 -0.35330126935272038 0 0.26243895115967791 -0.36126560689837661 0 0.25123768703370608 -0.35330126935272038 0 0.26243895115967791 -0.36126560689837661 0 0.25498720319204082 -0.36900585364671662 0 0.26544419704030642 -0.37912344317440089 0 0.26868156352043798 -0.37129987208895321 0 0.25498720319204082 -0.36900585364671662 0 0.26868156352043798 -0.37129987208895321 0 0.26243895115967791 -0.36126560689837661 0 0.25498720319204082 -0.36900585364671662 0 0.27627542773723512 -0.32535514728647558 0 0.26551792236663962 -0.31881000561372919 0 0.2772032834049557 -0.30780168760098991 0 0.27627542773723512 -0.32535514728647558 0 0.25701690261161758 -0.33029611939492642 0 0.26551792236663962 -0.31881000561372919 0 0.27627542773723512 -0.32535514728647558 0 0.26683838493935308 -0.33794287745405288 0 0.25701690261161758 -0.33029611939492642 0 0.29106312576729809 -0.33252371906661948 0 0.28022169187585499 -0.34960308900527082 0 0.26683838493935308 -0.33794287745405288 0 0.29106312576729809 -0.33252371906661948 0 0.27627542773723512 -0.32535514728647558 0 0.26683838493935308 -0.33794287745405288 0 0.29106312576729809 -0.33252371906661948 0 0.26683838493935308 -0.33794287745405288 0 0.26683838493935308 -0.33794287745405288 0 0.25639758549380293 -0.34191423803772991 0 0.25701690261161758 -0.33029611939492642 0 0.25639758549380293 -0.34191423803772991 0 0.25701690261161758 -0.33029611939492642 0 0.2431082137690814 -0.33809774968166451 0 0.25701690261161758 -0.33029611939492642 0 0.25086339927847218 -0.31068236739442168 0 0.2423481908646003 -0.3237944287766194 0 0.25701690261161758 -0.33029611939492642 0 0.26551792236663962 -0.31881000561372919 0 0.25086339927847218 -0.31068236739442168 0 0.25701690261161758 -0.33029611939492642 0 0.25086339927847218 -0.31068236739442168 0 0.25086339927847218 -0.31068236739442168 0 0.25446377432512612 -0.30286586320221309 0 0.24776843283644809 -0.3008174333954784 0 0.25086339927847218 -0.31068236739442168 0 0.2772032834049557 -0.30780168760098991 0 0.25086339927847218 -0.31068236739442168 0 0.25446377432512612 -0.30286586320221309 0 0.2772032834049557 -0.30780168760098991 0 0.26551792236663962 -0.31881000561372919 0 0.25086339927847218 -0.31068236739442168 0 0.2772032834049557 -0.30780168760098991 0 0.25446377432512612 -0.30286586320221309 0 0.25604046375313122 -0.2949213332279822 0 0.24776843283644809 -0.3008174333954784 0 0.25446377432512612 -0.30286586320221309 0 0.24776843283644809 -0.3008174333954784 0 0.25446377432512612 -0.30286586320221309 0 0.25604046375313122 -0.2949213332279822 0 0.26789382311303012 -0.29584193047881979 0 0.25625752529558909 -0.28698173806220589 0 0.26789382311303012 -0.29584193047881979 0 0.26325857627211779 -0.27964988826541648 0 0.25625752529558909 -0.28698173806220589 0 0.25022480277021308 -0.28279142013568742 0 0.25322681224375199 -0.27651438500400022 0 0.25625752529558909 -0.28698173806220589 0 0.25022480277021308 -0.28279142013568742 0 0.24869199004326281 -0.29071129202441531 0 0.25604046375313122 -0.2949213332279822 0 0.24869199004326281 -0.29071129202441531 0 0.24776843283644809 -0.3008174333954784 0 0.25625752529558909 -0.28698173806220589 0 0.25604046375313122 -0.2949213332279822 0 0.24869199004326281 -0.29071129202441531 0 0.25625752529558909 -0.28698173806220589 0 0.25604046375313122 -0.2949213332279822 0 0.26789382311303012 -0.29584193047881979 0 0.27330524408864559 -0.28148547968846821 0 0.26789382311303012 -0.29584193047881979 0 0.26325857627211779 -0.27964988826541648 0 0.27330524408864559 -0.28148547968846821 0 0.26789382311303012 -0.29584193047881979 0 0.2788370150043904 -0.29098390786030098 0 0.27330524408864559 -0.28148547968846821 0 0.2788370150043904 -0.29098390786030098 0 0.28273136609175542 -0.27861764693894647 0 0.25446377432512612 -0.30286586320221309 0 0.26789382311303012 -0.29584193047881979 0 0.2772032834049557 -0.30780168760098991 0 0.26789382311303012 -0.29584193047881979 0 0.2788370150043904 -0.29098390786030098 0 0.2772032834049557 -0.30780168760098991 0 0.2788370150043904 -0.29098390786030098 0 0.2772032834049557 -0.30780168760098991 0 0.29088539845366929 -0.29690427547828258 0 0.29590793107210478 -0.31839339810666162 0 0.2772032834049557 -0.30780168760098991 0 0.30354316753143901 -0.30492100780755721 0 0.2772032834049557 -0.30780168760098991 0 0.29088539845366929 -0.29690427547828258 0 0.30354316753143901 -0.30492100780755721 0 0.2772032834049557 -0.30780168760098991 0 0.30354316753143901 -0.30492100780755721 0 0.2788370150043904 -0.29098390786030098 0 0.29088539845366929 -0.29690427547828258 0 0.28739863398512339 -0.28687343883761229 0 0.2788370150043904 -0.29098390786030098 0 0.28739863398512339 -0.28687343883761229 0 0.28273136609175542 -0.27861764693894647 0 0.28739863398512339 -0.28687343883761229 0 0.29631626373528303 -0.28745841315880249 0 0.2926933119130653 -0.27579168963996692 0 0.29088539845366929 -0.29690427547828258 0 0.28739863398512339 -0.28687343883761229 0 0.29631626373528303 -0.28745841315880249 0 0.29088539845366929 -0.29690427547828258 0 0.29631626373528303 -0.28745841315880249 0 0.30128251763758129 -0.29442549046325839 0 0.30128251763758129 -0.29442549046325839 0 0.30972813465634452 -0.30179267727415732 0 0.30593962381117101 -0.28105107859749251 0 0.29631626373528303 -0.28745841315880249 0 0.30128251763758129 -0.29442549046325839 0 0.30593962381117101 -0.28105107859749251 0 0.29631626373528303 -0.28745841315880249 0 0.30593962381117101 -0.28105107859749251 0 0.2926933119130653 -0.27579168963996692 0 0.30128251763758129 -0.29442549046325839 0 0.30972813465634452 -0.30179267727415732 0 0.30354316753143901 -0.30492100780755721 0 0.30972813465634452 -0.30179267727415732 0 0.31136203896217979 -0.31154956542103862 0 0.30354316753143901 -0.30492100780755721 0 0.29590793107210478 -0.31839339810666162 0 0.31136203896217979 -0.31154956542103862 0 0.30354316753143901 -0.30492100780755721 0 0.29088539845366929 -0.29690427547828258 0 0.30128251763758129 -0.29442549046325839 0 0.30354316753143901 -0.30492100780755721 0 0.30046264092450109 -0.26535474955207089 0 0.31071280805396301 -0.25322095810988843 0 0.29515246101341941 -0.25144823455394449 0 0.31348716137170268 -0.26553265526387199 0 0.30046264092450109 -0.26535474955207089 0 0.31071280805396301 -0.25322095810988843 0 0.31348716137170268 -0.26553265526387199 0 0.30046264092450109 -0.26535474955207089 0 0.30593962381117101 -0.28105107859749251 0 0.30046264092450109 -0.26535474955207089 0 0.30593962381117101 -0.28105107859749251 0 0.2926933119130653 -0.27579168963996692 0 0.30046264092450109 -0.26535474955207089 0 0.2926933119130653 -0.27579168963996692 0 0.28373898675636078 -0.26573195978185182 0 0.28739863398512339 -0.28687343883761229 0 0.2926933119130653 -0.27579168963996692 0 0.28273136609175542 -0.27861764693894647 0 0.2926933119130653 -0.27579168963996692 0 0.28273136609175542 -0.27861764693894647 0 0.28373898675636078 -0.26573195978185182 0 0.30046264092450109 -0.26535474955207089 0 0.28373898675636078 -0.26573195978185182 0 0.29515246101341941 -0.25144823455394449 0 0.28373898675636078 -0.26573195978185182 0 0.29515246101341941 -0.25144823455394449 0 0.26910092132095192 -0.25375690703995157 0 0.26910092132095192 -0.25375690703995157 0 0.2707083140504985 -0.2710174460499114 0 0.257565180952535 -0.26757297057990331 0 0.28373898675636078 -0.26573195978185182 0 0.26910092132095192 -0.25375690703995157 0 0.2707083140504985 -0.2710174460499114 0 0.27330524408864559 -0.28148547968846821 0 0.28273136609175542 -0.27861764693894647 0 0.2707083140504985 -0.2710174460499114 0 0.28273136609175542 -0.27861764693894647 0 0.28373898675636078 -0.26573195978185182 0 0.2707083140504985 -0.2710174460499114 0 0.27330524408864559 -0.28148547968846821 0 0.2707083140504985 -0.2710174460499114 0 0.26325857627211779 -0.27964988826541648 0 0.26325857627211779 -0.27964988826541648 0 0.257565180952535 -0.26757297057990331 0 0.25322681224375199 -0.27651438500400022 0 0.2707083140504985 -0.2710174460499114 0 0.26325857627211779 -0.27964988826541648 0 0.257565180952535 -0.26757297057990331 0 0.257565180952535 -0.26757297057990331 0 0.25322681224375199 -0.27651438500400022 0 0.24573736844452179 -0.27130073928653498 0 0.25625752529558909 -0.28698173806220589 0 0.26325857627211779 -0.27964988826541648 0 0.25322681224375199 -0.27651438500400022 0 0.25022480277021308 -0.28279142013568742 0 0.25322681224375199 -0.27651438500400022 0 0.24757192396087541 -0.27775477871457482 0 0.25254176980284321 -0.24245692298047161 0 0.26910092132095192 -0.25375690703995157 0 0.25404973924343338 -0.25618606862097643 0 0.26910092132095192 -0.25375690703995157 0 0.257565180952535 -0.26757297057990331 0 0.25404973924343338 -0.25618606862097643 0 0.257565180952535 -0.26757297057990331 0 0.25404973924343338 -0.25618606862097643 0 0.24620137906514489 -0.26357843379564189 0 0.24620137906514489 -0.26357843379564189 0 0.24010795572092519 -0.27640033467708042 0 0.2330558259540863 -0.25392228975962328 0 0.24010795572092519 -0.27640033467708042 0 0.2330558259540863 -0.25392228975962328 0 0.25404973924343338 -0.25618606862097643 0 0.24396828193444881 -0.25131377364279722 0 0.24620137906514489 -0.26357843379564189 0 0.24396828193444881 -0.25131377364279722 0 0.24620137906514489 -0.26357843379564189 0 0.2330558259540863 -0.25392228975962328 0 0.24532132067530391 -0.28079020595513859 0 0.24265734797019839 -0.27742701335793651 0 0.24010795572092519 -0.27640033467708042 0 0.24532132067530391 -0.28079020595513859 0 0.24265734797019839 -0.27742701335793651 0 0.24757192396087541 -0.27775477871457482 0 0.25022480277021308 -0.28279142013568742 0 0.24532132067530391 -0.28079020595513859 0 0.24757192396087541 -0.27775477871457482 0 0.25322681224375199 -0.27651438500400022 0 0.24757192396087541 -0.27775477871457482 0 0.24573736844452179 -0.27130073928653498 0 0.24265734797019839 -0.27742701335793651 0 0.24573736844452179 -0.27130073928653498 0 0.24010795572092519 -0.27640033467708042 0 0.24265734797019839 -0.27742701335793651 0 0.24757192396087541 -0.27775477871457482 0 0.24573736844452179 -0.27130073928653498 0 0.24620137906514489 -0.26357843379564189 0 0.24573736844452179 -0.27130073928653498 0 0.24010795572092519 -0.27640033467708042 0 0.257565180952535 -0.26757297057990331 0 0.24620137906514489 -0.26357843379564189 0 0.24573736844452179 -0.27130073928653498 0 0.24265734797019839 -0.27742701335793651 0 0.24010795572092519 -0.27640033467708042 0 0.24010795572092519 -0.27640033467708042 0 0.21515736330576901 -0.26635235507932931 0 0.24010795572092519 -0.27640033467708042 0 0.22498494991879719 -0.27795099227718112 0 0.21515736330576901 -0.26635235507932931 0 0.24010795572092519 -0.27640033467708042 0 0.22498494991879719 -0.27795099227718112 0 0.2334077021475654 -0.28693147527741708 0 0.2330558259540863 -0.25392228975962328 0 0.21515736330576901 -0.26635235507932931 0 0.21604104887663891 -0.2491511282779057 0 0.24010795572092519 -0.27640033467708042 0 0.2330558259540863 -0.25392228975962328 0 0.21515736330576901 -0.26635235507932931 0 0.21515736330576901 -0.26635235507932931 0 0.19020677089061289 -0.25630437548157792 0 0.21604104887663891 -0.2491511282779057 0 0.22498494991879719 -0.27795099227718112 0 0.21515736330576901 -0.26635235507932931 0 0.1937705073917341 -0.28429684812437978 0 0.21515736330576901 -0.26635235507932931 0 0.19020677089061289 -0.25630437548157792 0 0.1937705073917341 -0.28429684812437978 0 0.19020677089061289 -0.25630437548157792 0 0.1937705073917341 -0.28429684812437978 0 0.18055628326280021 -0.26862551876869428 0 0.21515736330576901 -0.26635235507932931 0 0.19020677089061289 -0.25630437548157792 0 0.2014057929462558 -0.30171798940397437 0 0.1937705073917341 -0.28429684812437978 0 0.18326503966091029 -0.30550346997946398 0 0.2014057929462558 -0.30171798940397437 0 0.19503130186861281 -0.31542092679971467 0 0.18326503966091029 -0.30550346997946398 0 0.2014057929462558 -0.30171798940397437 0 0.2116184575266194 -0.3149744178133288 0 0.19503130186861281 -0.31542092679971467 0 0.1937705073917341 -0.28429684812437978 0 0.2207694701140912 -0.29255714075992878 0 0.2014057929462558 -0.30171798940397437 0 0.1937705073917341 -0.28429684812437978 0 0.2207694701140912 -0.29255714075992878 0 0.22498494991879719 -0.27795099227718112 0 0.1937705073917341 -0.28429684812437978 0 0.2207694701140912 -0.29255714075992878 0 0.2014057929462558 -0.30171798940397437 0 0.2207694701140912 -0.29255714075992878 0 0.2116184575266194 -0.3149744178133288 0 0.2207694701140912 -0.29255714075992878 0 0.24776843283644809 -0.3008174333954784 0 0.23124092840254579 -0.31282839260387568 0 0.2207694701140912 -0.29255714075992878 0 0.23124092840254579 -0.31282839260387568 0 0.2116184575266194 -0.3149744178133288 0 0.2207694701140912 -0.29255714075992878 0 0.24776843283644809 -0.3008174333954784 0 0.2207694701140912 -0.29255714075992878 0 0.2334077021475654 -0.28693147527741708 0 0.24776843283644809 -0.3008174333954784 0 0.22498494991879719 -0.27795099227718112 0 0.2207694701140912 -0.29255714075992878 0 0.2334077021475654 -0.28693147527741708 0 0.24010795572092519 -0.27640033467708042 0 0.24776843283644809 -0.3008174333954784 0 0.24010795572092519 -0.27640033467708042 0 0.24869199004326281 -0.29071129202441531 0 0.24776843283644809 -0.3008174333954784 0 0.24010795572092519 -0.27640033467708042 0 0.2334077021475654 -0.28693147527741708 0 0.24776843283644809 -0.3008174333954784 0 0.24532132067530391 -0.28079020595513859 0 0.24010795572092519 -0.27640033467708042 0 0.24869199004326281 -0.29071129202441531 0 0.25022480277021308 -0.28279142013568742 0 0.24532132067530391 -0.28079020595513859 0 0.24869199004326281 -0.29071129202441531 0 0.25086339927847218 -0.31068236739442168 0 0.23124092840254579 -0.31282839260387568 0 0.25086339927847218 -0.31068236739442168 0 0.24776843283644809 -0.3008174333954784 0 0.23124092840254579 -0.31282839260387568 0 0.25086339927847218 -0.31068236739442168 0 0.24776843283644809 -0.3008174333954784 0 0.25086339927847218 -0.31068236739442168 0 0.2423481908646003 -0.3237944287766194 0 0.23124092840254579 -0.31282839260387568 0 0.25701690261161758 -0.33029611939492642 0 0.2423481908646003 -0.3237944287766194 0 0.2431082137690814 -0.33809774968166451 0 0.2423481908646003 -0.3237944287766194 0 0.2431082137690814 -0.33809774968166451 0 0.22705000765481281 -0.32843075105587233 0 0.22433231064312131 -0.34369741759468853 0 0.22705000765481281 -0.32843075105587233 0 0.20946074650584509 -0.33906567699239382 0 0.2431082137690814 -0.33809774968166451 0 0.22433231064312131 -0.34369741759468853 0 0.22705000765481281 -0.32843075105587233 0 0.23124092840254579 -0.31282839260387568 0 0.2116184575266194 -0.3149744178133288 0 0.22705000765481281 -0.32843075105587233 0 0.23124092840254579 -0.31282839260387568 0 0.2116184575266194 -0.3149744178133288 0 0.2423481908646003 -0.3237944287766194 0 0.22705000765481281 -0.32843075105587233 0 0.23124092840254579 -0.31282839260387568 0 0.25123768703370608 -0.35330126935272038 0 0.25498720319204082 -0.36900585364671662 0 0.2396381804209676 -0.36364399304919481 0 0.2396381804209676 -0.36364399304919481 0 0.242832845791846 -0.37596734926023812 0 0.2285004544620334 -0.37753750688154131 0 0.25498720319204082 -0.36900585364671662 0 0.2396381804209676 -0.36364399304919481 0 0.242832845791846 -0.37596734926023812 0 0.2431082137690814 -0.33809774968166451 0 0.22433231064312131 -0.34369741759468853 0 0.2369755267153292 -0.35173190726592851 0 0.2396381804209676 -0.36364399304919481 0 0.2369755267153292 -0.35173190726592851 0 0.22656124170976949 -0.35991910665137422 0 0.25123768703370608 -0.35330126935272038 0 0.2396381804209676 -0.36364399304919481 0 0.2369755267153292 -0.35173190726592851 0 0.25123768703370608 -0.35330126935272038 0 0.2431082137690814 -0.33809774968166451 0 0.2369755267153292 -0.35173190726592851 0 0.22433231064312131 -0.34369741759468853 0 0.22656124170976949 -0.35991910665137422 0 0.21525084843860801 -0.35894614699781568 0 0.22433231064312131 -0.34369741759468853 0 0.2369755267153292 -0.35173190726592851 0 0.22656124170976949 -0.35991910665137422 0 0.22656124170976949 -0.35991910665137422 0 0.2181707349711435 -0.36962833341999679 0 0.2285004544620334 -0.37753750688154131 0 0.2396381804209676 -0.36364399304919481 0 0.22656124170976949 -0.35991910665137422 0 0.2285004544620334 -0.37753750688154131 0 0.22656124170976949 -0.35991910665137422 0 0.2181707349711435 -0.36962833341999679 0 0.21525084843860801 -0.35894614699781568 0 0.21066048371759619 -0.37442696402615772 0 0.2049294896595992 -0.36989950165104257 0 0.2010693806510265 -0.37613173570953429 0 0.21066048371759619 -0.37442696402615772 0 0.2049294896595992 -0.36989950165104257 0 0.20984827635469561 -0.36550946973078369 0 0.21066048371759619 -0.37442696402615772 0 0.2181707349711435 -0.36962833341999679 0 0.21775842382520541 -0.38051727648452871 0 0.21066048371759619 -0.37442696402615772 0 0.2181707349711435 -0.36962833341999679 0 0.20984827635469561 -0.36550946973078369 0 0.2181707349711435 -0.36962833341999679 0 0.20984827635469561 -0.36550946973078369 0 0.21525084843860801 -0.35894614699781568 0 0.20836172020937849 -0.36107351896847978 0 0.20984827635469561 -0.36550946973078369 0 0.21525084843860801 -0.35894614699781568 0 0.20836172020937849 -0.36107351896847978 0 0.20562471189297149 -0.35587777827516232 0 0.20272304415123901 -0.3639606808701577 0 0.2049294896595992 -0.36989950165104257 0 0.20984827635469561 -0.36550946973078369 0 0.20272304415123901 -0.3639606808701577 0 0.20836172020937849 -0.36107351896847978 0 0.20984827635469561 -0.36550946973078369 0 0.20272304415123901 -0.3639606808701577 0 0.22433231064312131 -0.34369741759468853 0 0.20562471189297149 -0.35587777827516232 0 0.21525084843860801 -0.35894614699781568 0 0.22433231064312131 -0.34369741759468853 0 0.20562471189297149 -0.35587777827516232 0 0.20946074650584509 -0.33906567699239382 0 0.22433231064312131 -0.34369741759468853 0 0.20562471189297149 -0.35587777827516232 0 0.20415112748724831 -0.35370891388774639 0 0.20562471189297149 -0.35587777827516232 0 0.20946074650584509 -0.33906567699239382 0 0.20836172020937849 -0.36107351896847978 0 0.20562471189297149 -0.35587777827516232 0 0.21525084843860801 -0.35894614699781568 0 0.20415112748724831 -0.35370891388774639 0 0.20946074650584509 -0.33906567699239382 0 0.19936201877516391 -0.34079447934275442 0 0.20415112748724831 -0.35370891388774639 0 0.18921850154452771 -0.33968994101290623 0 0.17573949946056469 -0.34428206054373028 0 0.20415112748724831 -0.35370891388774639 0 0.18691711314282161 -0.36805813895563588 0 0.17573949946056469 -0.34428206054373028 0 0.20415112748724831 -0.35370891388774639 0 0.20562471189297149 -0.35587777827516232 0 0.18691711314282161 -0.36805813895563588 0 0.20415112748724831 -0.35370891388774639 0 0.17573949946056469 -0.34428206054373028 0 0.20415112748724831 -0.35370891388774639 0 0.19936201877516391 -0.34079447934275442 0 0.18921850154452771 -0.33968994101290623 0 0.20562471189297149 -0.35587777827516232 0 0.20272304415123901 -0.3639606808701577 0 0.18691711314282161 -0.36805813895563588 0 0.20272304415123901 -0.3639606808701577 0 0.19897090735894199 -0.36859944390072902 0 0.18691711314282161 -0.36805813895563588 0 0.20562471189297149 -0.35587777827516232 0 0.18691711314282161 -0.36805813895563588 0 0.19471976580065981 -0.37287317811451831 0 0.18691711314282161 -0.36805813895563588 0 0.19192166204984901 -0.37870339389217389 0 0.19471976580065981 -0.37287317811451831 0 0.19897090735894199 -0.36859944390072902 0 0.18691711314282161 -0.36805813895563588 0 0.18691711314282161 -0.36805813895563588 0 0.19192166204984901 -0.37870339389217389 0 0.19471976580065981 -0.37287317811451831 0 0.19897090735894199 -0.36859944390072902 0 0.2010693806510265 -0.37613173570953429 0 0.2049294896595992 -0.36989950165104257 0 0.20272304415123901 -0.3639606808701577 0 0.19897090735894199 -0.36859944390072902 0 0.2049294896595992 -0.36989950165104257 0 0.19897090735894199 -0.36859944390072902 0 0.2010693806510265 -0.37613173570953429 0 0.2116184575266194 -0.3149744178133288 0 0.20946074650584509 -0.33906567699239382 0 0.1968552543807344 -0.33015628834046679 0 0.22705000765481281 -0.32843075105587233 0 0.2116184575266194 -0.3149744178133288 0 0.20946074650584509 -0.33906567699239382 0 0.1968552543807344 -0.33015628834046679 0 0.18921850154452771 -0.33968994101290623 0 0.18072487074388841 -0.32683389668981139 0 0.20946074650584509 -0.33906567699239382 0 0.1968552543807344 -0.33015628834046679 0 0.19936201877516391 -0.34079447934275442 0 0.1968552543807344 -0.33015628834046679 0 0.19936201877516391 -0.34079447934275442 0 0.18921850154452771 -0.33968994101290623 0 0.2116184575266194 -0.3149744178133288 0 0.1968552543807344 -0.33015628834046679 0 0.19503130186861281 -0.31542092679971467 0 0.1968552543807344 -0.33015628834046679 0 0.19503130186861281 -0.31542092679971467 0 0.18072487074388841 -0.32683389668981139 0 0.18072487074388841 -0.32683389668981139 0 0.16391395248505911 -0.31912775300135249 0 0.18326503966091029 -0.30550346997946398 0 0.19503130186861281 -0.31542092679971467 0 0.18072487074388841 -0.32683389668981139 0 0.18326503966091029 -0.30550346997946398 0 0.18072487074388841 -0.32683389668981139 0 0.16391395248505911 -0.31912775300135249 0 0.17573949946056469 -0.34428206054373028 0 0.18921850154452771 -0.33968994101290623 0 0.18072487074388841 -0.32683389668981139 0 0.17573949946056469 -0.34428206054373028 0 0.17573949946056469 -0.34428206054373028 0 0.15560645275465351 -0.33760200410745261 0 0.16391395248505911 -0.31912775300135249 0 0.17573949946056469 -0.34428206054373028 0 0.15560645275465351 -0.33760200410745261 0 0.16391395248505911 -0.31912775300135249 0 0.17573949946056469 -0.34428206054373028 0 0.18691711314282161 -0.36805813895563588 0 0.16825652426709259 -0.36345395167225159 0 0.16907849560872271 -0.37967271325286439 0 0.18691711314282161 -0.36805813895563588 0 0.1836332806757521 -0.37678614185270382 0 0.16907849560872271 -0.37967271325286439 0 0.18691711314282161 -0.36805813895563588 0 0.16907849560872271 -0.37967271325286439 0 0.18691711314282161 -0.36805813895563588 0 0.19192166204984901 -0.37870339389217389 0 0.1836332806757521 -0.37678614185270382 0 0.18691711314282161 -0.36805813895563588 0 0.17573949946056469 -0.34428206054373028 0 0.16825652426709259 -0.36345395167225159 0 0.18691711314282161 -0.36805813895563588 0 0.17573949946056469 -0.34428206054373028 0 0.17573949946056469 -0.34428206054373028 0 0.16825652426709259 -0.36345395167225159 0 0.1558231631185594 -0.35343917322010099 0 0.17573949946056469 -0.34428206054373028 0 0.1558231631185594 -0.35343917322010099 0 0.15560645275465351 -0.33760200410745261 0 0.16825652426709259 -0.36345395167225159 0 0.1545036698660559 -0.37277453059902987 0 0.1558231631185594 -0.35343917322010099 0 0.16825652426709259 -0.36345395167225159 0 0.1545036698660559 -0.37277453059902987 0 0.16907849560872271 -0.37967271325286439 0 0.1436604164714472 -0.36208219920794948 0 0.1545036698660559 -0.37277453059902987 0 0.1558231631185594 -0.35343917322010099 0 0.1436604164714472 -0.36208219920794948 0 0.1545036698660559 -0.37277453059902987 0 0.13957935105526451 -0.38232133893395093 0 0.1436604164714472 -0.36208219920794948 0 0.1558231631185594 -0.35343917322010099 0 0.14166129829240681 -0.34595179648038882 0 0.1558231631185594 -0.35343917322010099 0 0.14166129829240681 -0.34595179648038882 0 0.15560645275465351 -0.33760200410745261 0 0.1436604164714472 -0.36208219920794948 0 0.1228771392492745 -0.34884433669878362 0 0.1436604164714472 -0.36208219920794948 0 0.14166129829240681 -0.34595179648038882 0 0.1228771392492745 -0.34884433669878362 0 0.1436604164714472 -0.36208219920794948 0 0.13957935105526451 -0.38232133893395093 0 0.11847591279834881 -0.36822876780275732 0 0.1436604164714472 -0.36208219920794948 0 0.11847591279834881 -0.36822876780275732 0 0.1228771392492745 -0.34884433669878362 0 0.16391395248505911 -0.31912775300135249 0 0.14587594382794269 -0.31920847345960379 0 0.15560645275465351 -0.33760200410745261 0 0.16391395248505911 -0.31912775300135249 0 0.14587594382794269 -0.31920847345960379 0 0.14881662262757281 -0.30623937681366242 0 0.14166129829240681 -0.34595179648038882 0 0.15560645275465351 -0.33760200410745261 0 0.13547340604874281 -0.33092194767117361 0 0.14587594382794269 -0.31920847345960379 0 0.15560645275465351 -0.33760200410745261 0 0.13547340604874281 -0.33092194767117361 0 0.15560645275465351 -0.33760200410745261 0 0.13547340604874281 -0.33092194767117361 0 0.14166129829240681 -0.34595179648038882 0 0.13547340604874281 -0.33092194767117361 0 0.1228771392492745 -0.34884433669878362 0 0.13547340604874281 -0.33092194767117361 0 0.1153403593428321 -0.32424189123489439 0 0.13547340604874281 -0.33092194767117361 0 0.1309845370891318 -0.3158440886429672 0 0.1153403593428321 -0.32424189123489439 0 0.14587594382794269 -0.31920847345960379 0 0.13547340604874281 -0.33092194767117361 0 0.1309845370891318 -0.3158440886429672 0 0.14587594382794269 -0.31920847345960379 0 0.1309845370891318 -0.3158440886429672 0 0.13867340791257179 -0.30462705778637439 0 0.1309845370891318 -0.3158440886429672 0 0.12730726354009719 -0.30188827071706897 0 0.13867340791257179 -0.30462705778637439 0 0.1309845370891318 -0.3158440886429672 0 0.12730726354009719 -0.30188827071706897 0 0.1191619686692367 -0.30998468857291861 0 0.13867340791257179 -0.30462705778637439 0 0.1428980852463976 -0.29717517254619508 0 0.13497440129592231 -0.29454686326503671 0 0.12730726354009719 -0.30188827071706897 0 0.13867340791257179 -0.30462705778637439 0 0.13497440129592231 -0.29454686326503671 0 0.16391395248505911 -0.31912775300135249 0 0.14881662262757281 -0.30623937681366242 0 0.15208840550955269 -0.29397344545897502 0 0.14587594382794269 -0.31920847345960379 0 0.13867340791257179 -0.30462705778637439 0 0.14881662262757281 -0.30623937681366242 0 0.1428980852463976 -0.29717517254619508 0 0.14881662262757281 -0.30623937681366242 0 0.15208840550955269 -0.29397344545897502 0 0.13867340791257179 -0.30462705778637439 0 0.1428980852463976 -0.29717517254619508 0 0.14881662262757281 -0.30623937681366242 0 0.1428980852463976 -0.29717517254619508 0 0.15208840550955269 -0.29397344545897502 0 0.13993758888636859 -0.28648911940692712 0 0.15208840550955269 -0.29397344545897502 0 0.13993758888636859 -0.28648911940692712 0 0.14011326991300571 -0.27863147398200661 0 0.13993758888636859 -0.28648911940692712 0 0.13369360801809119 -0.28149201506558541 0 0.1360124706129302 -0.27845885417339611 0 0.13993758888636859 -0.28648911940692712 0 0.13369360801809119 -0.28149201506558541 0 0.1327902443437004 -0.28776366286979771 0 0.13993758888636859 -0.28648911940692712 0 0.13497440129592231 -0.29454686326503671 0 0.1327902443437004 -0.28776366286979771 0 0.1428980852463976 -0.29717517254619508 0 0.13993758888636859 -0.28648911940692712 0 0.13497440129592231 -0.29454686326503671 0 0.12730726354009719 -0.30188827071706897 0 0.13497440129592231 -0.29454686326503671 0 0.12545141895879261 -0.29063990132090112 0 0.13497440129592231 -0.29454686326503671 0 0.12545141895879261 -0.29063990132090112 0 0.1327902443437004 -0.28776366286979771 0 0.12545141895879261 -0.29063990132090112 0 0.1327902443437004 -0.28776366286979771 0 0.12582108285277899 -0.27941507326196968 0 0.13369360801809119 -0.28149201506558541 0 0.1327902443437004 -0.28776366286979771 0 0.12582108285277899 -0.27941507326196968 0 0.12582108285277899 -0.27941507326196968 0 0.12948723380283411 -0.27367699409482249 0 0.12444666248577969 -0.26773303321091391 0 0.13369360801809119 -0.28149201506558541 0 0.12582108285277899 -0.27941507326196968 0 0.13244656068483929 -0.27684216628871677 0 0.12582108285277899 -0.27941507326196968 0 0.13244656068483929 -0.27684216628871677 0 0.12948723380283411 -0.27367699409482249 0 0.13244656068483929 -0.27684216628871677 0 0.12948723380283411 -0.27367699409482249 0 0.1349113017268668 -0.27359203630535711 0 0.12948723380283411 -0.27367699409482249 0 0.13311057593662709 -0.27007557570711149 0 0.12444666248577969 -0.26773303321091391 0 0.13311057593662709 -0.27007557570711149 0 0.13591983717001119 -0.26659752129808051 0 0.12444666248577969 -0.26773303321091391 0 0.12948723380283411 -0.27367699409482249 0 0.13311057593662709 -0.27007557570711149 0 0.1349113017268668 -0.27359203630535711 0 0.13311057593662709 -0.27007557570711149 0 0.1367119720514634 -0.26854882582998219 0 0.13746699420826949 -0.27045625063078671 0 0.13311057593662709 -0.27007557570711149 0 0.13746699420826949 -0.27045625063078671 0 0.1349113017268668 -0.27359203630535711 0 0.1397725819470203 -0.26777626285328088 0 0.13746699420826949 -0.27045625063078671 0 0.14011326991300571 -0.27863147398200661 0 0.13311057593662709 -0.27007557570711149 0 0.1367119720514634 -0.26854882582998219 0 0.13591983717001119 -0.26659752129808051 0 0.13591983717001119 -0.26659752129808051 0 0.1397725819470203 -0.26777626285328088 0 0.138276163955104 -0.26874024163247368 0 0.1397725819470203 -0.26777626285328088 0 0.13746699420826949 -0.27045625063078671 0 0.1367119720514634 -0.26854882582998219 0 0.13591983717001119 -0.26659752129808051 0 0.1397725819470203 -0.26777626285328088 0 0.1367119720514634 -0.26854882582998219 0 0.138276163955104 -0.26874024163247368 0 0.1397725819470203 -0.26777626285328088 0 0.1367119720514634 -0.26854882582998219 0 0.138276163955104 -0.26874024163247368 0 0.13746699420826949 -0.27045625063078671 0 0.13746699420826949 -0.27045625063078671 0 0.14011326991300571 -0.27863147398200661 0 0.1349113017268668 -0.27359203630535711 0 0.14011326991300571 -0.27863147398200661 0 0.1360124706129302 -0.27845885417339611 0 0.1349113017268668 -0.27359203630535711 0 0.13993758888636859 -0.28648911940692712 0 0.14011326991300571 -0.27863147398200661 0 0.1360124706129302 -0.27845885417339611 0 0.13369360801809119 -0.28149201506558541 0 0.13244656068483929 -0.27684216628871677 0 0.1360124706129302 -0.27845885417339611 0 0.13244656068483929 -0.27684216628871677 0 0.1360124706129302 -0.27845885417339611 0 0.1349113017268668 -0.27359203630535711 0 0.1360573203735046 -0.2598734713448459 0 0.11752926043120079 -0.25008636991584848 0 0.13078172172674321 -0.2458027894733521 0 0.13591983717001119 -0.26659752129808051 0 0.1397725819470203 -0.26777626285328088 0 0.11752926043120079 -0.25008636991584848 0 0.13591983717001119 -0.26659752129808051 0 0.11752926043120079 -0.25008636991584848 0 0.12444666248577969 -0.26773303321091391 0 0.1397725819470203 -0.26777626285328088 0 0.11752926043120079 -0.25008636991584848 0 0.1397725819470203 -0.26777626285328088 0 0.1360573203735046 -0.2598734713448459 0 0.11752926043120079 -0.25008636991584848 0 0.1397725819470203 -0.26777626285328088 0 0.1360573203735046 -0.2598734713448459 0 0.1397725819470203 -0.26777626285328088 0 0.1360573203735046 -0.2598734713448459 0 0.14577477609173189 -0.25952772959407833 0 0.1360573203735046 -0.2598734713448459 0 0.14259733537338229 -0.24843802833874881 0 0.13078172172674321 -0.2458027894733521 0 0.14577477609173189 -0.25952772959407833 0 0.1546377368784837 -0.25356422273026019 0 0.14259733537338229 -0.24843802833874881 0 0.1360573203735046 -0.2598734713448459 0 0.14577477609173189 -0.25952772959407833 0 0.14259733537338229 -0.24843802833874881 0 0.1397725819470203 -0.26777626285328088 0 0.14577477609173189 -0.25952772959407833 0 0.15520314719209091 -0.26369156928721349 0 0.14577477609173189 -0.25952772959407833 0 0.15520314719209091 -0.26369156928721349 0 0.1546377368784837 -0.25356422273026019 0 0.15208840550955269 -0.29397344545897502 0 0.1397725819470203 -0.26777626285328088 0 0.14011326991300571 -0.27863147398200661 0 0.15208840550955269 -0.29397344545897502 0 0.1397725819470203 -0.26777626285328088 0 0.1397725819470203 -0.26777626285328088 0 0.15520314719209091 -0.26369156928721349 0 0.1667715446693771 -0.27603655548883088 0 0.1397725819470203 -0.26777626285328088 0 0.1667715446693771 -0.27603655548883088 0 0.1397725819470203 -0.26777626285328088 0 0.15294613908725119 -0.27927031907220451 0 0.1667715446693771 -0.27603655548883088 0 0.15208840550955269 -0.29397344545897502 0 0.1397725819470203 -0.26777626285328088 0 0.15294613908725119 -0.27927031907220451 0 0.1397725819470203 -0.26777626285328088 0 0.15294613908725119 -0.27927031907220451 0 0.15520314719209091 -0.26369156928721349 0 0.1667715446693771 -0.27603655548883088 0 0.169059096373842 -0.26155307576961612 0 0.1546377368784837 -0.25356422273026019 0 0.169059096373842 -0.26155307576961612 0 0.16525617847545679 -0.24625639588382661 0 0.15520314719209091 -0.26369156928721349 0 0.1546377368784837 -0.25356422273026019 0 0.169059096373842 -0.26155307576961612 0 0.19020677089061289 -0.25630437548157792 0 0.169059096373842 -0.26155307576961612 0 0.16525617847545679 -0.24625639588382661 0 0.19020677089061289 -0.25630437548157792 0 0.16525617847545679 -0.24625639588382661 0 0.19020677089061289 -0.25630437548157792 0 0.169059096373842 -0.26155307576961612 0 0.18055628326280021 -0.26862551876869428 0 0.1937705073917341 -0.28429684812437978 0 0.1667715446693771 -0.27603655548883088 0 0.1937705073917341 -0.28429684812437978 0 0.1667715446693771 -0.27603655548883088 0 0.18055628326280021 -0.26862551876869428 0 0.1667715446693771 -0.27603655548883088 0 0.169059096373842 -0.26155307576961612 0 0.18055628326280021 -0.26862551876869428 0 0.1937705073917341 -0.28429684812437978 0 0.18326503966091029 -0.30550346997946398 0 0.16562941964045619 -0.28972150022781129 0 0.1937705073917341 -0.28429684812437978 0 0.1667715446693771 -0.27603655548883088 0 0.16562941964045619 -0.28972150022781129 0 0.18326503966091029 -0.30550346997946398 0 0.1671789654383897 -0.30332637608856111 0 0.16562941964045619 -0.28972150022781129 0 0.16391395248505911 -0.31912775300135249 0 0.15208840550955269 -0.29397344545897502 0 0.1671789654383897 -0.30332637608856111 0 0.16391395248505911 -0.31912775300135249 0 0.18326503966091029 -0.30550346997946398 0 0.1671789654383897 -0.30332637608856111 0 0.16391395248505911 -0.31912775300135249 0 0.15208840550955269 -0.29397344545897502 0 0.15208840550955269 -0.29397344545897502 0 0.1671789654383897 -0.30332637608856111 0 0.16562941964045619 -0.28972150022781129 0 0.15208840550955269 -0.29397344545897502 0 0.15294613908725119 -0.27927031907220451 0 0.16562941964045619 -0.28972150022781129 0 0.15294613908725119 -0.27927031907220451 0 0.1667715446693771 -0.27603655548883088 0 0.16562941964045619 -0.28972150022781129 0 0.15294613908725119 -0.27927031907220451 0 0.16562941964045619 -0.28972150022781129 0 0.19092602916245069 -0.5 0 0.19118608245986901 -0.4743536472640042 0 0.21086033895952591 -0.47997041540089502 0 0.19118608245986901 -0.4743536472640042 0 0.21086033895952591 -0.47997041540089502 0 0.20255680990223751 -0.45994083080178783 0 0.21086033895952591 -0.47997041540089502 0 0.20255680990223751 -0.45994083080178783 0 0.21086033895952591 -0.47997041540089502 0 0.2221760611142253 -0.47604609204737819 0 0.21843232251462039 -0.46442764037040202 0 0.19092602916245069 -0.5 0 0.21086033895952591 -0.47997041540089502 0 0.21916386801681451 -0.50000000000000211 0 0.21086033895952591 -0.47997041540089502 0 0.21916386801681451 -0.50000000000000211 0 0.21086033895952591 -0.47997041540089502 0 0.21916386801681451 -0.50000000000000211 0 0.2248811017066564 -0.49143249248272269 0 0.21916386801681451 -0.50000000000000211 0 0.2248811017066564 -0.49143249248272269 0 0.24604268247014441 -0.5 0 0.2248811017066564 -0.49143249248272269 0 0.24604268247014441 -0.5 0 0.24284983233876559 -0.48389860352274389 0 0.25890284990802231 -0.48765868210896662 0 0.24604268247014441 -0.5 0 0.24284983233876559 -0.48389860352274389 0 0.25706748600020718 -0.47222361103605193 0 0.24284983233876559 -0.48389860352274389 0 0.2345304812760983 -0.46835381993549341 0 0.2248811017066564 -0.49143249248272269 0 0.2221760611142253 -0.47604609204737819 0 0.2345304812760983 -0.46835381993549341 0 0.2248811017066564 -0.49143249248272269 0 0.24284983233876559 -0.48389860352274389 0 0.2345304812760983 -0.46835381993549341 0 0.2221760611142253 -0.47604609204737819 0 0.2345304812760983 -0.46835381993549341 0 0.21843232251462039 -0.46442764037040202 0 0.2248811017066564 -0.49143249248272269 0 0.2345304812760983 -0.46835381993549341 0 0.21086033895952591 -0.47997041540089502 0 0.2248811017066564 -0.49143249248272269 0 0.2221760611142253 -0.47604609204737819 0 0.2345304812760983 -0.46835381993549341 0 0.2267639536269849 -0.44723348653652811 0 0.21843232251462039 -0.46442764037040202 0 0.2267639536269849 -0.44723348653652811 0 0.2119108870313311 -0.45717565563739249 0 0.21843232251462039 -0.46442764037040202 0 0.25614324648350772 -0.45631004300875472 0 0.25706748600020718 -0.47222361103605193 0 0.2345304812760983 -0.46835381993549341 0 0.2345304812760983 -0.46835381993549341 0 0.24417986084553961 -0.44527514738826363 0 0.2267639536269849 -0.44723348653652811 0 0.2345304812760983 -0.46835381993549341 0 0.24417986084553961 -0.44527514738826363 0 0.25614324648350772 -0.45631004300875472 0 0.2345304812760983 -0.46835381993549341 0 0.24417986084553961 -0.44527514738826363 0 0.24417986084553961 -0.44527514738826363 0 0.2267639536269849 -0.44723348653652811 0 0.24417986084553961 -0.44527514738826363 0 0.2267639536269849 -0.44723348653652811 0 0.23121097837887519 -0.43063172640338032 0 0.2267639536269849 -0.44723348653652811 0 0.2173291482274019 -0.43894245047988018 0 0.23121097837887519 -0.43063172640338032 0 0.2267639536269849 -0.44723348653652811 0 0.20934804640843019 -0.44919182568479288 0 0.2267639536269849 -0.44723348653652811 0 0.2173291482274019 -0.43894245047988018 0 0.20934804640843019 -0.44919182568479288 0 0.2267639536269849 -0.44723348653652811 0 0.20934804640843019 -0.44919182568479288 0 0.2119108870313311 -0.45717565563739249 0 0.20934804640843019 -0.44919182568479288 0 0.19578321903211199 -0.44360172842291951 0 0.20456714550848451 -0.43459606583071397 0 0.2173291482274019 -0.43894245047988018 0 0.20934804640843019 -0.44919182568479288 0 0.20456714550848451 -0.43459606583071397 0 0.20934804640843019 -0.44919182568479288 0 0.20473594697094361 -0.45401710586569438 0 0.19578321903211199 -0.44360172842291951 0 0.21086033895952591 -0.47997041540089502 0 0.21843232251462039 -0.46442764037040202 0 0.20408077248060641 -0.46017548878157982 0 0.21086033895952591 -0.47997041540089502 0 0.20408077248060641 -0.46017548878157982 0 0.20255680990223751 -0.45994083080178783 0 0.2119108870313311 -0.45717565563739249 0 0.21843232251462039 -0.46442764037040202 0 0.20408077248060641 -0.46017548878157982 0 0.2119108870313311 -0.45717565563739249 0 0.20408077248060641 -0.46017548878157982 0 0.20473594697094361 -0.45401710586569438 0 0.20934804640843019 -0.44919182568479288 0 0.2119108870313311 -0.45717565563739249 0 0.20473594697094361 -0.45401710586569438 0 0.20408077248060641 -0.46017548878157982 0 0.20473594697094361 -0.45401710586569438 0 0.20255680990223751 -0.45994083080178783 0 0.20408077248060641 -0.46017548878157982 0 0.20255680990223751 -0.45994083080178783 0 0.20255680990223751 -0.45994083080178783 0 0.19578321903211199 -0.44360172842291951 0 0.17907599924951051 -0.45632528297282832 0 0.20255680990223751 -0.45994083080178783 0 0.17907599924951051 -0.45632528297282832 0 0.19118608245986901 -0.4743536472640042 0 0.20255680990223751 -0.45994083080178783 0 0.17907599924951051 -0.45632528297282832 0 0.19578321903211199 -0.44360172842291951 0 0.18900962816198641 -0.42726262604405102 0 0.18404281370574729 -0.44179395450843922 0 0.20255680990223751 -0.45994083080178783 0 0.19578321903211199 -0.44360172842291951 0 0.20473594697094361 -0.45401710586569438 0 0.20255680990223751 -0.45994083080178783 0 0.19578321903211199 -0.44360172842291951 0 0.19578321903211199 -0.44360172842291951 0 0.18900962816198641 -0.42726262604405102 0 0.20456714550848451 -0.43459606583071397 0 0.19578321903211199 -0.44360172842291951 0 0.18900962816198641 -0.42726262604405102 0 0.18900962816198641 -0.42726262604405102 0 0.20085416033931511 -0.42173342554213672 0 0.20456714550848451 -0.43459606583071397 0 0.18900962816198641 -0.42726262604405102 0 0.19516782926705509 -0.40924567699231268 0 0.17939050241213 -0.40405958892008381 0 0.18900962816198641 -0.42726262604405102 0 0.19516782926705509 -0.40924567699231268 0 0.20085416033931511 -0.42173342554213672 0 0.18900962816198641 -0.42726262604405102 0 0.19516782926705509 -0.40924567699231268 0 0.19516782926705509 -0.40924567699231268 0 0.20085416033931511 -0.42173342554213672 0 0.20895589688219021 -0.41483133126459237 0 0.20085416033931511 -0.42173342554213672 0 0.20895589688219021 -0.41483133126459237 0 0.2150786708816608 -0.42684433881050332 0 0.19516782926705509 -0.40924567699231268 0 0.20895589688219021 -0.41483133126459237 0 0.21036559498252849 -0.40184652249723529 0 0.20895589688219021 -0.41483133126459237 0 0.22331322894039171 -0.41448669248077402 0 0.21036559498252849 -0.40184652249723529 0 0.20895589688219021 -0.41483133126459237 0 0.2150786708816608 -0.42684433881050332 0 0.22331322894039171 -0.41448669248077402 0 0.20085416033931511 -0.42173342554213672 0 0.2150786708816608 -0.42684433881050332 0 0.20456714550848451 -0.43459606583071397 0 0.2173291482274019 -0.43894245047988018 0 0.2150786708816608 -0.42684433881050332 0 0.20456714550848451 -0.43459606583071397 0 0.2150786708816608 -0.42684433881050332 0 0.23121097837887519 -0.43063172640338032 0 0.22331322894039171 -0.41448669248077402 0 0.2173291482274019 -0.43894245047988018 0 0.2150786708816608 -0.42684433881050332 0 0.23121097837887519 -0.43063172640338032 0 0.25126052337721477 -0.42834014231255368 0 0.24417986084553961 -0.44527514738826363 0 0.23121097837887519 -0.43063172640338032 0 0.25126052337721477 -0.42834014231255368 0 0.23121097837887519 -0.43063172640338032 0 0.24082720742464031 -0.41294591485880849 0 0.25126052337721477 -0.42834014231255368 0 0.24417986084553961 -0.44527514738826363 0 0.25834118590888883 -0.41140513723684341 0 0.24082720742464031 -0.41294591485880849 0 0.25834118590888883 -0.41140513723684341 0 0.24082720742464031 -0.41294591485880849 0 0.24465775561146269 -0.40136153150520643 0 0.24082720742464031 -0.41294591485880849 0 0.22331322894039171 -0.41448669248077402 0 0.22261629060302829 -0.39483962198494521 0 0.23121097837887519 -0.43063172640338032 0 0.24082720742464031 -0.41294591485880849 0 0.22331322894039171 -0.41448669248077402 0 0.24082720742464031 -0.41294591485880849 0 0.22331322894039171 -0.41448669248077402 0 0.22261629060302829 -0.39483962198494521 0 0.2459272988079019 -0.39009091536730189 0 0.22331322894039171 -0.41448669248077402 0 0.22261629060302829 -0.39483962198494521 0 0.21036559498252849 -0.40184652249723529 0 0.24082720742464031 -0.41294591485880849 0 0.22261629060302829 -0.39483962198494521 0 0.24465775561146269 -0.40136153150520643 0 0.22261629060302829 -0.39483962198494521 0 0.24465775561146269 -0.40136153150520643 0 0.2459272988079019 -0.39009091536730189 0 0.25557679531285399 -0.3975260680781334 0 0.24465775561146269 -0.40136153150520643 0 0.2459272988079019 -0.39009091536730189 0 0.242832845791846 -0.37596734926023812 0 0.2459272988079019 -0.39009091536730189 0 0.2285004544620334 -0.37753750688154131 0 0.25692860890622188 -0.38028312234872991 0 0.242832845791846 -0.37596734926023812 0 0.2459272988079019 -0.39009091536730189 0 0.22261629060302829 -0.39483962198494521 0 0.2459272988079019 -0.39009091536730189 0 0.2285004544620334 -0.37753750688154131 0 0.22261629060302829 -0.39483962198494521 0 0.2285004544620334 -0.37753750688154131 0 0.21775842382520541 -0.38051727648452871 0 0.2181707349711435 -0.36962833341999679 0 0.2285004544620334 -0.37753750688154131 0 0.21775842382520541 -0.38051727648452871 0 0.21066048371759619 -0.37442696402615772 0 0.21775842382520541 -0.38051727648452871 0 0.2088441553722255 -0.38615395611000258 0 0.21066048371759619 -0.37442696402615772 0 0.2088441553722255 -0.38615395611000258 0 0.2010693806510265 -0.37613173570953429 0 0.22261629060302829 -0.39483962198494521 0 0.21775842382520541 -0.38051727648452871 0 0.2088441553722255 -0.38615395611000258 0 0.22261629060302829 -0.39483962198494521 0 0.2088441553722255 -0.38615395611000258 0 0.21036559498252849 -0.40184652249723529 0 0.2088441553722255 -0.38615395611000258 0 0.21036559498252849 -0.40184652249723529 0 0.20132603037212329 -0.39122872794057451 0 0.19516782926705509 -0.40924567699231268 0 0.18887678439638481 -0.39511142973879998 0 0.17939050241213 -0.40405958892008381 0 0.19516782926705509 -0.40924567699231268 0 0.20132603037212329 -0.39122872794057451 0 0.18887678439638481 -0.39511142973879998 0 0.19516782926705509 -0.40924567699231268 0 0.21036559498252849 -0.40184652249723529 0 0.20132603037212329 -0.39122872794057451 0 0.19516782926705509 -0.40924567699231268 0 0.20132603037212329 -0.39122872794057451 0 0.20132603037212329 -0.39122872794057451 0 0.18887678439638481 -0.39511142973879998 0 0.19187838728901241 -0.38688853520022431 0 0.18887678439638481 -0.39511142973879998 0 0.19187838728901241 -0.38688853520022431 0 0.18424727478828121 -0.38292017306006321 0 0.19187838728901241 -0.38688853520022431 0 0.19192166204984901 -0.37870339389217389 0 0.18424727478828121 -0.38292017306006321 0 0.19187838728901241 -0.38688853520022431 0 0.19192166204984901 -0.37870339389217389 0 0.19900792314684729 -0.38382126977050202 0 0.19471976580065981 -0.37287317811451831 0 0.19192166204984901 -0.37870339389217389 0 0.2010693806510265 -0.37613173570953429 0 0.2088441553722255 -0.38615395611000258 0 0.2010693806510265 -0.37613173570953429 0 0.19900792314684729 -0.38382126977050202 0 0.19192166204984901 -0.37870339389217389 0 0.2010693806510265 -0.37613173570953429 0 0.19900792314684729 -0.38382126977050202 0 0.20132603037212329 -0.39122872794057451 0 0.19187838728901241 -0.38688853520022431 0 0.19900792314684729 -0.38382126977050202 0 0.2088441553722255 -0.38615395611000258 0 0.20132603037212329 -0.39122872794057451 0 0.19900792314684729 -0.38382126977050202 0 0.1836332806757521 -0.37678614185270382 0 0.18424727478828121 -0.38292017306006321 0 0.16907849560872271 -0.37967271325286439 0 0.19192166204984901 -0.37870339389217389 0 0.1836332806757521 -0.37678614185270382 0 0.18424727478828121 -0.38292017306006321 0 0.18424727478828121 -0.38292017306006321 0 0.17652057362250609 -0.39449594680419747 0 0.15918435495184219 -0.39488185698396988 0 0.18887678439638481 -0.39511142973879998 0 0.18424727478828121 -0.38292017306006321 0 0.17652057362250609 -0.39449594680419747 0 0.18887678439638481 -0.39511142973879998 0 0.17939050241213 -0.40405958892008381 0 0.17652057362250609 -0.39449594680419747 0 0.17939050241213 -0.40405958892008381 0 0.17652057362250609 -0.39449594680419747 0 0.16995061569716399 -0.40074813585696711 0 0.17652057362250609 -0.39449594680419747 0 0.16995061569716399 -0.40074813585696711 0 0.15918435495184219 -0.39488185698396988 0 0.15918435495184219 -0.39488185698396988 0 0.15258293625223929 -0.41061401087384553 0 0.1647070318021778 -0.4095551507196169 0 0.17939050241213 -0.40405958892008381 0 0.16995061569716399 -0.40074813585696711 0 0.1647070318021778 -0.4095551507196169 0 0.16995061569716399 -0.40074813585696711 0 0.15918435495184219 -0.39488185698396988 0 0.1647070318021778 -0.4095551507196169 0 0.18424727478828121 -0.38292017306006321 0 0.15918435495184219 -0.39488185698396988 0 0.16907849560872271 -0.37967271325286439 0 0.16907849560872271 -0.37967271325286439 0 0.15123987807462369 -0.39128728755009262 0 0.1545036698660559 -0.37277453059902987 0 0.16907849560872271 -0.37967271325286439 0 0.15123987807462369 -0.39128728755009262 0 0.18424727478828121 -0.38292017306006321 0 0.15918435495184219 -0.39488185698396988 0 0.15918435495184219 -0.39488185698396988 0 0.16907849560872271 -0.37967271325286439 0 0.15123987807462369 -0.39128728755009262 0 0.1545036698660559 -0.37277453059902987 0 0.13957935105526451 -0.38232133893395093 0 0.15123987807462369 -0.39128728755009262 0 0.13957935105526451 -0.38232133893395093 0 0.11644282805502031 -0.38762839203739757 0 0.13957935105526451 -0.38232133893395093 0 0.13412143511540339 -0.40684354090787661 0 0.11644282805502031 -0.38762839203739757 0 0.15918435495184219 -0.39488185698396988 0 0.15258293625223929 -0.41061401087384553 0 0.13412143511540339 -0.40684354090787661 0 0.13957935105526451 -0.38232133893395093 0 0.15123987807462369 -0.39128728755009262 0 0.13412143511540339 -0.40684354090787661 0 0.15918435495184219 -0.39488185698396988 0 0.15123987807462369 -0.39128728755009262 0 0.13412143511540339 -0.40684354090787661 0 0.15918435495184219 -0.39488185698396988 0 0.13412143511540339 -0.40684354090787661 0 0.15258293625223929 -0.41061401087384553 0 0.14338658854922309 -0.42169901221977912 0 0.13412143511540339 -0.40684354090787661 0 0.15258293625223929 -0.41061401087384553 0 0.14338658854922309 -0.42169901221977912 0 0.15905871472443439 -0.42230582879097073 0 0.14338658854922309 -0.42169901221977912 0 0.13412143511540339 -0.40684354090787661 0 0.1288778622163301 -0.42221934963618118 0 0.1288778622163301 -0.42221934963618118 0 0.135478784529072 -0.43212223293383623 0 0.1198874314908725 -0.43384207254061891 0 0.14338658854922309 -0.42169901221977912 0 0.1288778622163301 -0.42221934963618118 0 0.135478784529072 -0.43212223293383623 0 0.14338658854922309 -0.42169901221977912 0 0.135478784529072 -0.43212223293383623 0 0.15019979845785941 -0.43608911017596469 0 0.14338658854922309 -0.42169901221977912 0 0.15019979845785941 -0.43608911017596469 0 0.15905871472443439 -0.42230582879097073 0 0.15019979845785941 -0.43608911017596469 0 0.15905871472443439 -0.42230582879097073 0 0.1689168897310391 -0.4378231776503333 0 0.15905871472443439 -0.42230582879097073 0 0.1733724113249778 -0.42225538237945492 0 0.1689168897310391 -0.4378231776503333 0 0.15258293625223929 -0.41061401087384553 0 0.15905871472443439 -0.42230582879097073 0 0.1647070318021778 -0.4095551507196169 0 0.15905871472443439 -0.42230582879097073 0 0.1647070318021778 -0.4095551507196169 0 0.1733724113249778 -0.42225538237945492 0 0.17939050241213 -0.40405958892008381 0 0.1647070318021778 -0.4095551507196169 0 0.1733724113249778 -0.42225538237945492 0 0.18900962816198641 -0.42726262604405102 0 0.17939050241213 -0.40405958892008381 0 0.18900962816198641 -0.42726262604405102 0 0.17939050241213 -0.40405958892008381 0 0.1733724113249778 -0.42225538237945492 0 0.18900962816198641 -0.42726262604405102 0 0.17883543573093769 -0.43228378514556959 0 0.1733724113249778 -0.42225538237945492 0 0.18900962816198641 -0.42726262604405102 0 0.17883543573093769 -0.43228378514556959 0 0.18404281370574729 -0.44179395450843922 0 0.18900962816198641 -0.42726262604405102 0 0.18404281370574729 -0.44179395450843922 0 0.17883543573093769 -0.43228378514556959 0 0.1733724113249778 -0.42225538237945492 0 0.1689168897310391 -0.4378231776503333 0 0.17883543573093769 -0.43228378514556959 0 0.18404281370574729 -0.44179395450843922 0 0.1689168897310391 -0.4378231776503333 0 0.19578321903211199 -0.44360172842291951 0 0.18404281370574729 -0.44179395450843922 0 0.17907599924951051 -0.45632528297282832 0 0.18404281370574729 -0.44179395450843922 0 0.17907599924951051 -0.45632528297282832 0 0.1689168897310391 -0.4378231776503333 0 0.17659944915649059 -0.45594394667892629 0 0.17907599924951051 -0.45632528297282832 0 0.1689168897310391 -0.4378231776503333 0 0.18404281370574729 -0.44179395450843922 0 0.17907599924951051 -0.45632528297282832 0 0.19118608245986901 -0.4743536472640042 0 0.17907599924951051 -0.45632528297282832 0 0.1725112350256203 -0.4755317071445086 0 0.17659944915649059 -0.45594394667892629 0 0.17907599924951051 -0.45632528297282832 0 0.1725112350256203 -0.4755317071445086 0 0.17907599924951051 -0.45632528297282832 0 0.1725112350256203 -0.4755317071445086 0 0.17659944915649059 -0.45594394667892629 0 0.17907599924951051 -0.45632528297282832 0 0.17659944915649059 -0.45594394667892629 0 0.1548961734761454 -0.45260210161114289 0 0.17659944915649059 -0.45594394667892629 0 0.15968490538139449 -0.46108623842399771 0 0.17659944915649059 -0.45594394667892629 0 0.15968490538139449 -0.46108623842399771 0 0.1725112350256203 -0.4755317071445086 0 0.17659944915649059 -0.45594394667892629 0 0.15968490538139449 -0.46108623842399771 0 0.1548961734761454 -0.45260210161114289 0 0.15968490538139449 -0.46108623842399771 0 0.15261405178902979 -0.46832729847916899 0 0.15957621888031079 -0.47313757312682247 0 0.17659944915649059 -0.45594394667892629 0 0.1689168897310391 -0.4378231776503333 0 0.1548961734761454 -0.45260210161114289 0 0.15019979845785941 -0.43608911017596469 0 0.1689168897310391 -0.4378231776503333 0 0.1548961734761454 -0.45260210161114289 0 0.15019979845785941 -0.43608911017596469 0 0.1548961734761454 -0.45260210161114289 0 0.13071634770278051 -0.44887892024945641 0 0.1548961734761454 -0.45260210161114289 0 0.13071634770278051 -0.44887892024945641 0 0.135478784529072 -0.43212223293383623 0 0.15019979845785941 -0.43608911017596469 0 0.13071634770278051 -0.44887892024945641 0 0.135478784529072 -0.43212223293383623 0 0.13071634770278051 -0.44887892024945641 0 0.1198874314908725 -0.43384207254061891 0 0.13071634770278051 -0.44887892024945641 0 0.1198874314908725 -0.43384207254061891 0 0.13071634770278051 -0.44887892024945641 0 0.14284794804805301 -0.46572465284970832 0 0.14284794804805301 -0.46572465284970832 0 0.1216509167586752 -0.47156422432146472 0 0.13071634770278051 -0.44887892024945641 0 0.14284794804805301 -0.46572465284970832 0 0.1216509167586752 -0.47156422432146472 0 0.15968490538139449 -0.46108623842399771 0 0.14284794804805301 -0.46572465284970832 0 0.15968490538139449 -0.46108623842399771 0 0.1548961734761454 -0.45260210161114289 0 0.14284794804805301 -0.46572465284970832 0 0.1548961734761454 -0.45260210161114289 0 0.13071634770278051 -0.44887892024945641 0 0.14284794804805301 -0.46572465284970832 0 0.15968490538139449 -0.46108623842399771 0 0.14284794804805301 -0.46572465284970832 0 0.15261405178902979 -0.46832729847916899 0 0.15261405178902979 -0.46832729847916899 0 0.1483471348463605 -0.47336072951614822 0 0.15957621888031079 -0.47313757312682247 0 0.1483471348463605 -0.47336072951614822 0 0.14300876705792509 -0.4844913987671734 0 0.15457185542605181 -0.48718953308606089 0 0.1483471348463605 -0.47336072951614822 0 0.15457185542605181 -0.48718953308606089 0 0.15957621888031079 -0.47313757312682247 0 0.1483471348463605 -0.47336072951614822 0 0.13466572650556541 -0.47741533246648371 0 0.14300876705792509 -0.4844913987671734 0 0.14284794804805301 -0.46572465284970832 0 0.1483471348463605 -0.47336072951614822 0 0.13466572650556541 -0.47741533246648371 0 0.14284794804805301 -0.46572465284970832 0 0.15261405178902979 -0.46832729847916899 0 0.1483471348463605 -0.47336072951614822 0 0.14284794804805301 -0.46572465284970832 0 0.1483471348463605 -0.47336072951614822 0 0.14284794804805301 -0.46572465284970832 0 0.13466572650556541 -0.47741533246648371 0 0.1216509167586752 -0.47156422432146472 0 0.13466572650556541 -0.47741533246648371 0 0.1216509167586752 -0.47156422432146472 0 0.1199333080824805 -0.48379996465953951 0 0.13466572650556541 -0.47741533246648371 0 0.13445035145372289 -0.50000000000000033 0 0.14300876705792509 -0.4844913987671734 0 0.13466572650556541 -0.47741533246648371 0 0.13445035145372289 -0.50000000000000033 0 0.1199333080824805 -0.48379996465953951 0 0.13445035145372289 -0.50000000000000033 0 0.15457185542605181 -0.48718953308606089 0 0.16268819030808679 -0.5 0 0.13445035145372289 -0.50000000000000033 0 0.14300876705792509 -0.4844913987671734 0 0.15457185542605181 -0.48718953308606089 0 0.15457185542605181 -0.48718953308606089 0 0.16268819030808679 -0.5 0 0.1725112350256203 -0.4755317071445086 0 0.15457185542605181 -0.48718953308606089 0 0.15957621888031079 -0.47313757312682247 0 0.1725112350256203 -0.4755317071445086 0 0.15968490538139449 -0.46108623842399771 0 0.15957621888031079 -0.47313757312682247 0 0.1725112350256203 -0.4755317071445086 0 0.19092602916245069 -0.5 0 0.19118608245986901 -0.4743536472640042 0 0.1725112350256203 -0.4755317071445086 0 0.19092602916245069 -0.5 0 0.16268819030808679 -0.5 0 0.1725112350256203 -0.4755317071445086 0 0.071675057481887863 -0.48955391482197841 0 0.076720348972282637 -0.5 0 0.047366526056882068 -0.5 0 0.071675057481887863 -0.48955391482197841 0 0.064786132925143319 -0.48022019208016659 0 0.082440968996561642 -0.48523294143305779 0 0.071675057481887863 -0.48955391482197841 0 0.076720348972282637 -0.5 0 0.082440968996561642 -0.48523294143305779 0 0.064786132925143319 -0.48022019208016659 0 0.079256854179918901 -0.48324336726497491 0 0.082440968996561642 -0.48523294143305779 0 0.064786132925143319 -0.48022019208016659 0 0.082440968996561642 -0.48523294143305779 0 0.079256854179918901 -0.48324336726497491 0 0.061456451195066188 -0.4721208971282177 0 0.064786132925143319 -0.48022019208016659 0 0.079256854179918901 -0.48324336726497491 0 0.061456451195066188 -0.4721208971282177 0 0.079256854179918901 -0.48324336726497491 0 0.08071575821462651 -0.47051722774240301 0 0.061456451195066188 -0.4721208971282177 0 0.079256854179918901 -0.48324336726497491 0 0.100453885469297 -0.47740379579321929 0 0.079256854179918901 -0.48324336726497491 0 0.082440968996561642 -0.48523294143305779 0 0.100453885469297 -0.47740379579321929 0 0.08071575821462651 -0.47051722774240301 0 0.100453885469297 -0.47740379579321929 0 0.093467136576825066 -0.46172589060340719 0 0.079256854179918901 -0.48324336726497491 0 0.08071575821462651 -0.47051722774240301 0 0.100453885469297 -0.47740379579321929 0 0.079256854179918901 -0.48324336726497491 0 0.082440968996561642 -0.48523294143305779 0 0.076720348972282637 -0.5 0 0.082440968996561642 -0.48523294143305779 0 0.1060741718876832 -0.49999999999999839 0 0.082440968996561642 -0.48523294143305779 0 0.1084456602251422 -0.49261647071652931 0 0.082440968996561642 -0.48523294143305779 0 0.1060741718876832 -0.49999999999999839 0 0.082440968996561642 -0.48523294143305779 0 0.1084456602251422 -0.49261647071652931 0 0.1060741718876832 -0.49999999999999839 0 0.082440968996561642 -0.48523294143305779 0 0.1084456602251422 -0.49261647071652931 0 0.100453885469297 -0.47740379579321929 0 0.13445035145372289 -0.50000000000000033 0 0.1084456602251422 -0.49261647071652931 0 0.1199333080824805 -0.48379996465953951 0 0.13445035145372289 -0.50000000000000033 0 0.1084456602251422 -0.49261647071652931 0 0.1060741718876832 -0.49999999999999839 0 0.1084456602251422 -0.49261647071652931 0 0.1199333080824805 -0.48379996465953951 0 0.100453885469297 -0.47740379579321929 0 0.13445035145372289 -0.50000000000000033 0 0.1084456602251422 -0.49261647071652931 0 0.1216509167586752 -0.47156422432146472 0 0.100453885469297 -0.47740379579321929 0 0.10947040396997031 -0.46116955324859871 0 0.1216509167586752 -0.47156422432146472 0 0.1199333080824805 -0.48379996465953951 0 0.100453885469297 -0.47740379579321929 0 0.1216509167586752 -0.47156422432146472 0 0.100453885469297 -0.47740379579321929 0 0.100453885469297 -0.47740379579321929 0 0.10947040396997031 -0.46116955324859871 0 0.093467136576825066 -0.46172589060340719 0 0.10947040396997031 -0.46116955324859871 0 0.094844974949206698 -0.45191502630283709 0 0.093467136576825066 -0.46172589060340719 0 0.13071634770278051 -0.44887892024945641 0 0.1216509167586752 -0.47156422432146472 0 0.10947040396997031 -0.46116955324859871 0 0.13071634770278051 -0.44887892024945641 0 0.1074082138273663 -0.44528996098920409 0 0.13071634770278051 -0.44887892024945641 0 0.10947040396997031 -0.46116955324859871 0 0.1074082138273663 -0.44528996098920409 0 0.13071634770278051 -0.44887892024945641 0 0.1074082138273663 -0.44528996098920409 0 0.1198874314908725 -0.43384207254061891 0 0.10947040396997031 -0.46116955324859871 0 0.1074082138273663 -0.44528996098920409 0 0.094844974949206698 -0.45191502630283709 0 0.1074082138273663 -0.44528996098920409 0 0.094844974949206698 -0.45191502630283709 0 0.084100079951952261 -0.44170100172895121 0 0.1074082138273663 -0.44528996098920409 0 0.085880637599474757 -0.44105455200263088 0 0.097137974030377883 -0.43697673053301039 0 0.1074082138273663 -0.44528996098920409 0 0.084100079951952261 -0.44170100172895121 0 0.1074082138273663 -0.44528996098920409 0 0.085880637599474757 -0.44105455200263088 0 0.084100079951952261 -0.44170100172895121 0 0.083780228511186522 -0.43868811342243841 0 0.081705926765193282 -0.44015148032918933 0 0.082706691276752356 -0.43508772604803742 0 0.083780228511186522 -0.43868811342243841 0 0.085880637599474757 -0.44105455200263088 0 0.082706691276752356 -0.43508772604803742 0 0.083780228511186522 -0.43868811342243841 0 0.084100079951952261 -0.44170100172895121 0 0.081705926765193282 -0.44015148032918933 0 0.083780228511186522 -0.43868811342243841 0 0.085880637599474757 -0.44105455200263088 0 0.084100079951952261 -0.44170100172895121 0 0.084100079951952261 -0.44170100172895121 0 0.082778053320099687 -0.44484275621463809 0 0.085644916676998278 -0.44814106725053943 0 0.084100079951952261 -0.44170100172895121 0 0.082778053320099687 -0.44484275621463809 0 0.080899166728985464 -0.44308718153734911 0 0.084100079951952261 -0.44170100172895121 0 0.080899166728985464 -0.44308718153734911 0 0.081705926765193282 -0.44015148032918933 0 0.080899166728985464 -0.44308718153734911 0 0.078404455133579118 -0.43962628159820072 0 0.076343231383062496 -0.44517139965159419 0 0.080899166728985464 -0.44308718153734911 0 0.080468049922462731 -0.44644177434171312 0 0.076343231383062496 -0.44517139965159419 0 0.082778053320099687 -0.44484275621463809 0 0.080899166728985464 -0.44308718153734911 0 0.080468049922462731 -0.44644177434171312 0 0.078404455133579118 -0.43962628159820072 0 0.081705926765193282 -0.44015148032918933 0 0.082706691276752356 -0.43508772604803742 0 0.080899166728985464 -0.44308718153734911 0 0.078404455133579118 -0.43962628159820072 0 0.081705926765193282 -0.44015148032918933 0 0.085644916676998278 -0.44814106725053943 0 0.088979098692127945 -0.45346268399632172 0 0.07748619033380616 -0.45244467282406492 0 0.080468049922462731 -0.44644177434171312 0 0.085644916676998278 -0.44814106725053943 0 0.07748619033380616 -0.45244467282406492 0 0.082778053320099687 -0.44484275621463809 0 0.080468049922462731 -0.44644177434171312 0 0.085644916676998278 -0.44814106725053943 0 0.094844974949206698 -0.45191502630283709 0 0.085644916676998278 -0.44814106725053943 0 0.088979098692127945 -0.45346268399632172 0 0.094844974949206698 -0.45191502630283709 0 0.084100079951952261 -0.44170100172895121 0 0.085644916676998278 -0.44814106725053943 0 0.093467136576825066 -0.46172589060340719 0 0.068561592393519388 -0.46136215879743359 0 0.093467136576825066 -0.46172589060340719 0 0.068561592393519388 -0.46136215879743359 0 0.07748619033380616 -0.45244467282406492 0 0.08071575821462651 -0.47051722774240301 0 0.093467136576825066 -0.46172589060340719 0 0.068561592393519388 -0.46136215879743359 0 0.094844974949206698 -0.45191502630283709 0 0.088979098692127945 -0.45346268399632172 0 0.093467136576825066 -0.46172589060340719 0 0.088979098692127945 -0.45346268399632172 0 0.093467136576825066 -0.46172589060340719 0 0.07748619033380616 -0.45244467282406492 0 0.08071575821462651 -0.47051722774240301 0 0.068561592393519388 -0.46136215879743359 0 0.061456451195066188 -0.4721208971282177 0 0.068561592393519388 -0.46136215879743359 0 0.068532267291695717 -0.44827149883213491 0 0.07748619033380616 -0.45244467282406492 0 0.068561592393519388 -0.46136215879743359 0 0.068532267291695717 -0.44827149883213491 0 0.056642278990398587 -0.45109145671774997 0 0.068532267291695717 -0.44827149883213491 0 0.072269258887845869 -0.4411569887761031 0 0.061337515962904293 -0.43839736512023569 0 0.072269258887845869 -0.4411569887761031 0 0.074224448335338145 -0.43439974984090501 0 0.061337515962904293 -0.43839736512023569 0 0.068532267291695717 -0.44827149883213491 0 0.072269258887845869 -0.4411569887761031 0 0.076343231383062496 -0.44517139965159419 0 0.078404455133579118 -0.43962628159820072 0 0.072269258887845869 -0.4411569887761031 0 0.074224448335338145 -0.43439974984090501 0 0.078404455133579118 -0.43962628159820072 0 0.072269258887845869 -0.4411569887761031 0 0.076343231383062496 -0.44517139965159419 0 0.080468049922462731 -0.44644177434171312 0 0.076343231383062496 -0.44517139965159419 0 0.07748619033380616 -0.45244467282406492 0 0.068532267291695717 -0.44827149883213491 0 0.076343231383062496 -0.44517139965159419 0 0.07748619033380616 -0.45244467282406492 0 0.071320556935355772 -0.42568949225377711 0 0.059040135902766112 -0.41961109353182813 0 0.061337515962904293 -0.43839736512023569 0 0.071320556935355772 -0.42568949225377711 0 0.080032754417904958 -0.41901935093814119 0 0.080007082213230746 -0.42677683904940161 0 0.071320556935355772 -0.42568949225377711 0 0.074224448335338145 -0.43439974984090501 0 0.080007082213230746 -0.42677683904940161 0 0.071320556935355772 -0.42568949225377711 0 0.074224448335338145 -0.43439974984090501 0 0.061337515962904293 -0.43839736512023569 0 0.071320556935355772 -0.42568949225377711 0 0.071930627419809906 -0.41435151447669449 0 0.059040135902766112 -0.41961109353182813 0 0.071930627419809906 -0.41435151447669449 0 0.084864430964643398 -0.40647619681125657 0 0.063743351915837992 -0.39971659208333837 0 0.071930627419809906 -0.41435151447669449 0 0.063743351915837992 -0.39971659208333837 0 0.059040135902766112 -0.41961109353182813 0 0.071320556935355772 -0.42568949225377711 0 0.071930627419809906 -0.41435151447669449 0 0.080032754417904958 -0.41901935093814119 0 0.084864430964643398 -0.40647619681125657 0 0.089339519836124093 -0.41864063096866228 0 0.092798402072774663 -0.396226709934694 0 0.080032754417904958 -0.41901935093814119 0 0.089339519836124093 -0.41864063096866228 0 0.080007082213230746 -0.42677683904940161 0 0.089339519836124093 -0.41864063096866228 0 0.092798402072774663 -0.396226709934694 0 0.080032754417904958 -0.41901935093814119 0 0.084864430964643398 -0.40647619681125657 0 0.089339519836124093 -0.41864063096866228 0 0.071930627419809906 -0.41435151447669449 0 0.080032754417904958 -0.41901935093814119 0 0.084864430964643398 -0.40647619681125657 0 0.085880637599474757 -0.44105455200263088 0 0.089339519836124093 -0.41864063096866228 0 0.089339519836124093 -0.41864063096866228 0 0.080007082213230746 -0.42677683904940161 0 0.082706691276752356 -0.43508772604803742 0 0.089339519836124093 -0.41864063096866228 0 0.092214198113668253 -0.42684444768212221 0 0.090890544202925458 -0.43366183727403451 0 0.085880637599474757 -0.44105455200263088 0 0.089339519836124093 -0.41864063096866228 0 0.090890544202925458 -0.43366183727403451 0 0.085880637599474757 -0.44105455200263088 0 0.089339519836124093 -0.41864063096866228 0 0.082706691276752356 -0.43508772604803742 0 0.074224448335338145 -0.43439974984090501 0 0.080007082213230746 -0.42677683904940161 0 0.082706691276752356 -0.43508772604803742 0 0.078404455133579118 -0.43962628159820072 0 0.074224448335338145 -0.43439974984090501 0 0.082706691276752356 -0.43508772604803742 0 0.085880637599474757 -0.44105455200263088 0 0.090890544202925458 -0.43366183727403451 0 0.097137974030377883 -0.43697673053301039 0 0.092214198113668253 -0.42684444768212221 0 0.090890544202925458 -0.43366183727403451 0 0.096044315268145802 -0.43178120346655352 0 0.092214198113668253 -0.42684444768212221 0 0.10331169768073691 -0.42925544651781689 0 0.10905851527896381 -0.4188052248317819 0 0.1074082138273663 -0.44528996098920409 0 0.097137974030377883 -0.43697673053301039 0 0.10331169768073691 -0.42925544651781689 0 0.090890544202925458 -0.43366183727403451 0 0.097137974030377883 -0.43697673053301039 0 0.096044315268145802 -0.43178120346655352 0 0.092214198113668253 -0.42684444768212221 0 0.10905851527896381 -0.4188052248317819 0 0.097137974030377883 -0.43697673053301039 0 0.096044315268145802 -0.43178120346655352 0 0.10331169768073691 -0.42925544651781689 0 0.092214198113668253 -0.42684444768212221 0 0.096044315268145802 -0.43178120346655352 0 0.10331169768073691 -0.42925544651781689 0 0.1074082138273663 -0.44528996098920409 0 0.10331169768073691 -0.42925544651781689 0 0.1198874314908725 -0.43384207254061891 0 0.10331169768073691 -0.42925544651781689 0 0.1198874314908725 -0.43384207254061891 0 0.10905851527896381 -0.4188052248317819 0 0.1288778622163301 -0.42221934963618118 0 0.1198874314908725 -0.43384207254061891 0 0.10905851527896381 -0.4188052248317819 0 0.1198874314908725 -0.43384207254061891 0 0.10905851527896381 -0.4188052248317819 0 0.13412143511540339 -0.40684354090787661 0 0.10905851527896381 -0.4188052248317819 0 0.13412143511540339 -0.40684354090787661 0 0.10905851527896381 -0.4188052248317819 0 0.1063307292090329 -0.39663017629123182 0 0.13412143511540339 -0.40684354090787661 0 0.1288778622163301 -0.42221934963618118 0 0.10905851527896381 -0.4188052248317819 0 0.089339519836124093 -0.41864063096866228 0 0.092214198113668253 -0.42684444768212221 0 0.10905851527896381 -0.4188052248317819 0 0.089339519836124093 -0.41864063096866228 0 0.10905851527896381 -0.4188052248317819 0 0.092798402072774663 -0.396226709934694 0 0.10905851527896381 -0.4188052248317819 0 0.092798402072774663 -0.396226709934694 0 0.10905851527896381 -0.4188052248317819 0 0.1063307292090329 -0.39663017629123182 0 0.092798402072774663 -0.396226709934694 0 0.1063307292090329 -0.39663017629123182 0 0.11644282805502031 -0.38762839203739757 0 0.09330630505477655 -0.392935445140846 0 0.1063307292090329 -0.39663017629123182 0 0.09330630505477655 -0.392935445140846 0 0.092798402072774663 -0.396226709934694 0 0.13412143511540339 -0.40684354090787661 0 0.1063307292090329 -0.39663017629123182 0 0.11644282805502031 -0.38762839203739757 0 0.13957935105526451 -0.38232133893395093 0 0.11644282805502031 -0.38762839203739757 0 0.11847591279834881 -0.36822876780275732 0 0.11644282805502031 -0.38762839203739757 0 0.10645431254216151 -0.37848874301562069 0 0.11847591279834881 -0.36822876780275732 0 0.11644282805502031 -0.38762839203739757 0 0.10645431254216151 -0.37848874301562069 0 0.09330630505477655 -0.392935445140846 0 0.10645431254216151 -0.37848874301562069 0 0.09330630505477655 -0.392935445140846 0 0.097592204260499499 -0.3651623670814822 0 0.11644282805502031 -0.38762839203739757 0 0.09330630505477655 -0.392935445140846 0 0.09330630505477655 -0.392935445140846 0 0.097592204260499499 -0.3651623670814822 0 0.084159485584381466 -0.38423085835884452 0 0.09330630505477655 -0.392935445140846 0 0.097592204260499499 -0.3651623670814822 0 0.084159485584381466 -0.38423085835884452 0 0.09083620484946367 -0.39350203645451431 0 0.09330630505477655 -0.392935445140846 0 0.084159485584381466 -0.38423085835884452 0 0.09083620484946367 -0.39350203645451431 0 0.084159485584381466 -0.38423085835884452 0 0.09083620484946367 -0.39350203645451431 0 0.063743351915837992 -0.39971659208333837 0 0.084864430964643398 -0.40647619681125657 0 0.09083620484946367 -0.39350203645451431 0 0.063743351915837992 -0.39971659208333837 0 0.09083620484946367 -0.39350203645451431 0 0.09330630505477655 -0.392935445140846 0 0.09083620484946367 -0.39350203645451431 0 0.09330630505477655 -0.392935445140846 0 0.092798402072774663 -0.396226709934694 0 0.09330630505477655 -0.392935445140846 0 0.092798402072774663 -0.396226709934694 0 0.09083620484946367 -0.39350203645451431 0 0.092798402072774663 -0.396226709934694 0 0.084864430964643398 -0.40647619681125657 0 0.09083620484946367 -0.39350203645451431 0 0.092798402072774663 -0.396226709934694 0 0.09083620484946367 -0.39350203645451431 0 0.063743351915837992 -0.39971659208333837 0 0.084159485584381466 -0.38423085835884452 0 0.062589737464111755 -0.37699467366556633 0 0.078207687883947621 -0.36620624598216522 0 0.084159485584381466 -0.38423085835884452 0 0.063743351915837992 -0.39971659208333837 0 0.062589737464111755 -0.37699467366556633 0 0.063743351915837992 -0.39971659208333837 0 0.062589737464111755 -0.37699467366556633 0 0.042591447829969577 -0.38482599557946812 0 0.062589737464111755 -0.37699467366556633 0 0.042591447829969577 -0.38482599557946812 0 0.04779370668057073 -0.36677586772872001 0 0.063743351915837992 -0.39971659208333837 0 0.036650498982212683 -0.4059311477121641 0 0.063743351915837992 -0.39971659208333837 0 0.036650498982212683 -0.4059311477121641 0 0.042591447829969577 -0.38482599557946812 0 0.036650498982212683 -0.4059311477121641 0 0.042591447829969577 -0.38482599557946812 0 0.017810752622825391 -0.39061941419111229 0 0.042591447829969577 -0.38482599557946812 0 0.017810752622825391 -0.39061941419111229 0 0.026063859197063759 -0.36909312504123548 0 0.017810752622825391 -0.39061941419111229 0 0.026063859197063759 -0.36909312504123548 0 -0.001437518266137712 -0.39260329897227669 0 0.017810752622825391 -0.39061941419111229 0 0.001329830272625719 -0.37172096034497498 0 0.017810752622825391 -0.39061941419111229 0 0.026063859197063759 -0.36909312504123548 0 0.001329830272625719 -0.37172096034497498 0 -0.001437518266137712 -0.39260329897227669 0 0.017810752622825391 -0.39061941419111229 0 0.0095576460485872552 -0.41214570334098932 0 0.017810752622825391 -0.39061941419111229 0 0.0095576460485872552 -0.41214570334098932 0 0.036650498982212683 -0.4059311477121641 0 0.017810752622825391 -0.39061941419111229 0 0.0095576460485872552 -0.41214570334098932 0 0.036650498982212683 -0.4059311477121641 0 0.0095576460485872552 -0.41214570334098932 0 0.021070350288833532 -0.42807269501386203 0 0.036650498982212683 -0.4059311477121641 0 0.0095576460485872552 -0.41214570334098932 0 0.0095576460485872552 -0.41214570334098932 0 0.0010375023834286519 -0.4343684959930546 0 0.021070350288833532 -0.42807269501386203 0 0.0010375023834286519 -0.4343684959930546 0 0.021070350288833532 -0.42807269501386203 0 0.022346775296821528 -0.4476834614922568 0 0.0095576460485872552 -0.41214570334098932 0 0.0010375023834286519 -0.4343684959930546 0 0.021070350288833532 -0.42807269501386203 0 0.04026154125453299 -0.431020599452972 0 0.022346775296821528 -0.4476834614922568 0 0.036650498982212683 -0.4059311477121641 0 0.04026154125453299 -0.431020599452972 0 0.059040135902766112 -0.41961109353182813 0 0.036650498982212683 -0.4059311477121641 0 0.021070350288833532 -0.42807269501386203 0 0.04026154125453299 -0.431020599452972 0 0.063743351915837992 -0.39971659208333837 0 0.036650498982212683 -0.4059311477121641 0 0.059040135902766112 -0.41961109353182813 0 0.04026154125453299 -0.431020599452972 0 0.059040135902766112 -0.41961109353182813 0 0.061337515962904293 -0.43839736512023569 0 0.04026154125453299 -0.431020599452972 0 0.061337515962904293 -0.43839736512023569 0 0.044848831942974232 -0.44583826195493481 0 0.061337515962904293 -0.43839736512023569 0 0.056642278990398587 -0.45109145671774997 0 0.044848831942974232 -0.44583826195493481 0 0.056642278990398587 -0.45109145671774997 0 0.04365604821021371 -0.4609984269914601 0 0.044848831942974232 -0.44583826195493481 0 0.068532267291695717 -0.44827149883213491 0 0.061337515962904293 -0.43839736512023569 0 0.056642278990398587 -0.45109145671774997 0 0.04365604821021371 -0.4609984269914601 0 0.061456451195066188 -0.4721208971282177 0 0.068561592393519388 -0.46136215879743359 0 0.04365604821021371 -0.4609984269914601 0 0.068561592393519388 -0.46136215879743359 0 0.056642278990398587 -0.45109145671774997 0 0.04365604821021371 -0.4609984269914601 0 0.068561592393519388 -0.46136215879743359 0 0.04365604821021371 -0.4609984269914601 0 0.061456451195066188 -0.4721208971282177 0 0.04365604821021371 -0.4609984269914601 0 0.022346775296821528 -0.4476834614922568 0 0.04365604821021371 -0.4609984269914601 0 0.044848831942974232 -0.44583826195493481 0 0.022346775296821528 -0.4476834614922568 0 0.04026154125453299 -0.431020599452972 0 0.044848831942974232 -0.44583826195493481 0 0.022346775296821528 -0.4476834614922568 0 0.022346775296821528 -0.4476834614922568 0 0.012284146667964929 -0.44896166228649098 0 0.01876138713281331 -0.46063485412727628 0 0.0010375023834286519 -0.4343684959930546 0 0.012284146667964929 -0.44896166228649098 0 0.0069909218587964513 -0.45315983753337652 0 0.0010375023834286519 -0.4343684959930546 0 0.022346775296821528 -0.4476834614922568 0 0.0010375023834286519 -0.4343684959930546 0 0.022346775296821528 -0.4476834614922568 0 0.012284146667964929 -0.44896166228649098 0 0.0010375023834286519 -0.4343684959930546 0 0.0069909218587964513 -0.45315983753337652 0 0.0004496438087077761 -0.45535156770205759 0 -0.0061332739445871323 -0.46027128126309252 0 0.01876138713281331 -0.46063485412727628 0 0.0061377907538116318 -0.46935369526845938 0 -0.0061332739445871323 -0.46027128126309252 0 0.01876138713281331 -0.46063485412727628 0 0.0069909218587964513 -0.45315983753337652 0 0.0004496438087077761 -0.45535156770205759 0 0.01876138713281331 -0.46063485412727628 0 -0.0061332739445871323 -0.46027128126309252 0 0.0004496438087077761 -0.45535156770205759 0 0.01876138713281331 -0.46063485412727628 0 0.012284146667964929 -0.44896166228649098 0 0.0069909218587964513 -0.45315983753337652 0 0.01876138713281331 -0.46063485412727628 0 0.01876138713281331 -0.46063485412727628 0 0.01702227245600901 -0.47251237821737391 0 0.0061377907538116318 -0.46935369526845938 0 0.04365604821021371 -0.4609984269914601 0 0.01876138713281331 -0.46063485412727628 0 0.01876138713281331 -0.46063485412727628 0 0.030681816099201269 -0.47180719950809119 0 0.01702227245600901 -0.47251237821737391 0 0.04365604821021371 -0.4609984269914601 0 0.022346775296821528 -0.4476834614922568 0 0.01876138713281331 -0.46063485412727628 0 0.04365604821021371 -0.4609984269914601 0 0.01876138713281331 -0.46063485412727628 0 0.030681816099201269 -0.47180719950809119 0 0.030681816099201269 -0.47180719950809119 0 0.027035936928668521 -0.48378362026153449 0 0.01702227245600901 -0.47251237821737391 0 0.027035936928668521 -0.48378362026153449 0 0.01702227245600901 -0.47251237821737391 0 0.0058358895367897701 -0.48046532183178642 0 0.01702227245600901 -0.47251237821737391 0 0.0058358895367897701 -0.48046532183178642 0 0.0061377907538116318 -0.46935369526845938 0 -0.0042480672254351058 -0.47158187165537568 0 0.0058358895367897701 -0.48046532183178642 0 0.0061377907538116318 -0.46935369526845938 0 -0.01134111977391916 -0.5 0 0.0058358895367897701 -0.48046532183178642 0 0.018012703141481509 -0.5 0 0.027035936928668521 -0.48378362026153449 0 0.018012703141481509 -0.5 0 0.047366526056882068 -0.5 0 0.027035936928668521 -0.48378362026153449 0 0.0058358895367897701 -0.48046532183178642 0 0.018012703141481509 -0.5 0 0.027035936928668521 -0.48378362026153449 0 0.046933435768301709 -0.48110671794281101 0 0.047366526056882068 -0.5 0 0.030681816099201269 -0.47180719950809119 0 0.027035936928668521 -0.48378362026153449 0 0.046933435768301709 -0.48110671794281101 0 0.04365604821021371 -0.4609984269914601 0 0.030681816099201269 -0.47180719950809119 0 0.046933435768301709 -0.48110671794281101 0 0.04365604821021371 -0.4609984269914601 0 0.046933435768301709 -0.48110671794281101 0 0.061456451195066188 -0.4721208971282177 0 0.064786132925143319 -0.48022019208016659 0 0.046933435768301709 -0.48110671794281101 0 0.061456451195066188 -0.4721208971282177 0 0.071675057481887863 -0.48955391482197841 0 0.064786132925143319 -0.48022019208016659 0 0.047366526056882068 -0.5 0 0.064786132925143319 -0.48022019208016659 0 0.046933435768301709 -0.48110671794281101 0 0.047366526056882068 -0.5 0 0.077238668172060654 -0.29159356324833507 0 0.096723464173380125 -0.28075168183772148 0 0.098437522162106911 -0.29668038767722732 0 0.083914835434667656 -0.30626620625573547 0 0.077238668172060654 -0.29159356324833507 0 0.098437522162106911 -0.29668038767722732 0 0.083914835434667656 -0.30626620625573547 0 0.077238668172060654 -0.29159356324833507 0 0.060527307582756387 -0.30913074917128602 0 0.077238668172060654 -0.29159356324833507 0 0.052507570279497769 -0.28690534937899559 0 0.060527307582756387 -0.30913074917128602 0 0.077238668172060654 -0.29159356324833507 0 0.07941679692995085 -0.26892512709861349 0 0.052507570279497769 -0.28690534937899559 0 0.07941679692995085 -0.26892512709861349 0 0.044968477360730577 -0.26392798484498298 0 0.070597955020315906 -0.24843902790192149 0 0.07941679692995085 -0.26892512709861349 0 0.070597955020315906 -0.24843902790192149 0 0.07941679692995085 -0.26892512709861349 0 0.09955279329277085 -0.26794744480873262 0 0.09649499861537178 -0.25491946582551528 0 0.07941679692995085 -0.26892512709861349 0 0.09649499861537178 -0.25491946582551528 0 0.070597955020315906 -0.24843902790192149 0 0.077238668172060654 -0.29159356324833507 0 0.07941679692995085 -0.26892512709861349 0 0.096723464173380125 -0.28075168183772148 0 0.07941679692995085 -0.26892512709861349 0 0.096723464173380125 -0.28075168183772148 0 0.09955279329277085 -0.26794744480873262 0 0.096723464173380125 -0.28075168183772148 0 0.1127614931756532 -0.27303476036672469 0 0.11293351130773829 -0.2863288078266959 0 0.096723464173380125 -0.28075168183772148 0 0.09955279329277085 -0.26794744480873262 0 0.1127614931756532 -0.27303476036672469 0 0.09955279329277085 -0.26794744480873262 0 0.1101570416001553 -0.26274421482554688 0 0.1127614931756532 -0.27303476036672469 0 0.09649499861537178 -0.25491946582551528 0 0.1101570416001553 -0.26274421482554688 0 0.11752926043120079 -0.25008636991584848 0 0.09955279329277085 -0.26794744480873262 0 0.09649499861537178 -0.25491946582551528 0 0.1101570416001553 -0.26274421482554688 0 0.1101570416001553 -0.26274421482554688 0 0.11752926043120079 -0.25008636991584848 0 0.12444666248577969 -0.26773303321091391 0 0.12582108285277899 -0.27941507326196968 0 0.1127614931756532 -0.27303476036672469 0 0.11293351130773829 -0.2863288078266959 0 0.1101570416001553 -0.26274421482554688 0 0.1127614931756532 -0.27303476036672469 0 0.12444666248577969 -0.26773303321091391 0 0.12582108285277899 -0.27941507326196968 0 0.1127614931756532 -0.27303476036672469 0 0.12444666248577969 -0.26773303321091391 0 0.12545141895879261 -0.29063990132090112 0 0.12582108285277899 -0.27941507326196968 0 0.11293351130773829 -0.2863288078266959 0 0.12545141895879261 -0.29063990132090112 0 0.11293351130773829 -0.2863288078266959 0 0.11476177337883189 -0.29931823987432399 0 0.096723464173380125 -0.28075168183772148 0 0.11293351130773829 -0.2863288078266959 0 0.098437522162106911 -0.29668038767722732 0 0.11293351130773829 -0.2863288078266959 0 0.098437522162106911 -0.29668038767722732 0 0.11476177337883189 -0.29931823987432399 0 0.098437522162106911 -0.29668038767722732 0 0.104157809737565 -0.31247168082339088 0 0.11476177337883189 -0.29931823987432399 0 0.083914835434667656 -0.30626620625573547 0 0.098437522162106911 -0.29668038767722732 0 0.104157809737565 -0.31247168082339088 0 0.104157809737565 -0.31247168082339088 0 0.11476177337883189 -0.29931823987432399 0 0.1191619686692367 -0.30998468857291861 0 0.12730726354009719 -0.30188827071706897 0 0.12545141895879261 -0.29063990132090112 0 0.11476177337883189 -0.29931823987432399 0 0.12730726354009719 -0.30188827071706897 0 0.11476177337883189 -0.29931823987432399 0 0.1191619686692367 -0.30998468857291861 0 0.1309845370891318 -0.3158440886429672 0 0.1191619686692367 -0.30998468857291861 0 0.1153403593428321 -0.32424189123489439 0 0.104157809737565 -0.31247168082339088 0 0.1191619686692367 -0.30998468857291861 0 0.1153403593428321 -0.32424189123489439 0 0.13547340604874281 -0.33092194767117361 0 0.1153403593428321 -0.32424189123489439 0 0.1228771392492745 -0.34884433669878362 0 0.1153403593428321 -0.32424189123489439 0 0.1020938620271019 -0.33560647418961781 0 0.1228771392492745 -0.34884433669878362 0 0.1020938620271019 -0.33560647418961781 0 0.1228771392492745 -0.34884433669878362 0 0.104157809737565 -0.31247168082339088 0 0.1020938620271019 -0.33560647418961781 0 0.081310584804929184 -0.32236861168045189 0 0.104157809737565 -0.31247168082339088 0 0.1153403593428321 -0.32424189123489439 0 0.1020938620271019 -0.33560647418961781 0 0.11847591279834881 -0.36822876780275732 0 0.1228771392492745 -0.34884433669878362 0 0.1062289095280399 -0.35186494445686889 0 0.1020938620271019 -0.33560647418961781 0 0.1228771392492745 -0.34884433669878362 0 0.1062289095280399 -0.35186494445686889 0 0.1062289095280399 -0.35186494445686889 0 0.097592204260499499 -0.3651623670814822 0 0.084404062064450724 -0.34783051735512133 0 0.1020938620271019 -0.33560647418961781 0 0.1062289095280399 -0.35186494445686889 0 0.084404062064450724 -0.34783051735512133 0 0.11847591279834881 -0.36822876780275732 0 0.1062289095280399 -0.35186494445686889 0 0.097592204260499499 -0.3651623670814822 0 0.10645431254216151 -0.37848874301562069 0 0.11847591279834881 -0.36822876780275732 0 0.097592204260499499 -0.3651623670814822 0 0.097592204260499499 -0.3651623670814822 0 0.078207687883947621 -0.36620624598216522 0 0.084404062064450724 -0.34783051735512133 0 0.084159485584381466 -0.38423085835884452 0 0.097592204260499499 -0.3651623670814822 0 0.078207687883947621 -0.36620624598216522 0 0.078207687883947621 -0.36620624598216522 0 0.084404062064450724 -0.34783051735512133 0 0.06093751457273882 -0.35430356169624377 0 0.084404062064450724 -0.34783051735512133 0 0.070012746392177957 -0.33888767012345511 0 0.06093751457273882 -0.35430356169624377 0 0.062589737464111755 -0.37699467366556633 0 0.078207687883947621 -0.36620624598216522 0 0.06093751457273882 -0.35430356169624377 0 0.083914835434667656 -0.30626620625573547 0 0.104157809737565 -0.31247168082339088 0 0.081310584804929184 -0.32236861168045189 0 0.084404062064450724 -0.34783051735512133 0 0.081310584804929184 -0.32236861168045189 0 0.070012746392177957 -0.33888767012345511 0 0.1020938620271019 -0.33560647418961781 0 0.084404062064450724 -0.34783051735512133 0 0.081310584804929184 -0.32236861168045189 0 0.1020938620271019 -0.33560647418961781 0 0.081310584804929184 -0.32236861168045189 0 0.081310584804929184 -0.32236861168045189 0 0.070012746392177957 -0.33888767012345511 0 0.053398824126593143 -0.33104798976200328 0 0.081310584804929184 -0.32236861168045189 0 0.060527307582756387 -0.30913074917128602 0 0.081310584804929184 -0.32236861168045189 0 0.053398824126593143 -0.33104798976200328 0 0.060527307582756387 -0.30913074917128602 0 0.083914835434667656 -0.30626620625573547 0 0.081310584804929184 -0.32236861168045189 0 0.060527307582756387 -0.30913074917128602 0 0.053398824126593143 -0.33104798976200328 0 0.033555171930342478 -0.30843773012271081 0 0.060527307582756387 -0.30913074917128602 0 0.070012746392177957 -0.33888767012345511 0 0.053398824126593143 -0.33104798976200328 0 0.06093751457273882 -0.35430356169624377 0 0.053398824126593143 -0.33104798976200328 0 0.038966051717027307 -0.35018664802434463 0 0.02955159583021584 -0.33127107514057191 0 0.053398824126593143 -0.33104798976200328 0 0.02955159583021584 -0.33127107514057191 0 0.033555171930342478 -0.30843773012271081 0 0.062589737464111755 -0.37699467366556633 0 0.04779370668057073 -0.36677586772872001 0 0.06093751457273882 -0.35430356169624377 0 0.053398824126593143 -0.33104798976200328 0 0.06093751457273882 -0.35430356169624377 0 0.038966051717027307 -0.35018664802434463 0 0.04779370668057073 -0.36677586772872001 0 0.06093751457273882 -0.35430356169624377 0 0.038966051717027307 -0.35018664802434463 0 0.04779370668057073 -0.36677586772872001 0 0.038966051717027307 -0.35018664802434463 0 0.026063859197063759 -0.36909312504123548 0 0.042591447829969577 -0.38482599557946812 0 0.04779370668057073 -0.36677586772872001 0 0.026063859197063759 -0.36909312504123548 0 0.038966051717027307 -0.35018664802434463 0 0.026063859197063759 -0.36909312504123548 0 0.015154029777786369 -0.34880311572262079 0 -0.01132347348887399 -0.34647629943326852 0 0.015154029777786369 -0.34880311572262079 0 0.001329830272625719 -0.37172096034497498 0 0.026063859197063759 -0.36909312504123548 0 0.015154029777786369 -0.34880311572262079 0 0.001329830272625719 -0.37172096034497498 0 0.02955159583021584 -0.33127107514057191 0 0.0067780386225128313 -0.32069423561336358 0 0.033555171930342478 -0.30843773012271081 0 0.015154029777786369 -0.34880311572262079 0 0.02955159583021584 -0.33127107514057191 0 0.0067780386225128313 -0.32069423561336358 0 0.038966051717027307 -0.35018664802434463 0 0.015154029777786369 -0.34880311572262079 0 0.02955159583021584 -0.33127107514057191 0 -0.01132347348887399 -0.34647629943326852 0 0.015154029777786369 -0.34880311572262079 0 0.0067780386225128313 -0.32069423561336358 0 -0.0062904779584391293 -0.29490589873110767 0 0.0067780386225128313 -0.32069423561336358 0 0.01297807710556147 -0.30091513413229998 0 -0.0062904779584391293 -0.29490589873110767 0 0.01297807710556147 -0.30091513413229998 0 0.01933899970114571 -0.27941694178804538 0 -0.0062904779584391293 -0.29490589873110767 0 0.01933899970114571 -0.27941694178804538 0 0.01297807710556147 -0.30091513413229998 0 0.033555171930342478 -0.30843773012271081 0 0.01933899970114571 -0.27941694178804538 0 0.0067780386225128313 -0.32069423561336358 0 0.01297807710556147 -0.30091513413229998 0 0.033555171930342478 -0.30843773012271081 0 0.033555171930342478 -0.30843773012271081 0 0.052507570279497769 -0.28690534937899559 0 0.01933899970114571 -0.27941694178804538 0 0.033555171930342478 -0.30843773012271081 0 0.052507570279497769 -0.28690534937899559 0 0.060527307582756387 -0.30913074917128602 0 0.07941679692995085 -0.26892512709861349 0 0.052507570279497769 -0.28690534937899559 0 0.044968477360730577 -0.26392798484498298 0 0.052507570279497769 -0.28690534937899559 0 0.044968477360730577 -0.26392798484498298 0 0.01933899970114571 -0.27941694178804538 0 0.044968477360730577 -0.26392798484498298 0 0.051444957571831061 -0.2415958032662299 0 0.070597955020315906 -0.24843902790192149 0 0.044968477360730577 -0.26392798484498298 0 0.070597955020315906 -0.24843902790192149 0 0.044968477360730577 -0.26392798484498298 0 0.01933899970114571 -0.27941694178804538 0 -0.01372632204363926 -0.27253411672486377 0 0.01933899970114571 -0.27941694178804538 0 0.012011206364422111 -0.25275089785599059 0 0.044968477360730577 -0.26392798484498298 0 0.01933899970114571 -0.27941694178804538 0 0.012011206364422111 -0.25275089785599059 0 0.044968477360730577 -0.26392798484498298 0 0.012011206364422111 -0.25275089785599059 0 0.031512028441702859 -0.23321284547775881 0 0.012011206364422111 -0.25275089785599059 0 0.0022737653020384711 -0.2270177109581504 0 0.031512028441702859 -0.23321284547775881 0 0.0022737653020384711 -0.2270177109581504 0 0.019125435293842061 -0.20601306545420589 0 0.031512028441702859 -0.23321284547775881 0 -0.0034610342632233932 -0.19838100306331299 0 0.019125435293842061 -0.20601306545420589 0 0.016619050083094951 -0.18732360876822191 0 -0.0034610342632233932 -0.19838100306331299 0 0.0022737653020384711 -0.2270177109581504 0 0.019125435293842061 -0.20601306545420589 0 0.0022737653020384711 -0.2270177109581504 0 0.019125435293842061 -0.20601306545420589 0 0.019125435293842061 -0.20601306545420589 0 0.035256955753183439 -0.19926080709378119 0 0.039120498524419449 -0.2128540611920651 0 0.019125435293842061 -0.20601306545420589 0 0.039120498524419449 -0.2128540611920651 0 0.031512028441702859 -0.23321284547775881 0 0.019125435293842061 -0.20601306545420589 0 0.035977105285644212 -0.18500841995026029 0 0.016619050083094951 -0.18732360876822191 0 0.019125435293842061 -0.20601306545420589 0 0.035256955753183439 -0.19926080709378119 0 0.035977105285644212 -0.18500841995026029 0 0.019125435293842061 -0.20601306545420589 0 0.035977105285644212 -0.18500841995026029 0 0.04680478390882746 -0.1931676817785937 0 0.035256955753183439 -0.19926080709378119 0 0.039120498524419449 -0.2128540611920651 0 0.04680478390882746 -0.1931676817785937 0 0.035256955753183439 -0.19926080709378119 0 0.035977105285644212 -0.18500841995026029 0 0.04680478390882746 -0.1931676817785937 0 0.035977105285644212 -0.18500841995026029 0 0.04680478390882746 -0.1931676817785937 0 0.058348710276362438 -0.20186667636807731 0 0.058701369464574923 -0.22080335484025609 0 0.04680478390882746 -0.1931676817785937 0 0.058701369464574923 -0.22080335484025609 0 0.04680478390882746 -0.1931676817785937 0 0.039120498524419449 -0.2128540611920651 0 0.058701369464574923 -0.22080335484025609 0 0.04680478390882746 -0.1931676817785937 0 0.058348710276362438 -0.20186667636807731 0 0.058348710276362438 -0.20186667636807731 0 0.058009766296042958 -0.1905650417265127 0 0.069548959949920219 -0.19391291260790169 0 0.04680478390882746 -0.1931676817785937 0 0.058348710276362438 -0.20186667636807731 0 0.058009766296042958 -0.1905650417265127 0 0.04680478390882746 -0.1931676817785937 0 0.058009766296042958 -0.1905650417265127 0 0.053448161889463011 -0.18044694152537899 0 0.044968477360730577 -0.26392798484498298 0 0.031512028441702859 -0.23321284547775881 0 0.051444957571831061 -0.2415958032662299 0 0.039120498524419449 -0.2128540611920651 0 0.031512028441702859 -0.23321284547775881 0 0.058701369464574923 -0.22080335484025609 0 0.031512028441702859 -0.23321284547775881 0 0.058701369464574923 -0.22080335484025609 0 0.051444957571831061 -0.2415958032662299 0 0.058701369464574923 -0.22080335484025609 0 0.051444957571831061 -0.2415958032662299 0 0.070597955020315906 -0.24843902790192149 0 0.058701369464574923 -0.22080335484025609 0 0.070597955020315906 -0.24843902790192149 0 0.09649499861537178 -0.25491946582551528 0 0.070597955020315906 -0.24843902790192149 0 0.096519147796431143 -0.23277377540810121 0 0.070597955020315906 -0.24843902790192149 0 0.096519147796431143 -0.23277377540810121 0 0.070597955020315906 -0.24843902790192149 0 0.083293441499668691 -0.2218756286834799 0 0.096519147796431143 -0.23277377540810121 0 0.083293441499668691 -0.2218756286834799 0 0.096617433601549785 -0.2181221780822459 0 0.096519147796431143 -0.23277377540810121 0 0.083293441499668691 -0.2218756286834799 0 0.096519147796431143 -0.23277377540810121 0 0.058701369464574923 -0.22080335484025609 0 0.070597955020315906 -0.24843902790192149 0 0.083293441499668691 -0.2218756286834799 0 0.058701369464574923 -0.22080335484025609 0 0.083293441499668691 -0.2218756286834799 0 0.073409991200108687 -0.2077352626377432 0 0.058348710276362438 -0.20186667636807731 0 0.058701369464574923 -0.22080335484025609 0 0.073409991200108687 -0.2077352626377432 0 0.058009766296042958 -0.1905650417265127 0 0.069548959949920219 -0.19391291260790169 0 0.066748381073344951 -0.1782316062820504 0 0.058348710276362438 -0.20186667636807731 0 0.073409991200108687 -0.2077352626377432 0 0.069548959949920219 -0.19391291260790169 0 0.073409991200108687 -0.2077352626377432 0 0.069548959949920219 -0.19391291260790169 0 0.083627783250574406 -0.19826916827806171 0 0.069548959949920219 -0.19391291260790169 0 0.083627783250574406 -0.19826916827806171 0 0.079085541090789663 -0.186028558586118 0 0.083627783250574406 -0.19826916827806171 0 0.10163612080431381 -0.2035047492546978 0 0.092865831107906319 -0.1844822302174346 0 0.083627783250574406 -0.19826916827806171 0 0.092865831107906319 -0.1844822302174346 0 0.079085541090789663 -0.186028558586118 0 0.083627783250574406 -0.19826916827806171 0 0.087792780540138046 -0.2101541025071938 0 0.10163612080431381 -0.2035047492546978 0 0.083293441499668691 -0.2218756286834799 0 0.073409991200108687 -0.2077352626377432 0 0.087792780540138046 -0.2101541025071938 0 0.073409991200108687 -0.2077352626377432 0 0.083627783250574406 -0.19826916827806171 0 0.087792780540138046 -0.2101541025071938 0 0.083293441499668691 -0.2218756286834799 0 0.087792780540138046 -0.2101541025071938 0 0.096617433601549785 -0.2181221780822459 0 0.096617433601549785 -0.2181221780822459 0 0.10163612080431381 -0.2035047492546978 0 0.1138456773671972 -0.22230263455775701 0 0.087792780540138046 -0.2101541025071938 0 0.096617433601549785 -0.2181221780822459 0 0.10163612080431381 -0.2035047492546978 0 0.10163612080431381 -0.2035047492546978 0 0.1078738585493737 -0.18940212187189431 0 0.092865831107906319 -0.1844822302174346 0 0.1078738585493737 -0.18940212187189431 0 0.11945698867659681 -0.20120022094666171 0 0.1224308172542093 -0.18471731460296639 0 0.10163612080431381 -0.2035047492546978 0 0.1078738585493737 -0.18940212187189431 0 0.11945698867659681 -0.20120022094666171 0 0.11945698867659681 -0.20120022094666171 0 0.1138456773671972 -0.22230263455775701 0 0.1311722069379628 -0.21183149370741189 0 0.10163612080431381 -0.2035047492546978 0 0.11945698867659681 -0.20120022094666171 0 0.1138456773671972 -0.22230263455775701 0 0.1138456773671972 -0.22230263455775701 0 0.1311722069379628 -0.21183149370741189 0 0.1138456773671972 -0.22230263455775701 0 0.12944783529313439 -0.22516525038185559 0 0.1311722069379628 -0.21183149370741189 0 0.1138456773671972 -0.22230263455775701 0 0.1206413850607744 -0.2351162915799947 0 0.096519147796431143 -0.23277377540810121 0 0.1138456773671972 -0.22230263455775701 0 0.1206413850607744 -0.2351162915799947 0 0.12944783529313439 -0.22516525038185559 0 0.11752926043120079 -0.25008636991584848 0 0.1206413850607744 -0.2351162915799947 0 0.096519147796431143 -0.23277377540810121 0 0.11752926043120079 -0.25008636991584848 0 0.1206413850607744 -0.2351162915799947 0 0.13078172172674321 -0.2458027894733521 0 0.09649499861537178 -0.25491946582551528 0 0.11752926043120079 -0.25008636991584848 0 0.096519147796431143 -0.23277377540810121 0 0.11752926043120079 -0.25008636991584848 0 0.096519147796431143 -0.23277377540810121 0 0.1138456773671972 -0.22230263455775701 0 0.096519147796431143 -0.23277377540810121 0 0.096617433601549785 -0.2181221780822459 0 0.1138456773671972 -0.22230263455775701 0 0.096519147796431143 -0.23277377540810121 0 0.097135913984547781 -0.15143503744315781 0 0.11531846677866089 -0.14873535452697209 0 0.1057360350582122 -0.16846141094816361 0 0.11531846677866089 -0.14873535452697209 0 0.089678408740790611 -0.13439397333871239 0 0.097135913984547781 -0.15143503744315781 0 0.11531846677866089 -0.14873535452697209 0 0.089678408740790611 -0.13439397333871239 0 0.098532950748233469 -0.13198426542535421 0 0.11531846677866089 -0.14873535452697209 0 0.089678408740790611 -0.13439397333871239 0 0.098532950748233469 -0.13198426542535421 0 0.1097372394465249 -0.13312578398223721 0 0.11531846677866089 -0.14873535452697209 0 0.098532950748233469 -0.13198426542535421 0 0.10012775415512309 -0.1228097791917933 0 0.098532950748233469 -0.13198426542535421 0 0.089678408740790611 -0.13439397333871239 0 0.10012775415512309 -0.1228097791917933 0 0.1097372394465249 -0.13312578398223721 0 0.1155122719511297 -0.1252996771304683 0 0.10012775415512309 -0.1228097791917933 0 0.098532950748233469 -0.13198426542535421 0 0.1097372394465249 -0.13312578398223721 0 0.10012775415512309 -0.1228097791917933 0 0.1097372394465249 -0.13312578398223721 0 0.1191947535994773 -0.13679984363659781 0 0.11531846677866089 -0.14873535452697209 0 0.1097372394465249 -0.13312578398223721 0 0.1155122719511297 -0.1252996771304683 0 0.1191947535994773 -0.13679984363659781 0 0.1155122719511297 -0.1252996771304683 0 0.1191947535994773 -0.13679984363659781 0 0.128587300494203 -0.13248088605997579 0 0.1155122719511297 -0.1252996771304683 0 0.13089678974713631 -0.12778957506914301 0 0.128587300494203 -0.13248088605997579 0 0.1155122719511297 -0.1252996771304683 0 0.13089678974713631 -0.12778957506914301 0 0.1191947535994773 -0.13679984363659781 0 0.11531846677866089 -0.14873535452697209 0 0.1279866395688315 -0.14491316741122809 0 0.11531846677866089 -0.14873535452697209 0 0.1219787527980354 -0.16658724503717809 0 0.1057360350582122 -0.16846141094816361 0 0.1078738585493737 -0.18940212187189431 0 0.1224308172542093 -0.18471731460296639 0 0.1057360350582122 -0.16846141094816361 0 0.1219787527980354 -0.16658724503717809 0 0.1224308172542093 -0.18471731460296639 0 0.1057360350582122 -0.16846141094816361 0 0.1078738585493737 -0.18940212187189431 0 0.1057360350582122 -0.16846141094816361 0 0.092865831107906319 -0.1844822302174346 0 0.1057360350582122 -0.16846141094816361 0 0.091981672220327521 -0.17118054220850981 0 0.092865831107906319 -0.1844822302174346 0 0.1057360350582122 -0.16846141094816361 0 0.088172338003280448 -0.15901270272345219 0 0.091981672220327521 -0.17118054220850981 0 0.097135913984547781 -0.15143503744315781 0 0.1057360350582122 -0.16846141094816361 0 0.088172338003280448 -0.15901270272345219 0 0.088172338003280448 -0.15901270272345219 0 0.091981672220327521 -0.17118054220850981 0 0.080393805360080367 -0.17359368073599299 0 0.088172338003280448 -0.15901270272345219 0 0.080393805360080367 -0.17359368073599299 0 0.073741435117430087 -0.15980062507077539 0 0.091981672220327521 -0.17118054220850981 0 0.092865831107906319 -0.1844822302174346 0 0.080393805360080367 -0.17359368073599299 0 0.092865831107906319 -0.1844822302174346 0 0.080393805360080367 -0.17359368073599299 0 0.079085541090789663 -0.186028558586118 0 0.069548959949920219 -0.19391291260790169 0 0.079085541090789663 -0.186028558586118 0 0.066748381073344951 -0.1782316062820504 0 0.080393805360080367 -0.17359368073599299 0 0.079085541090789663 -0.186028558586118 0 0.066748381073344951 -0.1782316062820504 0 0.066748381073344951 -0.1782316062820504 0 0.073741435117430087 -0.15980062507077539 0 0.055950428814724291 -0.160112811356695 0 0.080393805360080367 -0.17359368073599299 0 0.066748381073344951 -0.1782316062820504 0 0.073741435117430087 -0.15980062507077539 0 0.071162957104714916 -0.14115126249504531 0 0.055950428814724291 -0.160112811356695 0 0.073741435117430087 -0.15980062507077539 0 0.071162957104714916 -0.14115126249504531 0 0.084034420235148496 -0.14673351525305259 0 0.073741435117430087 -0.15980062507077539 0 0.071162957104714916 -0.14115126249504531 0 0.055950428814724291 -0.160112811356695 0 0.071162957104714916 -0.14115126249504531 0 0.084034420235148496 -0.14673351525305259 0 0.079052942590925254 -0.1381821566746711 0 0.088172338003280448 -0.15901270272345219 0 0.073741435117430087 -0.15980062507077539 0 0.084034420235148496 -0.14673351525305259 0 0.097135913984547781 -0.15143503744315781 0 0.084034420235148496 -0.14673351525305259 0 0.089678408740790611 -0.13439397333871239 0 0.097135913984547781 -0.15143503744315781 0 0.088172338003280448 -0.15901270272345219 0 0.084034420235148496 -0.14673351525305259 0 0.089678408740790611 -0.13439397333871239 0 0.079052942590925254 -0.1381821566746711 0 0.071335984283046994 -0.1304498756118741 0 0.089678408740790611 -0.13439397333871239 0 0.083714564567708052 -0.12015339649181719 0 0.10012775415512309 -0.1228097791917933 0 0.084034420235148496 -0.14673351525305259 0 0.089678408740790611 -0.13439397333871239 0 0.079052942590925254 -0.1381821566746711 0 0.089678408740790611 -0.13439397333871239 0 0.064038350702920577 -0.1200525921504523 0 0.089678408740790611 -0.13439397333871239 0 0.071335984283046994 -0.1304498756118741 0 0.064038350702920577 -0.1200525921504523 0 0.071162957104714916 -0.14115126249504531 0 0.079052942590925254 -0.1381821566746711 0 0.071335984283046994 -0.1304498756118741 0 0.071162957104714916 -0.14115126249504531 0 0.071335984283046994 -0.1304498756118741 0 0.061561252179095097 -0.1343058399122383 0 0.071162957104714916 -0.14115126249504531 0 0.061561252179095097 -0.1343058399122383 0 0.055642902349357093 -0.14412382134887669 0 0.071335984283046994 -0.1304498756118741 0 0.061561252179095097 -0.1343058399122383 0 0.064038350702920577 -0.1200525921504523 0 0.045824927983060981 -0.13431722060014509 0 0.064038350702920577 -0.1200525921504523 0 0.061561252179095097 -0.1343058399122383 0 0.045824927983060981 -0.13431722060014509 0 0.064038350702920577 -0.1200525921504523 0 0.045824927983060981 -0.13431722060014509 0 0.049505601229949778 -0.1215885661579921 0 0.064038350702920577 -0.1200525921504523 0 0.061561252179095097 -0.1343058399122383 0 0.055642902349357093 -0.14412382134887669 0 0.045824927983060981 -0.13431722060014509 0 0.055642902349357093 -0.14412382134887669 0 0.0437149456651902 -0.15073197238025979 0 0.055950428814724291 -0.160112811356695 0 0.071162957104714916 -0.14115126249504531 0 0.055642902349357093 -0.14412382134887669 0 0.055950428814724291 -0.160112811356695 0 0.055642902349357093 -0.14412382134887669 0 0.0437149456651902 -0.15073197238025979 0 0.045824927983060981 -0.13431722060014509 0 0.0437149456651902 -0.15073197238025979 0 0.034174702893966798 -0.16382810463409039 0 0.027611505263201799 -0.14858184904983859 0 0.045824927983060981 -0.13431722060014509 0 0.027611505263201799 -0.14858184904983859 0 0.0437149456651902 -0.15073197238025979 0 0.045824927983060981 -0.13431722060014509 0 0.027611505263201799 -0.14858184904983859 0 0.031642011758090963 -0.1332430955043605 0 0.045824927983060981 -0.13431722060014509 0 0.027611505263201799 -0.14858184904983859 0 0.031642011758090963 -0.1332430955043605 0 0.029039967374838931 -0.12567178738944931 0 0.037338036066858087 -0.12412637833583651 0 0.031642011758090963 -0.1332430955043605 0 0.045824927983060981 -0.13431722060014509 0 0.037338036066858087 -0.12412637833583651 0 0.045824927983060981 -0.13431722060014509 0 0.049505601229949778 -0.1215885661579921 0 0.037338036066858087 -0.12412637833583651 0 0.053448161889463011 -0.18044694152537899 0 0.055950428814724291 -0.160112811356695 0 0.040737900524731252 -0.17907436021834269 0 0.066748381073344951 -0.1782316062820504 0 0.053448161889463011 -0.18044694152537899 0 0.055950428814724291 -0.160112811356695 0 0.04680478390882746 -0.1931676817785937 0 0.053448161889463011 -0.18044694152537899 0 0.040737900524731252 -0.17907436021834269 0 0.058009766296042958 -0.1905650417265127 0 0.066748381073344951 -0.1782316062820504 0 0.053448161889463011 -0.18044694152537899 0 0.055950428814724291 -0.160112811356695 0 0.040737900524731252 -0.17907436021834269 0 0.0437149456651902 -0.15073197238025979 0 0.055950428814724291 -0.160112811356695 0 0.034174702893966798 -0.16382810463409039 0 0.055950428814724291 -0.160112811356695 0 0.034174702893966798 -0.16382810463409039 0 0.040737900524731252 -0.17907436021834269 0 0.034174702893966798 -0.16382810463409039 0 0.040737900524731252 -0.17907436021834269 0 0.034174702893966798 -0.16382810463409039 0 0.040737900524731252 -0.17907436021834269 0 0.035977105285644212 -0.18500841995026029 0 0.040737900524731252 -0.17907436021834269 0 0.035977105285644212 -0.18500841995026029 0 0.04680478390882746 -0.1931676817785937 0 0.040737900524731252 -0.17907436021834269 0 0.035977105285644212 -0.18500841995026029 0 0.04680478390882746 -0.1931676817785937 0 0.040737900524731252 -0.17907436021834269 0 0.035977105285644212 -0.18500841995026029 0 0.016619050083094951 -0.18732360876822191 0 0.01552669069151031 -0.16959788801830389 0 0.035977105285644212 -0.18500841995026029 0 0.01552669069151031 -0.16959788801830389 0 0.034174702893966798 -0.16382810463409039 0 0.035977105285644212 -0.18500841995026029 0 0.01552669069151031 -0.16959788801830389 0 0.034174702893966798 -0.16382810463409039 0 0.026854037202767671 -0.15929882095847789 0 0.01552669069151031 -0.16959788801830389 0 0.034174702893966798 -0.16382810463409039 0 0.026854037202767671 -0.15929882095847789 0 0.027611505263201799 -0.14858184904983859 0 0.026854037202767671 -0.15929882095847789 0 0.017766242097127821 -0.1588206902167813 0 0.020791586753149641 -0.15444002579508539 0 0.026854037202767671 -0.15929882095847789 0 0.017766242097127821 -0.1588206902167813 0 0.01552669069151031 -0.16959788801830389 0 -0.0049237239026245858 -0.15418735608634859 0 0.01552669069151031 -0.16959788801830389 0 -0.0049237239026245858 -0.15418735608634859 0 0.0082188127272855883 -0.1567990386731081 0 0.01552669069151031 -0.16959788801830389 0 -0.0049237239026245858 -0.15418735608634859 0 -0.0003562882565626862 -0.1747178663493702 0 0.01552669069151031 -0.16959788801830389 0 0.017766242097127821 -0.1588206902167813 0 0.0082188127272855883 -0.1567990386731081 0 0.01552669069151031 -0.16959788801830389 0 -0.0003562882565626862 -0.1747178663493702 0 0.016619050083094951 -0.18732360876822191 0 0.01552669069151031 -0.16959788801830389 0 -0.0003562882565626862 -0.1747178663493702 0 -0.0034610342632233932 -0.19838100306331299 0 0.016619050083094951 -0.18732360876822191 0 0.019576782177309109 -0.1299172516069593 0 0.027611505263201799 -0.14858184904983859 0 0.031642011758090963 -0.1332430955043605 0 0.019576782177309109 -0.1299172516069593 0 0.027611505263201799 -0.14858184904983859 0 0.017456773739827611 -0.1402627748608517 0 0.019576782177309109 -0.1299172516069593 0 0.021369069518575319 -0.14410588833822541 0 0.017456773739827611 -0.1402627748608517 0 0.019576782177309109 -0.1299172516069593 0 0.01383999591620748 -0.1369497664178484 0 0.031642011758090963 -0.1332430955043605 0 0.019576782177309109 -0.1299172516069593 0 0.029039967374838931 -0.12567178738944931 0 0.019576782177309109 -0.1299172516069593 0 0.027611505263201799 -0.14858184904983859 0 0.021369069518575319 -0.14410588833822541 0 0.027611505263201799 -0.14858184904983859 0 0.024500682026214009 -0.1510182245917023 0 0.021369069518575319 -0.14410588833822541 0 0.026854037202767671 -0.15929882095847789 0 0.024500682026214009 -0.1510182245917023 0 0.020791586753149641 -0.15444002579508539 0 0.026854037202767671 -0.15929882095847789 0 0.027611505263201799 -0.14858184904983859 0 0.024500682026214009 -0.1510182245917023 0 0.034174702893966798 -0.16382810463409039 0 0.027611505263201799 -0.14858184904983859 0 0.027611505263201799 -0.14858184904983859 0 0.024500682026214009 -0.1510182245917023 0 0.017766242097127821 -0.1588206902167813 0 0.020791586753149641 -0.15444002579508539 0 0.01708031919136694 -0.15065657426001081 0 0.024500682026214009 -0.1510182245917023 0 0.020791586753149641 -0.15444002579508539 0 0.020417836562184249 -0.14919458248856879 0 0.020417836562184249 -0.14919458248856879 0 0.01708031919136694 -0.15065657426001081 0 0.018268871778614939 -0.14567695869710701 0 0.020791586753149641 -0.15444002579508539 0 0.020417836562184249 -0.14919458248856879 0 0.01708031919136694 -0.15065657426001081 0 0.024500682026214009 -0.1510182245917023 0 0.020417836562184249 -0.14919458248856879 0 0.021369069518575319 -0.14410588833822541 0 0.020417836562184249 -0.14919458248856879 0 0.021369069518575319 -0.14410588833822541 0 0.018268871778614939 -0.14567695869710701 0 0.01708031919136694 -0.15065657426001081 0 0.018268871778614939 -0.14567695869710701 0 0.014488449288093831 -0.14446652417578251 0 0.017456773739827611 -0.1402627748608517 0 0.021369069518575319 -0.14410588833822541 0 0.018268871778614939 -0.14567695869710701 0 0.017456773739827611 -0.1402627748608517 0 0.018268871778614939 -0.14567695869710701 0 0.014488449288093831 -0.14446652417578251 0 0.009275596944061883 -0.14265418990250009 0 0.01074318286197078 -0.15074965623532879 0 0.0042185540073147038 -0.14807634944553011 0 -0.0049237239026245858 -0.15418735608634859 0 0.0042185540073147038 -0.14807634944553011 0 0.0084465345920672896 -0.12804710113955539 0 0.014488449288093831 -0.14446652417578251 0 0.009275596944061883 -0.14265418990250009 0 0.01074318286197078 -0.15074965623532879 0 0.014488449288093831 -0.14446652417578251 0 0.009275596944061883 -0.14265418990250009 0 0.01383999591620748 -0.1369497664178484 0 -0.0049237239026245858 -0.15418735608634859 0 0.0084465345920672896 -0.12804710113955539 0 0.017766242097127821 -0.1588206902167813 0 0.0082188127272855883 -0.1567990386731081 0 0.01074318286197078 -0.15074965623532879 0 0.017766242097127821 -0.1588206902167813 0 0.01708031919136694 -0.15065657426001081 0 0.01074318286197078 -0.15074965623532879 0 0.01708031919136694 -0.15065657426001081 0 0.014488449288093831 -0.14446652417578251 0 0.01074318286197078 -0.15074965623532879 0 0.0082188127272855883 -0.1567990386731081 0 0.01074318286197078 -0.15074965623532879 0 0.0042185540073147038 -0.14807634944553011 0 -0.0049237239026245858 -0.15418735608634859 0 0.0082188127272855883 -0.1567990386731081 0 0.0042185540073147038 -0.14807634944553011 0 0.009275596944061883 -0.14265418990250009 0 0.0042185540073147038 -0.14807634944553011 0 0.0084465345920672896 -0.12804710113955539 0 0.009275596944061883 -0.14265418990250009 0 0.01383999591620748 -0.1369497664178484 0 0.0084465345920672896 -0.12804710113955539 0 0.017456773739827611 -0.1402627748608517 0 0.014488449288093831 -0.14446652417578251 0 0.01383999591620748 -0.1369497664178484 0 0.019576782177309109 -0.1299172516069593 0 0.01383999591620748 -0.1369497664178484 0 0.0084465345920672896 -0.12804710113955539 0 0.019576782177309109 -0.1299172516069593 0 0.011542059091414449 -0.11125265416408089 0 0.019576782177309109 -0.1299172516069593 0 0.0084465345920672896 -0.12804710113955539 0 0.011542059091414449 -0.11125265416408089 0 -1.1024891662820941e-05 -0.1179733914109671 0 0.0084465345920672896 -0.12804710113955539 0 0.011542059091414449 -0.11125265416408089 0 -1.1024891662820941e-05 -0.1179733914109671 0 0.011542059091414449 -0.11125265416408089 0 0.001824658357327627 -0.1054733871029431 0 0.019576782177309109 -0.1299172516069593 0 0.011542059091414449 -0.11125265416408089 0 0.02760303949709756 -0.115400424110641 0 0.019576782177309109 -0.1299172516069593 0 0.029039967374838931 -0.12567178738944931 0 0.02760303949709756 -0.115400424110641 0 0.011542059091414449 -0.11125265416408089 0 0.02760303949709756 -0.115400424110641 0 0.018208046785689078 -0.099520136409745608 0 0.02760303949709756 -0.115400424110641 0 0.018208046785689078 -0.099520136409745608 0 0.030067336465553551 -0.098490223751028866 0 0.018208046785689078 -0.099520136409745608 0 0.030067336465553551 -0.098490223751028866 0 0.02029191750834192 -0.083418136478836891 0 0.011542059091414449 -0.11125265416408089 0 0.018208046785689078 -0.099520136409745608 0 0.003275135286582184 -0.092134748841791653 0 0.011542059091414449 -0.11125265416408089 0 0.003275135286582184 -0.092134748841791653 0 0.011542059091414449 -0.11125265416408089 0 0.001824658357327627 -0.1054733871029431 0 0.003275135286582184 -0.092134748841791653 0 -0.0019803882487723222 -0.094826818401422736 0 0.001824658357327627 -0.1054733871029431 0 0.003275135286582184 -0.092134748841791653 0 -0.0019803882487723222 -0.094826818401422736 0 0.003275135286582184 -0.092134748841791653 0 0.003275135286582184 -0.092134748841791653 0 0.02029191750834192 -0.083418136478836891 0 0.018208046785689078 -0.099520136409745608 0 0.003275135286582184 -0.092134748841791653 0 0.02029191750834192 -0.083418136478836891 0 0.003275135286582184 -0.092134748841791653 0 0.0061302044082681591 -0.072685309045958837 0 0.02029191750834192 -0.083418136478836891 0 -0.0019803882487723222 -0.094826818401422736 0 0.003275135286582184 -0.092134748841791653 0 0.0061302044082681591 -0.072685309045958837 0 0.0061302044082681591 -0.072685309045958837 0 0.021321653615345559 -0.055910213406934167 0 0.00029661487375323931 -0.063456112584095156 0 0.0061302044082681591 -0.072685309045958837 0 0.0078838076849434731 -0.055547621232976643 0 0.02029191750834192 -0.083418136478836891 0 0.042564223265456148 -0.07200945455625106 0 0.021321653615345559 -0.055910213406934167 0 0.0061302044082681591 -0.072685309045958837 0 0.02029191750834192 -0.083418136478836891 0 0.021321653615345559 -0.055910213406934167 0 0.030067336465553551 -0.098490223751028866 0 0.02029191750834192 -0.083418136478836891 0 0.043182045606454993 -0.092391672781695786 0 0.02029191750834192 -0.083418136478836891 0 0.043182045606454993 -0.092391672781695786 0 0.042564223265456148 -0.07200945455625106 0 0.02029191750834192 -0.083418136478836891 0 0.042564223265456148 -0.07200945455625106 0 0.042564223265456148 -0.07200945455625106 0 0.064836529022570394 -0.060600772633665222 0 0.042564223265456148 -0.07200945455625106 0 0.064836529022570394 -0.060600772633665222 0 0.065421565856859765 -0.076290709326437736 0 0.043182045606454993 -0.092391672781695786 0 0.042564223265456148 -0.07200945455625106 0 0.055541204283563302 -0.087090012678884665 0 0.042564223265456148 -0.07200945455625106 0 0.055541204283563302 -0.087090012678884665 0 0.065421565856859765 -0.076290709326437736 0 0.055541204283563302 -0.087090012678884665 0 0.052372658197136358 -0.1018768095635337 0 0.065317281255102763 -0.094620814240321469 0 0.052372658197136358 -0.1018768095635337 0 0.062822720990625192 -0.10624341152843909 0 0.065317281255102763 -0.094620814240321469 0 0.043182045606454993 -0.092391672781695786 0 0.055541204283563302 -0.087090012678884665 0 0.052372658197136358 -0.1018768095635337 0 0.052372658197136358 -0.1018768095635337 0 0.05622235688885778 -0.11568083345603029 0 0.062822720990625192 -0.10624341152843909 0 0.05622235688885778 -0.11568083345603029 0 0.067301374980292761 -0.1174970137918423 0 0.062822720990625192 -0.10624341152843909 0 0.05622235688885778 -0.11568083345603029 0 0.067301374980292761 -0.1174970137918423 0 0.05622235688885778 -0.11568083345603029 0 0.049505601229949778 -0.1215885661579921 0 0.064038350702920577 -0.1200525921504523 0 0.05622235688885778 -0.11568083345603029 0 0.064038350702920577 -0.1200525921504523 0 0.052372658197136358 -0.1018768095635337 0 0.05622235688885778 -0.11568083345603029 0 0.044107978218916682 -0.1137432925798567 0 0.05622235688885778 -0.11568083345603029 0 0.049505601229949778 -0.1215885661579921 0 0.044107978218916682 -0.1137432925798567 0 0.05622235688885778 -0.11568083345603029 0 0.044107978218916682 -0.1137432925798567 0 0.02760303949709756 -0.115400424110641 0 0.044107978218916682 -0.1137432925798567 0 0.039466611597031832 -0.1043804845573512 0 0.02760303949709756 -0.115400424110641 0 0.044107978218916682 -0.1137432925798567 0 0.037338036066858087 -0.12412637833583651 0 0.049505601229949778 -0.1215885661579921 0 0.044107978218916682 -0.1137432925798567 0 0.037338036066858087 -0.12412637833583651 0 0.029039967374838931 -0.12567178738944931 0 0.02760303949709756 -0.115400424110641 0 0.037338036066858087 -0.12412637833583651 0 0.02760303949709756 -0.115400424110641 0 0.030067336465553551 -0.098490223751028866 0 0.039466611597031832 -0.1043804845573512 0 0.030067336465553551 -0.098490223751028866 0 0.043182045606454993 -0.092391672781695786 0 0.039466611597031832 -0.1043804845573512 0 0.043182045606454993 -0.092391672781695786 0 0.052372658197136358 -0.1018768095635337 0 0.039466611597031832 -0.1043804845573512 0 0.052372658197136358 -0.1018768095635337 0 0.044107978218916682 -0.1137432925798567 0 0.039466611597031832 -0.1043804845573512 0 0.027470930869090721 -0.0051934323317437137 0 0.01474968702861479 -0.013572709952776291 0 0.032793081835488423 -0.020026022629241629 0 0.022935506817611171 0.0096653664055293999 0 0.027470930869090721 -0.0051934323317437137 0 0.01474968702861479 -0.013572709952776291 0 0.022935506817611171 0.0096653664055293999 0 0.001300284477923656 -0.0064203740176691469 0 0.01474968702861479 -0.013572709952776291 0 -0.0080762768916106727 -0.022154101554753981 0 0.001300284477923656 -0.0064203740176691469 0 0.01474968702861479 -0.013572709952776291 0 -0.0080762768916106727 -0.022154101554753981 0 0.01474968702861479 -0.013572709952776291 0 0.01090422342544064 -0.028312273988929021 0 -0.0080762768916106727 -0.022154101554753981 0 0.01090422342544064 -0.028312273988929021 0 0.01090422342544064 -0.028312273988929021 0 0.0298847237424919 -0.034470446423104567 0 0.032793081835488423 -0.020026022629241629 0 0.01474968702861479 -0.013572709952776291 0 0.01090422342544064 -0.028312273988929021 0 0.032793081835488423 -0.020026022629241629 0 0.01090422342544064 -0.028312273988929021 0 0.0298847237424919 -0.034470446423104567 0 0.0091413640716527019 -0.044743127020136303 0 0.0298847237424919 -0.034470446423104567 0 0.0091413640716527019 -0.044743127020136303 0 0.021321653615345559 -0.055910213406934167 0 0.01090422342544064 -0.028312273988929021 0 0.0298847237424919 -0.034470446423104567 0 -0.0064242675956501551 -0.039195660703315788 0 0.01090422342544064 -0.028312273988929021 0 0.0091413640716527019 -0.044743127020136303 0 -0.0064242675956501551 -0.039195660703315788 0 -0.00078708000148443357 -0.048538300474750183 0 0.0091413640716527019 -0.044743127020136303 0 0.0061302044082681591 -0.072685309045958837 0 0.0078838076849434731 -0.055547621232976643 0 0.021321653615345559 -0.055910213406934167 0 0.0091413640716527019 -0.044743127020136303 0 0.0078838076849434731 -0.055547621232976643 0 0.021321653615345559 -0.055910213406934167 0 -0.00078708000148443357 -0.048538300474750183 0 -0.0033324927636182362 -0.055788865741512143 0 0.0078838076849434731 -0.055547621232976643 0 -0.00078708000148443357 -0.048538300474750183 0 0.0091413640716527019 -0.044743127020136303 0 0.0078838076849434731 -0.055547621232976643 0 -0.0033324927636182362 -0.055788865741512143 0 0.00029661487375323931 -0.063456112584095156 0 0.0078838076849434731 -0.055547621232976643 0 0.0298847237424919 -0.034470446423104567 0 0.021321653615345559 -0.055910213406934167 0 0.04019302175483426 -0.051017527751015063 0 0.042564223265456148 -0.07200945455625106 0 0.021321653615345559 -0.055910213406934167 0 0.04019302175483426 -0.051017527751015063 0 0.04019302175483426 -0.051017527751015063 0 0.050309404478728961 -0.034352423221867052 0 0.064836529022570394 -0.060600772633665222 0 0.042564223265456148 -0.07200945455625106 0 0.04019302175483426 -0.051017527751015063 0 0.064836529022570394 -0.060600772633665222 0 0.0298847237424919 -0.034470446423104567 0 0.04019302175483426 -0.051017527751015063 0 0.050309404478728961 -0.034352423221867052 0 0.0298847237424919 -0.034470446423104567 0 0.050309404478728961 -0.034352423221867052 0 0.032793081835488423 -0.020026022629241629 0 0.050309404478728961 -0.034352423221867052 0 0.032793081835488423 -0.020026022629241629 0 0.048422182644202977 -0.01458676514045767 0 0.050309404478728961 -0.034352423221867052 0 0.048422182644202977 -0.01458676514045767 0 0.050309404478728961 -0.034352423221867052 0 0.048422182644202977 -0.01458676514045767 0 0.064426505563596928 -0.02228150356322723 0 0.046534960809677742 0.005178892940951748 0 0.048422182644202977 -0.01458676514045767 0 0.067309607389994364 -0.0035842951844848791 0 0.046534960809677742 0.005178892940951748 0 0.048422182644202977 -0.01458676514045767 0 0.048422182644202977 -0.01458676514045767 0 0.067309607389994364 -0.0035842951844848791 0 0.064426505563596928 -0.02228150356322723 0 0.046534960809677742 0.005178892940951748 0 0.027470930869090721 -0.0051934323317437137 0 0.048422182644202977 -0.01458676514045767 0 0.046534960809677742 0.005178892940951748 0 0.027470930869090721 -0.0051934323317437137 0 0.027470930869090721 -0.0051934323317437137 0 0.032793081835488423 -0.020026022629241629 0 0.048422182644202977 -0.01458676514045767 0 0.094181460218896534 0.00364190637146985 0 0.082613005966983677 -0.01914513020725735 0 0.10132624085993611 -0.015835605744297931 0 0.094181460218896534 0.00364190637146985 0 0.067309607389994364 -0.0035842951844848791 0 0.082613005966983677 -0.01914513020725735 0 0.067309607389994364 -0.0035842951844848791 0 0.064426505563596928 -0.02228150356322723 0 0.082613005966983677 -0.01914513020725735 0 0.064426505563596928 -0.02228150356322723 0 0.082613005966983677 -0.01914513020725735 0 0.073478327338074662 -0.039738904062069209 0 0.082613005966983677 -0.01914513020725735 0 0.094049146286771759 -0.034799481211730217 0 0.10132624085993611 -0.015835605744297931 0 0.082613005966983677 -0.01914513020725735 0 0.073478327338074662 -0.039738904062069209 0 0.094049146286771759 -0.034799481211730217 0 0.073478327338074662 -0.039738904062069209 0 0.089213385669547743 -0.054556815066673661 0 0.094049146286771759 -0.034799481211730217 0 0.050309404478728961 -0.034352423221867052 0 0.073478327338074662 -0.039738904062069209 0 0.064836529022570394 -0.060600772633665222 0 0.050309404478728961 -0.034352423221867052 0 0.064426505563596928 -0.02228150356322723 0 0.073478327338074662 -0.039738904062069209 0 0.073478327338074662 -0.039738904062069209 0 0.064836529022570394 -0.060600772633665222 0 0.089213385669547743 -0.054556815066673661 0 0.064836529022570394 -0.060600772633665222 0 0.089213385669547743 -0.054556815066673661 0 0.082236436545707475 -0.069715371917353761 0 0.089213385669547743 -0.054556815066673661 0 0.097938227422578295 -0.069885319451053737 0 0.089213385669547743 -0.054556815066673661 0 0.1016089273547981 -0.048335871655864657 0 0.097938227422578295 -0.069885319451053737 0 0.1016089273547981 -0.048335871655864657 0 0.1113590298534511 -0.058199192184825957 0 0.097938227422578295 -0.069885319451053737 0 0.1113590298534511 -0.058199192184825957 0 0.1160549905312903 -0.031184560534218499 0 0.12634024086196699 -0.054055955158950633 0 0.1113590298534511 -0.058199192184825957 0 0.12477980797479719 -0.072480297101731733 0 0.12634024086196699 -0.054055955158950633 0 0.1016089273547981 -0.048335871655864657 0 0.1113590298534511 -0.058199192184825957 0 0.1160549905312903 -0.031184560534218499 0 0.1113590298534511 -0.058199192184825957 0 0.1160549905312903 -0.031184560534218499 0 0.089213385669547743 -0.054556815066673661 0 0.1016089273547981 -0.048335871655864657 0 0.094049146286771759 -0.034799481211730217 0 0.1016089273547981 -0.048335871655864657 0 0.094049146286771759 -0.034799481211730217 0 0.1160549905312903 -0.031184560534218499 0 0.094049146286771759 -0.034799481211730217 0 0.10132624085993611 -0.015835605744297931 0 0.1160549905312903 -0.031184560534218499 0 0.10132624085993611 -0.015835605744297931 0 0.1160549905312903 -0.031184560534218499 0 0.1207509512091294 -0.0041699288836110626 0 0.1160549905312903 -0.031184560534218499 0 0.1207509512091294 -0.0041699288836110626 0 0.094181460218896534 0.00364190637146985 0 0.10132624085993611 -0.015835605744297931 0 0.1207509512091294 -0.0041699288836110626 0 0.07972467942485216 -0.098464624470702422 0 0.083762022567420158 -0.095920337108045955 0 0.088534192035176928 -0.1008676162927148 0 0.07972467942485216 -0.098464624470702422 0 0.088534192035176928 -0.1008676162927148 0 0.076331493208979959 -0.10434640871748981 0 0.07972467942485216 -0.098464624470702422 0 0.083762022567420158 -0.095920337108045955 0 0.077267160974094085 -0.092604928229340036 0 0.083762022567420158 -0.095920337108045955 0 0.088534192035176928 -0.1008676162927148 0 0.086942099690968055 -0.090993693740888962 0 0.083714564567708052 -0.12015339649181719 0 0.10012775415512309 -0.1228097791917933 0 0.093890738697452361 -0.1122611823864451 0 0.083714564567708052 -0.12015339649181719 0 0.10012775415512309 -0.1228097791917933 0 0.088534192035176928 -0.1008676162927148 0 0.083714564567708052 -0.12015339649181719 0 0.093890738697452361 -0.1122611823864451 0 0.088534192035176928 -0.1008676162927148 0 0.083714564567708052 -0.12015339649181719 0 0.067301374980292761 -0.1174970137918423 0 0.089678408740790611 -0.13439397333871239 0 0.083714564567708052 -0.12015339649181719 0 0.064038350702920577 -0.1200525921504523 0 0.083714564567708052 -0.12015339649181719 0 0.067301374980292761 -0.1174970137918423 0 0.067301374980292761 -0.1174970137918423 0 0.068890657078974987 -0.10769177992212139 0 0.076331493208979959 -0.10434640871748981 0 0.083714564567708052 -0.12015339649181719 0 0.067301374980292761 -0.1174970137918423 0 0.064038350702920577 -0.1200525921504523 0 0.05622235688885778 -0.11568083345603029 0 0.067301374980292761 -0.1174970137918423 0 0.064038350702920577 -0.1200525921504523 0 0.067301374980292761 -0.1174970137918423 0 0.064038350702920577 -0.1200525921504523 0 0.067301374980292761 -0.1174970137918423 0 0.062822720990625192 -0.10624341152843909 0 0.068890657078974987 -0.10769177992212139 0 0.088534192035176928 -0.1008676162927148 0 0.067301374980292761 -0.1174970137918423 0 0.076331493208979959 -0.10434640871748981 0 0.088534192035176928 -0.1008676162927148 0 0.067301374980292761 -0.1174970137918423 0 0.062822720990625192 -0.10624341152843909 0 0.06910703913600183 -0.1026802856507156 0 0.068890657078974987 -0.10769177992212139 0 0.06910703913600183 -0.1026802856507156 0 0.068890657078974987 -0.10769177992212139 0 0.076331493208979959 -0.10434640871748981 0 0.06910703913600183 -0.1026802856507156 0 0.076331493208979959 -0.10434640871748981 0 0.073764804640243847 -0.09889122432619385 0 0.073764804640243847 -0.09889122432619385 0 0.065317281255102763 -0.094620814240321469 0 0.077267160974094085 -0.092604928229340036 0 0.07972467942485216 -0.098464624470702422 0 0.073764804640243847 -0.09889122432619385 0 0.077267160974094085 -0.092604928229340036 0 0.07972467942485216 -0.098464624470702422 0 0.076331493208979959 -0.10434640871748981 0 0.073764804640243847 -0.09889122432619385 0 0.06910703913600183 -0.1026802856507156 0 0.073764804640243847 -0.09889122432619385 0 0.065317281255102763 -0.094620814240321469 0 0.062822720990625192 -0.10624341152843909 0 0.06910703913600183 -0.1026802856507156 0 0.065317281255102763 -0.094620814240321469 0 0.055541204283563302 -0.087090012678884665 0 0.065317281255102763 -0.094620814240321469 0 0.070186917252729769 -0.085905786944323853 0 0.055541204283563302 -0.087090012678884665 0 0.070186917252729769 -0.085905786944323853 0 0.065421565856859765 -0.076290709326437736 0 0.070186917252729769 -0.085905786944323853 0 0.065421565856859765 -0.076290709326437736 0 0.080462314646971331 -0.081694115981130674 0 0.070186917252729769 -0.085905786944323853 0 0.077267160974094085 -0.092604928229340036 0 0.080462314646971331 -0.081694115981130674 0 0.065317281255102763 -0.094620814240321469 0 0.070186917252729769 -0.085905786944323853 0 0.077267160974094085 -0.092604928229340036 0 0.064836529022570394 -0.060600772633665222 0 0.065421565856859765 -0.076290709326437736 0 0.082236436545707475 -0.069715371917353761 0 0.065421565856859765 -0.076290709326437736 0 0.082236436545707475 -0.069715371917353761 0 0.080462314646971331 -0.081694115981130674 0 0.089213385669547743 -0.054556815066673661 0 0.082236436545707475 -0.069715371917353761 0 0.097938227422578295 -0.069885319451053737 0 0.082236436545707475 -0.069715371917353761 0 0.090967172499586885 -0.080367162963375344 0 0.097938227422578295 -0.069885319451053737 0 0.082236436545707475 -0.069715371917353761 0 0.080462314646971331 -0.081694115981130674 0 0.090967172499586885 -0.080367162963375344 0 0.088534192035176928 -0.1008676162927148 0 0.086942099690968055 -0.090993693740888962 0 0.1001039193800044 -0.08494147163917351 0 0.077267160974094085 -0.092604928229340036 0 0.080462314646971331 -0.081694115981130674 0 0.086942099690968055 -0.090993693740888962 0 0.083762022567420158 -0.095920337108045955 0 0.077267160974094085 -0.092604928229340036 0 0.086942099690968055 -0.090993693740888962 0 0.090967172499586885 -0.080367162963375344 0 0.086942099690968055 -0.090993693740888962 0 0.1001039193800044 -0.08494147163917351 0 0.080462314646971331 -0.081694115981130674 0 0.090967172499586885 -0.080367162963375344 0 0.086942099690968055 -0.090993693740888962 0 0.10723603662048101 -0.086220459169280991 0 0.1001039193800044 -0.08494147163917351 0 0.097938227422578295 -0.069885319451053737 0 0.088534192035176928 -0.1008676162927148 0 0.10723603662048101 -0.086220459169280991 0 0.088534192035176928 -0.1008676162927148 0 0.10723603662048101 -0.086220459169280991 0 0.1001039193800044 -0.08494147163917351 0 0.090967172499586885 -0.080367162963375344 0 0.1001039193800044 -0.08494147163917351 0 0.097938227422578295 -0.069885319451053737 0 0.10723603662048101 -0.086220459169280991 0 0.097938227422578295 -0.069885319451053737 0 0.1113590298534511 -0.058199192184825957 0 0.10723603662048101 -0.086220459169280991 0 0.1113590298534511 -0.058199192184825957 0 0.10723603662048101 -0.086220459169280991 0 0.097938227422578295 -0.069885319451053737 0 0.1113590298534511 -0.058199192184825957 0 0.10723603662048101 -0.086220459169280991 0 0.12477980797479719 -0.072480297101731733 0 0.10723603662048101 -0.086220459169280991 0 0.12477980797479719 -0.072480297101731733 0 0.12190728630831391 -0.085949120270940468 0 0.10723603662048101 -0.086220459169280991 0 0.12190728630831391 -0.085949120270940468 0 0.12593324783461429 -0.096824002089741526 0 0.10723603662048101 -0.086220459169280991 0 0.12477980797479719 -0.072480297101731733 0 0.10723603662048101 -0.086220459169280991 0 0.10318644403180161 -0.1052139375694552 0 0.1210656761125582 -0.1105174831829361 0 0.10723603662048101 -0.086220459169280991 0 0.1210656761125582 -0.1105174831829361 0 0.10318644403180161 -0.1052139375694552 0 0.1210656761125582 -0.1105174831829361 0 0.10723603662048101 -0.086220459169280991 0 0.1210656761125582 -0.1105174831829361 0 0.12593324783461429 -0.096824002089741526 0 0.10723603662048101 -0.086220459169280991 0 0.10318644403180161 -0.1052139375694552 0 0.088534192035176928 -0.1008676162927148 0 0.10723603662048101 -0.086220459169280991 0 0.10318644403180161 -0.1052139375694552 0 0.088534192035176928 -0.1008676162927148 0 0.10318644403180161 -0.1052139375694552 0 0.093890738697452361 -0.1122611823864451 0 0.088534192035176928 -0.1008676162927148 0 0.10318644403180161 -0.1052139375694552 0 0.10318644403180161 -0.1052139375694552 0 0.10012775415512309 -0.1228097791917933 0 0.10318644403180161 -0.1052139375694552 0 0.10012775415512309 -0.1228097791917933 0 0.10976139161025091 -0.11577977204300149 0 0.10318644403180161 -0.1052139375694552 0 0.10012775415512309 -0.1228097791917933 0 0.093890738697452361 -0.1122611823864451 0 0.1155122719511297 -0.1252996771304683 0 0.10012775415512309 -0.1228097791917933 0 0.1155122719511297 -0.1252996771304683 0 0.10012775415512309 -0.1228097791917933 0 0.10976139161025091 -0.11577977204300149 0 0.1155122719511297 -0.1252996771304683 0 0.1210656761125582 -0.1105174831829361 0 0.13089678974713631 -0.12778957506914301 0 0.1155122719511297 -0.1252996771304683 0 0.10976139161025091 -0.11577977204300149 0 0.1210656761125582 -0.1105174831829361 0 0.10318644403180161 -0.1052139375694552 0 0.10976139161025091 -0.11577977204300149 0 0.1210656761125582 -0.1105174831829361 0 0.1210656761125582 -0.1105174831829361 0 0.1365087204569618 -0.1150983784765192 0 0.13089678974713631 -0.12778957506914301 0 0.1210656761125582 -0.1105174831829361 0 0.13089678974713631 -0.12778957506914301 0 0.1210656761125582 -0.1105174831829361 0 0.1365087204569618 -0.1150983784765192 0 0.1365087204569618 -0.1150983784765192 0 0.13089678974713631 -0.12778957506914301 0 0.1357237020369727 -0.12857078375699391 0 0.1365087204569618 -0.1150983784765192 0 0.15195176480136471 -0.11967927377010409 0 0.1365087204569618 -0.1150983784765192 0 0.15195176480136471 -0.11967927377010409 0 0.1357237020369727 -0.12857078375699391 0 0.15195176480136471 -0.11967927377010409 0 0.1357237020369727 -0.12857078375699391 0 0.1365087204569618 -0.1150983784765192 0 0.15195176480136471 -0.11967927377010409 0 0.14779030211157931 -0.10501349599467689 0 0.1365087204569618 -0.1150983784765192 0 0.14779030211157931 -0.10501349599467689 0 0.13817040105071851 -0.097074653343686312 0 0.15195176480136471 -0.11967927377010409 0 0.14779030211157931 -0.10501349599467689 0 0.1588180175211589 -0.1034223017111198 0 0.14779030211157931 -0.10501349599467689 0 0.1517985121546552 -0.091923401908585015 0 0.1588180175211589 -0.1034223017111198 0 0.14779030211157931 -0.10501349599467689 0 0.13817040105071851 -0.097074653343686312 0 0.1517985121546552 -0.091923401908585015 0 0.1365087204569618 -0.1150983784765192 0 0.13817040105071851 -0.097074653343686312 0 0.12593324783461429 -0.096824002089741526 0 0.1210656761125582 -0.1105174831829361 0 0.1365087204569618 -0.1150983784765192 0 0.12593324783461429 -0.096824002089741526 0 0.12190728630831391 -0.085949120270940468 0 0.12593324783461429 -0.096824002089741526 0 0.13071136645865161 -0.086083918095086545 0 0.13817040105071851 -0.097074653343686312 0 0.12593324783461429 -0.096824002089741526 0 0.13071136645865161 -0.086083918095086545 0 0.12477980797479719 -0.072480297101731733 0 0.13071136645865161 -0.086083918095086545 0 0.1340331069290808 -0.078119875573589501 0 0.12477980797479719 -0.072480297101731733 0 0.12190728630831391 -0.085949120270940468 0 0.13071136645865161 -0.086083918095086545 0 0.14005045281892739 -0.086692372828682529 0 0.1340331069290808 -0.078119875573589501 0 0.14700773684561819 -0.080181060013444633 0 0.13071136645865161 -0.086083918095086545 0 0.14005045281892739 -0.086692372828682529 0 0.1340331069290808 -0.078119875573589501 0 0.13817040105071851 -0.097074653343686312 0 0.13071136645865161 -0.086083918095086545 0 0.14005045281892739 -0.086692372828682529 0 0.12477980797479719 -0.072480297101731733 0 0.14232357932911241 -0.058740135034181337 0 0.12477980797479719 -0.072480297101731733 0 0.1391013907239862 -0.068824876462959317 0 0.14232357932911241 -0.058740135034181337 0 0.12477980797479719 -0.072480297101731733 0 0.1340331069290808 -0.078119875573589501 0 0.1391013907239862 -0.068824876462959317 0 0.1391013907239862 -0.068824876462959317 0 0.14957763764213569 -0.067297539040423821 0 0.14232357932911241 -0.058740135034181337 0 0.1340331069290808 -0.078119875573589501 0 0.14957763764213569 -0.067297539040423821 0 0.14700773684561819 -0.080181060013444633 0 0.1340331069290808 -0.078119875573589501 0 0.14957763764213569 -0.067297539040423821 0 0.1340331069290808 -0.078119875573589501 0 0.1391013907239862 -0.068824876462959317 0 0.14957763764213569 -0.067297539040423821 0 0.14957763764213569 -0.067297539040423821 0 0.14700773684561819 -0.080181060013444633 0 0.15974295150865411 -0.080141728669295018 0 0.14005045281892739 -0.086692372828682529 0 0.14700773684561819 -0.080181060013444633 0 0.1517985121546552 -0.091923401908585015 0 0.13817040105071851 -0.097074653343686312 0 0.14005045281892739 -0.086692372828682529 0 0.1517985121546552 -0.091923401908585015 0 0.14700773684561819 -0.080181060013444633 0 0.1517985121546552 -0.091923401908585015 0 0.15974295150865411 -0.080141728669295018 0 0.15974295150865411 -0.080141728669295018 0 0.1773460516741166 -0.079902548428466988 0 0.17025307202020351 -0.094356781524173247 0 0.1517985121546552 -0.091923401908585015 0 0.15974295150865411 -0.080141728669295018 0 0.17025307202020351 -0.094356781524173247 0 0.1624746987151954 -0.067189041100676514 0 0.1773460516741166 -0.079902548428466988 0 0.16886737340575611 -0.058685142964399292 0 0.15974295150865411 -0.080141728669295018 0 0.1624746987151954 -0.067189041100676514 0 0.1773460516741166 -0.079902548428466988 0 0.14957763764213569 -0.067297539040423821 0 0.1624746987151954 -0.067189041100676514 0 0.16512216835519161 -0.056475202507259362 0 0.14957763764213569 -0.067297539040423821 0 0.15974295150865411 -0.080141728669295018 0 0.1624746987151954 -0.067189041100676514 0 0.1773460516741166 -0.079902548428466988 0 0.19382945424395101 -0.078802877956419937 0 0.18792561632993149 -0.065573779004173133 0 0.1773460516741166 -0.079902548428466988 0 0.16886737340575611 -0.058685142964399292 0 0.18792561632993149 -0.065573779004173133 0 0.1773460516741166 -0.079902548428466988 0 0.16886737340575611 -0.058685142964399292 0 0.1773460516741166 -0.079902548428466988 0 0.18582472994247151 -0.101119953892537 0 0.19382945424395101 -0.078802877956419937 0 0.1773460516741166 -0.079902548428466988 0 0.18582472994247151 -0.101119953892537 0 0.17025307202020351 -0.094356781524173247 0 0.1773460516741166 -0.079902548428466988 0 0.18582472994247151 -0.101119953892537 0 0.18582472994247151 -0.101119953892537 0 0.16888824737191849 -0.1103996138313212 0 0.18582472994247151 -0.101119953892537 0 0.16888824737191849 -0.1103996138313212 0 0.17025307202020351 -0.094356781524173247 0 0.18582472994247151 -0.101119953892537 0 0.16888824737191849 -0.1103996138313212 0 0.1926930021363526 -0.1163654132120072 0 0.16888824737191849 -0.1103996138313212 0 0.1926930021363526 -0.1163654132120072 0 0.17537273609379669 -0.1266266744750329 0 0.15195176480136471 -0.11967927377010409 0 0.16888824737191849 -0.1103996138313212 0 0.1588180175211589 -0.1034223017111198 0 0.15195176480136471 -0.11967927377010409 0 0.16888824737191849 -0.1103996138313212 0 0.15195176480136471 -0.11967927377010409 0 0.16888824737191849 -0.1103996138313212 0 0.17537273609379669 -0.1266266744750329 0 0.15195176480136471 -0.11967927377010409 0 0.17537273609379669 -0.1266266744750329 0 0.1517985121546552 -0.091923401908585015 0 0.17025307202020351 -0.094356781524173247 0 0.1588180175211589 -0.1034223017111198 0 0.16888824737191849 -0.1103996138313212 0 0.17025307202020351 -0.094356781524173247 0 0.1588180175211589 -0.1034223017111198 0 0.1411603670788972 0.0101018168278833 0 0.1207509512091294 -0.0041699288836110626 0 0.15044925678359081 -0.010035133472833069 0 0.1207509512091294 -0.0041699288836110626 0 0.15044925678359081 -0.010035133472833069 0 0.13863666454740969 -0.025313099017596711 0 0.1160549905312903 -0.031184560534218499 0 0.1207509512091294 -0.0041699288836110626 0 0.13863666454740969 -0.025313099017596711 0 0.13863666454740969 -0.025313099017596711 0 0.15027175598130349 -0.038055022415550657 0 0.1585413998141022 -0.024324393239404371 0 0.15044925678359081 -0.010035133472833069 0 0.13863666454740969 -0.025313099017596711 0 0.1585413998141022 -0.024324393239404371 0 0.13863666454740969 -0.025313099017596711 0 0.15027175598130349 -0.038055022415550657 0 0.13686592108511961 -0.042795221891360667 0 0.15027175598130349 -0.038055022415550657 0 0.14746097116028711 -0.048495454055242491 0 0.15533039947011029 -0.047172598861770457 0 0.15027175598130349 -0.038055022415550657 0 0.15533039947011029 -0.047172598861770457 0 0.16015174273291041 -0.039344167531665468 0 0.15027175598130349 -0.038055022415550657 0 0.13686592108511961 -0.042795221891360667 0 0.14746097116028711 -0.048495454055242491 0 0.1160549905312903 -0.031184560534218499 0 0.13686592108511961 -0.042795221891360667 0 0.12634024086196699 -0.054055955158950633 0 0.1160549905312903 -0.031184560534218499 0 0.13863666454740969 -0.025313099017596711 0 0.13686592108511961 -0.042795221891360667 0 0.12477980797479719 -0.072480297101731733 0 0.12634024086196699 -0.054055955158950633 0 0.14232357932911241 -0.058740135034181337 0 0.13686592108511961 -0.042795221891360667 0 0.12634024086196699 -0.054055955158950633 0 0.14232357932911241 -0.058740135034181337 0 0.14957763764213569 -0.067297539040423821 0 0.14232357932911241 -0.058740135034181337 0 0.15251319993578941 -0.055714292073349332 0 0.13686592108511961 -0.042795221891360667 0 0.14232357932911241 -0.058740135034181337 0 0.14746097116028711 -0.048495454055242491 0 0.14232357932911241 -0.058740135034181337 0 0.14746097116028711 -0.048495454055242491 0 0.15251319993578941 -0.055714292073349332 0 0.14746097116028711 -0.048495454055242491 0 0.15533039947011029 -0.047172598861770457 0 0.15251319993578941 -0.055714292073349332 0 0.14957763764213569 -0.067297539040423821 0 0.15251319993578941 -0.055714292073349332 0 0.16512216835519161 -0.056475202507259362 0 0.15533039947011029 -0.047172598861770457 0 0.16512216835519161 -0.056475202507259362 0 0.16015174273291041 -0.039344167531665468 0 0.14957763764213569 -0.067297539040423821 0 0.16512216835519161 -0.056475202507259362 0 0.1624746987151954 -0.067189041100676514 0 0.16512216835519161 -0.056475202507259362 0 0.15533039947011029 -0.047172598861770457 0 0.15251319993578941 -0.055714292073349332 0 0.16512216835519161 -0.056475202507259362 0 0.16886737340575611 -0.058685142964399292 0 0.16512216835519161 -0.056475202507259362 0 0.1796337807540383 -0.055827241538648702 0 0.1624746987151954 -0.067189041100676514 0 0.16886737340575611 -0.058685142964399292 0 0.16512216835519161 -0.056475202507259362 0 0.16886737340575611 -0.058685142964399292 0 0.1796337807540383 -0.055827241538648702 0 0.18792561632993149 -0.065573779004173133 0 0.16512216835519161 -0.056475202507259362 0 0.18175877326540399 -0.044892547460847892 0 0.16512216835519161 -0.056475202507259362 0 0.1796337807540383 -0.055827241538648702 0 0.18175877326540399 -0.044892547460847892 0 0.1796337807540383 -0.055827241538648702 0 0.18175877326540399 -0.044892547460847892 0 0.19885264502226779 -0.051878811813686143 0 0.16512216835519161 -0.056475202507259362 0 0.18175877326540399 -0.044892547460847892 0 0.1714929900438443 -0.030693620634342521 0 0.18175877326540399 -0.044892547460847892 0 0.1714929900438443 -0.030693620634342521 0 0.18605172133211159 -0.020613262235088348 0 0.16512216835519161 -0.056475202507259362 0 0.16015174273291041 -0.039344167531665468 0 0.1714929900438443 -0.030693620634342521 0 0.16512216835519161 -0.056475202507259362 0 0.1714929900438443 -0.030693620634342521 0 0.16015174273291041 -0.039344167531665468 0 0.1585413998141022 -0.024324393239404371 0 0.1714929900438443 -0.030693620634342521 0 0.15027175598130349 -0.038055022415550657 0 0.16015174273291041 -0.039344167531665468 0 0.1585413998141022 -0.024324393239404371 0 0.1585413998141022 -0.024324393239404371 0 0.1714929900438443 -0.030693620634342521 0 0.17786381173249591 -0.0049120387614253417 0 0.1714929900438443 -0.030693620634342521 0 0.18605172133211159 -0.020613262235088348 0 0.17786381173249591 -0.0049120387614253417 0 0.1714929900438443 -0.030693620634342521 0 0.17786381173249591 -0.0049120387614253417 0 0.15044925678359081 -0.010035133472833069 0 0.1585413998141022 -0.024324393239404371 0 0.17786381173249591 -0.0049120387614253417 0 0.1618730276221457 0.0041269218756689969 0 0.15044925678359081 -0.010035133472833069 0 0.17786381173249591 -0.0049120387614253417 0 0.19965179260945101 -0.006237775483830631 0 0.21503198308583049 -0.02172723736802747 0 0.220789283074 -0.0054652510294427546 0 0.21533446997814071 0.0077553549547846202 0 0.19965179260945101 -0.006237775483830631 0 0.220789283074 -0.0054652510294427546 0 0.18605172133211159 -0.020613262235088348 0 0.17786381173249591 -0.0049120387614253417 0 0.19965179260945101 -0.006237775483830631 0 0.18605172133211159 -0.020613262235088348 0 0.19965179260945101 -0.006237775483830631 0 0.1983953781756172 -0.033309892414437693 0 0.19965179260945101 -0.006237775483830631 0 0.21503198308583049 -0.02172723736802747 0 0.1983953781756172 -0.033309892414437693 0 0.21503198308583049 -0.02172723736802747 0 0.1983953781756172 -0.033309892414437693 0 0.21503198308583049 -0.02172723736802747 0 0.2170964621441146 -0.038572589190799117 0 0.1983953781756172 -0.033309892414437693 0 0.2170964621441146 -0.038572589190799117 0 0.1983953781756172 -0.033309892414437693 0 0.19885264502226779 -0.051878811813686143 0 0.18175877326540399 -0.044892547460847892 0 0.1983953781756172 -0.033309892414437693 0 0.19885264502226779 -0.051878811813686143 0 0.18175877326540399 -0.044892547460847892 0 0.18605172133211159 -0.020613262235088348 0 0.1983953781756172 -0.033309892414437693 0 0.18175877326540399 -0.044892547460847892 0 0.1983953781756172 -0.033309892414437693 0 0.19885264502226779 -0.051878811813686143 0 0.18792561632993149 -0.065573779004173133 0 0.20622434399201431 -0.069946793681596314 0 0.1796337807540383 -0.055827241538648702 0 0.19885264502226779 -0.051878811813686143 0 0.18792561632993149 -0.065573779004173133 0 0.2170964621441146 -0.038572589190799117 0 0.19885264502226779 -0.051878811813686143 0 0.2198989128943451 -0.056798249390024307 0 0.19885264502226779 -0.051878811813686143 0 0.2198989128943451 -0.056798249390024307 0 0.20622434399201431 -0.069946793681596314 0 0.2170964621441146 -0.038572589190799117 0 0.2198989128943451 -0.056798249390024307 0 0.23004965076849629 -0.046836502439355172 0 0.2198989128943451 -0.056798249390024307 0 0.23491429517275769 -0.058985540688996509 0 0.23004965076849629 -0.046836502439355172 0 0.23491429517275769 -0.058985540688996509 0 0.24559753116350999 -0.047866447589777733 0 0.24926260807076001 -0.066361736900529933 0 0.23491429517275769 -0.058985540688996509 0 0.24559753116350999 -0.047866447589777733 0 0.23004965076849629 -0.046836502439355172 0 0.24559753116350999 -0.047866447589777733 0 0.23274105246775401 -0.031959685337178169 0 0.23004965076849629 -0.046836502439355172 0 0.25297361813098018 -0.02896679100252595 0 0.24559753116350999 -0.047866447589777733 0 0.23274105246775401 -0.031959685337178169 0 0.2170964621441146 -0.038572589190799117 0 0.23274105246775401 -0.031959685337178169 0 0.23004965076849629 -0.046836502439355172 0 0.21503198308583049 -0.02172723736802747 0 0.23274105246775401 -0.031959685337178169 0 0.2371090799037909 -0.0090673757815772048 0 0.21503198308583049 -0.02172723736802747 0 0.2170964621441146 -0.038572589190799117 0 0.23274105246775401 -0.031959685337178169 0 0.25297361813098018 -0.02896679100252595 0 0.23274105246775401 -0.031959685337178169 0 0.24348455405878369 -0.021527038746463539 0 0.23274105246775401 -0.031959685337178169 0 0.24348455405878369 -0.021527038746463539 0 0.2371090799037909 -0.0090673757815772048 0 0.25297361813098018 -0.02896679100252595 0 0.25111446573260982 -0.016114302864572851 0 0.24348455405878369 -0.021527038746463539 0 0.25935681487488282 0.0032901558470991299 0 0.25111446573260982 -0.016114302864572851 0 0.2371090799037909 -0.0090673757815772048 0 0.25111446573260982 -0.016114302864572851 0 0.24348455405878369 -0.021527038746463539 0 0.2371090799037909 -0.0090673757815772048 0 0.21503198308583049 -0.02172723736802747 0 0.2371090799037909 -0.0090673757815772048 0 0.220789283074 -0.0054652510294427546 0 0.2331723590802052 0.011777074170138679 0 0.2371090799037909 -0.0090673757815772048 0 0.220789283074 -0.0054652510294427546 0 0.2182564282160134 -0.098071085256202714 0 0.2069822786931807 -0.1059163909028045 0 0.2158330319536709 -0.11500733013279101 0 0.2182564282160134 -0.098071085256202714 0 0.2069822786931807 -0.1059163909028045 0 0.20697068931856741 -0.089533881561867534 0 0.2069822786931807 -0.1059163909028045 0 0.1966397267049029 -0.1079348837285518 0 0.20697068931856741 -0.089533881561867534 0 0.2158330319536709 -0.11500733013279101 0 0.20518050960206141 -0.1208415024451413 0 0.21172863418796201 -0.1283816923486987 0 0.20518050960206141 -0.1208415024451413 0 0.21172863418796201 -0.1283816923486987 0 0.20356312025705889 -0.12522498604124011 0 0.2069822786931807 -0.1059163909028045 0 0.2158330319536709 -0.11500733013279101 0 0.20328889448788251 -0.1134008563745047 0 0.2158330319536709 -0.11500733013279101 0 0.20518050960206141 -0.1208415024451413 0 0.20328889448788251 -0.1134008563745047 0 0.20328889448788251 -0.1134008563745047 0 0.1926930021363526 -0.1163654132120072 0 0.1966397267049029 -0.1079348837285518 0 0.20518050960206141 -0.1208415024451413 0 0.20328889448788251 -0.1134008563745047 0 0.1926930021363526 -0.1163654132120072 0 0.1926930021363526 -0.1163654132120072 0 0.1987937073862284 -0.13357407517996259 0 0.20518050960206141 -0.1208415024451413 0 0.1926930021363526 -0.1163654132120072 0 0.20356312025705889 -0.12522498604124011 0 0.18582472994247151 -0.101119953892537 0 0.20697068931856741 -0.089533881561867534 0 0.18582472994247151 -0.101119953892537 0 0.1926930021363526 -0.1163654132120072 0 0.18582472994247151 -0.101119953892537 0 0.1966397267049029 -0.1079348837285518 0 0.20697068931856741 -0.089533881561867534 0 0.18582472994247151 -0.101119953892537 0 0.1926930021363526 -0.1163654132120072 0 0.1966397267049029 -0.1079348837285518 0 0.2069822786931807 -0.1059163909028045 0 0.20328889448788251 -0.1134008563745047 0 0.1966397267049029 -0.1079348837285518 0 0.19382945424395101 -0.078802877956419937 0 0.20622434399201431 -0.069946793681596314 0 0.20697068931856741 -0.089533881561867534 0 0.18582472994247151 -0.101119953892537 0 0.19382945424395101 -0.078802877956419937 0 0.20697068931856741 -0.089533881561867534 0 0.19382945424395101 -0.078802877956419937 0 0.18792561632993149 -0.065573779004173133 0 0.20622434399201431 -0.069946793681596314 0 0.2198989128943451 -0.056798249390024307 0 0.20622434399201431 -0.069946793681596314 0 0.22811664869466369 -0.077947809231198761 0 0.2182564282160134 -0.098071085256202714 0 0.20697068931856741 -0.089533881561867534 0 0.22811664869466369 -0.077947809231198761 0 0.20697068931856741 -0.089533881561867534 0 0.22811664869466369 -0.077947809231198761 0 0.20622434399201431 -0.069946793681596314 0 0.20697068931856741 -0.089533881561867534 0 0.22811664869466369 -0.077947809231198761 0 0.2182564282160134 -0.098071085256202714 0 0.22811664869466369 -0.077947809231198761 0 0.23337949241998429 -0.1019500144523518 0 0.2198989128943451 -0.056798249390024307 0 0.23491429517275769 -0.058985540688996509 0 0.22811664869466369 -0.077947809231198761 0 0.23491429517275769 -0.058985540688996509 0 0.22811664869466369 -0.077947809231198761 0 0.24926260807076001 -0.066361736900529933 0 0.22811664869466369 -0.077947809231198761 0 0.24926260807076001 -0.066361736900529933 0 0.25423757924488499 -0.084574533875597505 0 0.22811664869466369 -0.077947809231198761 0 0.24926260807076001 -0.066361736900529933 0 0.25423757924488499 -0.084574533875597505 0 0.22811664869466369 -0.077947809231198761 0 0.23337949241998429 -0.1019500144523518 0 0.25347137480431198 -0.1092851374296199 0 0.25423757924488499 -0.084574533875597505 0 0.23337949241998429 -0.1019500144523518 0 0.2182564282160134 -0.098071085256202714 0 0.2158330319536709 -0.11500733013279101 0 0.23337949241998429 -0.1019500144523518 0 0.2158330319536709 -0.11500733013279101 0 0.23549286339231321 -0.1202631443097719 0 0.2239364950719209 -0.13203007808741521 0 0.2158330319536709 -0.11500733013279101 0 0.23337949241998429 -0.1019500144523518 0 0.23549286339231321 -0.1202631443097719 0 0.25347137480431198 -0.1092851374296199 0 0.25038660859628642 -0.12916482769145279 0 0.23549286339231321 -0.1202631443097719 0 0.25347137480431198 -0.1092851374296199 0 0.23337949241998429 -0.1019500144523518 0 0.23549286339231321 -0.1202631443097719 0 0.25038660859628642 -0.12916482769145279 0 0.25552941609067897 -0.1423190848585997 0 0.24406929433954069 -0.14266874187143419 0 0.25038660859628642 -0.12916482769145279 0 0.2367251809387679 -0.13519011597198791 0 0.24406929433954069 -0.14266874187143419 0 0.2367251809387679 -0.13519011597198791 0 0.24406929433954069 -0.14266874187143419 0 0.2372153499728536 -0.1433817943427354 0 0.25038660859628642 -0.12916482769145279 0 0.23549286339231321 -0.1202631443097719 0 0.2367251809387679 -0.13519011597198791 0 0.2492368802989727 -0.1525917679456707 0 0.23829114531859069 -0.15175128360896051 0 0.24510980772627189 -0.16261656135264829 0 0.2492368802989727 -0.1525917679456707 0 0.24406929433954069 -0.14266874187143419 0 0.23829114531859069 -0.15175128360896051 0 0.25552941609067897 -0.1423190848585997 0 0.2492368802989727 -0.1525917679456707 0 0.24406929433954069 -0.14266874187143419 0 0.2367251809387679 -0.13519011597198791 0 0.2372153499728536 -0.1433817943427354 0 0.22977577929451509 -0.14391703591855901 0 0.2372153499728536 -0.1433817943427354 0 0.23829114531859069 -0.15175128360896051 0 0.22977577929451509 -0.14391703591855901 0 0.24406929433954069 -0.14266874187143419 0 0.2372153499728536 -0.1433817943427354 0 0.23829114531859069 -0.15175128360896051 0 0.23829114531859069 -0.15175128360896051 0 0.22977577929451509 -0.14391703591855901 0 0.22750864012715971 -0.15667195158526781 0 0.22977577929451509 -0.14391703591855901 0 0.22072593332390791 -0.1447234725429567 0 0.22750864012715971 -0.15667195158526781 0 0.22072593332390791 -0.1447234725429567 0 0.21541862261468231 -0.15237326343660151 0 0.22750864012715971 -0.15667195158526781 0 0.23549286339231321 -0.1202631443097719 0 0.2367251809387679 -0.13519011597198791 0 0.2239364950719209 -0.13203007808741521 0 0.2367251809387679 -0.13519011597198791 0 0.22977577929451509 -0.14391703591855901 0 0.2239364950719209 -0.13203007808741521 0 0.22072593332390791 -0.1447234725429567 0 0.2239364950719209 -0.13203007808741521 0 0.21413550517844041 -0.13812493754454119 0 0.22977577929451509 -0.14391703591855901 0 0.22072593332390791 -0.1447234725429567 0 0.2239364950719209 -0.13203007808741521 0 0.2158330319536709 -0.11500733013279101 0 0.2239364950719209 -0.13203007808741521 0 0.21172863418796201 -0.1283816923486987 0 0.21172863418796201 -0.1283816923486987 0 0.20356312025705889 -0.12522498604124011 0 0.2046503351018597 -0.1353113361591132 0 0.2046503351018597 -0.1353113361591132 0 0.21413550517844041 -0.13812493754454119 0 0.21172863418796201 -0.1283816923486987 0 0.2046503351018597 -0.1353113361591132 0 0.21413550517844041 -0.13812493754454119 0 0.2239364950719209 -0.13203007808741521 0 0.21172863418796201 -0.1283816923486987 0 0.21413550517844041 -0.13812493754454119 0 0.22072593332390791 -0.1447234725429567 0 0.21413550517844041 -0.13812493754454119 0 0.21541862261468231 -0.15237326343660151 0 0.2046503351018597 -0.1353113361591132 0 0.21541862261468231 -0.15237326343660151 0 0.1987937073862284 -0.13357407517996259 0 0.2083630314068842 -0.15752075900695969 0 0.2046503351018597 -0.1353113361591132 0 0.21541862261468231 -0.15237326343660151 0 0.2083630314068842 -0.15752075900695969 0 0.2046503351018597 -0.1353113361591132 0 0.1987937073862284 -0.13357407517996259 0 0.2083630314068842 -0.15752075900695969 0 0.2046503351018597 -0.1353113361591132 0 0.21413550517844041 -0.13812493754454119 0 0.21541862261468231 -0.15237326343660151 0 0.19377962363836981 -0.14974221022152739 0 0.1987937073862284 -0.13357407517996259 0 0.18341643225747989 -0.14169361356560731 0 0.19377962363836981 -0.14974221022152739 0 0.1987937073862284 -0.13357407517996259 0 0.2083630314068842 -0.15752075900695969 0 0.1926930021363526 -0.1163654132120072 0 0.1987937073862284 -0.13357407517996259 0 0.17537273609379669 -0.1266266744750329 0 0.1926930021363526 -0.1163654132120072 0 0.2046503351018597 -0.1353113361591132 0 0.1926930021363526 -0.1163654132120072 0 0.2046503351018597 -0.1353113361591132 0 0.1987937073862284 -0.13357407517996259 0 0.1926930021363526 -0.1163654132120072 0 0.20356312025705889 -0.12522498604124011 0 0.2046503351018597 -0.1353113361591132 0 0.2046503351018597 -0.1353113361591132 0 0.1987937073862284 -0.13357407517996259 0 0.20287663492861821 -0.17350091166800921 0 0.1880217582768188 -0.17951209519154521 0 0.1950819499596633 -0.16311979581688379 0 0.20287663492861821 -0.17350091166800921 0 0.2016502484191931 -0.18741525883515811 0 0.1880217582768188 -0.17951209519154521 0 0.20287663492861821 -0.17350091166800921 0 0.1950819499596633 -0.16311979581688379 0 0.2083630314068842 -0.15752075900695969 0 0.1880217582768188 -0.17951209519154521 0 0.1950819499596633 -0.16311979581688379 0 0.18207344564223571 -0.15597739581098299 0 0.19377962363836981 -0.14974221022152739 0 0.1950819499596633 -0.16311979581688379 0 0.18207344564223571 -0.15597739581098299 0 0.19377962363836981 -0.14974221022152739 0 0.1950819499596633 -0.16311979581688379 0 0.2083630314068842 -0.15752075900695969 0 0.2083630314068842 -0.15752075900695969 0 0.2179323554275385 -0.18146744283395741 0 0.21541862261468231 -0.15237326343660151 0 0.2083630314068842 -0.15752075900695969 0 0.2261869101275045 -0.16943519071409019 0 0.20287663492861821 -0.17350091166800921 0 0.2083630314068842 -0.15752075900695969 0 0.2179323554275385 -0.18146744283395741 0 0.2083630314068842 -0.15752075900695969 0 0.2179323554275385 -0.18146744283395741 0 0.2261869101275045 -0.16943519071409019 0 0.20287663492861821 -0.17350091166800921 0 0.2016502484191931 -0.18741525883515811 0 0.2179323554275385 -0.18146744283395741 0 0.2261869101275045 -0.16943519071409019 0 0.23695519764032669 -0.18649711799157889 0 0.2261869101275045 -0.16943519071409019 0 0.23878667882334781 -0.1706899811504255 0 0.23695519764032669 -0.18649711799157889 0 0.2179323554275385 -0.18146744283395741 0 0.2261869101275045 -0.16943519071409019 0 0.23695519764032669 -0.18649711799157889 0 0.21541862261468231 -0.15237326343660151 0 0.2261869101275045 -0.16943519071409019 0 0.21541862261468231 -0.15237326343660151 0 0.2261869101275045 -0.16943519071409019 0 0.22750864012715971 -0.15667195158526781 0 0.2261869101275045 -0.16943519071409019 0 0.23539654237302071 -0.1618003676553349 0 0.23878667882334781 -0.1706899811504255 0 0.23829114531859069 -0.15175128360896051 0 0.22750864012715971 -0.15667195158526781 0 0.23539654237302071 -0.1618003676553349 0 0.2261869101275045 -0.16943519071409019 0 0.22750864012715971 -0.15667195158526781 0 0.23539654237302071 -0.1618003676553349 0 0.23829114531859069 -0.15175128360896051 0 0.23539654237302071 -0.1618003676553349 0 0.24510980772627189 -0.16261656135264829 0 0.23539654237302071 -0.1618003676553349 0 0.23878667882334781 -0.1706899811504255 0 0.24510980772627189 -0.16261656135264829 0 0.23878667882334781 -0.1706899811504255 0 0.24510980772627189 -0.16261656135264829 0 0.24973517137850049 -0.17418223310583419 0 0.25934289229493679 -0.18554747239811101 0 0.23695519764032669 -0.18649711799157889 0 0.24973517137850049 -0.17418223310583419 0 0.23878667882334781 -0.1706899811504255 0 0.23695519764032669 -0.18649711799157889 0 0.24973517137850049 -0.17418223310583419 0 0.25460667917070579 -0.19812350440861901 0 0.23695519764032669 -0.18649711799157889 0 0.24458048830593099 -0.20694120463227139 0 0.23695519764032669 -0.18649711799157889 0 0.24458048830593099 -0.20694120463227139 0 0.22750167944819291 -0.20541412666095499 0 0.24458048830593099 -0.20694120463227139 0 0.22750167944819291 -0.20541412666095499 0 0.23372596231376089 -0.2174809412529185 0 0.25061808270443731 -0.22383476374792011 0 0.24458048830593099 -0.20694120463227139 0 0.23372596231376089 -0.2174809412529185 0 0.22750167944819291 -0.20541412666095499 0 0.23372596231376089 -0.2174809412529185 0 0.21367919178599309 -0.21529212829840561 0 0.2179323554275385 -0.18146744283395741 0 0.22750167944819291 -0.20541412666095499 0 0.2179323554275385 -0.18146744283395741 0 0.23695519764032669 -0.18649711799157889 0 0.22750167944819291 -0.20541412666095499 0 0.25254176980284321 -0.24245692298047161 0 0.24396828193444881 -0.25131377364279722 0 0.23225036932425 -0.23592248292504031 0 0.24396828193444881 -0.25131377364279722 0 0.2330558259540863 -0.25392228975962328 0 0.23225036932425 -0.23592248292504031 0 0.25061808270443731 -0.22383476374792011 0 0.23372596231376089 -0.2174809412529185 0 0.23225036932425 -0.23592248292504031 0 0.25254176980284321 -0.24245692298047161 0 0.25061808270443731 -0.22383476374792011 0 0.23225036932425 -0.23592248292504031 0 0.23372596231376089 -0.2174809412529185 0 0.23225036932425 -0.23592248292504031 0 0.21367919178599309 -0.21529212829840561 0 0.23225036932425 -0.23592248292504031 0 0.21604104887663891 -0.2491511282779057 0 0.20953491490847631 -0.23325413814395771 0 0.2330558259540863 -0.25392228975962328 0 0.23225036932425 -0.23592248292504031 0 0.21604104887663891 -0.2491511282779057 0 0.19020677089061289 -0.25630437548157792 0 0.21604104887663891 -0.2491511282779057 0 0.20953491490847631 -0.23325413814395771 0 0.20953491490847631 -0.23325413814395771 0 0.18908309615611221 -0.22884972618782171 0 0.21367919178599309 -0.21529212829840561 0 0.23225036932425 -0.23592248292504031 0 0.20953491490847631 -0.23325413814395771 0 0.21367919178599309 -0.21529212829840561 0 0.19020677089061289 -0.25630437548157792 0 0.20953491490847631 -0.23325413814395771 0 0.18908309615611221 -0.22884972618782171 0 0.2016502484191931 -0.18741525883515811 0 0.2179323554275385 -0.18146744283395741 0 0.2086255522891223 -0.19907186907246219 0 0.2179323554275385 -0.18146744283395741 0 0.22750167944819291 -0.20541412666095499 0 0.2086255522891223 -0.19907186907246219 0 0.2086255522891223 -0.19907186907246219 0 0.21367919178599309 -0.21529212829840561 0 0.1907949411738675 -0.2035239754098164 0 0.22750167944819291 -0.20541412666095499 0 0.2086255522891223 -0.19907186907246219 0 0.21367919178599309 -0.21529212829840561 0 0.18908309615611221 -0.22884972618782171 0 0.21367919178599309 -0.21529212829840561 0 0.1907949411738675 -0.2035239754098164 0 0.2016502484191931 -0.18741525883515811 0 0.2086255522891223 -0.19907186907246219 0 0.1907949411738675 -0.2035239754098164 0 0.2016502484191931 -0.18741525883515811 0 0.1880217582768188 -0.17951209519154521 0 0.1907949411738675 -0.2035239754098164 0 0.1880217582768188 -0.17951209519154521 0 0.1907949411738675 -0.2035239754098164 0 0.1703931907865926 -0.1984008881936658 0 0.1907949411738675 -0.2035239754098164 0 0.165026579702267 -0.21846734390934591 0 0.1703931907865926 -0.1984008881936658 0 0.18908309615611221 -0.22884972618782171 0 0.1907949411738675 -0.2035239754098164 0 0.165026579702267 -0.21846734390934591 0 0.165026579702267 -0.21846734390934591 0 0.1703931907865926 -0.1984008881936658 0 0.14495446384390751 -0.1969899492874535 0 0.1703931907865926 -0.1984008881936658 0 0.14495446384390751 -0.1969899492874535 0 0.16659858285440171 -0.17741811690349171 0 0.19020677089061289 -0.25630437548157792 0 0.18908309615611221 -0.22884972618782171 0 0.16525617847545679 -0.24625639588382661 0 0.18908309615611221 -0.22884972618782171 0 0.165026579702267 -0.21846734390934591 0 0.16525617847545679 -0.24625639588382661 0 0.165026579702267 -0.21846734390934591 0 0.16525617847545679 -0.24625639588382661 0 0.15151628958822119 -0.23721697048771601 0 0.1546377368784837 -0.25356422273026019 0 0.16525617847545679 -0.24625639588382661 0 0.15151628958822119 -0.23721697048771601 0 0.1546377368784837 -0.25356422273026019 0 0.14259733537338229 -0.24843802833874881 0 0.15151628958822119 -0.23721697048771601 0 0.14259733537338229 -0.24843802833874881 0 0.15151628958822119 -0.23721697048771601 0 0.137083307394854 -0.23549978618732251 0 0.15151628958822119 -0.23721697048771601 0 0.14449659970488371 -0.22107604587679211 0 0.137083307394854 -0.23549978618732251 0 0.165026579702267 -0.21846734390934591 0 0.15151628958822119 -0.23721697048771601 0 0.14449659970488371 -0.22107604587679211 0 0.1206413850607744 -0.2351162915799947 0 0.12944783529313439 -0.22516525038185559 0 0.137083307394854 -0.23549978618732251 0 0.14449659970488371 -0.22107604587679211 0 0.12944783529313439 -0.22516525038185559 0 0.1311722069379628 -0.21183149370741189 0 0.14449659970488371 -0.22107604587679211 0 0.12944783529313439 -0.22516525038185559 0 0.137083307394854 -0.23549978618732251 0 0.1206413850607744 -0.2351162915799947 0 0.137083307394854 -0.23549978618732251 0 0.13078172172674321 -0.2458027894733521 0 0.14259733537338229 -0.24843802833874881 0 0.137083307394854 -0.23549978618732251 0 0.13078172172674321 -0.2458027894733521 0 0.165026579702267 -0.21846734390934591 0 0.14449659970488371 -0.22107604587679211 0 0.14495446384390751 -0.1969899492874535 0 0.14449659970488371 -0.22107604587679211 0 0.14495446384390751 -0.1969899492874535 0 0.1311722069379628 -0.21183149370741189 0 0.11945698867659681 -0.20120022094666171 0 0.14495446384390751 -0.1969899492874535 0 0.1311722069379628 -0.21183149370741189 0 0.11945698867659681 -0.20120022094666171 0 0.1224308172542093 -0.18471731460296639 0 0.14495446384390751 -0.1969899492874535 0 0.1224308172542093 -0.18471731460296639 0 0.14495446384390751 -0.1969899492874535 0 0.14095852481653129 -0.1630767357152319 0 0.14495446384390751 -0.1969899492874535 0 0.14095852481653129 -0.1630767357152319 0 0.16659858285440171 -0.17741811690349171 0 0.14095852481653129 -0.1630767357152319 0 0.16659858285440171 -0.17741811690349171 0 0.1219787527980354 -0.16658724503717809 0 0.1224308172542093 -0.18471731460296639 0 0.14095852481653129 -0.1630767357152319 0 0.11531846677866089 -0.14873535452697209 0 0.1219787527980354 -0.16658724503717809 0 0.14095852481653129 -0.1630767357152319 0 0.14095852481653129 -0.1630767357152319 0 0.1279866395688315 -0.14491316741122809 0 0.13923597263151699 -0.14555828477908031 0 0.11531846677866089 -0.14873535452697209 0 0.14095852481653129 -0.1630767357152319 0 0.1279866395688315 -0.14491316741122809 0 0.11531846677866089 -0.14873535452697209 0 0.14095852481653129 -0.1630767357152319 0 0.1279866395688315 -0.14491316741122809 0 0.13923597263151699 -0.14555828477908031 0 0.1348625456492957 -0.1347569343009031 0 0.13089678974713631 -0.12778957506914301 0 0.128587300494203 -0.13248088605997579 0 0.13238322444509229 -0.1304010632118123 0 0.128587300494203 -0.13248088605997579 0 0.13238322444509229 -0.1304010632118123 0 0.128587300494203 -0.13248088605997579 0 0.13238322444509229 -0.1304010632118123 0 0.1348625456492957 -0.1347569343009031 0 0.13089678974713631 -0.12778957506914301 0 0.13238322444509229 -0.1304010632118123 0 0.1279866395688315 -0.14491316741122809 0 0.128587300494203 -0.13248088605997579 0 0.1348625456492957 -0.1347569343009031 0 0.1191947535994773 -0.13679984363659781 0 0.1279866395688315 -0.14491316741122809 0 0.128587300494203 -0.13248088605997579 0 0.13923597263151699 -0.14555828477908031 0 0.1348625456492957 -0.1347569343009031 0 0.14350742392940699 -0.13889638740010571 0 0.14020850312619809 -0.13468913417066189 0 0.1348625456492957 -0.1347569343009031 0 0.14350742392940699 -0.13889638740010571 0 0.13238322444509229 -0.1304010632118123 0 0.1348625456492957 -0.1347569343009031 0 0.13238322444509229 -0.1304010632118123 0 0.1348625456492957 -0.1347569343009031 0 0.1357237020369727 -0.12857078375699391 0 0.13089678974713631 -0.12778957506914301 0 0.13238322444509229 -0.1304010632118123 0 0.1357237020369727 -0.12857078375699391 0 0.13238322444509229 -0.1304010632118123 0 0.1357237020369727 -0.12857078375699391 0 0.14020850312619809 -0.13468913417066189 0 0.1348625456492957 -0.1347569343009031 0 0.1357237020369727 -0.12857078375699391 0 0.1357237020369727 -0.12857078375699391 0 0.1415495162532687 -0.12951365912043361 0 0.14020850312619809 -0.13468913417066189 0 0.1357237020369727 -0.12857078375699391 0 0.1415495162532687 -0.12951365912043361 0 0.13089678974713631 -0.12778957506914301 0 0.1357237020369727 -0.12857078375699391 0 0.15195176480136471 -0.11967927377010409 0 0.1357237020369727 -0.12857078375699391 0 0.1415495162532687 -0.12951365912043361 0 0.1415495162532687 -0.12951365912043361 0 0.14350742392940699 -0.13889638740010571 0 0.15461081573906521 -0.13451207353682401 0 0.14020850312619809 -0.13468913417066189 0 0.1415495162532687 -0.12951365912043361 0 0.14350742392940699 -0.13889638740010571 0 0.14350742392940699 -0.13889638740010571 0 0.15461081573906521 -0.13451207353682401 0 0.1488647291935197 -0.14614819906793261 0 0.15195176480136471 -0.11967927377010409 0 0.1415495162532687 -0.12951365912043361 0 0.15461081573906521 -0.13451207353682401 0 0.14095852481653129 -0.1630767357152319 0 0.13923597263151699 -0.14555828477908031 0 0.1488647291935197 -0.14614819906793261 0 0.14095852481653129 -0.1630767357152319 0 0.1488647291935197 -0.14614819906793261 0 0.1647235454480552 -0.14889688868604911 0 0.15461081573906521 -0.13451207353682401 0 0.1488647291935197 -0.14614819906793261 0 0.1647235454480552 -0.14889688868604911 0 0.13923597263151699 -0.14555828477908031 0 0.14350742392940699 -0.13889638740010571 0 0.1488647291935197 -0.14614819906793261 0 0.15461081573906521 -0.13451207353682401 0 0.1647235454480552 -0.14889688868604911 0 0.17537273609379669 -0.1266266744750329 0 0.15195176480136471 -0.11967927377010409 0 0.15461081573906521 -0.13451207353682401 0 0.17537273609379669 -0.1266266744750329 0 0.1647235454480552 -0.14889688868604911 0 0.17537273609379669 -0.1266266744750329 0 0.18341643225747989 -0.14169361356560731 0 0.1987937073862284 -0.13357407517996259 0 0.17537273609379669 -0.1266266744750329 0 0.1987937073862284 -0.13357407517996259 0 0.17537273609379669 -0.1266266744750329 0 0.18341643225747989 -0.14169361356560731 0 0.1647235454480552 -0.14889688868604911 0 0.18341643225747989 -0.14169361356560731 0 0.18207344564223571 -0.15597739581098299 0 0.19377962363836981 -0.14974221022152739 0 0.18341643225747989 -0.14169361356560731 0 0.18207344564223571 -0.15597739581098299 0 0.1880217582768188 -0.17951209519154521 0 0.18207344564223571 -0.15597739581098299 0 0.16659858285440171 -0.17741811690349171 0 0.1880217582768188 -0.17951209519154521 0 0.1703931907865926 -0.1984008881936658 0 0.16659858285440171 -0.17741811690349171 0 0.14095852481653129 -0.1630767357152319 0 0.1647235454480552 -0.14889688868604911 0 0.16659858285440171 -0.17741811690349171 0 0.1647235454480552 -0.14889688868604911 0 0.18207344564223571 -0.15597739581098299 0 0.16659858285440171 -0.17741811690349171 0 
</DataArray>
</Points>
<Cells>
<DataArray type="UInt32" Name="connectivity" format="ascii">
0 1 2 3 4 5 6 7 8 9 10 11 12 13 14 15 16 17 18 19 20 21 22 23 24 25 26 27 28 29 30 31 32 33 34 35 36 37 38 39 40 41 42 43 44 45 46 47 48 49 50 51 52 53 54 55 56 57 58 59 60 61 62 63 64 65 66 67 68 69 70 71 72 73 74 75 76 77 78 79 80 81 82 83 84 85 86 87 88 89 90 91 92 93 94 95 96 97 98 99 100 101 102 103 104 105 106 107 108 109 110 111 112 113 114 115 116 117 118 119 120 121 122 123 124 125 126 127 128 129 130 131 132 133 134 135 136 137 138 139 140 141 142 143 144 145 146 147 148 149 150 151 152 153 154 155 156 157 158 159 160 161 162 163 164 165 166 167 168 169 170 171 172 173 174 175 176 177 178 179 180 181 182 183 184 185 186 187 188 189 190 191 192 193 194 195 196 197 198 199 200 201 202 203 204 205 206 207 208 209 210 211 212 213 214 215 216 217 218 219 220 221 222 223 224 225 226 227 228 229 230 231 232 233 234 235 236 237 238 239 240 241 242 243 244 245 246 247 248 249 250 251 252 253 254 255 256 257 258 259 260 261 262 263 264 265 266 267 268 269 270 271 272 273 274 275 276 277 278 279 280 281 282 283 284 285 286 287 288 289 290 291 292 293 294 295 296 297 298 299 300 301 302 303 304 305 306 307 308 309 310 311 312 313 314 315 316 317 318 319 320 321 322 323 324 325 326 327 328 329 330 331 332 333 334 335 336 337 338 339 340 341 342 343 344 345 346 347 348 349 350 351 352 353 354 355 356 357 358 359 360 361 362 363 364 365 366 367 368 369 370 371 372 373 374 375 376 377 378 379 380 381 382 383 384 385 386 387 388 389 390 391 392 393 394 395 396 397 398 399 400 401 402 403 404 405 406 407 408 409 410 411 412 413 414 415 416 417 418 419 420 421 422 423 424 425 426 427 428 429 430 431 432 433 434 435 436 437 438 439 440 441 442 443 444 445 446 447 448 449 450 451 452 453 454 455 456 457 458 459 460 461 462 463 464 465 466 467 468 469 470 471 472 473 474 475 476 477 478 479 480 481 482 483 484 485 486 487 488 489 490 491 492 493 494 495 496 497 498 499 500 501 502 503 504 505 506 507 508 509 510 511 512 513 514 515 516 517 518 519 520 521 522 523 524 525 526 527 528 529 530 531 532 533 534 535 536 537 538 539 540 541 542 543 544 545 546 547 548 549 550 551 552 553 554 555 556 557 558 559 560 561 562 563 564 565 566 567 568 569 570 571 572 573 574 575 576 577 578 579 580 581 582 583 584 585 586 587 588 589 590 591 592 593 594 595 596 597 598 599 600 601 602 603 604 605 606 607 608 609 610 611 612 613 614 615 616 617 618 619 620 621 622 623 624 625 626 627 628 629 630 631 632 633 634 635 636 637 638 639 640 641 642 643 644 645 646 647 648 649 650 651 652 653 654 655 656 657 658 659 660 661 662 663 664 665 666 667 668 669 670 671 672 673 674 675 676 677 678 679 680 681 682 683 684 685 686 687 688 689 690 691 692 693 694 695 696 697 698 699 700 701 702 703 704 705 706 707 708 709 710 711 712 713 714 715 716 717 718 719 720 721 722 723 724 725 726 727 728 729 730 731 732 733 734 735 736 737 738 739 740 741 742 743 744 745 746 747 748 749 750 751 752 753 754 755 756 757 758 759 760 761 762 763 764 765 766 767 768 769 770 771 772 773 774 775 776 777 778 779 780 781 782 783 784 785 786 787 788 789 790 791 792 793 794 795 796 797 798 799 800 801 802 803 804 805 806 807 808 809 810 811 812 813 814 815 816 817 818 819 820 821 822 823 824 825 826 827 828 829 830 831 832 833 834 835 836 837 838 839 840 841 842 843 844 845 846 847 848 849 850 851 852 853 854 855 856 857 858 859 860 861 862 863 864 865 866 867 868 869 870 871 872 873 874 875 876 877 878 879 880 881 882 883 884 885 886 887 888 889 890 891 892 893 894 895 896 897 898 899 900 901 902 903 904 905 906 907 908 909 910 911 912 913 914 915 916 917 918 919 920 921 922 923 924 925 926 927 928 929 930 931 932 933 934 935 936 937 938 939 940 941 942 943 944 945 946 947 948 949 950 951 952 953 954 955 956 957 958 959 960 961 962 963 964 965 966 967 968 969 970 971 972 973 974 975 976 977 978 979 980 981 982 983 984 985 986 987 988 989 990 991 992 993 994 995 996 997 998 999 1000 1001 1002 1003 1004 1005 1006 1007 1008 1009 1010 1011 1012 1013 1014 1015 1016 1017 1018 1019 1020 1021 1022 1023 1024 1025 1026 1027 1028 1029 1030 1031 1032 1033 1034 1035 1036 1037 1038 1039 1040 1041 1042 1043 1044 1045 1046 1047 1048 1049 1050 1051 1052 1053 1054 1055 1056 1057 1058 1059 1060 1061 1062 1063 1064 1065 1066 1067 1068 1069 1070 1071 1072 1073 1074 1075 1076 1077 1078 1079 1080 1081 1082 1083 1084 1085 1086 1087 1088 1089 1090 1091 1092 1093 1094 1095 1096 1097 1098 1099 1100 1101 1102 1103 1104 1105 1106 1107 1108 1109 1110 1111 1112 1113 1114 1115 1116 1117 1118 1119 1120 1121 1122 1123 1124 1125 1126 1127 1128 1129 1130 1131 1132 1133 1134 1135 1136 1137 1138 1139 1140 1141 1142 1143 1144 1145 1146 1147 1148 1149 1150 1151 1152 1153 1154 1155 1156 1157 1158 1159 1160 1161 1162 1163 1164 1165 1166 1167 1168 1169 1170 1171 1172 1173 1174 1175 1176 1177 1178 1179 1180 1181 1182 1183 1184 1185 1186 1187 1188 1189 1190 1191 1192 1193 1194 1195 1196 1197 1198 1199 1200 1201 1202 1203 1204 1205 1206 1207 1208 1209 1210 1211 1212 1213 1214 1215 1216 1217 1218 1219 1220 1221 1222 1223 1224 1225 1226 1227 1228 1229 1230 1231 1232 1233 1234 1235 1236 1237 1238 1239 1240 1241 1242 1243 1244 1245 1246 1247 1248 1249 1250 1251 1252 1253 1254 1255 1256 1257 1258 1259 1260 1261 1262 1263 1264 1265 1266 1267 1268 1269 1270 1271 1272 1273 1274 1275 1276 1277 1278 1279 1280 1281 1282 1283 1284 1285 1286 1287 1288 1289 1290 1291 1292 1293 1294 1295 1296 1297 1298 1299 1300 1301 1302 1303 1304 1305 1306 1307 1308 1309 1310 1311 1312 1313 1314 1315 1316 1317 1318 1319 1320 1321 1322 1323 1324 1325 1326 1327 1328 1329 1330 1331 1332 1333 1334 1335 1336 1337 1338 1339 1340 1341 1342 1343 1344 1345 1346 1347 1348 1349 1350 1351 1352 1353 1354 1355 1356 1357 1358 1359 1360 1361 1362 1363 1364 1365 1366 1367 1368 1369 1370 1371 1372 1373 1374 1375 1376 1377 1378 1379 1380 1381 1382 1383 1384 1385 1386 1387 1388 1389 1390 1391 1392 1393 1394 1395 1396 1397 1398 1399 1400 1401 1402 1403 1404 1405 1406 1407 1408 1409 1410 1411 1412 1413 1414 1415 1416 1417 1418 1419 1420 1421 1422 1423 1424 1425 1426 1427 1428 1429 1430 1431 1432 1433 1434 1435 1436 1437 1438 1439 1440 1441 1442 1443 1444 1445 1446 1447 1448 1449 1450 1451 1452 1453 1454 1455 1456 1457 1458 1459 1460 1461 1462 1463 1464 1465 1466 1467 1468 1469 1470 1471 1472 1473 1474 1475 1476 1477 1478 1479 1480 1481 1482 1483 1484 1485 1486 1487 1488 1489 1490 1491 1492 1493 1494 1495 1496 1497 1498 1499 1500 1501 1502 1503 1504 1505 1506 1507 1508 1509 1510 1511 1512 1513 1514 1515 1516 1517 1518 1519 1520 1521 1522 1523 1524 1525 1526 1527 1528 1529 1530 1531 1532 1533 1534 1535 1536 1537 1538 1539 1540 1541 1542 1543 1544 1545 1546 1547 1548 1549 1550 1551 1552 1553 1554 1555 1556 1557 1558 1559 1560 1561 1562 1563 1564 1565 1566 1567 1568 1569 1570 1571 1572 1573 1574 1575 1576 1577 1578 1579 1580 1581 1582 1583 1584 1585 1586 1587 1588 1589 1590 1591 1592 1593 1594 1595 1596 1597 1598 1599 1600 1601 1602 1603 1604 1605 1606 1607 1608 1609 1610 1611 1612 1613 1614 1615 1616 1617 1618 1619 1620 1621 1622 1623 1624 1625 1626 1627 1628 1629 1630 1631 1632 1633 1634 1635 1636 1637 1638 1639 1640 1641 1642 1643 1644 1645 1646 1647 1648 1649 1650 1651 1652 1653 1654 1655 1656 1657 1658 1659 1660 1661 1662 1663 1664 1665 1666 1667 1668 1669 1670 1671 1672 1673 1674 1675 1676 1677 1678 1679 1680 1681 1682 1683 1684 1685 1686 1687 1688 1689 1690 1691 1692 1693 1694 1695 1696 1697 1698 1699 1700 1701 1702 1703 1704 1705 1706 1707 1708 1709 1710 1711 1712 1713 1714 1715 1716 1717 1718 1719 1720 1721 1722 1723 1724 1725 1726 1727 1728 1729 1730 1731 1732 1733 1734 1735 1736 1737 1738 1739 1740 1741 1742 1743 1744 1745 1746 1747 1748 1749 1750 1751 1752 1753 1754 1755 1756 1757 1758 1759 1760 1761 1762 1763 1764 1765 1766 1767 1768 1769 1770 1771 1772 1773 1774 1775 1776 1777 1778 1779 1780 1781 1782 1783 1784 1785 1786 1787 1788 1789 1790 1791 1792 1793 1794 1795 1796 1797 1798 1799 1800 1801 1802 1803 1804 1805 1806 1807 1808 1809 1810 1811 1812 1813 1814 1815 1816 1817 1818 1819 1820 1821 1822 1823 1824 1825 1826 1827 1828 1829 1830 1831 1832 1833 1834 1835 1836 1837 1838 1839 1840 1841 1842 1843 1844 1845 1846 1847 1848 1849 1850 1851 1852 1853 1854 1855 1856 1857 1858 1859 1860 1861 1862 1863 1864 1865 1866 1867 1868 1869 1870 1871 1872 1873 1874 1875 1876 1877 1878 1879 1880 1881 1882 1883 1884 1885 1886 1887 1888 1889 1890 1891 1892 1893 1894 1895 1896 1897 1898 1899 1900 1901 1902 1903 1904 1905 1906 1907 1908 1909 1910 1911 1912 1913 1914 1915 1916 1917 1918 1919 1920 1921 1922 1923 1924 1925 1926 1927 1928 1929 1930 1931 1932 1933 1934 1935 1936 1937 1938 1939 1940 1941 1942 1943 1944 1945 1946 1947 1948 1949 1950 1951 1952 1953 1954 1955 1956 1957 1958 1959 1960 1961 1962 1963 1964 1965 1966 1967 1968 1969 1970 1971 1972 1973 1974 1975 1976 1977 1978 1979 1980 1981 1982 1983 1984 1985 1986 1987 1988 1989 1990 1991 1992 1993 1994 1995 1996 1997 1998 1999 2000 2001 2002 2003 2004 2005 2006 2007 2008 2009 2010 2011 2012 2013 2014 2015 2016 2017 2018 2019 2020 2021 2022 2023 2024 2025 2026 2027 2028 2029 2030 2031 2032 2033 2034 2035 2036 2037 2038 2039 2040 2041 2042 2043 2044 2045 2046 2047 2048 2049 2050 2051 2052 2053 2054 2055 2056 2057 2058 2059 2060 2061 2062 2063 2064 2065 2066 2067 2068 2069 2070 2071 2072 2073 2074 2075 2076 2077 2078 2079 2080 2081 2082 2083 2084 2085 2086 2087 2088 2089 2090 2091 2092 2093 2094 2095 2096 2097 2098 2099 2100 2101 2102 2103 2104 2105 2106 2107 2108 2109 2110 2111 2112 2113 2114 2115 2116 2117 2118 2119 2120 2121 2122 2123 2124 2125 2126 2127 2128 2129 2130 2131 2132 2133 2134 2135 2136 2137 2138 2139 2140 2141 2142 2143 2144 2145 2146 2147 2148 2149 2150 2151 2152 2153 2154 2155 2156 2157 2158 2159 2160 2161 2162 2163 2164 2165 2166 2167 2168 2169 2170 2171 2172 2173 2174 2175 2176 2177 2178 2179 2180 2181 2182 2183 2184 2185 2186 2187 2188 2189 2190 2191 2192 2193 2194 2195 2196 2197 2198 2199 2200 2201 2202 2203 2204 2205 2206 2207 2208 2209 2210 2211 2212 2213 2214 2215 2216 2217 2218 2219 2220 2221 2222 2223 2224 2225 2226 2227 2228 2229 2230 2231 2232 2233 2234 2235 2236 2237 2238 2239 2240 2241 2242 2243 2244 2245 2246 2247 2248 2249 2250 2251 2252 2253 2254 2255 2256 2257 2258 2259 2260 2261 2262 2263 2264 2265 2266 2267 2268 2269 2270 2271 2272 2273 2274 2275 2276 2277 2278 2279 2280 2281 2282 2283 2284 2285 2286 2287 2288 2289 2290 2291 2292 2293 2294 2295 2296 2297 2298 2299 2300 2301 2302 2303 2304 2305 2306 2307 2308 2309 2310 2311 2312 2313 2314 2315 2316 2317 2318 2319 2320 2321 2322 2323 2324 2325 2326 2327 2328 2329 2330 2331 2332 2333 2334 2335 2336 2337 2338 2339 2340 2341 2342 2343 2344 2345 2346 2347 2348 2349 2350 2351 2352 2353 2354 2355 2356 2357 2358 2359 2360 2361 2362 2363 2364 2365 2366 2367 2368 2369 2370 2371 2372 2373 2374 2375 2376 2377 2378 2379 2380 2381 2382 2383 2384 2385 2386 2387 2388 2389 2390 2391 2392 2393 2394 2395 2396 2397 2398 2399 2400 2401 2402 2403 2404 2405 2406 2407 2408 2409 2410 2411 2412 2413 2414 2415 2416 2417 2418 2419 2420 2421 2422 2423 2424 2425 2426 2427 2428 2429 2430 2431 2432 2433 2434 2435 2436 2437 2438 2439 2440 2441 2442 2443 2444 2445 2446 2447 2448 2449 2450 2451 2452 2453 2454 2455 2456 2457 2458 2459 2460 2461 2462 2463 2464 2465 2466 2467 2468 2469 2470 2471 2472 2473 2474 2475 2476 2477 2478 2479 2480 2481 2482 2483 2484 2485 2486 2487 2488 2489 2490 2491 2492 2493 2494 2495 2496 2497 2498 2499 2500 2501 2502 2503 2504 2505 2506 2507 2508 2509 2510 2511 2512 2513 2514 2515 2516 2517 2518 2519 2520 2521 2522 2523 2524 2525 2526 2527 2528 2529 2530 2531 2532 2533 2534 2535 2536 2537 2538 2539 2540 2541 2542 2543 2544 2545 2546 2547 2548 2549 2550 2551 2552 2553 2554 2555 2556 2557 2558 2559 2560 2561 2562 2563 2564 2565 2566 2567 2568 2569 2570 2571 2572 2573 2574 2575 2576 2577 2578 2579 2580 2581 2582 2583 2584 2585 2586 2587 2588 2589 2590 2591 2592 2593 2594 2595 2596 2597 2598 2599 2600 2601 2602 2603 2604 2605 2606 2607 2608 2609 2610 2611 2612 2613 2614 2615 2616 2617 2618 2619 2620 2621 2622 2623 2624 2625 2626 2627 2628 2629 2630 2631 2632 2633 2634 2635 2636 2637 2638 2639 2640 2641 2642 2643 2644 2645 2646 2647 2648 2649 2650 2651 2652 2653 2654 2655 2656 2657 2658 2659 2660 2661 2662 2663 2664 2665 2666 2667 2668 2669 2670 2671 2672 2673 2674 2675 2676 2677 2678 2679 2680 2681 2682 2683 2684 2685 2686 2687 2688 2689 2690 2691 2692 2693 2694 2695 2696 2697 2698 2699 2700 2701 2702 2703 2704 2705 2706 2707 2708 2709 2710 2711 2712 2713 2714 2715 2716 2717 2718 2719 2720 2721 2722 2723 2724 2725 2726 2727 2728 2729 2730 2731 2732 2733 2734 2735 2736 2737 2738 2739 2740 2741 2742 2743 2744 2745 2746 2747 2748 2749 2750 2751 2752 2753 2754 2755 2756 2757 2758 2759 2760 2761 2762 2763 2764 2765 2766 2767 2768 2769 2770 2771 2772 2773 2774 2775 2776 2777 2778 2779 2780 2781 2782 2783 2784 2785 2786 2787 2788 2789 2790 2791 2792 2793 2794 2795 2796 2797 2798 2799 2800 2801 2802 2803 2804 2805 2806 2807 2808 2809 2810 2811 2812 2813 2814 2815 2816 2817 2818 2819 2820 2821 2822 2823 2824 2825 2826 2827 2828 2829 2830 2831 2832 2833 2834 2835 2836 2837 2838 2839 2840 2841 2842 2843 2844 2845 2846 2847 2848 2849 2850 2851 2852 2853 2854 2855 2856 2857 2858 2859 2860 2861 2862 2863 2864 2865 2866 2867 2868 2869 2870 2871 2872 2873 2874 2875 2876 2877 2878 2879 2880 2881 2882 2883 2884 2885 2886 2887 2888 2889 2890 2891 2892 2893 2894 2895 2896 2897 2898 2899 2900 2901 2902 2903 2904 2905 2906 2907 2908 2909 2910 2911 2912 2913 2914 2915 2916 2917 2918 2919 2920 2921 2922 2923 2924 2925 2926 2927 2928 2929 2930 2931 2932 2933 2934 2935 2936 2937 2938 2939 2940 2941 2942 2943 2944 2945 2946 2947 2948 2949 2950 2951 2952 2953 2954 2955 2956 2957 2958 2959 2960 2961 2962 2963 2964 2965 2966 2967 2968 2969 2970 2971 2972 2973 2974 2975 2976 2977 2978 2979 2980 2981 2982 2983 2984 2985 2986 2987 2988 2989 2990 2991 2992 2993 2994 2995 2996 2997 2998 2999 3000 3001 3002 3003 3004 3005 3006 3007 3008 3009 3010 3011 3012 3013 3014 3015 3016 3017 3018 3019 3020 3021 3022 3023 3024 3025 3026 3027 3028 3029 3030 3031 3032 3033 3034 3035 3036 3037 3038 3039 3040 3041 3042 3043 3044 3045 3046 3047 3048 3049 3050 3051 3052 3053 3054 3055 3056 3057 3058 3059 3060 3061 3062 3063 3064 3065 3066 3067 3068 3069 3070 3071 3072 3073 3074 3075 3076 3077 3078 3079 3080 3081 3082 3083 3084 3085 3086 3087 3088 3089 3090 3091 3092 3093 3094 3095 3096 3097 3098 3099 3100 3101 3102 3103 3104 3105 3106 3107 3108 3109 3110 3111 3112 3113 3114 3115 3116 3117 3118 3119 3120 3121 3122 3123 3124 3125 3126 3127 3128 3129 3130 3131 3132 3133 3134 3135 3136 3137 3138 3139 3140 3141 3142 3143 3144 3145 3146 3147 3148 3149 3150 3151 3152 3153 3154 3155 3156 3157 3158 3159 3160 3161 3162 3163 3164 3165 3166 3167 3168 3169 3170 3171 3172 3173 3174 3175 3176 3177 3178 3179 3180 3181 3182 3183 3184 3185 3186 3187 3188 3189 3190 3191 3192 3193 3194 3195 3196 3197 3198 3199 3200 3201 3202 3203 3204 3205 3206 3207 3208 3209 3210 3211 3212 3213 3214 3215 3216 3217 3218 3219 3220 3221 3222 3223 3224 3225 3226 3227 3228 3229 3230 3231 3232 3233 3234 3235 3236 3237 3238 3239 3240 3241 3242 3243 3244 3245 3246 3247 3248 3249 3250 3251 3252 3253 3254 3255 3256 3257 3258 3259 3260 3261 3262 3263 3264 3265 3266 3267 3268 3269 3270 3271 3272 3273 3274 3275 3276 3277 3278 3279 3280 3281 3282 3283 3284 3285 3286 3287 3288 3289 3290 3291 3292 3293 3294 3295 3296 3297 3298 3299 3300 3301 3302 3303 3304 3305 3306 3307 3308 3309 3310 3311 3312 3313 3314 3315 3316 3317 3318 3319 3320 3321 3322 3323 3324 3325 3326 3327 3328 3329 3330 3331 3332 3333 3334 3335 3336 3337 3338 3339 3340 3341 3342 3343 3344 3345 3346 3347 3348 3349 3350 3351 3352 3353 3354 3355 3356 3357 3358 3359 3360 3361 3362 3363 3364 3365 3366 3367 3368 3369 3370 3371 3372 3373 3374 3375 3376 3377 3378 3379 3380 3381 3382 3383 3384 3385 3386 3387 3388 3389 3390 3391 3392 3393 3394 3395 3396 3397 3398 3399 3400 3401 3402 3403 3404 3405 3406 3407 3408 3409 3410 3411 3412 3413 3414 3415 3416 3417 3418 3419 3420 3421 3422 3423 3424 3425 3426 3427 3428 3429 3430 3431 3432 3433 3434 3435 3436 3437 3438 3439 3440 3441 3442 3443 3444 3445 3446 3447 3448 3449 3450 3451 3452 3453 3454 3455 3456 3457 3458 3459 3460 3461 3462 3463 3464 3465 3466 3467 3468 3469 3470 3471 3472 3473 3474 3475 3476 3477 3478 3479 3480 3481 3482 3483 3484 3485 3486 3487 3488 3489 3490 3491 3492 3493 3494 3495 3496 3497 3498 3499 3500 3501 3502 3503 3504 3505 3506 3507 3508 3509 3510 3511 3512 3513 3514 3515 3516 3517 3518 3519 3520 3521 3522 3523 3524 3525 3526 3527 3528 3529 3530 3531 3532 3533 3534 3535 3536 3537 3538 3539 3540 3541 3542 3543 3544 3545 3546 3547 3548 3549 3550 3551 3552 3553 3554 3555 3556 3557 3558 3559 3560 3561 3562 3563 3564 3565 3566 3567 3568 3569 3570 3571 3572 3573 3574 3575 3576 3577 3578 3579 3580 3581 3582 3583 3584 3585 3586 3587 3588 3589 3590 3591 3592 3593 3594 3595 3596 3597 3598 3599 3600 3601 3602 3603 3604 3605 3606 3607 3608 3609 3610 3611 3612 3613 3614 3615 3616 3617 3618 3619 3620 3621 3622 3623 3624 3625 3626 3627 3628 3629 3630 3631 3632 3633 3634 3635 3636 3637 3638 3639 3640 3641 3642 3643 3644 3645 3646 3647 3648 3649 3650 3651 3652 3653 3654 3655 3656 3657 3658 3659 3660 3661 3662 3663 3664 3665 3666 3667 3668 3669 3670 3671 3672 3673 3674 3675 3676 3677 3678 3679 3680 3681 3682 3683 3684 3685 3686 3687 3688 3689 3690 3691 3692 3693 3694 3695 3696 3697 3698 3699 3700 3701 3702 3703 3704 3705 3706 3707 3708 3709 3710 3711 3712 3713 3714 3715 3716 3717 3718 3719 3720 3721 3722 3723 3724 3725 3726 3727 3728 3729 3730 3731 3732 3733 3734 3735 3736 3737 3738 3739 3740 3741 3742 3743 3744 3745 3746 3747 3748 3749 3750 3751 3752 3753 3754 3755 3756 3757 3758 3759 3760 3761 3762 3763 3764 3765 3766 3767 3768 3769 3770 3771 3772 3773 3774 3775 3776 3777 3778 3779 3780 3781 3782 3783 3784 3785 3786 3787 3788 3789 3790 3791 3792 3793 3794 3795 3796 3797 3798 3799 3800 3801 3802 3803 3804 3805 3806 3807 3808 3809 3810 3811 3812 3813 3814 3815 3816 3817 3818 3819 3820 3821 3822 3823 3824 3825 3826 3827 3828 3829 3830 3831 3832 3833 3834 3835 3836 3837 3838 3839 3840 3841 3842 3843 3844 3845 3846 3847 3848 3849 3850 3851 3852 3853 3854 3855 3856 3857 3858 3859 3860 3861 3862 3863 3864 3865 3866 3867 3868 3869 3870 3871 3872 3873 3874 3875 3876 3877 3878 3879 3880 3881 3882 3883 3884 3885 3886 3887 3888 3889 3890 3891 3892 3893 3894 3895 3896 3897 3898 3899 3900 3901 3902 3903 3904 3905 3906 3907 3908 3909 3910 3911 3912 3913 3914 3915 3916 3917 3918 3919 3920 3921 3922 3923 3924 3925 3926 3927 3928 3929 3930 3931 3932 3933 3934 3935 3936 3937 3938 3939 3940 3941 3942 3943 3944 3945 3946 3947 3948 3949 3950 3951 3952 3953 3954 3955 3956 3957 3958 3959 3960 3961 3962 3963 3964 3965 3966 3967 3968 3969 3970 3971 3972 3973 3974 3975 3976 3977 3978 3979 3980 3981 3982 3983 3984 3985 3986 3987 3988 3989 3990 3991 3992 3993 3994 3995 3996 3997 3998 3999 4000 4001 4002 4003 4004 4005 4006 4007 4008 4009 4010 4011 4012 4013 4014 4015 4016 4017 4018 4019 4020 4021 4022 4023 4024 4025 4026 4027 4028 4029 4030 4031 4032 4033 4034 4035 4036 4037 4038 4039 4040 4041 4042 4043 4044 4045 4046 4047 4048 4049 4050 4051 4052 4053 4054 4055 4056 4057 4058 4059 4060 4061 4062 4063 4064 4065 4066 4067 4068 4069 4070 4071 4072 4073 4074 4075 4076 4077 4078 4079 4080 4081 4082 4083 4084 4085 4086 4087 4088 4089 4090 4091 4092 4093 4094 4095 4096 4097 4098 4099 4100 4101 4102 4103 4104 4105 4106 4107 4108 4109 4110 4111 4112 4113 4114 4115 4116 4117 4118 4119 4120 4121 4122 4123 4124 4125 4126 4127 4128 4129 4130 4131 4132 4133 4134 4135 4136 4137 4138 4139 4140 4141 4142 4143 4144 4145 4146 4147 4148 4149 4150 4151 4152 4153 4154 4155 4156 4157 4158 4159 4160 4161 4162 4163 4164 4165 4166 4167 4168 4169 4170 4171 4172 4173 4174 4175 4176 4177 4178 4179 4180 4181 4182 4183 4184 4185 4186 4187 4188 4189 4190 4191 4192 4193 4194 4195 4196 4197 4198 4199 4200 4201 4202 4203 4204 4205 4206 4207 4208 4209 4210 4211 4212 4213 4214 4215 4216 4217 4218 4219 4220 4221 4222 4223 4224 4225 4226 4227 4228 4229 4230 4231 4232 4233 4234 4235 4236 4237 4238 4239 4240 4241 4242 4243 4244 4245 4246 4247 4248 4249 4250 4251 4252 4253 4254 4255 4256 4257 4258 4259 4260 4261 4262 4263 4264 4265 4266 4267 4268 4269 4270 4271 4272 4273 4274 4275 4276 4277 4278 4279 4280 4281 4282 4283 4284 4285 4286 4287 4288 4289 4290 4291 4292 4293 4294 4295 4296 4297 4298 4299 4300 4301 4302 4303 4304 4305 4306 4307 4308 4309 4310 4311 4312 4313 4314 4315 4316 4317 4318 4319 4320 4321 4322 4323 4324 4325 4326 4327 4328 4329 4330 4331 4332 4333 4334 4335 4336 4337 4338 4339 4340 4341 4342 4343 4344 4345 4346 4347 4348 4349 4350 4351 4352 4353 4354 4355 4356 4357 4358 4359 4360 4361 4362 4363 4364 4365 4366 4367 4368 4369 4370 4371 4372 4373 4374 4375 4376 4377 4378 4379 4380 4381 4382 4383 4384 4385 4386 4387 4388 4389 4390 4391 4392 4393 4394 4395 4396 4397 4398 4399 4400 4401 4402 4403 4404 4405 4406 4407 4408 4409 4410 4411 4412 4413 4414 4415 4416 4417 4418 4419 4420 4421 4422 4423 4424 4425 4426 4427 4428 4429 4430 4431 4432 4433 4434 4435 4436 4437 4438 4439 4440 4441 4442 4443 4444 4445 4446 4447 4448 4449 4450 4451 4452 4453 4454 4455 4456 4457 4458 4459 4460 4461 4462 4463 4464 4465 4466 4467 4468 4469 4470 4471 4472 4473 4474 4475 4476 4477 4478 4479 4480 4481 4482 4483 4484 4485 4486 4487 4488 4489 4490 4491 4492 4493 4494 4495 4496 4497 4498 4499 4500 4501 4502 4503 4504 4505 4506 4507 4508 4509 4510 4511 4512 4513 4514 4515 4516 4517 4518 4519 4520 4521 4522 4523 4524 4525 4526 4527 4528 4529 4530 4531 4532 4533 4534 4535 4536 4537 4538 4539 4540 4541 4542 4543 4544 4545 4546 4547 4548 4549 4550 4551 4552 4553 4554 4555 4556 4557 4558 4559 4560 4561 4562 4563 4564 4565 4566 4567 4568 4569 4570 4571 4572 4573 4574 4575 4576 4577 4578 4579 4580 4581 4582 4583 4584 4585 4586 4587 4588 4589 4590 4591 4592 4593 4594 4595 4596 4597 4598 4599 4600 4601 4602 4603 4604 4605 4606 4607 4608 4609 4610 4611 4612 4613 4614 4615 4616 4617 4618 4619 4620 4621 4622 4623 4624 4625 4626 4627 4628 4629 4630 4631 4632 4633 4634 4635 4636 4637 4638 4639 4640 4641 4642 4643 4644 4645 4646 4647 4648 4649 4650 4651 4652 4653 4654 4655 4656 4657 4658 4659 4660 4661 4662 4663 4664 4665 4666 4667 4668 4669 4670 4671 4672 4673 4674 4675 4676 4677 4678 4679 4680 4681 4682 4683 4684 4685 4686 4687 4688 4689 4690 4691 4692 4693 4694 4695 4696 4697 4698 4699 4700 4701 4702 4703 4704 4705 4706 4707 4708 4709 4710 4711 4712 4713 4714 4715 4716 4717 4718 4719 4720 4721 4722 4723 4724 4725 4726 4727 4728 4729 4730 4731 4732 4733 4734 4735 4736 4737 4738 4739 4740 4741 4742 4743 4744 4745 4746 4747 4748 4749 4750 4751 4752 4753 4754 4755 4756 4757 4758 4759 4760 4761 4762 4763 4764 4765 4766 4767 4768 4769 4770 4771 4772 4773 4774 4775 4776 4777 4778 4779 4780 4781 4782 4783 4784 4785 4786 4787 4788 4789 4790 4791 4792 4793 4794 4795 4796 4797 4798 4799 4800 4801 4802 4803 4804 4805 4806 4807 4808 4809 4810 4811 4812 4813 4814 4815 4816 4817 4818 4819 4820 4821 4822 4823 4824 4825 4826 4827 4828 4829 4830 4831 4832 4833 4834 4835 4836 4837 4838 4839 4840 4841 4842 4843 4844 4845 4846 4847 4848 4849 4850 4851 4852 4853 4854 4855 4856 4857 4858 4859 4860 4861 4862 4863 4864 4865 4866 4867 4868 4869 4870 4871 4872 4873 4874 4875 4876 4877 4878 4879 4880 4881 4882 4883 4884 4885 4886 4887 4888 4889 4890 4891 4892 4893 4894 4895 4896 4897 4898 4899 4900 4901 4902 4903 4904 4905 4906 4907 4908 4909 4910 4911 4912 4913 4914 4915 4916 4917 4918 4919 4920 4921 4922 4923 4924 4925 4926 4927 4928 4929 4930 4931 4932 4933 4934 4935 4936 4937 4938 4939 4940 4941 4942 4943 4944 4945 4946 4947 4948 4949 4950 4951 4952 4953 4954 4955 4956 4957 4958 4959 4960 4961 4962 4963 4964 4965 4966 4967 4968 4969 4970 4971 4972 4973 4974 4975 4976 4977 4978 4979 4980 4981 4982 4983 4984 4985 4986 4987 4988 4989 4990 4991 4992 4993 4994 4995 4996 4997 4998 4999 5000 5001 5002 5003 5004 5005 5006 5007 5008 5009 5010 5011 5012 5013 5014 5015 5016 5017 5018 5019 5020 5021 5022 5023 5024 5025 5026 5027 5028 5029 5030 5031 5032 5033 5034 5035 5036 5037 5038 5039 5040 5041 5042 5043 5044 5045 5046 5047 5048 5049 5050 5051 5052 5053 5054 5055 5056 5057 5058 5059 5060 5061 5062 5063 5064 5065 5066 5067 5068 5069 5070 5071 5072 5073 5074 5075 5076 5077 5078 5079 5080 5081 5082 5083 5084 5085 5086 5087 5088 5089 5090 5091 5092 5093 5094 5095 5096 5097 5098 5099 5100 5101 5102 5103 5104 5105 5106 5107 5108 5109 5110 5111 5112 5113 5114 5115 5116 5117 5118 5119 5120 5121 5122 5123 5124 5125 5126 5127 5128 5129 5130 5131 5132 5133 5134 5135 5136 5137 5138 5139 5140 5141 5142 5143 5144 5145 5146 5147 5148 5149 5150 5151 5152 5153 5154 5155 5156 5157 5158 5159 5160 5161 5162 5163 5164 5165 5166 5167 5168 5169 5170 5171 5172 5173 5174 5175 5176 5177 5178 5179 5180 5181 5182 5183 5184 5185 5186 5187 5188 5189 5190 5191 5192 5193 5194 5195 5196 5197 5198 5199 5200 5201 5202 5203 5204 5205 5206 5207 5208 5209 5210 5211 5212 5213 5214 5215 5216 5217 5218 5219 5220 5221 5222 5223 5224 5225 5226 5227 5228 5229 5230 5231 5232 5233 5234 5235 5236 5237 5238 5239 5240 5241 5242 5243 5244 5245 5246 5247 5248 5249 5250 5251 5252 5253 5254 5255 5256 5257 5258 5259 5260 5261 5262 5263 5264 5265 5266 5267 5268 5269 5270 5271 5272 5273 5274 5275 5276 5277 5278 5279 5280 5281 5282 5283 5284 5285 5286 5287 5288 5289 5290 5291 5292 5293 5294 5295 5296 5297 5298 5299 5300 5301 5302 5303 5304 5305 5306 5307 5308 5309 5310 5311 5312 5313 5314 5315 5316 5317 5318 5319 5320 5321 5322 5323 5324 5325 5326 5327 5328 5329 5330 5331 5332 5333 5334 5335 5336 5337 5338 5339 5340 5341 5342 5343 5344 5345 5346 5347 5348 5349 5350 5351 5352 5353 5354 5355 5356 5357 5358 5359 5360 5361 5362 5363 5364 5365 5366 5367 5368 5369 5370 5371 5372 5373 5374 5375 5376 5377 5378 5379 5380 5381 5382 5383 5384 5385 5386 5387 5388 5389 5390 5391 5392 5393 5394 5395 5396 5397 5398 5399 5400 5401 5402 5403 5404 5405 5406 5407 5408 5409 5410 5411 5412 5413 5414 5415 5416 5417 5418 5419 5420 5421 5422 5423 5424 5425 5426 5427 5428 5429 5430 5431 5432 5433 5434 5435 5436 5437 5438 5439 5440 5441 5442 5443 5444 5445 5446 5447 5448 5449 5450 5451 5452 5453 5454 5455 5456 5457 5458 5459 5460 5461 5462 5463 5464 5465 5466 5467 5468 5469 5470 5471 5472 5473 5474 5475 5476 5477 5478 5479 5480 5481 5482 5483 5484 5485 5486 5487 5488 5489 5490 5491 5492 5493 5494 5495 5496 5497 5498 5499 5500 5501 5502 5503 5504 5505 5506 5507 5508 5509 5510 5511 5512 5513 5514 5515 5516 5517 5518 5519 5520 5521 5522 5523 5524 5525 5526 5527 5528 5529 5530 5531 5532 5533 5534 5535 5536 5537 5538 5539 5540 5541 5542 5543 5544 5545 5546 5547 5548 5549 5550 5551 5552 5553 5554 5555 5556 5557 5558 5559 5560 5561 5562 5563 5564 5565 5566 5567 5568 5569 5570 5571 5572 5573 5574 5575 5576 5577 5578 5579 5580 5581 5582 5583 5584 5585 5586 5587 5588 5589 5590 5591 5592 5593 5594 5595 5596 5597 5598 5599 5600 5601 5602 5603 5604 5605 5606 5607 5608 5609 5610 5611 5612 5613 5614 5615 5616 5617 5618 5619 5620 5621 5622 5623 5624 5625 5626 5627 5628 5629 5630 5631 5632 5633 5634 5635 5636 5637 5638 5639 5640 5641 5642 5643 5644 5645 5646 5647 5648 5649 5650 5651 5652 5653 5654 5655 5656 5657 5658 5659 5660 5661 5662 5663 5664 5665 5666 5667 5668 5669 5670 5671 5672 5673 5674 5675 5676 5677 5678 5679 5680 5681 5682 5683 5684 5685 5686 5687 5688 5689 5690 5691 5692 5693 5694 5695 5696 5697 5698 5699 5700 5701 5702 5703 5704 5705 5706 5707 5708 5709 5710 5711 5712 5713 5714 5715 5716 5717 5718 5719 5720 5721 5722 5723 5724 5725 5726 5727 5728 5729 5730 5731 5732 5733 5734 5735 5736 5737 5738 5739 5740 5741 5742 5743 5744 5745 5746 5747 5748 5749 5750 5751 5752 5753 5754 5755 5756 5757 5758 5759 5760 5761 5762 5763 5764 5765 5766 5767 5768 5769 5770 5771 5772 5773 5774 5775 5776 5777 5778 5779 5780 5781 5782 5783 5784 5785 5786 5787 5788 5789 5790 5791 5792 5793 5794 5795 5796 5797 5798 5799 5800 5801 5802 5803 5804 5805 5806 5807 5808 5809 5810 5811 5812 5813 5814 5815 5816 5817 5818 5819 5820 5821 5822 5823 5824 5825 5826 5827 5828 5829 5830 5831 5832 5833 5834 5835 5836 5837 5838 5839 5840 5841 5842 5843 5844 5845 5846 5847 5848 5849 5850 5851 5852 5853 5854 5855 5856 5857 5858 5859 5860 5861 5862 5863 5864 5865 5866 5867 5868 5869 5870 5871 5872 5873 5874 5875 5876 5877 5878 5879 5880 5881 5882 5883 5884 5885 5886 5887 5888 5889 5890 5891 5892 5893 5894 5895 5896 5897 5898 5899 5900 5901 5902 5903 5904 5905 5906 5907 5908 5909 5910 5911 5912 5913 5914 5915 5916 5917 5918 5919 5920 5921 5922 5923 5924 5925 5926 5927 5928 5929 5930 5931 5932 5933 5934 5935 5936 5937 5938 5939 5940 5941 5942 5943 5944 5945 5946 5947 5948 5949 5950 5951 5952 5953 5954 5955 5956 5957 5958 5959 5960 5961 5962 5963 5964 5965 5966 5967 5968 5969 5970 5971 5972 5973 5974 5975 5976 5977 5978 5979 5980 5981 5982 5983 5984 5985 5986 5987 5988 5989 5990 5991 5992 5993 5994 5995 5996 5997 5998 5999 6000 6001 6002 6003 6004 6005 6006 6007 6008 6009 6010 6011 6012 6013 6014 6015 6016 6017 6018 6019 6020 6021 6022 6023 6024 6025 6026 6027 6028 6029 6030 6031 6032 6033 6034 6035 6036 6037 6038 6039 6040 6041 6042 6043 6044 6045 6046 6047 6048 6049 6050 6051 6052 6053 6054 6055 6056 6057 6058 6059 6060 6061 6062 6063 6064 6065 6066 6067 6068 6069 6070 6071 6072 6073 6074 6075 6076 6077 6078 6079 6080 6081 6082 6083 6084 6085 6086 6087 6088 6089 6090 6091 6092 6093 6094 6095 6096 6097 6098 6099 6100 6101 6102 6103 6104 6105 6106 6107 6108 6109 6110 6111 6112 6113 6114 6115 6116 6117 6118 6119 6120 6121 6122 6123 6124 6125 6126 6127 6128 6129 6130 6131 6132 6133 6134 6135 6136 6137 6138 6139 6140 6141 6142 6143 6144 6145 6146 6147 6148 6149 6150 6151 6152 6153 6154 6155 6156 6157 6158 6159 6160 6161 6162 6163 6164 6165 6166 6167 6168 6169 6170 6171 6172 6173 6174 6175 6176 6177 6178 6179 6180 6181 6182 6183 6184 6185 6186 6187 6188 6189 6190 6191 6192 6193 6194 6195 6196 6197 6198 6199 6200 6201 6202 6203 6204 6205 6206 6207 6208 6209 6210 6211 6212 6213 6214 6215 6216 6217 6218 6219 6220 6221 6222 6223 6224 6225 6226 6227 6228 6229 6230 6231 6232 6233 6234 6235 6236 6237 6238 6239 6240 6241 6242 6243 6244 6245 6246 6247 6248 6249 6250 6251 6252 6253 6254 6255 6256 6257 6258 6259 6260 6261 6262 6263 6264 6265 6266 6267 6268 6269 6270 6271 6272 6273 6274 6275 6276 6277 6278 6279 6280 6281 6282 6283 6284 6285 6286 6287 6288 6289 6290 6291 6292 6293 6294 6295 6296 6297 6298 6299 6300 6301 6302 6303 6304 6305 6306 6307 6308 6309 6310 6311 6312 6313 6314 6315 6316 6317 6318 6319 6320 6321 6322 6323 6324 6325 6326 6327 6328 6329 6330 6331 6332 6333 6334 6335 6336 6337 6338 6339 6340 6341 6342 6343 6344 6345 6346 6347 6348 6349 6350 6351 6352 6353 6354 6355 6356 6357 6358 6359 6360 6361 6362 6363 6364 6365 6366 6367 6368 6369 6370 6371 6372 6373 6374 6375 6376 6377 6378 6379 6380 6381 6382 6383 6384 6385 6386 6387 6388 6389 6390 6391 6392 6393 6394 6395 6396 6397 6398 6399 6400 6401 6402 6403 6404 6405 6406 6407 6408 6409 6410 6411 6412 6413 6414 6415 6416 6417 6418 6419 6420 6421 6422 6423 6424 6425 6426 6427 6428 6429 6430 6431 6432 6433 6434 6435 6436 6437 6438 6439 6440 6441 6442 6443 6444 6445 6446 6447 6448 6449 6450 6451 6452 6453 6454 6455 6456 6457 6458 6459 6460 6461 6462 6463 6464 6465 6466 6467 6468 6469 6470 6471 6472 6473 6474 6475 6476 6477 6478 6479 6480 6481 6482 6483 6484 6485 6486 6487 6488 6489 6490 6491 6492 6493 6494 6495 6496 6497 6498 6499 6500 6501 6502 6503 6504 6505 6506 6507 6508 6509 6510 6511 6512 6513 6514 6515 6516 6517 6518 6519 6520 6521 6522 6523 6524 6525 6526 6527 6528 6529 6530 6531 6532 6533 6534 6535 6536 6537 6538 6539 6540 6541 6542 6543 6544 6545 6546 6547 6548 6549 6550 6551 6552 6553 6554 6555 6556 6557 6558 6559 6560 6561 6562 6563 6564 6565 6566 6567 6568 6569 6570 6571 6572 6573 6574 6575 6576 6577 6578 6579 6580 6581 6582 6583 6584 6585 6586 6587 6588 6589 6590 6591 6592 6593 6594 6595 6596 6597 6598 6599 6600 6601 6602 6603 6604 6605 6606 6607 6608 6609 6610 6611 6612 6613 6614 6615 6616 6617 6618 6619 6620 6621 6622 6623 6624 6625 6626 6627 6628 6629 6630 6631 6632 6633 6634 6635 6636 6637 6638 6639 6640 6641 6642 6643 6644 6645 6646 6647 6648 6649 6650 6651 6652 6653 6654 6655 6656 6657 6658 6659 6660 6661 6662 6663 6664 6665 6666 6667 6668 6669 6670 6671 6672 6673 6674 6675 6676 6677 6678 6679 6680 6681 6682 6683 6684 6685 6686 6687 6688 6689 6690 6691 6692 6693 6694 6695 6696 6697 6698 6699 6700 6701 6702 6703 6704 6705 6706 6707 6708 6709 6710 6711 6712 6713 6714 6715 6716 6717 6718 6719 6720 6721 6722 6723 6724 6725 6726 6727 6728 6729 6730 6731 6732 6733 6734 6735 6736 6737 6738 6739 6740 6741 6742 6743 6744 6745 6746 6747 6748 6749 6750 6751 6752 6753 6754 6755 6756 6757 6758 6759 6760 6761 6762 6763 6764 6765 6766 6767 6768 6769 6770 6771 6772 6773 6774 6775 6776 6777 6778 6779 6780 6781 6782 6783 6784 6785 6786 6787 6788 6789 6790 6791 6792 6793 6794 6795 6796 6797 6798 6799 6800 6801 6802 6803 6804 6805 6806 6807 6808 6809 6810 6811 6812 6813 6814 6815 6816 6817 6818 6819 6820 6821 6822 6823 6824 6825 6826 6827 6828 6829 6830 6831 6832 6833 6834 6835 6836 6837 6838 6839 6840 6841 6842 6843 6844 6845 6846 6847 6848 6849 6850 6851 6852 6853 6854 6855 6856 6857 6858 6859 6860 6861 6862 6863 6864 6865 6866 6867 6868 6869 6870 6871 6872 6873 6874 6875 6876 6877 6878 6879 6880 6881 6882 6883 6884 6885 6886 6887 6888 6889 6890 6891 6892 6893 6894 6895 6896 6897 6898 6899 6900 6901 6902 6903 6904 6905 6906 6907 6908 6909 6910 6911 6912 6913 6914 6915 6916 6917 6918 6919 6920 6921 6922 6923 6924 6925 6926 6927 6928 6929 6930 6931 6932 6933 6934 6935 6936 6937 6938 6939 6940 6941 6942 6943 6944 6945 6946 6947 6948 6949 6950 6951 6952 6953 6954 6955 6956 6957 6958 6959 6960 6961 6962 6963 6964 6965 6966 6967 6968 6969 6970 6971 6972 6973 6974 6975 6976 6977 6978 6979 6980 6981 6982 6983 6984 6985 6986 6987 6988 6989 6990 6991 6992 6993 6994 6995 6996 6997 6998 6999 7000 7001 7002 7003 7004 7005 7006 7007 7008 7009 7010 7011 7012 7013 7014 7015 7016 7017 7018 7019 7020 7021 7022 7023 7024 7025 7026 7027 7028 7029 7030 7031 7032 7033 7034 7035 7036 7037 7038 7039 7040 7041 7042 7043 7044 7045 7046 7047 7048 7049 7050 7051 7052 7053 7054 7055 7056 7057 7058 7059 7060 7061 7062 7063 7064 7065 7066 7067 7068 7069 7070 7071 7072 7073 7074 7075 7076 7077 7078 7079 7080 7081 7082 7083 7084 7085 7086 7087 7088 7089 7090 7091 7092 7093 7094 7095 7096 7097 7098 7099 7100 7101 7102 7103 7104 7105 7106 7107 7108 7109 7110 7111 7112 7113 7114 7115 7116 7117 7118 7119 7120 7121 7122 7123 7124 7125 7126 7127 7128 7129 7130 7131 7132 7133 7134 7135 7136 7137 7138 7139 7140 7141 7142 7143 7144 7145 7146 7147 7148 7149 7150 7151 7152 7153 7154 7155 7156 7157 7158 7159 7160 7161 7162 7163 7164 7165 7166 7167 7168 7169 7170 7171 7172 7173 7174 7175 7176 7177 7178 7179 7180 7181 7182 7183 7184 7185 7186 7187 7188 7189 7190 7191 7192 7193 7194 7195 7196 7197 7198 7199 7200 7201 7202 7203 7204 7205 7206 7207 7208 7209 7210 7211 7212 7213 7214 7215 7216 7217 7218 7219 7220 7221 7222 7223 7224 7225 7226 7227 7228 7229 7230 7231 7232 7233 7234 7235 7236 7237 7238 7239 7240 7241 7242 7243 7244 7245 7246 7247 7248 7249 7250 7251 7252 7253 7254 7255 7256 7257 7258 7259 7260 7261 7262 7263 7264 7265 7266 7267 7268 7269 7270 7271 7272 7273 7274 7275 7276 7277 7278 7279 7280 7281 7282 7283 7284 7285 7286 7287 7288 7289 7290 7291 7292 7293 7294 7295 7296 7297 7298 7299 7300 7301 7302 7303 7304 7305 7306 7307 7308 7309 7310 7311 7312 7313 7314 7315 7316 7317 7318 7319 7320 7321 7322 7323 7324 7325 7326 7327 7328 7329 7330 7331 7332 7333 7334 7335 7336 7337 7338 7339 7340 7341 7342 7343 7344 7345 7346 7347 7348 7349 7350 7351 7352 7353 7354 7355 7356 7357 7358 7359 7360 7361 7362 7363 7364 7365 7366 7367 7368 7369 7370 7371 7372 7373 7374 7375 7376 7377 7378 7379 7380 7381 7382 7383 7384 7385 7386 7387 7388 7389 7390 7391 7392 7393 7394 7395 7396 7397 7398 7399 7400 7401 7402 7403 7404 7405 7406 7407 7408 7409 7410 7411 7412 7413 7414 7415 7416 7417 7418 7419 7420 7421 7422 7423 7424 7425 7426 7427 7428 7429 7430 7431 7432 7433 7434 7435 7436 7437 7438 7439 7440 7441 7442 7443 7444 7445 7446 7447 7448 7449 7450 7451 7452 7453 7454 7455 7456 7457 7458 7459 7460 7461 7462 7463 7464 7465 7466 7467 7468 7469 7470 7471 7472 7473 7474 7475 7476 7477 7478 7479 7480 7481 7482 7483 7484 7485 7486 7487 7488 7489 7490 7491 7492 7493 7494 7495 7496 7497 7498 7499 7500 7501 7502 7503 7504 7505 7506 7507 7508 7509 7510 7511 7512 7513 7514 7515 7516 7517 7518 7519 7520 7521 7522 7523 7524 7525 7526 7527 7528 7529 7530 7531 7532 7533 7534 7535 7536 7537 7538 7539 7540 7541 7542 7543 7544 7545 7546 7547 7548 7549 7550 7551 7552 7553 7554 7555 7556 7557 7558 7559 7560 7561 7562 7563 7564 7565 7566 7567 7568 7569 7570 7571 7572 7573 7574 7575 7576 7577 7578 7579 7580 7581 7582 7583 7584 7585 7586 7587 7588 7589 7590 7591 7592 7593 7594 7595 7596 7597 7598 7599 7600 7601 7602 7603 7604 7605 7606 7607 7608 7609 7610 7611 7612 7613 7614 7615 7616 7617 7618 7619 7620 7621 7622 7623 7624 7625 7626 7627 7628 7629 7630 7631 7632 7633 7634 7635 7636 7637 7638 7639 7640 7641 7642 7643 7644 7645 7646 7647 7648 7649 7650 7651 7652 7653 7654 7655 7656 7657 7658 7659 7660 7661 7662 7663 7664 7665 7666 7667 7668 7669 7670 7671 7672 7673 7674 7675 7676 7677 7678 7679 7680 7681 7682 7683 7684 7685 7686 7687 7688 7689 7690 7691 7692 7693 7694 7695 7696 7697 7698 7699 7700 7701 7702 7703 7704 7705 7706 7707 7708 7709 7710 7711 7712 7713 7714 7715 7716 7717 7718 7719 7720 7721 7722 7723 7724 7725 7726 7727 7728 7729 7730 7731 7732 7733 7734 7735 7736 7737 7738 7739 7740 7741 7742 7743 7744 7745 7746 7747 7748 7749 7750 7751 7752 7753 7754 7755 7756 7757 7758 7759 7760 7761 7762 7763 7764 7765 7766 7767 7768 7769 7770 7771 7772 7773 7774 7775 7776 7777 7778 7779 7780 7781 7782 7783 7784 7785 7786 7787 7788 7789 7790 7791 7792 7793 7794 7795 7796 7797 7798 7799 7800 7801 7802 7803 7804 7805 7806 7807 7808 7809 7810 7811 7812 7813 7814 7815 7816 7817 7818 7819 7820 7821 7822 7823 7824 7825 7826 7827 7828 7829 7830 7831 7832 7833 7834 7835 7836 7837 7838 7839 7840 7841 7842 7843 7844 7845 7846 7847 7848 7849 7850 7851 7852 7853 7854 7855 7856 7857 7858 7859 7860 7861 7862 7863 7864 7865 7866 7867 7868 7869 7870 7871 7872 7873 7874 7875 7876 7877 7878 7879 7880 7881 7882 7883 7884 7885 7886 7887 7888 7889 7890 7891 7892 7893 7894 7895 7896 7897 7898 7899 7900 7901 7902 7903 7904 7905 7906 7907 7908 7909 7910 7911 7912 7913 7914 7915 7916 7917 7918 7919 7920 7921 7922 7923 7924 7925 7926 7927 7928 7929 7930 7931 7932 7933 7934 7935 7936 7937 7938 7939 7940 7941 7942 7943 7944 7945 7946 7947 7948 7949 7950 7951 7952 7953 7954 7955 7956 7957 7958 7959 7960 7961 7962 7963 7964 7965 7966 7967 7968 7969 7970 7971 7972 7973 7974 7975 7976 7977 7978 7979 7980 7981 7982 7983 7984 7985 7986 7987 7988 7989 7990 7991 7992 7993 7994 7995 7996 7997 7998 7999 8000 8001 8002 8003 8004 8005 8006 8007 8008 8009 8010 8011 8012 8013 8014 8015 8016 8017 8018 8019 8020 8021 8022 8023 8024 8025 8026 8027 8028 8029 8030 8031 8032 8033 8034 8035 8036 8037 8038 8039 8040 8041 8042 8043 8044 8045 8046 8047 8048 8049 8050 8051 8052 8053 8054 8055 8056 8057 8058 8059 8060 8061 8062 8063 8064 8065 8066 8067 8068 8069 8070 8071 8072 8073 8074 8075 8076 8077 8078 8079 8080 8081 8082 8083 8084 8085 8086 8087 8088 8089 8090 8091 8092 8093 8094 8095 8096 8097 8098 8099 8100 8101 8102 8103 8104 8105 8106 8107 8108 8109 8110 8111 8112 8113 8114 8115 8116 8117 8118 8119 8120 8121 8122 8123 8124 8125 8126 8127 8128 8129 8130 8131 8132 8133 8134 8135 8136 8137 8138 8139 8140 8141 8142 8143 8144 8145 8146 8147 8148 8149 8150 8151 8152 8153 8154 8155 8156 8157 8158 8159 8160 8161 8162 8163 8164 8165 8166 8167 8168 8169 8170 8171 8172 8173 8174 8175 8176 8177 8178 8179 8180 8181 8182 8183 8184 8185 8186 8187 8188 8189 8190 8191 8192 8193 8194 8195 8196 8197 8198 8199 8200 8201 8202 8203 8204 8205 8206 8207 8208 8209 8210 8211 8212 8213 8214 8215 8216 8217 8218 8219 8220 8221 8222 8223 8224 8225 8226 8227 8228 8229 8230 8231 8232 8233 8234 8235 8236 8237 8238 8239 8240 8241 8242 8243 8244 8245 8246 8247 8248 8249 8250 8251 8252 8253 8254 8255 8256 8257 8258 8259 8260 8261 8262 8263 8264 8265 8266 8267 8268 8269 8270 8271 8272 8273 8274 8275 8276 8277 8278 8279 8280 8281 8282 8283 8284 8285 8286 8287 8288 8289 8290 8291 8292 8293 8294 8295 8296 8297 8298 8299 8300 8301 8302 8303 8304 8305 8306 8307 8308 8309 8310 8311 8312 8313 8314 8315 8316 8317 8318 8319 8320 8321 8322 8323 8324 8325 8326 8327 8328 8329 8330 8331 8332 8333 8334 8335 8336 8337 8338 8339 8340 8341 8342 8343 8344 8345 8346 8347 8348 8349 8350 8351 8352 8353 8354 8355 8356 8357 8358 8359 8360 8361 8362 8363 8364 8365 8366 8367 8368 8369 8370 8371 8372 8373 8374 8375 8376 8377 8378 8379 8380 8381 8382 8383 8384 8385 8386 8387 8388 8389 8390 8391 8392 8393 8394 8395 8396 8397 8398 8399 8400 8401 8402 8403 8404 8405 8406 8407 8408 8409 8410 8411 8412 8413 8414 8415 8416 8417 8418 8419 8420 8421 8422 8423 8424 8425 8426 8427 8428 8429 8430 8431 8432 8433 8434 8435 8436 8437 8438 8439 8440 8441 8442 8443 8444 8445 8446 8447 8448 8449 8450 8451 8452 8453 8454 8455 8456 8457 8458 8459 8460 8461 8462 8463 8464 8465 8466 8467 8468 8469 8470 8471 8472 8473 8474 8475 8476 8477 8478 8479 8480 8481 8482 8483 8484 8485 8486 8487 8488 8489 8490 8491 8492 8493 8494 8495 8496 8497 8498 8499 8500 8501 8502 8503 8504 8505 8506 8507 8508 8509 8510 8511 8512 8513 8514 8515 8516 8517 8518 8519 8520 8521 8522 8523 8524 8525 8526 8527 8528 8529 8530 8531 8532 8533 8534 8535 8536 8537 8538 8539 8540 8541 8542 8543 8544 8545 8546 8547 8548 8549 8550 8551 8552 8553 8554 8555 8556 8557 8558 8559 8560 8561 8562 8563 8564 8565 8566 8567 8568 8569 8570 8571 8572 8573 8574 8575 8576 8577 8578 8579 8580 8581 8582 8583 8584 8585 8586 8587 8588 8589 8590 8591 8592 8593 8594 8595 8596 8597 8598 8599 8600 8601 8602 8603 8604 8605 8606 8607 8608 8609 8610 8611 8612 8613 8614 8615 8616 8617 8618 8619 8620 8621 8622 8623 8624 8625 8626 8627 8628 8629 8630 8631 8632 8633 8634 8635 8636 8637 8638 8639 8640 8641 8642 8643 8644 8645 8646 8647 8648 8649 8650 8651 8652 8653 8654 8655 8656 8657 8658 8659 8660 8661 8662 8663 8664 8665 8666 8667 8668 8669 8670 8671 8672 8673 8674 8675 8676 8677 8678 8679 8680 8681 8682 8683 8684 8685 8686 8687 8688 8689 8690 8691 8692 8693 8694 8695 8696 8697 8698 8699 8700 8701 8702 8703 8704 8705 8706 8707 8708 8709 8710 8711 8712 8713 8714 8715 8716 8717 8718 8719 8720 8721 8722 8723 8724 8725 8726 8727 8728 8729 8730 8731 8732 8733 8734 8735 8736 8737 8738 8739 8740 8741 8742 8743 8744 8745 8746 8747 8748 8749 8750 8751 8752 8753 8754 8755 8756 8757 8758 8759 8760 8761 8762 8763 8764 8765 8766 8767 8768 8769 8770 8771 8772 8773 8774 8775 8776 8777 8778 8779 8780 8781 8782 8783 8784 8785 8786 8787 8788 8789 8790 8791 8792 8793 8794 8795 8796 8797 8798 8799 8800 8801 8802 8803 8804 8805 8806 8807 8808 8809 8810 8811 8812 8813 8814 8815 8816 8817 8818 8819 8820 8821 8822 8823 8824 8825 8826 8827 8828 8829 8830 8831 8832 8833 8834 8835 8836 8837 8838 8839 8840 8841 8842 8843 8844 8845 8846 8847 8848 8849 8850 8851 8852 8853 8854 8855 8856 8857 8858 8859 8860 8861 8862 8863 8864 8865 8866 8867 8868 8869 8870 8871 8872 8873 8874 8875 8876 8877 8878 8879 8880 8881 8882 8883 8884 8885 8886 8887 8888 8889 8890 8891 8892 8893 8894 8895 8896 8897 8898 8899 8900 8901 8902 8903 8904 8905 8906 8907 8908 8909 8910 8911 8912 8913 8914 8915 8916 8917 8918 8919 8920 8921 8922 8923 8924 8925 8926 8927 8928 8929 8930 8931 8932 8933 8934 8935 8936 8937 8938 8939 8940 8941 8942 8943 8944 8945 8946 8947 8948 8949 8950 8951 8952 8953 8954 8955 8956 8957 8958 8959 8960 8961 8962 8963 8964 8965 8966 8967 8968 8969 8970 8971 8972 8973 8974 8975 8976 8977 8978 8979 8980 8981 8982 8983 8984 8985 8986 8987 8988 8989 8990 8991 8992 8993 8994 8995 8996 8997 8998 8999 9000 9001 9002 9003 9004 9005 9006 9007 9008 9009 9010 9011 9012 9013 9014 9015 9016 9017 9018 9019 9020 9021 9022 9023 9024 9025 9026 9027 9028 9029 9030 9031 9032 9033 9034 9035 9036 9037 9038 9039 9040 9041 9042 9043 9044 9045 9046 9047 9048 9049 9050 9051 9052 9053 9054 9055 9056 9057 9058 9059 9060 9061 9062 9063 9064 9065 9066 9067 9068 9069 9070 9071 9072 9073 9074 9075 9076 9077 9078 9079 9080 9081 9082 9083 9084 9085 9086 9087 9088 9089 9090 9091 9092 9093 9094 9095 9096 9097 9098 9099 9100 9101 9102 9103 9104 9105 9106 9107 9108 9109 9110 9111 9112 9113 9114 9115 9116 9117 9118 9119 9120 9121 9122 9123 9124 9125 9126 9127 9128 9129 9130 9131 9132 9133 9134 9135 9136 9137 9138 9139 9140 9141 9142 9143 9144 9145 9146 9147 9148 9149 9150 9151 9152 9153 9154 9155 9156 9157 9158 9159 9160 9161 9162 9163 9164 9165 9166 9167 9168 9169 9170 9171 9172 9173 9174 9175 9176 9177 9178 9179 9180 9181 9182 9183 9184 9185 9186 9187 9188 9189 9190 9191 9192 9193 9194 9195 9196 9197 9198 9199 9200 9201 9202 9203 9204 9205 9206 9207 9208 9209 9210 9211 9212 9213 9214 9215 9216 9217 9218 9219 9220 9221 9222 9223 9224 9225 9226 9227 9228 9229 9230 9231 9232 9233 9234 9235 9236 9237 9238 9239 9240 9241 9242 9243 9244 9245 9246 9247 9248 9249 9250 9251 9252 9253 9254 9255 9256 9257 9258 9259 9260 9261 9262 9263 9264 9265 9266 9267 9268 9269 9270 9271 9272 9273 9274 9275 9276 9277 9278 9279 9280 9281 9282 9283 9284 9285 9286 9287 9288 9289 9290 9291 9292 9293 9294 9295 9296 9297 9298 9299 9300 9301 9302 9303 9304 9305 9306 9307 9308 9309 9310 9311 9312 9313 9314 9315 9316 9317 9318 9319 9320 9321 9322 9323 9324 9325 9326 9327 9328 9329 9330 9331 9332 9333 9334 9335 9336 9337 9338 9339 9340 9341 9342 9343 9344 9345 9346 9347 9348 9349 9350 9351 9352 9353 9354 9355 9356 9357 9358 9359 9360 9361 9362 9363 9364 9365 9366 9367 9368 9369 9370 9371 9372 9373 9374 9375 9376 9377 9378 9379 9380 9381 9382 9383 9384 9385 9386 9387 9388 9389 9390 9391 9392 9393 9394 9395 9396 9397 9398 9399 9400 9401 9402 9403 9404 9405 9406 9407 9408 9409 9410 9411 9412 9413 9414 9415 9416 9417 9418 9419 9420 9421 9422 9423 9424 9425 9426 9427 9428 9429 9430 9431 9432 9433 9434 9435 9436 9437 9438 9439 9440 9441 9442 9443 9444 9445 9446 9447 9448 9449 9450 9451 9452 9453 9454 9455 9456 9457 9458 9459 9460 9461 9462 9463 9464 9465 9466 9467 9468 9469 9470 9471 9472 9473 9474 9475 9476 9477 9478 9479 9480 9481 9482 9483 9484 9485 9486 9487 9488 9489 9490 9491 9492 9493 9494 9495 9496 9497 9498 9499 9500 9501 9502 9503 9504 9505 9506 9507 9508 9509 9510 9511 9512 9513 9514 9515 9516 9517 9518 9519 9520 9521 9522 9523 9524 9525 9526 9527 9528 9529 9530 9531 9532 9533 9534 9535 9536 9537 9538 9539 9540 9541 9542 9543 9544 9545 9546 9547 9548 9549 9550 9551 9552 9553 9554 9555 9556 9557 9558 9559 9560 9561 9562 9563 9564 9565 9566 9567 9568 9569 9570 9571 9572 9573 9574 9575 9576 9577 9578 9579 9580 9581 9582 9583 9584 9585 9586 9587 9588 9589 9590 9591 9592 9593 9594 9595 9596 9597 9598 9599 9600 9601 9602 9603 9604 9605 9606 9607 9608 9609 9610 9611 9612 9613 9614 9615 9616 9617 9618 9619 9620 9621 9622 9623 9624 9625 9626 9627 9628 9629 9630 9631 9632 9633 9634 9635 9636 9637 9638 9639 9640 9641 9642 9643 9644 9645 9646 9647 9648 9649 9650 9651 9652 9653 9654 9655 9656 9657 9658 9659 9660 9661 9662 9663 9664 9665 9666 9667 9668 9669 9670 9671 9672 9673 9674 9675 9676 9677 9678 9679 9680 9681 9682 9683 9684 9685 9686 9687 9688 9689 9690 9691 9692 9693 9694 9695 9696 9697 9698 9699 9700 9701 9702 9703 9704 9705 9706 9707 9708 9709 9710 9711 9712 9713 9714 9715 9716 9717 9718 9719 9720 9721 9722 9723 9724 9725 9726 9727 9728 9729 9730 9731 9732 9733 9734 9735 9736 9737 9738 9739 9740 9741 9742 9743 9744 9745 9746 9747 9748 9749 9750 9751 9752 9753 9754 9755 9756 9757 9758 9759 9760 9761 9762 9763 9764 9765 9766 9767 9768 9769 9770 9771 9772 9773 9774 9775 9776 9777 9778 9779 9780 9781 9782 9783 9784 9785 9786 9787 9788 9789 9790 9791 9792 9793 9794 9795 9796 9797 9798 9799 9800 9801 9802 9803 9804 9805 9806 9807 9808 9809 9810 9811 9812 9813 9814 9815 9816 9817 9818 9819 9820 9821 9822 9823 9824 9825 9826 9827 9828 9829 9830 9831 9832 9833 9834 9835 9836 9837 9838 9839 9840 9841 9842 9843 9844 9845 9846 9847 9848 9849 9850 9851 9852 9853 9854 9855 9856 9857 9858 9859 9860 9861 9862 9863 9864 9865 9866 9867 9868 9869 9870 9871 9872 9873 9874 9875 9876 9877 9878 9879 9880 9881 9882 9883 9884 9885 9886 9887 9888 9889 9890 9891 9892 9893 9894 9895 9896 9897 9898 9899 9900 9901 9902 9903 9904 9905 9906 9907 9908 9909 9910 9911 9912 9913 9914 9915 9916 9917 9918 9919 9920 9921 9922 9923 9924 9925 9926 9927 9928 9929 9930 9931 9932 9933 9934 9935 9936 9937 9938 9939 9940 9941 9942 9943 9944 9945 9946 9947 9948 9949 9950 9951 9952 9953 9954 9955 9956 9957 9958 9959 9960 9961 9962 9963 9964 9965 9966 9967 9968 9969 9970 9971 9972 9973 9974 9975 9976 9977 9978 9979 9980 9981 9982 9983 9984 9985 9986 9987 9988 9989 9990 9991 9992 9993 9994 9995 9996 9997 9998 9999 10000 10001 10002 10003 10004 10005 10006 10007 10008 10009 10010 10011 10012 10013 10014 10015 10016 10017 10018 10019 10020 10021 10022 10023 10024 10025 10026 10027 10028 10029 10030 10031 10032 10033 10034 10035 10036 10037 10038 10039 10040 10041 10042 10043 10044 10045 10046 10047 10048 10049 10050 10051 10052 10053 10054 10055 10056 10057 10058 10059 10060 10061 10062 10063 10064 10065 10066 10067 10068 10069 10070 10071 10072 10073 10074 10075 10076 10077 10078 10079 10080 10081 10082 10083 10084 10085 10086 10087 10088 10089 10090 10091 10092 10093 10094 10095 10096 10097 10098 10099 10100 10101 10102 10103 10104 10105 10106 10107 10108 10109 10110 10111 10112 10113 10114 10115 10116 10117 10118 10119 10120 10121 10122 10123 10124 10125 10126 10127 10128 10129 10130 10131 10132 10133 10134 10135 10136 10137 10138 10139 10140 10141 10142 10143 10144 10145 10146 10147 10148 10149 10150 10151 10152 10153 10154 10155 10156 10157 10158 10159 10160 10161 10162 10163 10164 10165 10166 10167 10168 10169 10170 10171 10172 10173 10174 10175 10176 10177 10178 10179 10180 10181 10182 10183 10184 10185 10186 10187 10188 10189 10190 10191 10192 10193 10194 10195 10196 10197 10198 10199 10200 10201 10202 10203 10204 10205 10206 10207 10208 10209 10210 10211 10212 10213 10214 10215 10216 10217 10218 10219 10220 10221 10222 10223 10224 10225 10226 10227 10228 10229 10230 10231 10232 10233 10234 10235 10236 10237 10238 10239 10240 10241 10242 10243 10244 10245 10246 10247 10248 10249 10250 10251 10252 10253 10254 10255 10256 10257 10258 10259 10260 10261 10262 10263 10264 10265 10266 10267 10268 10269 10270 10271 10272 10273 10274 10275 10276 10277 10278 10279 10280 10281 10282 10283 10284 10285 10286 10287 10288 10289 10290 10291 10292 10293 10294 10295 10296 10297 10298 10299 10300 10301 10302 10303 10304 10305 10306 10307 10308 10309 10310 10311 10312 10313 10314 10315 10316 10317 10318 10319 10320 10321 10322 10323 10324 10325 10326 10327 10328 10329 10330 10331 10332 10333 10334 10335 10336 10337 10338 10339 10340 10341 10342 10343 10344 10345 10346 10347 10348 10349 10350 10351 10352 10353 10354 10355 10356 10357 10358 10359 10360 10361 10362 10363 10364 10365 10366 10367 10368 10369 10370 10371 10372 10373 10374 10375 10376 10377 10378 10379 10380 10381 10382 10383 10384 10385 10386 10387 10388 10389 10390 10391 10392 10393 10394 10395 10396 10397 10398 10399 10400 10401 10402 10403 10404 10405 10406 10407 10408 10409 10410 10411 10412 10413 10414 10415 10416 10417 10418 10419 10420 10421 10422 10423 10424 10425 10426 10427 10428 10429 10430 10431 10432 10433 10434 10435 10436 10437 10438 10439 10440 10441 10442 10443 10444 10445 10446 10447 10448 10449 10450 10451 10452 10453 10454 10455 10456 10457 10458 10459 10460 10461 10462 10463 10464 10465 10466 10467 10468 10469 10470 10471 10472 10473 10474 10475 10476 10477 10478 10479 10480 10481 10482 10483 10484 10485 10486 10487 10488 10489 10490 10491 10492 10493 10494 10495 10496 10497 10498 10499 10500 10501 10502 10503 10504 10505 10506 10507 10508 10509 10510 10511 10512 10513 10514 10515 10516 10517 10518 10519 10520 10521 10522 10523 10524 10525 10526 10527 10528 10529 10530 10531 10532 10533 10534 10535 10536 10537 10538 10539 10540 10541 10542 10543 10544 10545 10546 10547 10548 10549 10550 10551 10552 10553 10554 10555 10556 10557 10558 10559 10560 10561 10562 10563 10564 10565 10566 10567 10568 10569 10570 10571 10572 10573 10574 10575 10576 10577 10578 10579 10580 10581 10582 10583 10584 10585 10586 10587 10588 10589 10590 10591 10592 10593 10594 10595 10596 10597 10598 10599 10600 10601 10602 10603 10604 10605 10606 10607 10608 10609 10610 10611 10612 10613 10614 10615 10616 10617 10618 10619 10620 10621 10622 10623 10624 10625 10626 10627 10628 10629 10630 10631 10632 10633 10634 10635 10636 10637 10638 10639 10640 10641 10642 10643 10644 10645 10646 10647 10648 10649 10650 10651 10652 10653 10654 10655 10656 10657 10658 10659 10660 10661 10662 10663 10664 10665 10666 10667 10668 10669 10670 10671 10672 10673 10674 10675 10676 10677 10678 10679 10680 10681 10682 10683 10684 10685 10686 10687 10688 10689 10690 10691 10692 10693 10694 10695 10696 10697 10698 10699 10700 10701 10702 10703 10704 10705 10706 10707 10708 10709 10710 10711 10712 10713 10714 10715 10716 10717 10718 10719 10720 10721 10722 10723 10724 10725 10726 10727 10728 10729 10730 10731 10732 10733 10734 10735 10736 10737 10738 10739 10740 10741 10742 10743 10744 10745 10746 10747 10748 10749 10750 10751 10752 10753 10754 10755 10756 10757 10758 10759 10760 10761 10762 10763 10764 10765 10766 10767 10768 10769 10770 10771 10772 10773 10774 10775 10776 10777 10778 10779 10780 10781 10782 10783 10784 10785 10786 10787 10788 10789 10790 10791 10792 10793 10794 10795 10796 10797 10798 10799 10800 10801 10802 10803 10804 10805 10806 10807 10808 10809 10810 10811 10812 10813 10814 10815 10816 10817 10818 10819 10820 10821 10822 10823 10824 10825 10826 10827 10828 10829 10830 10831 10832 10833 10834 10835 10836 10837 10838 10839 10840 10841 10842 10843 10844 10845 10846 10847 10848 10849 10850 10851 10852 10853 10854 10855 10856 10857 10858 10859 10860 10861 10862 10863 10864 10865 10866 10867 10868 10869 10870 10871 10872 10873 10874 10875 10876 10877 10878 10879 10880 10881 10882 10883 10884 10885 10886 10887 10888 10889 10890 10891 10892 10893 10894 10895 10896 10897 10898 10899 10900 10901 10902 10903 10904 10905 10906 10907 10908 10909 10910 10911 10912 10913 10914 10915 10916 10917 10918 10919 10920 10921 10922 10923 10924 10925 10926 10927 10928 10929 10930 10931 10932 10933 10934 10935 10936 10937 10938 10939 10940 10941 10942 10943 10944 10945 10946 10947 10948 10949 10950 10951 10952 10953 10954 10955 10956 10957 10958 10959 10960 10961 10962 10963 10964 10965 10966 10967 10968 10969 10970 10971 10972 10973 10974 10975 10976 10977 10978 10979 10980 10981 10982 10983 10984 10985 10986 10987 10988 10989 10990 10991 10992 10993 10994 10995 10996 10997 10998 10999 11000 11001 11002 11003 11004 11005 11006 11007 11008 11009 11010 11011 11012 11013 11014 11015 11016 11017 11018 11019 11020 11021 11022 11023 11024 11025 11026 11027 11028 11029 11030 11031 11032 11033 11034 11035 11036 11037 11038 11039 11040 11041 11042 11043 11044 11045 11046 11047 11048 11049 11050 11051 11052 11053 11054 11055 11056 11057 11058 11059 11060 11061 11062 11063 11064 11065 11066 11067 11068 11069 11070 11071 11072 11073 11074 11075 11076 11077 11078 11079 11080 11081 11082 11083 11084 11085 11086 11087 11088 11089 11090 11091 11092 11093 11094 11095 11096 11097 11098 11099 11100 11101 11102 11103 11104 11105 11106 11107 11108 11109 11110 11111 11112 11113 11114 11115 11116 11117 11118 11119 11120 11121 11122 11123 11124 11125 11126 11127 11128 11129 11130 11131 11132 11133 11134 11135 11136 11137 11138 11139 11140 11141 11142 11143 11144 11145 11146 11147 11148 11149 11150 11151 11152 11153 11154 11155 11156 11157 11158 11159 11160 11161 11162 11163 11164 11165 11166 11167 11168 11169 11170 11171 11172 11173 11174 11175 11176 11177 11178 11179 11180 11181 11182 11183 11184 11185 11186 11187 11188 11189 11190 11191 11192 11193 11194 11195 11196 11197 11198 11199 11200 11201 11202 11203 11204 11205 11206 11207 11208 11209 11210 11211 11212 11213 11214 11215 11216 11217 11218 11219 11220 11221 11222 11223 11224 11225 11226 11227 11228 11229 11230 11231 11232 11233 11234 11235 11236 11237 11238 11239 11240 11241 11242 11243 11244 11245 11246 11247 11248 11249 11250 11251 11252 11253 11254 11255 11256 11257 11258 11259 11260 11261 11262 11263 11264 11265 11266 11267 11268 11269 11270 11271 11272 11273 11274 11275 11276 11277 11278 11279 11280 11281 11282 11283 11284 11285 11286 11287 11288 11289 11290 11291 11292 11293 11294 11295 11296 11297 11298 11299 11300 11301 11302 11303 11304 11305 11306 11307 11308 11309 11310 11311 11312 11313 11314 11315 11316 11317 11318 11319 11320 11321 11322 11323 11324 11325 11326 11327 11328 11329 11330 11331 11332 11333 11334 11335 11336 11337 11338 11339 11340 11341 11342 11343 11344 11345 11346 11347 11348 11349 11350 11351 11352 11353 11354 11355 11356 11357 11358 11359 11360 11361 11362 11363 11364 11365 11366 11367 11368 11369 11370 11371 11372 11373 11374 11375 11376 11377 11378 11379 11380 11381 11382 11383 11384 11385 11386 11387 11388 11389 11390 11391 11392 11393 11394 11395 11396 11397 11398 11399 11400 11401 11402 11403 11404 11405 11406 11407 11408 11409 11410 11411 11412 11413 11414 11415 11416 11417 11418 11419 11420 11421 11422 11423 11424 11425 11426 11427 11428 11429 11430 11431 11432 11433 11434 11435 11436 11437 11438 11439 11440 11441 11442 11443 11444 11445 11446 11447 11448 11449 11450 11451 11452 11453 11454 11455 11456 11457 11458 11459 11460 11461 11462 11463 11464 11465 11466 11467 11468 11469 11470 11471 11472 11473 11474 11475 11476 11477 11478 11479 11480 11481 11482 11483 11484 11485 11486 11487 11488 11489 11490 11491 11492 11493 11494 11495 11496 11497 11498 11499 11500 11501 11502 11503 11504 11505 11506 11507 11508 11509 11510 11511 11512 11513 11514 11515 11516 11517 11518 11519 11520 11521 11522 11523 11524 11525 11526 11527 11528 11529 11530 11531 11532 11533 11534 11535 11536 11537 11538 11539 11540 11541 11542 11543 11544 11545 11546 11547 11548 11549 11550 11551 11552 11553 11554 11555 11556 11557 11558 11559 11560 11561 11562 11563 11564 11565 11566 11567 11568 11569 11570 11571 11572 11573 11574 11575 11576 11577 11578 11579 11580 11581 11582 11583 11584 11585 11586 11587 11588 11589 11590 11591 11592 11593 11594 11595 11596 11597 11598 11599 11600 11601 11602 11603 11604 11605 11606 11607 11608 11609 11610 11611 11612 11613 11614 11615 11616 11617 11618 11619 11620 11621 11622 11623 11624 11625 11626 11627 11628 11629 11630 11631 11632 11633 11634 11635 11636 11637 11638 11639 11640 11641 11642 11643 11644 11645 11646 11647 11648 11649 11650 11651 11652 11653 11654 11655 11656 11657 11658 11659 11660 11661 11662 11663 11664 11665 11666 11667 11668 11669 11670 11671 11672 11673 11674 11675 11676 11677 11678 11679 11680 11681 11682 11683 11684 11685 11686 11687 11688 11689 11690 11691 11692 11693 11694 11695 11696 11697 11698 11699 11700 11701 11702 11703 11704 11705 11706 11707 11708 11709 11710 11711 11712 11713 11714 11715 11716 11717 11718 11719 11720 11721 11722 11723 11724 11725 11726 11727 11728 11729 11730 11731 11732 11733 11734 11735 11736 11737 11738 11739 11740 11741 11742 11743 11744 11745 11746 11747 11748 11749 11750 11751 11752 11753 11754 11755 11756 11757 11758 11759 11760 11761 11762 11763 11764 11765 11766 11767 11768 11769 11770 11771 11772 11773 11774 11775 11776 11777 11778 11779 11780 11781 11782 11783 11784 11785 11786 11787 11788 11789 11790 11791 11792 11793 11794 11795 11796 11797 11798 11799 11800 11801 11802 11803 11804 11805 11806 11807 11808 11809 11810 11811 11812 11813 11814 11815 11816 11817 11818 11819 11820 11821 11822 11823 11824 11825 11826 11827 11828 11829 11830 11831 11832 11833 11834 11835 11836 11837 11838 11839 11840 11841 11842 11843 11844 11845 11846 11847 11848 11849 11850 11851 11852 11853 11854 11855 11856 11857 11858 11859 11860 11861 11862 11863 11864 11865 11866 11867 11868 11869 11870 11871 11872 11873 11874 11875 11876 11877 11878 11879 11880 11881 11882 11883 11884 11885 11886 11887 11888 11889 11890 11891 11892 11893 11894 11895 11896 11897 11898 11899 11900 11901 11902 11903 11904 11905 11906 11907 11908 11909 11910 11911 11912 11913 11914 11915 11916 11917 11918 11919 11920 11921 11922 11923 11924 11925 11926 11927 11928 11929 11930 11931 11932 11933 11934 11935 11936 11937 11938 11939 11940 11941 11942 11943 11944 11945 11946 11947 11948 11949 11950 11951 11952 11953 11954 11955 11956 11957 11958 11959 11960 11961 11962 11963 11964 11965 11966 11967 11968 11969 11970 11971 11972 11973 11974 11975 11976 11977 11978 11979 11980 11981 11982 11983 11984 11985 11986 11987 11988 11989 11990 11991 11992 11993 11994 11995 11996 11997 11998 11999 12000 12001 12002 12003 12004 12005 12006 12007 12008 12009 12010 12011 12012 12013 12014 12015 12016 12017 12018 12019 12020 12021 12022 12023 12024 12025 12026 12027 12028 12029 12030 12031 12032 12033 12034 12035 12036 12037 12038 12039 12040 12041 12042 12043 12044 12045 12046 12047 12048 12049 12050 12051 12052 12053 12054 12055 12056 12057 12058 12059 12060 12061 12062 12063 12064 12065 12066 12067 12068 12069 12070 12071 12072 12073 12074 12075 12076 12077 12078 12079 12080 12081 12082 12083 12084 12085 12086 12087 12088 12089 12090 12091 12092 12093 12094 12095 12096 12097 12098 12099 12100 12101 12102 12103 12104 12105 12106 12107 12108 12109 12110 12111 12112 12113 12114 12115 12116 12117 12118 12119 12120 12121 12122 12123 12124 12125 12126 12127 12128 12129 12130 12131 12132 12133 12134 12135 12136 12137 12138 12139 12140 12141 12142 12143 12144 12145 12146 12147 12148 12149 12150 12151 12152 12153 12154 12155 12156 12157 12158 12159 12160 12161 12162 12163 12164 12165 12166 12167 12168 12169 12170 12171 12172 12173 12174 12175 12176 12177 12178 12179 12180 12181 12182 12183 12184 12185 12186 12187 12188 12189 12190 12191 12192 12193 12194 12195 12196 12197 12198 12199 12200 12201 12202 12203 12204 12205 12206 12207 12208 12209 12210 12211 12212 12213 12214 12215 12216 12217 12218 12219 12220 12221 12222 12223 12224 12225 12226 12227 12228 12229 12230 12231 12232 12233 12234 12235 12236 12237 12238 12239 12240 12241 12242 12243 12244 12245 12246 12247 12248 12249 12250 12251 12252 12253 12254 12255 12256 12257 12258 12259 12260 12261 12262 12263 12264 12265 12266 12267 12268 12269 12270 12271 12272 12273 12274 12275 12276 12277 12278 12279 12280 12281 12282 12283 12284 12285 12286 12287 12288 12289 12290 12291 12292 12293 12294 12295 12296 12297 12298 12299 12300 12301 12302 12303 12304 12305 12306 12307 12308 12309 12310 12311 12312 12313 12314 12315 12316 12317 12318 12319 12320 12321 12322 12323 12324 12325 12326 12327 12328 12329 12330 12331 12332 12333 12334 12335 12336 12337 12338 12339 12340 12341 12342 12343 12344 12345 12346 12347 12348 12349 12350 12351 12352 12353 12354 12355 12356 12357 12358 12359 12360 12361 12362 12363 12364 12365 12366 12367 12368 12369 12370 12371 12372 12373 12374 12375 12376 12377 12378 12379 12380 12381 12382 12383 12384 12385 12386 12387 12388 12389 12390 12391 12392 12393 12394 12395 12396 12397 12398 12399 12400 12401 12402 12403 12404 12405 12406 12407 12408 12409 12410 12411 12412 12413 12414 12415 12416 12417 12418 12419 12420 12421 12422 12423 12424 12425 12426 12427 12428 12429 12430 12431 12432 12433 12434 12435 12436 12437 12438 12439 12440 12441 12442 12443 12444 12445 12446 12447 12448 12449 12450 12451 12452 12453 12454 12455 12456 12457 12458 12459 12460 12461 12462 12463 12464 12465 12466 12467 12468 12469 12470 12471 12472 12473 12474 12475 12476 12477 12478 12479 12480 12481 12482 12483 12484 12485 12486 12487 12488 12489 12490 12491 12492 12493 12494 12495 12496 12497 12498 12499 12500 12501 12502 12503 12504 12505 12506 12507 12508 12509 12510 12511 12512 12513 12514 12515 12516 12517 12518 12519 12520 12521 12522 12523 12524 12525 12526 12527 12528 12529 12530 12531 12532 12533 12534 12535 12536 12537 12538 12539 12540 12541 12542 12543 12544 12545 12546 12547 12548 12549 12550 12551 12552 12553 12554 12555 12556 12557 12558 12559 12560 12561 12562 12563 12564 12565 12566 12567 12568 12569 12570 12571 12572 12573 12574 12575 12576 12577 12578 12579 12580 12581 12582 12583 12584 12585 12586 12587 12588 12589 12590 12591 12592 12593 12594 12595 12596 12597 12598 12599 12600 12601 12602 12603 12604 12605 12606 12607 12608 12609 12610 12611 12612 12613 12614 12615 12616 12617 12618 12619 12620 12621 12622 12623 12624 12625 12626 12627 12628 12629 12630 12631 12632 12633 12634 12635 12636 12637 12638 12639 12640 12641 12642 12643 12644 12645 12646 12647 12648 12649 12650 12651 12652 12653 12654 12655 12656 12657 12658 12659 12660 12661 12662 12663 12664 12665 12666 12667 12668 12669 12670 12671 12672 12673 12674 12675 12676 12677 12678 12679 12680 12681 12682 12683 12684 12685 12686 12687 12688 12689 12690 12691 12692 12693 12694 12695 12696 12697 12698 12699 12700 12701 12702 12703 12704 12705 12706 12707 12708 12709 12710 12711 12712 12713 12714 12715 12716 12717 12718 12719 12720 12721 12722 12723 12724 12725 12726 12727 12728 12729 12730 12731 12732 12733 12734 12735 12736 12737 12738 12739 12740 12741 12742 12743 12744 12745 12746 12747 12748 12749 12750 12751 12752 12753 12754 12755 12756 12757 12758 12759 12760 12761 12762 12763 12764 12765 12766 12767 12768 12769 12770 12771 12772 12773 12774 12775 12776 12777 12778 12779 12780 12781 12782 12783 12784 12785 12786 12787 12788 12789 12790 12791 12792 12793 12794 12795 12796 12797 12798 12799 12800 12801 12802 12803 12804 12805 12806 12807 12808 12809 12810 12811 12812 12813 12814 12815 12816 12817 12818 12819 12820 12821 12822 12823 12824 12825 12826 12827 12828 12829 12830 12831 12832 12833 12834 12835 12836 12837 12838 12839 12840 12841 12842 12843 12844 12845 12846 12847 12848 12849 12850 12851 12852 12853 12854 12855 12856 12857 12858 12859 12860 12861 12862 12863 12864 12865 12866 12867 12868 12869 12870 12871 12872 12873 12874 12875 12876 12877 12878 12879 12880 12881 12882 12883 12884 12885 12886 12887 12888 12889 12890 12891 12892 12893 12894 12895 12896 12897 12898 12899 12900 12901 12902 12903 12904 12905 12906 12907 12908 12909 12910 12911 12912 12913 12914 12915 12916 12917 12918 12919 12920 12921 12922 12923 12924 12925 12926 12927 12928 12929 12930 12931 12932 12933 12934 12935 12936 12937 12938 12939 12940 12941 12942 12943 12944 12945 12946 12947 12948 12949 12950 12951 12952 12953 12954 12955 12956 12957 12958 12959 12960 12961 12962 12963 12964 12965 12966 12967 12968 12969 12970 12971 12972 12973 12974 12975 12976 12977 12978 12979 12980 12981 12982 12983 12984 12985 12986 12987 12988 12989 12990 12991 12992 12993 12994 12995 12996 12997 12998 12999 13000 13001 13002 13003 13004 13005 13006 13007 13008 13009 13010 13011 13012 13013 13014 13015 13016 13017 13018 13019 13020 13021 13022 13023 13024 13025 13026 13027 13028 13029 13030 13031 13032 13033 13034 13035 13036 13037 13038 13039 13040 13041 13042 13043 13044 13045 13046 13047 13048 13049 13050 13051 13052 13053 13054 13055 13056 13057 13058 13059 13060 13061 13062 13063 13064 13065 13066 13067 13068 13069 13070 13071 13072 13073 13074 13075 13076 13077 13078 13079 13080 13081 13082 13083 13084 13085 13086 13087 13088 13089 13090 13091 13092 13093 13094 13095 13096 13097 13098 13099 13100 13101 13102 13103 13104 13105 13106 13107 13108 13109 13110 13111 13112 13113 13114 13115 13116 13117 13118 13119 13120 13121 13122 13123 13124 13125 13126 13127 13128 13129 13130 13131 13132 13133 13134 13135 13136 13137 13138 13139 13140 13141 13142 13143 13144 13145 13146 13147 13148 13149 13150 13151 13152 13153 13154 13155 13156 13157 13158 13159 13160 13161 13162 13163 13164 13165 13166 13167 13168 13169 13170 13171 13172 13173 13174 13175 13176 13177 13178 13179 13180 13181 13182 13183 13184 13185 13186 13187 13188 13189 13190 13191 13192 13193 13194 13195 13196 13197 13198 13199 13200 13201 13202 13203 13204 13205 13206 13207 13208 13209 13210 13211 13212 13213 13214 13215 13216 13217 13218 13219 13220 13221 13222 13223 13224 13225 13226 13227 13228 13229 13230 13231 13232 13233 13234 13235 13236 13237 13238 13239 13240 13241 13242 13243 13244 13245 13246 13247 13248 13249 13250 13251 13252 13253 13254 13255 13256 13257 13258 13259 13260 13261 13262 13263 13264 13265 13266 13267 13268 13269 13270 13271 13272 13273 13274 13275 13276 13277 13278 13279 13280 13281 13282 13283 13284 13285 13286 13287 13288 13289 13290 13291 13292 13293 13294 13295 13296 13297 13298 13299 13300 13301 13302 13303 13304 13305 13306 13307 13308 13309 13310 13311 13312 13313 13314 13315 13316 13317 13318 13319 13320 13321 13322 13323 13324 13325 13326 13327 13328 13329 13330 13331 13332 13333 13334 13335 13336 13337 13338 13339 13340 13341 13342 13343 13344 13345 13346 13347 13348 13349 13350 13351 13352 13353 13354 13355 13356 13357 13358 13359 13360 13361 13362 13363 13364 13365 13366 13367 13368 13369 13370 13371 13372 13373 13374 13375 13376 13377 13378 13379 13380 13381 13382 13383 13384 13385 13386 13387 13388 13389 13390 13391 13392 13393 13394 13395 13396 13397 13398 13399 13400 13401 13402 13403 13404 13405 13406 13407 13408 13409 13410 13411 13412 13413 13414 13415 13416 13417 13418 13419 13420 13421 13422 13423 13424 13425 13426 13427 13428 13429 13430 13431 13432 13433 13434 13435 13436 13437 13438 13439 13440 13441 13442 13443 13444 13445 13446 13447 13448 13449 13450 13451 13452 13453 13454 13455 13456 13457 13458 13459 13460 13461 13462 13463 13464 13465 13466 13467 13468 13469 13470 13471 13472 13473 13474 13475 13476 13477 13478 13479 13480 13481 13482 13483 13484 13485 13486 13487 13488 13489 13490 13491 13492 13493 13494 13495 13496 13497 13498 13499 13500 13501 13502 13503 13504 13505 13506 13507 13508 13509 13510 13511 13512 13513 13514 13515 13516 13517 13518 13519 13520 13521 13522 13523 13524 13525 13526 13527 13528 13529 13530 13531 13532 13533 13534 13535 13536 13537 13538 13539 13540 13541 13542 13543 13544 13545 13546 13547 13548 13549 13550 13551 13552 13553 13554 13555 13556 13557 13558 13559 13560 13561 13562 13563 13564 13565 13566 13567 13568 13569 13570 13571 13572 13573 13574 13575 13576 13577 13578 13579 13580 13581 13582 13583 13584 13585 13586 13587 13588 13589 13590 13591 13592 13593 13594 13595 13596 13597 13598 13599 13600 13601 13602 13603 13604 13605 13606 13607 13608 13609 13610 13611 13612 13613 13614 13615 13616 13617 13618 13619 13620 13621 13622 13623 13624 13625 13626 13627 13628 13629 13630 13631 13632 13633 13634 13635 13636 13637 13638 13639 13640 13641 13642 13643 13644 13645 13646 13647 13648 13649 13650 13651 13652 13653 13654 13655 13656 13657 13658 13659 13660 13661 13662 13663 13664 13665 13666 13667 13668 13669 13670 13671 13672 13673 13674 13675 13676 13677 13678 13679 13680 13681 13682 13683 13684 13685 13686 13687 13688 13689 13690 13691 13692 13693 13694 13695 13696 13697 13698 13699 13700 13701 13702 13703 13704 13705 13706 13707 13708 13709 13710 13711 13712 13713 13714 13715 13716 13717 13718 13719 13720 13721 13722 13723 13724 13725 13726 13727 13728 13729 13730 13731 13732 13733 13734 13735 13736 13737 13738 13739 13740 13741 13742 13743 13744 13745 13746 13747 13748 13749 13750 13751 13752 13753 13754 13755 13756 13757 13758 13759 13760 13761 13762 13763 13764 13765 13766 13767 13768 13769 13770 13771 13772 13773 13774 13775 13776 13777 13778 13779 13780 13781 13782 13783 13784 13785 13786 13787 13788 13789 13790 13791 13792 13793 13794 13795 13796 13797 13798 13799 13800 13801 13802 13803 13804 13805 13806 13807 13808 13809 13810 13811 13812 13813 13814 13815 13816 13817 13818 13819 13820 13821 13822 13823 13824 13825 13826 13827 13828 13829 13830 13831 13832 13833 13834 13835 13836 13837 13838 13839 13840 13841 13842 13843 13844 13845 13846 13847 13848 13849 13850 13851 13852 13853 13854 13855 13856 13857 13858 13859 13860 13861 13862 13863 13864 13865 13866 13867 13868 13869 13870 13871 13872 13873 13874 13875 13876 13877 13878 13879 13880 13881 13882 13883 13884 13885 13886 13887 13888 13889 13890 13891 13892 13893 13894 13895 13896 13897 13898 13899 13900 13901 13902 13903 13904 13905 13906 13907 13908 13909 13910 13911 13912 13913 13914 13915 13916 13917 13918 13919 13920 13921 13922 13923 13924 13925 13926 13927 13928 13929 13930 13931 13932 13933 13934 13935 13936 13937 13938 13939 13940 13941 13942 13943 13944 13945 13946 13947 13948 13949 13950 13951 13952 13953 13954 13955 13956 13957 13958 13959 13960 13961 13962 13963 13964 13965 13966 13967 13968 13969 13970 13971 13972 13973 13974 13975 13976 13977 13978 13979 13980 13981 13982 13983 13984 13985 13986 13987 13988 13989 13990 13991 13992 13993 13994 13995 13996 13997 13998 13999 14000 14001 14002 14003 14004 14005 14006 14007 14008 14009 14010 14011 14012 14013 14014 14015 14016 14017 14018 14019 14020 14021 14022 14023 14024 14025 14026 14027 14028 14029 14030 14031 14032 14033 14034 14035 14036 14037 14038 14039 14040 14041 14042 14043 14044 14045 14046 14047 14048 14049 14050 14051 14052 14053 14054 14055 14056 14057 14058 14059 14060 14061 14062 14063 14064 14065 14066 14067 14068 14069 14070 14071 14072 14073 14074 14075 14076 14077 14078 14079 14080 14081 14082 14083 14084 14085 14086 14087 14088 14089 14090 14091 14092 14093 14094 14095 14096 14097 14098 14099 14100 14101 14102 14103 14104 14105 14106 14107 14108 14109 14110 14111 14112 14113 14114 14115 14116 14117 14118 14119 14120 14121 14122 14123 14124 14125 14126 14127 14128 14129 14130 14131 14132 14133 14134 14135 14136 14137 14138 14139 14140 14141 14142 14143 14144 14145 14146 14147 14148 14149 14150 14151 14152 14153 14154 14155 14156 14157 14158 14159 14160 14161 14162 14163 14164 14165 14166 14167 14168 14169 14170 14171 14172 14173 14174 14175 14176 14177 14178 14179 14180 14181 14182 14183 14184 14185 14186 14187 14188 14189 14190 14191 14192 14193 14194 14195 14196 14197 14198 14199 14200 14201 14202 14203 14204 14205 14206 14207 14208 14209 14210 14211 14212 14213 14214 14215 14216 14217 14218 14219 14220 14221 14222 14223 14224 14225 14226 14227 14228 14229 14230 14231 14232 14233 14234 14235 14236 14237 14238 14239 14240 14241 14242 14243 14244 14245 14246 14247 14248 14249 14250 14251 14252 14253 14254 14255 14256 14257 14258 14259 14260 14261 14262 14263 14264 14265 14266 14267 14268 14269 14270 14271 14272 14273 14274 14275 14276 14277 14278 14279 14280 14281 14282 14283 14284 14285 14286 14287 14288 14289 14290 14291 14292 14293 14294 14295 14296 14297 14298 14299 14300 14301 14302 14303 14304 14305 14306 14307 14308 14309 14310 14311 14312 14313 14314 14315 14316 14317 14318 14319 14320 14321 14322 14323 14324 14325 14326 14327 14328 14329 14330 14331 14332 14333 14334 14335 14336 14337 14338 14339 14340 14341 14342 14343 14344 14345 14346 14347 14348 14349 14350 14351 14352 14353 14354 14355 14356 14357 14358 14359 14360 14361 14362 14363 14364 14365 14366 14367 14368 14369 14370 14371 14372 14373 14374 14375 14376 14377 14378 14379 14380 14381 14382 14383 14384 14385 14386 14387 14388 14389 14390 14391 14392 14393 14394 14395 14396 14397 14398 14399 14400 14401 14402 14403 14404 14405 14406 14407 14408 14409 14410 14411 14412 14413 14414 14415 14416 14417 14418 14419 14420 14421 14422 14423 14424 14425 14426 14427 14428 14429 14430 14431 14432 14433 14434 14435 14436 14437 14438 14439 14440 14441 14442 14443 14444 14445 14446 14447 14448 14449 14450 14451 14452 14453 14454 14455 14456 14457 14458 14459 14460 14461 14462 14463 14464 14465 14466 14467 14468 14469 14470 14471 14472 14473 14474 14475 14476 14477 14478 14479 14480 14481 14482 14483 14484 14485 14486 14487 14488 14489 14490 14491 14492 14493 14494 14495 14496 14497 14498 14499 14500 14501 14502 14503 14504 14505 14506 14507 14508 14509 14510 14511 14512 14513 14514 14515 14516 14517 14518 14519 14520 14521 14522 14523 14524 14525 14526 14527 14528 14529 14530 14531 14532 14533 14534 14535 14536 14537 14538 14539 14540 14541 14542 14543 14544 14545 14546 14547 14548 14549 14550 14551 14552 14553 14554 14555 14556 14557 14558 14559 14560 14561 14562 14563 14564 14565 14566 14567 14568 14569 14570 14571 14572 14573 14574 14575 14576 14577 14578 14579 14580 14581 14582 14583 14584 14585 14586 14587 14588 14589 14590 14591 14592 14593 14594 14595 14596 14597 14598 14599 14600 14601 14602 14603 14604 14605 14606 14607 14608 14609 14610 14611 14612 14613 14614 14615 14616 14617 14618 14619 14620 14621 14622 14623 14624 14625 14626 14627 14628 14629 14630 14631 14632 14633 14634 14635 14636 14637 14638 14639 14640 14641 14642 14643 14644 14645 14646 14647 14648 14649 14650 14651 14652 14653 14654 14655 14656 14657 14658 14659 14660 14661 14662 14663 14664 14665 14666 14667 14668 14669 14670 14671 14672 14673 14674 14675 14676 14677 14678 14679 14680 14681 14682 14683 14684 14685 14686 14687 14688 14689 14690 14691 14692 14693 14694 14695 14696 14697 14698 14699 14700 14701 14702 14703 14704 14705 14706 14707 14708 14709 14710 14711 14712 14713 14714 14715 14716 14717 14718 14719 14720 14721 14722 14723 14724 14725 14726 14727 14728 14729 14730 14731 14732 14733 14734 14735 14736 14737 14738 14739 14740 14741 14742 14743 14744 14745 14746 14747 14748 14749 14750 14751 14752 14753 14754 14755 14756 14757 14758 14759 14760 14761 14762 14763 14764 14765 14766 14767 14768 14769 14770 14771 14772 14773 14774 14775 14776 14777 14778 14779 14780 14781 14782 14783 14784 14785 14786 14787 14788 14789 14790 14791 14792 14793 14794 14795 14796 14797 14798 14799 14800 14801 14802 14803 14804 14805 14806 14807 14808 14809 14810 14811 14812 14813 14814 14815 14816 14817 14818 14819 14820 14821 14822 14823 14824 14825 14826 14827 14828 14829 14830 14831 14832 14833 14834 14835 14836 14837 14838 14839 14840 14841 14842 14843 14844 14845 14846 14847 14848 14849 14850 14851 14852 14853 14854 14855 14856 14857 14858 14859 14860 14861 14862 14863 14864 14865 14866 14867 14868 14869 14870 14871 14872 14873 14874 14875 14876 14877 14878 14879 14880 14881 14882 14883 14884 14885 14886 14887 14888 14889 14890 14891 14892 14893 14894 14895 14896 14897 14898 14899 14900 14901 14902 14903 14904 14905 14906 14907 14908 14909 14910 14911 14912 14913 14914 14915 14916 14917 14918 14919 14920 14921 14922 14923 14924 14925 14926 14927 14928 14929 14930 14931 14932 14933 14934 14935 14936 14937 14938 14939 14940 14941 14942 14943 14944 14945 14946 14947 14948 14949 14950 14951 14952 14953 14954 14955 14956 14957 14958 14959 14960 14961 14962 14963 14964 14965 14966 14967 14968 14969 14970 14971 14972 14973 14974 14975 14976 14977 14978 14979 14980 14981 14982 14983 14984 14985 14986 14987 14988 14989 14990 14991 14992 14993 14994 14995 14996 14997 14998 14999 15000 15001 15002 15003 15004 15005 15006 15007 15008 15009 15010 15011 15012 15013 15014 15015 15016 15017 15018 15019 15020 15021 15022 15023 15024 15025 15026 15027 15028 15029 15030 15031 15032 15033 15034 15035 15036 15037 15038 15039 15040 15041 15042 15043 15044 15045 15046 15047 15048 15049 15050 15051 15052 15053 15054 15055 15056 15057 15058 15059 15060 15061 15062 15063 15064 15065 15066 15067 15068 15069 15070 15071 15072 15073 15074 15075 15076 15077 15078 15079 15080 15081 15082 15083 15084 15085 15086 15087 15088 15089 15090 15091 15092 15093 15094 15095 15096 15097 15098 15099 15100 15101 15102 15103 15104 15105 15106 15107 15108 15109 15110 15111 15112 15113 15114 15115 15116 15117 15118 15119 15120 15121 15122 15123 15124 15125 15126 15127 15128 15129 15130 15131 15132 15133 15134 15135 15136 15137 15138 15139 15140 15141 15142 15143 15144 15145 15146 15147 15148 15149 15150 15151 15152 15153 15154 15155 15156 15157 15158 15159 15160 15161 15162 15163 15164 15165 15166 15167 15168 15169 15170 15171 15172 15173 15174 15175 15176 15177 15178 15179 15180 15181 15182 15183 15184 15185 15186 15187 15188 15189 15190 15191 15192 15193 15194 15195 15196 15197 15198 15199 15200 15201 15202 15203 15204 15205 15206 15207 15208 15209 15210 15211 15212 15213 15214 15215 15216 15217 15218 15219 15220 15221 15222 15223 15224 15225 15226 15227 15228 15229 15230 15231 15232 15233 15234 15235 15236 15237 15238 15239 15240 15241 15242 15243 15244 15245 15246 15247 15248 15249 15250 15251 15252 15253 15254 15255 15256 15257 15258 15259 15260 15261 15262 15263 15264 15265 15266 15267 15268 15269 15270 15271 15272 15273 15274 15275 15276 15277 15278 15279 15280 15281 15282 15283 15284 15285 15286 15287 15288 15289 15290 15291 15292 15293 15294 15295 15296 15297 15298 15299 15300 15301 15302 15303 15304 15305 15306 15307 15308 15309 15310 15311 15312 15313 15314 15315 15316 15317 15318 15319 15320 15321 15322 15323 15324 15325 15326 15327 15328 15329 15330 15331 15332 15333 15334 15335 15336 15337 15338 15339 15340 15341 15342 15343 15344 15345 15346 15347 15348 15349 15350 15351 15352 15353 15354 15355 15356 15357 15358 15359 15360 15361 15362 15363 15364 15365 15366 15367 15368 15369 15370 15371 15372 15373 15374 15375 15376 15377 15378 15379 15380 15381 15382 15383 15384 15385 15386 15387 15388 15389 15390 15391 15392 15393 15394 15395 15396 15397 15398 15399 15400 15401 15402 15403 15404 15405 15406 15407 15408 15409 15410 15411 15412 15413 15414 15415 15416 15417 15418 15419 15420 15421 15422 15423 15424 15425 15426 15427 15428 15429 15430 15431 15432 15433 15434 15435 15436 15437 15438 15439 15440 15441 15442 15443 15444 15445 15446 15447 15448 15449 15450 15451 15452 15453 15454 15455 15456 15457 15458 15459 15460 15461 15462 15463 15464 15465 15466 15467 15468 15469 15470 15471 15472 15473 15474 15475 15476 15477 15478 15479 15480 15481 15482 15483 15484 15485 15486 15487 15488 15489 15490 15491 15492 15493 15494 15495 15496 15497 15498 15499 15500 15501 15502 15503 15504 15505 15506 15507 15508 15509 15510 15511 15512 15513 15514 15515 15516 15517 15518 15519 15520 15521 15522 15523 15524 15525 15526 15527 15528 15529 15530 15531 15532 15533 15534 15535 15536 15537 15538 15539 15540 15541 15542 15543 15544 15545 15546 15547 15548 15549 15550 15551 15552 15553 15554 15555 15556 15557 15558 15559 15560 15561 15562 15563 15564 15565 15566 15567 15568 15569 15570 15571 15572 15573 15574 15575 15576 15577 15578 15579 15580 15581 15582 15583 15584 15585 15586 15587 15588 15589 15590 15591 15592 15593 15594 15595 15596 15597 15598 15599 15600 15601 15602 15603 15604 15605 15606 15607 15608 15609 15610 15611 15612 15613 15614 15615 15616 15617 15618 15619 15620 15621 15622 15623 15624 15625 15626 15627 15628 15629 15630 15631 15632 15633 15634 15635 15636 15637 15638 15639 15640 15641 15642 15643 15644 15645 15646 15647 15648 15649 15650 15651 15652 15653 15654 15655 15656 15657 15658 15659 15660 15661 15662 15663 15664 15665 15666 15667 15668 15669 15670 15671 15672 15673 15674 15675 15676 15677 15678 15679 15680 15681 15682 15683 15684 15685 15686 15687 15688 15689 15690 15691 15692 15693 15694 15695 15696 15697 15698 15699 15700 15701 15702 15703 15704 15705 15706 15707 15708 15709 15710 15711 15712 15713 15714 15715 15716 15717 15718 15719 15720 15721 15722 15723 15724 15725 15726 15727 15728 15729 15730 15731 15732 15733 15734 15735 15736 15737 15738 15739 15740 15741 15742 15743 15744 15745 15746 15747 15748 15749 15750 15751 15752 15753 15754 15755 15756 15757 15758 15759 15760 15761 15762 15763 15764 15765 15766 15767 15768 15769 15770 15771 15772 15773 15774 15775 15776 15777 15778 15779 15780 15781 15782 15783 15784 15785 15786 15787 15788 15789 15790 15791 15792 15793 15794 15795 15796 15797 15798 15799 15800 15801 15802 15803 15804 15805 15806 15807 15808 15809 15810 15811 15812 15813 15814 15815 15816 15817 15818 15819 15820 15821 15822 15823 15824 15825 15826 15827 15828 15829 15830 15831 15832 15833 15834 15835 15836 15837 15838 15839 15840 15841 15842 15843 15844 15845 15846 15847 15848 15849 15850 15851 15852 15853 15854 15855 15856 15857 15858 15859 15860 15861 15862 15863 15864 15865 15866 15867 15868 15869 15870 15871 15872 15873 15874 15875 15876 15877 15878 15879 15880 15881 15882 15883 15884 15885 15886 15887 15888 15889 15890 15891 15892 15893 15894 15895 15896 15897 15898 15899 15900 15901 15902 15903 15904 15905 15906 15907 15908 15909 15910 15911 15912 15913 15914 15915 15916 15917 15918 15919 15920 15921 15922 15923 15924 15925 15926 15927 15928 15929 15930 15931 15932 15933 15934 15935 15936 15937 15938 15939 15940 15941 15942 15943 15944 15945 15946 15947 15948 15949 15950 15951 15952 15953 15954 15955 15956 15957 15958 15959 15960 15961 15962 15963 15964 15965 15966 15967 15968 15969 15970 15971 15972 15973 15974 15975 15976 15977 15978 15979 15980 15981 15982 15983 15984 15985 15986 15987 15988 15989 15990 15991 15992 15993 15994 15995 15996 15997 15998 15999 16000 16001 16002 16003 16004 16005 16006 16007 16008 16009 16010 16011 16012 16013 16014 16015 16016 16017 16018 16019 16020 16021 16022 16023 16024 16025 16026 16027 16028 16029 16030 16031 16032 16033 16034 16035 16036 16037 16038 16039 16040 16041 16042 16043 16044 16045 16046 16047 16048 16049 16050 16051 16052 16053 16054 16055 16056 16057 16058 16059 16060 16061 16062 16063 16064 16065 16066 16067 16068 16069 16070 16071 16072 16073 16074 16075 16076 16077 16078 16079 16080 16081 16082 16083 16084 16085 16086 16087 16088 16089 16090 16091 16092 16093 16094 16095 16096 16097 16098 16099 16100 16101 16102 16103 16104 16105 16106 16107 16108 16109 16110 16111 16112 16113 16114 16115 16116 16117 16118 16119 16120 16121 16122 16123 16124 16125 16126 16127 16128 16129 16130 16131 16132 16133 16134 16135 16136 16137 16138 16139 16140 16141 16142 16143 16144 16145 16146 16147 16148 16149 16150 16151 16152 16153 16154 16155 16156 16157 16158 16159 16160 16161 16162 16163 16164 16165 16166 16167 16168 16169 16170 16171 16172 16173 16174 16175 16176 16177 16178 16179 16180 16181 16182 16183 16184 16185 16186 16187 16188 16189 16190 16191 16192 16193 16194 16195 16196 16197 16198 16199 16200 16201 16202 16203 16204 16205 16206 16207 16208 16209 16210 16211 16212 16213 16214 16215 16216 16217 16218 16219 16220 16221 16222 16223 16224 16225 16226 16227 16228 16229 16230 16231 16232 16233 16234 16235 16236 16237 16238 16239 16240 16241 16242 16243 16244 16245 16246 16247 16248 16249 16250 16251 16252 16253 16254 16255 16256 16257 16258 16259 16260 16261 16262 16263 16264 16265 16266 16267 16268 16269 16270 16271 16272 16273 16274 16275 16276 16277 16278 16279 16280 16281 16282 16283 16284 16285 16286 16287 16288 16289 16290 16291 16292 16293 16294 16295 16296 16297 16298 16299 16300 16301 16302 16303 16304 16305 16306 16307 16308 16309 16310 16311 16312 16313 16314 16315 16316 16317 16318 16319 16320 16321 16322 16323 16324 16325 16326 16327 16328 16329 16330 16331 16332 16333 16334 16335 16336 16337 16338 16339 16340 16341 16342 16343 16344 16345 16346 16347 16348 16349 16350 16351 16352 16353 16354 16355 16356 16357 16358 16359 16360 16361 16362 16363 16364 16365 16366 16367 16368 16369 16370 16371 16372 16373 16374 16375 16376 16377 16378 16379 16380 16381 16382 16383 16384 16385 16386 16387 16388 16389 16390 16391 16392 16393 16394 16395 16396 16397 16398 16399 16400 16401 16402 16403 16404 16405 16406 16407 16408 16409 16410 16411 16412 16413 16414 16415 16416 16417 16418 16419 16420 16421 16422 16423 16424 16425 16426 16427 16428 16429 16430 16431 16432 16433 16434 16435 16436 16437 16438 16439 16440 16441 16442 16443 16444 16445 16446 16447 16448 16449 16450 16451 16452 16453 16454 16455 16456 16457 16458 16459 16460 16461 16462 16463 16464 16465 16466 16467 16468 16469 16470 16471 16472 16473 16474 16475 16476 16477 16478 16479 16480 16481 16482 16483 16484 16485 16486 16487 16488 16489 16490 16491 16492 16493 16494 16495 16496 16497 16498 16499 16500 16501 16502 16503 16504 16505 16506 16507 16508 16509 16510 16511 16512 16513 16514 16515 16516 16517 16518 16519 16520 16521 16522 16523 16524 16525 16526 16527 16528 16529 16530 16531 16532 16533 16534 16535 16536 16537 16538 16539 16540 16541 16542 16543 16544 16545 16546 16547 16548 16549 16550 16551 16552 16553 16554 16555 16556 16557 16558 16559 16560 16561 16562 16563 16564 16565 16566 16567 16568 16569 16570 16571 16572 16573 16574 16575 16576 16577 16578 16579 16580 16581 16582 16583 16584 16585 16586 16587 16588 16589 16590 16591 16592 16593 16594 16595 16596 16597 16598 16599 16600 16601 16602 16603 16604 16605 16606 16607 16608 16609 16610 16611 16612 16613 16614 16615 16616 16617 16618 16619 16620 16621 16622 16623 16624 16625 16626 16627 16628 16629 16630 16631 16632 16633 16634 16635 16636 16637 16638 16639 16640 16641 16642 16643 16644 16645 16646 16647 16648 16649 16650 16651 16652 16653 16654 16655 16656 16657 16658 16659 16660 16661 16662 16663 16664 16665 16666 16667 16668 16669 16670 16671 16672 16673 16674 16675 16676 16677 16678 16679 16680 16681 16682 16683 16684 16685 16686 16687 16688 16689 16690 16691 16692 16693 16694 16695 16696 16697 16698 16699 16700 16701 16702 16703 16704 16705 16706 16707 16708 16709 16710 16711 16712 16713 16714 16715 16716 16717 16718 16719 16720 16721 16722 16723 16724 16725 16726 16727 16728 16729 16730 16731 16732 16733 16734 16735 16736 16737 16738 16739 16740 16741 16742 16743 16744 16745 16746 16747 16748 16749 16750 16751 16752 16753 16754 16755 16756 16757 16758 16759 16760 16761 16762 16763 16764 16765 16766 16767 16768 16769 16770 16771 16772 16773 16774 16775 16776 16777 16778 16779 16780 16781 16782 16783 16784 16785 16786 16787 16788 16789 16790 16791 16792 16793 16794 16795 16796 16797 16798 16799 16800 16801 16802 16803 16804 16805 16806 16807 16808 16809 16810 16811 16812 16813 16814 16815 16816 16817 16818 16819 16820 16821 16822 16823 16824 16825 16826 16827 16828 16829 16830 16831 16832 16833 16834 16835 16836 16837 16838 16839 16840 16841 16842 16843 16844 16845 16846 16847 16848 16849 16850 16851 16852 16853 16854 16855 16856 16857 16858 16859 16860 16861 16862 16863 16864 16865 16866 16867 16868 16869 16870 16871 16872 16873 16874 16875 16876 16877 16878 16879 16880 16881 16882 16883 16884 16885 16886 16887 16888 16889 16890 16891 16892 16893 16894 16895 16896 16897 16898 16899 16900 16901 16902 16903 16904 16905 16906 16907 16908 16909 16910 16911 16912 16913 16914 16915 16916 16917 16918 16919 16920 16921 16922 16923 16924 16925 16926 16927 16928 16929 16930 16931 16932 16933 16934 16935 16936 16937 16938 16939 16940 16941 16942 16943 16944 16945 16946 16947 16948 16949 16950 16951 16952 16953 16954 16955 16956 16957 16958 16959 16960 16961 16962 16963 16964 16965 16966 16967 16968 16969 16970 16971 16972 16973 16974 16975 16976 16977 16978 16979 16980 16981 16982 16983 16984 16985 16986 16987 16988 16989 16990 16991 16992 16993 16994 16995 16996 16997 16998 16999 17000 17001 17002 17003 17004 17005 17006 17007 17008 17009 17010 17011 17012 17013 17014 17015 17016 17017 17018 17019 17020 17021 17022 17023 17024 17025 17026 17027 17028 17029 17030 17031 17032 17033 17034 17035 17036 17037 17038 17039 17040 17041 17042 17043 17044 17045 17046 17047 17048 17049 17050 17051 17052 17053 17054 17055 17056 17057 17058 17059 17060 17061 17062 17063 17064 17065 17066 17067 17068 17069 17070 17071 17072 17073 17074 17075 17076 17077 17078 17079 17080 17081 17082 17083 17084 17085 17086 17087 17088 17089 17090 17091 17092 17093 17094 17095 17096 17097 17098 17099 17100 17101 17102 17103 17104 17105 17106 17107 17108 17109 17110 17111 17112 17113 17114 17115 17116 17117 17118 17119 17120 17121 17122 17123 17124 17125 17126 17127 17128 17129 17130 17131 17132 17133 17134 17135 17136 17137 17138 17139 17140 17141 17142 17143 17144 17145 17146 17147 17148 17149 17150 17151 17152 17153 17154 17155 17156 17157 17158 17159 17160 17161 17162 17163 17164 17165 17166 17167 17168 17169 17170 17171 17172 17173 17174 17175 17176 17177 17178 17179 17180 17181 17182 17183 17184 17185 17186 17187 17188 17189 17190 17191 17192 17193 17194 17195 17196 17197 17198 17199 17200 17201 17202 17203 17204 17205 17206 17207 17208 17209 17210 17211 17212 17213 17214 17215 17216 17217 17218 17219 17220 17221 17222 17223 17224 17225 17226 17227 17228 17229 17230 17231 17232 17233 17234 17235 17236 17237 17238 17239 17240 17241 17242 17243 17244 17245 17246 17247 17248 17249 17250 17251 17252 17253 17254 17255 17256 17257 17258 17259 17260 17261 17262 17263 17264 17265 17266 17267 17268 17269 17270 17271 17272 17273 17274 17275 17276 17277 17278 17279 17280 17281 17282 17283 17284 17285 17286 17287 17288 17289 17290 17291 17292 17293 17294 17295 17296 17297 17298 17299 17300 17301 17302 17303 17304 17305 17306 17307 17308 17309 17310 17311 17312 17313 17314 17315 17316 17317 17318 17319 17320 17321 17322 17323 17324 17325 17326 17327 17328 17329 17330 17331 17332 17333 17334 17335 17336 17337 17338 17339 17340 17341 17342 17343 17344 17345 17346 17347 17348 17349 17350 17351 17352 17353 17354 17355 17356 17357 17358 17359 17360 17361 17362 17363 17364 17365 17366 17367 17368 17369 17370 17371 17372 17373 17374 17375 17376 17377 17378 17379 17380 17381 17382 17383 17384 17385 17386 17387 17388 17389 17390 17391 17392 17393 17394 17395 17396 17397 17398 17399 17400 17401 17402 17403 17404 17405 17406 17407 17408 17409 17410 17411 17412 17413 17414 17415 17416 17417 17418 17419 17420 17421 17422 17423 17424 17425 17426 17427 17428 17429 17430 17431 17432 17433 17434 17435 17436 17437 17438 17439 17440 17441 17442 17443 17444 17445 17446 17447 17448 17449 17450 17451 17452 17453 17454 17455 17456 17457 17458 17459 17460 17461 17462 17463 17464 17465 17466 17467 17468 17469 17470 17471 17472 17473 17474 17475 17476 17477 17478 17479 17480 17481 17482 17483 17484 17485 17486 17487 17488 17489 17490 17491 17492 17493 17494 17495 17496 17497 17498 17499 17500 17501 17502 17503 17504 17505 17506 17507 17508 17509 17510 17511 17512 17513 17514 17515 17516 17517 17518 17519 17520 17521 17522 17523 17524 17525 17526 17527 17528 17529 17530 17531 17532 17533 17534 17535 17536 17537 17538 17539 17540 17541 17542 17543 17544 17545 17546 17547 17548 17549 17550 17551 17552 17553 17554 17555 17556 17557 17558 17559 17560 17561 17562 17563 17564 17565 17566 17567 17568 17569 17570 17571 17572 17573 17574 17575 17576 17577 17578 17579 17580 17581 17582 17583 17584 17585 17586 17587 17588 17589 17590 17591 17592 17593 17594 17595 17596 17597 17598 17599 17600 17601 17602 17603 17604 17605 17606 17607 17608 17609 17610 17611 17612 17613 17614 17615 17616 17617 17618 17619 17620 17621 17622 17623 17624 17625 17626 17627 17628 17629 17630 17631 17632 17633 17634 17635 17636 17637 17638 17639 17640 17641 17642 17643 17644 17645 17646 17647 17648 17649 17650 17651 17652 17653 17654 17655 17656 17657 17658 17659 17660 17661 17662 17663 17664 17665 17666 17667 17668 17669 17670 17671 17672 17673 17674 17675 17676 17677 17678 17679 17680 17681 17682 17683 17684 17685 17686 17687 17688 17689 17690 17691 17692 17693 17694 17695 17696 17697 17698 17699 17700 17701 17702 17703 17704 17705 17706 17707 17708 17709 17710 17711 17712 17713 17714 17715 17716 17717 17718 17719 17720 17721 17722 17723 17724 17725 17726 17727 17728 17729 17730 17731 17732 17733 17734 17735 17736 17737 17738 17739 17740 17741 17742 17743 17744 17745 17746 17747 17748 17749 17750 17751 17752 17753 17754 17755 17756 17757 17758 17759 17760 17761 17762 17763 17764 17765 17766 17767 17768 17769 17770 17771 17772 17773 17774 17775 17776 17777 17778 17779 17780 17781 17782 17783 17784 17785 17786 17787 17788 17789 17790 17791 17792 17793 17794 17795 17796 17797 17798 17799 17800 17801 17802 17803 17804 17805 17806 17807 17808 17809 17810 17811 17812 17813 17814 17815 17816 17817 17818 17819 17820 17821 17822 17823 17824 17825 17826 17827 17828 17829 17830 17831 17832 17833 17834 17835 17836 17837 17838 17839 17840 17841 17842 17843 17844 17845 17846 17847 17848 17849 17850 17851 17852 17853 17854 17855 17856 17857 17858 17859 17860 17861 17862 17863 17864 17865 17866 17867 17868 17869 17870 17871 17872 17873 17874 17875 17876 17877 17878 17879 17880 17881 17882 17883 17884 17885 17886 17887 17888 17889 17890 17891 17892 17893 17894 17895 17896 17897 17898 17899 17900 17901 17902 17903 17904 17905 17906 17907 17908 17909 17910 17911 17912 17913 17914 17915 17916 17917 17918 17919 17920 17921 17922 17923 17924 17925 17926 17927 17928 17929 17930 17931 17932 17933 17934 17935 17936 17937 17938 17939 17940 17941 17942 17943 17944 17945 17946 17947 17948 17949 17950 17951 17952 17953 17954 17955 17956 17957 17958 17959 17960 17961 17962 17963 17964 17965 17966 17967 17968 17969 17970 17971 17972 17973 17974 17975 17976 17977 17978 17979 17980 17981 17982 17983 17984 17985 17986 17987 17988 17989 17990 17991 17992 17993 17994 17995 17996 17997 17998 17999 18000 18001 18002 18003 18004 18005 18006 18007 18008 18009 18010 18011 18012 18013 18014 18015 18016 18017 18018 18019 18020 18021 18022 18023 18024 18025 18026 18027 18028 18029 18030 18031 18032 18033 18034 18035 18036 18037 18038 18039 18040 18041 18042 18043 18044 18045 18046 18047 18048 18049 18050 18051 18052 18053 18054 18055 18056 18057 18058 18059 18060 18061 18062 18063 18064 18065 18066 18067 18068 18069 18070 18071 18072 18073 18074 18075 18076 18077 18078 18079 18080 18081 18082 18083 18084 18085 18086 18087 18088 18089 18090 18091 18092 18093 18094 18095 18096 18097 18098 18099 18100 18101 18102 18103 18104 18105 18106 18107 18108 18109 18110 18111 18112 18113 18114 18115 18116 18117 18118 18119 18120 18121 18122 18123 18124 18125 18126 18127 18128 18129 18130 18131 18132 18133 18134 18135 18136 18137 18138 18139 18140 18141 18142 18143 18144 18145 18146 18147 18148 18149 18150 18151 18152 18153 18154 18155 18156 18157 18158 18159 18160 18161 18162 18163 18164 18165 18166 18167 18168 18169 18170 18171 18172 18173 18174 18175 18176 18177 18178 18179 18180 18181 18182 18183 18184 18185 18186 18187 18188 18189 18190 18191 18192 18193 18194 18195 18196 18197 18198 18199 18200 18201 18202 18203 18204 18205 18206 18207 18208 18209 18210 18211 18212 18213 18214 18215 18216 18217 18218 18219 18220 18221 18222 18223 18224 18225 18226 18227 18228 18229 18230 18231 18232 18233 18234 18235 18236 18237 18238 18239 18240 18241 18242 18243 18244 18245 18246 18247 18248 18249 18250 18251 18252 18253 18254 18255 18256 18257 18258 18259 18260 18261 18262 18263 18264 18265 18266 18267 18268 18269 18270 18271 18272 18273 18274 18275 18276 18277 18278 18279 18280 18281 18282 18283 18284 18285 18286 18287 18288 18289 18290 18291 18292 18293 18294 18295 18296 18297 18298 18299 18300 18301 18302 18303 18304 18305 18306 18307 18308 18309 18310 18311 18312 18313 18314 18315 18316 18317 18318 18319 18320 18321 18322 18323 18324 18325 18326 18327 18328 18329 18330 18331 18332 18333 18334 18335 18336 18337 18338 18339 18340 18341 18342 18343 18344 18345 18346 18347 18348 18349 18350 18351 18352 18353 18354 18355 18356 18357 18358 18359 18360 18361 18362 18363 18364 18365 18366 18367 18368 18369 18370 18371 18372 18373 18374 18375 18376 18377 18378 18379 18380 18381 18382 18383 18384 18385 18386 18387 18388 18389 18390 18391 18392 18393 18394 18395 18396 18397 18398 18399 18400 18401 18402 18403 18404 18405 18406 18407 18408 18409 18410 18411 18412 18413 18414 18415 18416 18417 18418 18419 18420 18421 18422 18423 18424 18425 18426 18427 18428 18429 18430 18431 18432 18433 18434 18435 18436 18437 18438 18439 18440 18441 18442 18443 18444 18445 18446 18447 18448 18449 18450 18451 18452 18453 18454 18455 18456 18457 18458 18459 18460 18461 18462 18463 18464 18465 18466 18467 18468 18469 18470 18471 18472 18473 18474 18475 18476 18477 18478 18479 18480 18481 18482 18483 18484 18485 18486 18487 18488 18489 18490 18491 18492 18493 18494 18495 18496 18497 18498 18499 18500 18501 18502 18503 18504 18505 18506 18507 18508 18509 18510 18511 18512 18513 18514 18515 18516 18517 18518 18519 18520 18521 18522 18523 18524 18525 18526 18527 18528 18529 18530 18531 18532 18533 18534 18535 18536 18537 18538 18539 18540 18541 18542 18543 18544 18545 18546 18547 18548 18549 18550 18551 18552 18553 18554 18555 18556 18557 18558 18559 18560 18561 18562 18563 18564 18565 18566 18567 18568 18569 18570 18571 18572 18573 18574 18575 18576 18577 18578 18579 18580 18581 18582 18583 18584 18585 18586 18587 18588 18589 18590 18591 18592 18593 18594 18595 18596 18597 18598 18599 18600 18601 18602 18603 18604 18605 18606 18607 18608 18609 18610 18611 18612 18613 18614 18615 18616 18617 18618 18619 18620 18621 18622 18623 18624 18625 18626 18627 18628 18629 18630 18631 18632 18633 18634 18635 18636 18637 18638 18639 18640 18641 18642 18643 18644 18645 18646 18647 18648 18649 18650 18651 18652 18653 18654 18655 18656 18657 18658 18659 18660 18661 18662 18663 18664 18665 18666 18667 18668 18669 18670 18671 18672 18673 18674 18675 18676 18677 18678 18679 18680 18681 18682 18683 18684 18685 18686 18687 18688 18689 18690 18691 18692 18693 18694 18695 18696 18697 18698 18699 18700 18701 18702 18703 18704 18705 18706 18707 18708 18709 18710 18711 18712 18713 18714 18715 18716 18717 18718 18719 18720 18721 18722 18723 18724 18725 18726 18727 18728 18729 18730 18731 18732 18733 18734 18735 18736 18737 18738 18739 18740 18741 18742 18743 18744 18745 18746 18747 18748 18749 18750 18751 18752 18753 18754 18755 18756 18757 18758 18759 18760 18761 18762 18763 18764 18765 18766 18767 18768 18769 18770 18771 18772 18773 18774 18775 18776 18777 18778 18779 18780 18781 18782 18783 18784 18785 18786 18787 18788 18789 18790 18791 18792 18793 18794 18795 18796 18797 18798 18799 18800 18801 18802 18803 18804 18805 18806 18807 18808 18809 18810 18811 18812 18813 18814 18815 18816 18817 18818 18819 18820 18821 18822 18823 18824 18825 18826 18827 18828 18829 18830 18831 18832 18833 18834 18835 18836 18837 18838 18839 18840 18841 18842 18843 18844 18845 18846 18847 18848 18849 18850 18851 18852 18853 18854 18855 18856 18857 18858 18859 18860 18861 18862 18863 18864 18865 18866 18867 18868 18869 18870 18871 18872 18873 18874 18875 18876 18877 18878 18879 18880 18881 18882 18883 18884 18885 18886 18887 18888 18889 18890 18891 18892 18893 18894 18895 18896 18897 18898 18899 18900 18901 18902 18903 18904 18905 18906 18907 18908 18909 18910 18911 18912 18913 18914 18915 18916 18917 18918 18919 18920 18921 18922 18923 18924 18925 18926 18927 18928 18929 18930 18931 18932 18933 18934 18935 18936 18937 18938 18939 18940 18941 18942 18943 18944 18945 18946 18947 18948 18949 18950 18951 18952 18953 18954 18955 18956 18957 18958 18959 18960 18961 18962 18963 18964 18965 18966 18967 18968 18969 18970 18971 18972 18973 18974 18975 18976 18977 18978 18979 18980 18981 18982 18983 18984 18985 18986 18987 18988 18989 18990 18991 18992 18993 18994 18995 18996 18997 18998 18999 19000 19001 19002 19003 19004 19005 19006 19007 19008 19009 19010 19011 19012 19013 19014 19015 19016 19017 19018 19019 19020 19021 19022 19023 19024 19025 19026 19027 19028 19029 19030 19031 19032 19033 19034 19035 19036 19037 19038 19039 19040 19041 19042 19043 19044 19045 19046 19047 19048 19049 19050 19051 19052 19053 19054 19055 19056 19057 19058 19059 19060 19061 19062 19063 19064 19065 19066 19067 19068 19069 19070 19071 19072 19073 19074 19075 19076 19077 19078 19079 19080 19081 19082 19083 19084 19085 19086 19087 19088 19089 19090 19091 19092 19093 19094 19095 19096 19097 19098 19099 19100 19101 19102 19103 19104 19105 19106 19107 19108 19109 19110 19111 19112 19113 19114 19115 19116 19117 19118 19119 19120 19121 19122 19123 19124 19125 19126 19127 19128 19129 19130 19131 19132 19133 19134 19135 19136 19137 19138 19139 19140 19141 19142 19143 19144 19145 19146 19147 19148 19149 19150 19151 19152 19153 19154 19155 19156 19157 19158 19159 19160 19161 19162 19163 19164 19165 19166 19167 19168 19169 19170 19171 19172 19173 19174 19175 19176 19177 19178 19179 19180 19181 19182 19183 19184 19185 19186 19187 19188 19189 19190 19191 19192 19193 19194 19195 19196 19197 19198 19199 19200 19201 19202 19203 19204 19205 19206 19207 19208 19209 19210 19211 19212 19213 19214 19215 19216 19217 19218 19219 19220 19221 19222 19223 19224 19225 19226 19227 19228 19229 19230 19231 19232 19233 19234 19235 19236 19237 19238 19239 19240 19241 19242 19243 19244 19245 19246 19247 19248 19249 19250 19251 19252 19253 19254 19255 19256 19257 19258 19259 19260 19261 19262 19263 19264 19265 19266 19267 19268 19269 19270 19271 19272 19273 19274 19275 19276 19277 19278 19279 19280 19281 19282 19283 19284 19285 19286 19287 19288 19289 19290 19291 19292 19293 19294 19295 19296 19297 19298 19299 19300 19301 19302 19303 19304 19305 19306 19307 19308 19309 19310 19311 19312 19313 19314 19315 19316 19317 19318 19319 19320 19321 19322 19323 19324 19325 19326 19327 19328 19329 19330 19331 19332 19333 19334 19335 19336 19337 19338 19339 19340 19341 19342 19343 19344 19345 19346 19347 19348 19349 19350 19351 19352 19353 19354 19355 19356 19357 19358 19359 19360 19361 19362 19363 19364 19365 19366 19367 19368 19369 19370 19371 19372 19373 19374 19375 19376 19377 19378 19379 19380 19381 19382 19383 19384 19385 19386 19387 19388 19389 19390 19391 19392 19393 19394 19395 19396 19397 19398 19399 19400 19401 19402 19403 19404 19405 19406 19407 19408 19409 19410 19411 19412 19413 19414 19415 19416 19417 19418 19419 19420 19421 19422 19423 19424 19425 19426 19427 19428 19429 19430 19431 19432 19433 19434 19435 19436 19437 19438 19439 19440 19441 19442 19443 19444 19445 19446 19447 19448 19449 19450 19451 19452 19453 19454 19455 19456 19457 19458 19459 19460 19461 19462 19463 19464 19465 19466 19467 19468 19469 19470 19471 19472 19473 19474 19475 19476 19477 19478 19479 19480 19481 19482 19483 19484 19485 19486 19487 19488 19489 19490 19491 19492 19493 19494 19495 19496 19497 19498 19499 19500 19501 19502 19503 19504 19505 19506 19507 19508 19509 19510 19511 19512 19513 19514 19515 19516 19517 19518 19519 19520 19521 19522 19523 19524 19525 19526 19527 19528 19529 19530 19531 19532 19533 19534 19535 19536 19537 19538 19539 19540 19541 19542 19543 19544 19545 19546 19547 19548 19549 19550 19551 19552 19553 19554 19555 19556 19557 19558 19559 19560 19561 19562 19563 19564 19565 19566 19567 19568 19569 19570 19571 19572 19573 19574 19575 19576 19577 19578 19579 19580 19581 19582 19583 19584 19585 19586 19587 19588 19589 19590 19591 19592 19593 19594 19595 19596 19597 19598 19599 19600 19601 19602 19603 19604 19605 19606 19607 19608 19609 19610 19611 19612 19613 19614 19615 19616 19617 19618 19619 19620 19621 19622 19623 19624 19625 19626 19627 19628 19629 19630 19631 19632 19633 19634 19635 19636 19637 19638 19639 19640 19641 19642 19643 19644 19645 19646 19647 19648 19649 19650 19651 19652 19653 19654 19655 19656 19657 19658 19659 19660 19661 19662 19663 19664 19665 19666 19667 19668 19669 19670 19671 19672 19673 19674 19675 19676 19677 19678 19679 19680 19681 19682 19683 19684 19685 19686 19687 19688 19689 19690 19691 19692 19693 19694 19695 19696 19697 19698 19699 19700 19701 19702 19703 19704 19705 19706 19707 19708 19709 19710 19711 19712 19713 19714 19715 19716 19717 19718 19719 19720 19721 19722 19723 19724 19725 19726 19727 19728 19729 19730 19731 19732 19733 19734 19735 19736 19737 19738 19739 19740 19741 19742 19743 19744 19745 19746 19747 19748 19749 19750 19751 19752 19753 19754 19755 19756 19757 19758 19759 19760 19761 19762 19763 19764 19765 19766 19767 19768 19769 19770 19771 19772 19773 19774 19775 19776 19777 19778 19779 19780 19781 19782 19783 19784 19785 19786 19787 19788 19789 19790 19791 19792 19793 19794 19795 19796 19797 19798 19799 19800 19801 19802 19803 19804 19805 19806 19807 19808 19809 19810 19811 19812 19813 19814 19815 19816 19817 19818 19819 19820 19821 19822 19823 19824 19825 19826 19827 19828 19829 19830 19831 19832 19833 19834 19835 19836 19837 19838 19839 19840 19841 19842 19843 19844 19845 19846 19847 19848 19849 19850 19851 19852 19853 19854 19855 19856 19857 19858 19859 19860 19861 19862 19863 19864 19865 19866 19867 19868 19869 19870 19871 19872 19873 19874 19875 19876 19877 19878 19879 19880 19881 19882 19883 19884 19885 19886 19887 19888 19889 19890 19891 19892 19893 19894 19895 19896 19897 19898 19899 19900 19901 19902 19903 19904 19905 19906 19907 19908 19909 19910 19911 19912 19913 19914 19915 19916 19917 19918 19919 19920 19921 19922 19923 19924 19925 19926 19927 19928 19929 19930 19931 19932 19933 19934 19935 19936 19937 19938 19939 19940 19941 19942 19943 19944 19945 19946 19947 19948 19949 19950 19951 19952 19953 19954 19955 19956 19957 19958 19959 19960 19961 19962 19963 19964 19965 19966 19967 19968 19969 19970 19971 19972 19973 19974 19975 19976 19977 19978 19979 19980 19981 19982 19983 19984 19985 19986 19987 19988 19989 19990 19991 19992 19993 19994 19995 19996 19997 19998 19999 20000 20001 20002 20003 20004 20005 20006 20007 20008 20009 20010 20011 20012 20013 20014 20015 20016 20017 20018 20019 20020 20021 20022 20023 20024 20025 20026 20027 20028 20029 20030 20031 20032 20033 20034 20035 20036 20037 20038 20039 20040 20041 20042 20043 20044 20045 20046 20047 20048 20049 20050 20051 20052 20053 20054 20055 20056 20057 20058 20059 20060 20061 20062 20063 20064 20065 20066 20067 20068 20069 20070 20071 20072 20073 20074 20075 20076 20077 20078 20079 20080 20081 20082 20083 20084 20085 20086 20087 20088 20089 20090 20091 20092 20093 20094 20095 20096 20097 20098 20099 20100 20101 20102 20103 20104 20105 20106 20107 20108 20109 20110 20111 20112 20113 20114 20115 20116 20117 20118 20119 20120 20121 20122 20123 20124 20125 20126 20127 20128 20129 20130 20131 20132 20133 20134 20135 20136 20137 20138 20139 20140 20141 20142 20143 20144 20145 20146 20147 20148 20149 20150 20151 20152 20153 20154 20155 20156 20157 20158 20159 20160 20161 20162 20163 20164 20165 20166 20167 20168 20169 20170 20171 20172 20173 20174 20175 20176 20177 20178 20179 20180 20181 20182 20183 20184 20185 20186 20187 20188 20189 20190 20191 20192 20193 20194 20195 20196 20197 20198 20199 20200 20201 20202 20203 20204 20205 20206 20207 20208 20209 20210 20211 20212 20213 20214 20215 20216 20217 20218 20219 20220 20221 20222 20223 20224 20225 20226 20227 20228 20229 20230 20231 20232 20233 20234 20235 20236 20237 20238 20239 20240 20241 20242 20243 20244 20245 20246 20247 20248 20249 20250 20251 20252 20253 20254 20255 20256 20257 20258 20259 20260 20261 20262 20263 20264 20265 20266 20267 20268 20269 20270 20271 20272 20273 20274 20275 20276 20277 20278 20279 20280 20281 20282 20283 20284 20285 20286 20287 20288 20289 20290 20291 20292 20293 20294 20295 20296 20297 20298 20299 20300 20301 20302 20303 20304 20305 20306 20307 20308 20309 20310 20311 20312 20313 20314 20315 20316 20317 20318 20319 20320 20321 20322 20323 20324 20325 20326 20327 20328 20329 20330 20331 20332 20333 20334 20335 20336 20337 20338 20339 20340 20341 20342 20343 20344 20345 20346 20347 20348 20349 20350 20351 20352 20353 20354 20355 20356 20357 20358 20359 20360 20361 20362 20363 20364 20365 20366 20367 20368 20369 20370 20371 20372 20373 20374 20375 20376 20377 20378 20379 20380 20381 20382 20383 20384 20385 20386 20387 20388 20389 20390 20391 20392 20393 20394 20395 20396 20397 20398 20399 20400 20401 20402 20403 20404 20405 20406 20407 20408 20409 20410 20411 20412 20413 20414 20415 20416 20417 20418 20419 20420 20421 20422 20423 20424 20425 20426 20427 20428 20429 20430 20431 20432 20433 20434 20435 20436 20437 20438 20439 20440 20441 20442 20443 20444 20445 20446 20447 20448 20449 20450 20451 20452 20453 20454 20455 20456 20457 20458 20459 20460 20461 20462 20463 20464 20465 20466 20467 20468 20469 20470 20471 20472 20473 20474 20475 20476 20477 20478 20479 20480 20481 20482 20483 20484 20485 20486 20487 20488 20489 20490 20491 20492 20493 20494 20495 20496 20497 20498 20499 20500 20501 20502 20503 20504 20505 20506 20507 20508 20509 20510 20511 20512 20513 20514 20515 20516 20517 20518 20519 20520 20521 20522 20523 20524 20525 20526 20527 20528 20529 20530 20531 20532 20533 20534 20535 20536 20537 20538 20539 20540 20541 20542 20543 20544 20545 20546 20547 20548 20549 20550 20551 20552 20553 20554 20555 20556 20557 20558 20559 20560 20561 20562 20563 20564 20565 20566 20567 20568 20569 20570 20571 20572 20573 20574 20575 20576 20577 20578 20579 20580 20581 20582 20583 20584 20585 20586 20587 20588 20589 20590 20591 20592 20593 20594 20595 20596 20597 20598 20599 20600 20601 20602 20603 20604 20605 20606 20607 20608 20609 20610 20611 20612 20613 20614 20615 20616 20617 20618 20619 20620 20621 20622 20623 20624 20625 20626 20627 20628 20629 20630 20631 20632 20633 20634 20635 20636 20637 20638 20639 20640 20641 20642 20643 20644 20645 20646 20647 20648 20649 20650 20651 20652 20653 20654 20655 20656 20657 20658 20659 20660 20661 20662 20663 20664 20665 20666 20667 20668 20669 20670 20671 20672 20673 20674 20675 20676 20677 20678 20679 20680 20681 20682 20683 20684 20685 20686 20687 20688 20689 20690 20691 20692 20693 20694 20695 20696 20697 20698 20699 20700 20701 20702 20703 20704 20705 20706 20707 20708 20709 20710 20711 20712 20713 20714 20715 20716 20717 20718 20719 20720 20721 20722 20723 20724 20725 20726 20727 20728 20729 20730 20731 20732 20733 20734 20735 20736 20737 20738 20739 20740 20741 20742 20743 20744 20745 20746 20747 20748 20749 20750 20751 20752 20753 20754 20755 20756 20757 20758 20759 20760 20761 20762 20763 20764 20765 20766 20767 20768 20769 20770 20771 20772 20773 20774 20775 20776 20777 20778 20779 20780 20781 20782 20783 20784 20785 20786 20787 20788 20789 20790 20791 20792 20793 20794 20795 20796 20797 20798 20799 20800 20801 20802 20803 20804 20805 20806 20807 20808 20809 20810 20811 20812 20813 20814 20815 20816 20817 20818 20819 20820 20821 20822 20823 20824 20825 20826 20827 20828 20829 20830 20831 20832 20833 20834 20835 20836 20837 20838 20839 20840 20841 20842 20843 20844 20845 20846 20847 20848 20849 20850 20851 20852 20853 20854 20855 20856 20857 20858 20859 20860 20861 20862 20863 20864 20865 20866 20867 20868 20869 20870 20871 20872 20873 20874 20875 20876 20877 20878 20879 20880 20881 20882 20883 20884 20885 20886 20887 20888 20889 20890 20891 20892 20893 20894 20895 20896 20897 20898 20899 20900 20901 20902 20903 20904 20905 20906 20907 20908 20909 20910 20911 20912 20913 20914 20915 20916 20917 20918 20919 20920 20921 20922 20923 20924 20925 20926 20927 20928 20929 20930 20931 20932 20933 20934 20935 20936 20937 20938 20939 20940 20941 20942 20943 20944 20945 20946 20947 20948 20949 20950 20951 20952 20953 20954 20955 20956 20957 20958 20959 20960 20961 20962 20963 20964 20965 20966 20967 20968 20969 20970 20971 20972 20973 20974 20975 20976 20977 20978 20979 20980 20981 20982 20983 20984 20985 20986 20987 20988 20989 20990 20991 20992 20993 20994 20995 20996 20997 20998 20999 21000 21001 21002 21003 21004 21005 21006 21007 21008 21009 21010 21011 21012 21013 21014 21015 21016 21017 21018 21019 21020 21021 21022 21023 21024 21025 21026 21027 21028 21029 21030 21031 21032 21033 21034 21035 21036 21037 21038 21039 21040 21041 21042 21043 21044 21045 21046 21047 21048 21049 21050 21051 21052 21053 21054 21055 21056 21057 21058 21059 21060 21061 21062 21063 21064 21065 21066 21067 21068 21069 21070 21071 21072 21073 21074 21075 21076 21077 21078 21079 21080 21081 21082 21083 21084 21085 21086 21087 21088 21089 21090 21091 21092 21093 21094 21095 21096 21097 21098 21099 21100 21101 21102 21103 21104 21105 21106 21107 21108 21109 21110 21111 21112 21113 21114 21115 21116 21117 21118 21119 21120 21121 21122 21123 21124 21125 21126 21127 21128 21129 21130 21131 21132 21133 21134 21135 21136 21137 21138 21139 21140 21141 21142 21143 21144 21145 21146 21147 21148 21149 21150 21151 21152 21153 21154 21155 21156 21157 21158 21159 21160 21161 21162 21163 21164 21165 21166 21167 21168 21169 21170 21171 21172 21173 21174 21175 21176 21177 21178 21179 21180 21181 21182 21183 21184 21185 21186 21187 21188 21189 21190 21191 21192 21193 21194 21195 21196 21197 21198 21199 21200 21201 21202 21203 21204 21205 21206 21207 21208 21209 21210 21211 21212 21213 21214 21215 21216 21217 21218 21219 21220 21221 21222 21223 21224 21225 21226 21227 21228 21229 21230 21231 21232 21233 21234 21235 21236 21237 21238 21239 21240 21241 21242 21243 21244 21245 21246 21247 21248 21249 21250 21251 21252 21253 21254 21255 21256 21257 21258 21259 21260 21261 21262 21263 21264 21265 21266 21267 21268 21269 21270 21271 21272 21273 21274 21275 21276 21277 21278 21279 21280 21281 21282 21283 21284 21285 21286 21287 21288 21289 21290 21291 21292 21293 21294 21295 21296 21297 21298 21299 21300 21301 21302 21303 21304 21305 21306 21307 21308 21309 21310 21311 21312 21313 21314 21315 21316 21317 21318 21319 21320 21321 21322 21323 21324 21325 21326 21327 21328 21329 21330 21331 21332 21333 21334 21335 21336 21337 21338 21339 21340 21341 21342 21343 21344 21345 21346 21347 21348 21349 21350 21351 21352 21353 21354 21355 21356 21357 21358 21359 21360 21361 21362 21363 21364 21365 21366 21367 21368 21369 21370 21371 21372 21373 21374 21375 21376 21377 21378 21379 21380 21381 21382 21383 21384 21385 21386 21387 21388 21389 21390 21391 21392 21393 21394 21395 21396 21397 21398 21399 21400 21401 21402 21403 21404 21405 21406 21407 21408 21409 21410 21411 21412 21413 21414 21415 21416 21417 21418 21419 21420 21421 21422 21423 21424 21425 21426 21427 21428 21429 21430 21431 21432 21433 21434 21435 21436 21437 21438 21439 21440 21441 21442 21443 21444 21445 21446 21447 21448 21449 21450 21451 21452 21453 21454 21455 21456 21457 21458 21459 21460 21461 21462 21463 21464 21465 21466 21467 21468 21469 21470 21471 21472 21473 21474 21475 21476 21477 21478 21479 21480 21481 21482 21483 21484 21485 21486 21487 21488 21489 21490 21491 21492 21493 21494 21495 21496 21497 21498 21499 21500 21501 21502 21503 21504 21505 21506 21507 21508 21509 21510 21511 21512 21513 21514 21515 21516 21517 21518 21519 21520 21521 21522 21523 21524 21525 21526 21527 21528 21529 21530 21531 21532 21533 21534 21535 21536 21537 21538 21539 21540 21541 21542 21543 21544 21545 21546 21547 21548 21549 21550 21551 21552 21553 21554 21555 21556 21557 21558 21559 21560 21561 21562 21563 21564 21565 21566 21567 21568 21569 21570 21571 21572 21573 21574 21575 21576 21577 21578 21579 21580 21581 21582 21583 21584 21585 21586 21587 21588 21589 21590 21591 21592 21593 21594 21595 21596 21597 21598 21599 21600 21601 21602 21603 21604 21605 21606 21607 21608 21609 21610 21611 21612 21613 21614 21615 21616 21617 21618 21619 21620 21621 21622 21623 21624 21625 21626 21627 21628 21629 21630 21631 21632 21633 21634 21635 21636 21637 21638 21639 21640 21641 21642 21643 21644 21645 21646 21647 21648 21649 21650 21651 21652 21653 21654 21655 21656 21657 21658 21659 21660 21661 21662 21663 21664 21665 21666 21667 21668 21669 21670 21671 21672 21673 21674 21675 21676 21677 21678 21679 21680 21681 21682 21683 21684 21685 21686 21687 21688 21689 21690 21691 21692 21693 21694 21695 21696 21697 21698 21699 21700 21701 21702 21703 21704 21705 21706 21707 21708 21709 21710 21711 21712 21713 21714 21715 21716 21717 21718 21719 21720 21721 21722 21723 21724 21725 21726 21727 21728 21729 21730 21731 21732 21733 21734 21735 21736 21737 21738 21739 21740 21741 21742 21743 21744 21745 21746 21747 21748 21749 21750 21751 21752 21753 21754 21755 21756 21757 21758 21759 21760 21761 21762 21763 21764 21765 21766 21767 21768 21769 21770 21771 21772 21773 21774 21775 21776 21777 21778 21779 21780 21781 21782 21783 21784 21785 21786 21787 21788 21789 21790 21791 21792 21793 21794 21795 21796 21797 21798 21799 21800 21801 21802 21803 21804 21805 21806 21807 21808 21809 21810 21811 21812 21813 21814 21815 21816 21817 21818 21819 21820 21821 21822 21823 21824 21825 21826 21827 21828 21829 21830 21831 21832 21833 21834 21835 21836 21837 21838 21839 21840 21841 21842 21843 21844 21845 21846 21847 21848 21849 21850 21851 21852 21853 21854 21855 21856 21857 21858 21859 21860 21861 21862 21863 21864 21865 21866 21867 21868 21869 21870 21871 21872 21873 21874 21875 21876 21877 21878 21879 21880 21881 21882 21883 21884 21885 21886 21887 21888 21889 21890 21891 21892 21893 21894 21895 21896 21897 21898 21899 21900 21901 21902 21903 21904 21905 21906 21907 21908 21909 21910 21911 21912 21913 21914 21915 21916 21917 21918 21919 21920 21921 21922 21923 21924 21925 21926 21927 21928 21929 21930 21931 21932 21933 21934 21935 21936 21937 21938 21939 21940 21941 21942 21943 21944 21945 21946 21947 21948 21949 21950 21951 21952 21953 21954 21955 21956 21957 21958 21959 21960 21961 21962 21963 21964 21965 21966 21967 21968 21969 21970 21971 21972 21973 21974 21975 21976 21977 21978 21979 21980 21981 21982 21983 21984 21985 21986 21987 21988 21989 21990 21991 21992 21993 21994 21995 21996 21997 21998 21999 22000 22001 22002 22003 22004 22005 22006 22007 22008 22009 22010 22011 22012 22013 22014 22015 22016 22017 22018 22019 22020 22021 22022 22023 22024 22025 22026 22027 22028 22029 22030 22031 22032 22033 22034 22035 22036 22037 22038 22039 22040 22041 22042 22043 22044 22045 22046 22047 22048 22049 22050 22051 22052 22053 22054 22055 22056 22057 22058 22059 22060 22061 22062 22063 22064 22065 22066 22067 22068 22069 22070 22071 22072 22073 22074 22075 22076 22077 22078 22079 22080 22081 22082 22083 22084 22085 22086 22087 22088 22089 22090 22091 22092 22093 22094 22095 22096 22097 22098 22099 22100 22101 22102 22103 22104 22105 22106 22107 22108 22109 22110 22111 22112 22113 22114 22115 22116 22117 22118 22119 22120 22121 22122 22123 22124 22125 22126 22127 22128 22129 22130 22131 22132 22133 22134 22135 22136 22137 22138 22139 22140 22141 22142 22143 22144 22145 22146 22147 22148 22149 22150 22151 22152 22153 22154 22155 22156 22157 22158 22159 22160 22161 22162 22163 22164 22165 22166 22167 22168 22169 22170 22171 22172 22173 22174 22175 22176 22177 22178 22179 22180 22181 22182 22183 22184 22185 22186 22187 22188 22189 22190 22191 22192 22193 22194 22195 22196 22197 22198 22199 22200 22201 22202 22203 22204 22205 22206 22207 22208 22209 22210 22211 22212 22213 22214 22215 22216 22217 22218 22219 22220 22221 22222 22223 22224 22225 22226 22227 22228 22229 22230 22231 22232 22233 22234 22235 22236 22237 22238 22239 22240 22241 22242 22243 22244 22245 22246 22247 22248 22249 22250 22251 22252 22253 22254 22255 22256 22257 22258 22259 22260 22261 22262 22263 22264 22265 22266 22267 22268 22269 22270 22271 22272 22273 22274 22275 22276 22277 22278 22279 22280 22281 22282 22283 22284 22285 22286 22287 22288 22289 22290 22291 22292 22293 22294 22295 22296 22297 22298 22299 22300 22301 22302 22303 22304 22305 22306 22307 22308 22309 22310 22311 22312 22313 22314 22315 22316 22317 22318 22319 22320 22321 22322 22323 22324 22325 22326 22327 22328 22329 22330 22331 22332 22333 22334 22335 22336 22337 22338 22339 22340 22341 22342 22343 22344 22345 22346 22347 22348 22349 22350 22351 22352 22353 22354 22355 22356 22357 22358 22359 22360 22361 22362 22363 22364 22365 22366 22367 22368 22369 22370 22371 22372 22373 22374 22375 22376 22377 22378 22379 22380 22381 22382 22383 22384 22385 22386 22387 22388 22389 22390 22391 22392 22393 22394 22395 22396 22397 22398 22399 22400 22401 22402 22403 22404 22405 22406 22407 22408 22409 22410 22411 22412 22413 22414 22415 22416 22417 22418 22419 22420 22421 22422 22423 22424 22425 22426 22427 22428 22429 22430 22431 22432 22433 22434 22435 22436 22437 22438 22439 22440 22441 22442 22443 22444 22445 22446 22447 22448 22449 22450 22451 22452 22453 22454 22455 22456 22457 22458 22459 22460 22461 22462 22463 22464 22465 22466 22467 22468 22469 22470 22471 22472 22473 22474 22475 22476 22477 22478 22479 22480 22481 22482 22483 22484 22485 22486 22487 22488 22489 22490 22491 22492 22493 22494 22495 22496 22497 22498 22499 22500 22501 22502 22503 22504 22505 22506 22507 22508 22509 22510 22511 22512 22513 22514 22515 22516 22517 22518 22519 22520 22521 22522 22523 22524 22525 22526 22527 22528 22529 22530 22531 22532 22533 22534 22535 22536 22537 22538 22539 22540 22541 22542 22543 22544 22545 22546 22547 22548 22549 22550 22551 22552 22553 22554 22555 22556 22557 22558 22559 22560 22561 22562 22563 22564 22565 22566 22567 22568 22569 22570 22571 22572 22573 22574 22575 22576 22577 22578 22579 22580 22581 22582 22583 22584 22585 22586 22587 22588 22589 22590 22591 22592 22593 22594 22595 22596 22597 22598 22599 22600 22601 22602 22603 22604 22605 22606 22607 22608 22609 22610 22611 22612 22613 22614 22615 22616 22617 22618 22619 22620 22621 22622 22623 22624 22625 22626 22627 22628 22629 22630 22631 22632 22633 22634 22635 22636 22637 22638 22639 22640 22641 22642 22643 22644 22645 22646 22647 22648 22649 22650 22651 22652 22653 22654 22655 22656 22657 22658 22659 22660 22661 22662 22663 22664 22665 22666 22667 22668 22669 22670 22671 22672 22673 22674 22675 22676 22677 22678 22679 22680 22681 22682 22683 22684 22685 22686 22687 22688 22689 22690 22691 22692 22693 22694 22695 22696 22697 22698 22699 22700 22701 22702 22703 22704 22705 22706 22707 22708 22709 22710 22711 22712 22713 22714 22715 22716 22717 22718 22719 22720 22721 22722 22723 22724 22725 22726 22727 22728 22729 22730 22731 22732 22733 22734 22735 22736 22737 22738 22739 22740 22741 22742 22743 22744 22745 22746 22747 22748 22749 22750 22751 22752 22753 22754 22755 22756 22757 22758 22759 22760 22761 22762 22763 22764 22765 22766 22767 22768 22769 22770 22771 22772 22773 22774 22775 22776 22777 22778 22779 22780 22781 22782 22783 22784 22785 22786 22787 22788 22789 22790 22791 22792 22793 22794 22795 22796 22797 22798 22799 22800 22801 22802 22803 22804 22805 22806 22807 22808 22809 22810 22811 22812 22813 22814 22815 22816 22817 22818 22819 22820 22821 22822 22823 22824 22825 22826 22827 22828 22829 22830 22831 22832 22833 22834 22835 22836 22837 22838 22839 22840 22841 22842 22843 22844 22845 22846 22847 22848 22849 22850 22851 22852 22853 22854 22855 22856 22857 22858 22859 22860 22861 22862 22863 22864 22865 22866 22867 22868 22869 22870 22871 22872 22873 22874 22875 22876 22877 22878 22879 22880 22881 22882 22883 22884 22885 22886 22887 22888 22889 22890 22891 22892 22893 22894 22895 22896 22897 22898 22899 22900 22901 22902 22903 22904 22905 22906 22907 22908 22909 22910 22911 22912 22913 22914 22915 22916 22917 22918 22919 22920 22921 22922 22923 22924 22925 22926 22927 22928 22929 22930 22931 22932 22933 22934 22935 22936 22937 22938 22939 22940 22941 22942 22943 22944 22945 22946 22947 22948 22949 22950 22951 22952 22953 22954 22955 22956 22957 22958 22959 22960 22961 22962 22963 22964 22965 22966 22967 22968 22969 22970 22971 22972 22973 22974 22975 22976 22977 22978 22979 22980 22981 22982 22983 22984 22985 22986 22987 22988 22989 22990 22991 22992 22993 22994 22995 22996 22997 22998 22999 23000 23001 23002 23003 23004 23005 23006 23007 23008 23009 23010 23011 23012 23013 23014 23015 23016 23017 23018 23019 23020 23021 23022 23023 23024 23025 23026 23027 23028 23029 23030 23031 23032 23033 23034 23035 23036 23037 23038 23039 23040 23041 23042 23043 23044 23045 23046 23047 23048 23049 23050 23051 23052 23053 23054 23055 23056 23057 23058 23059 23060 23061 23062 23063 23064 23065 23066 23067 23068 23069 23070 23071 23072 23073 23074 23075 23076 23077 23078 23079 23080 23081 23082 23083 23084 23085 23086 23087 23088 23089 23090 23091 23092 23093 23094 23095 23096 23097 23098 23099 23100 23101 23102 23103 23104 23105 23106 23107 23108 23109 23110 23111 23112 23113 23114 23115 23116 23117 23118 23119 23120 23121 23122 23123 23124 23125 23126 23127 23128 23129 23130 23131 23132 23133 23134 23135 23136 23137 23138 23139 23140 23141 23142 23143 23144 23145 23146 23147 23148 23149 23150 23151 23152 23153 23154 23155 23156 23157 23158 23159 23160 23161 23162 23163 23164 23165 23166 23167 23168 23169 23170 23171 23172 23173 23174 23175 23176 23177 23178 23179 23180 23181 23182 23183 23184 23185 23186 23187 23188 23189 23190 23191 23192 23193 23194 23195 23196 23197 23198 23199 23200 23201 23202 23203 23204 23205 23206 23207 23208 23209 23210 23211 23212 23213 23214 23215 23216 23217 23218 23219 23220 23221 23222 23223 23224 23225 23226 23227 23228 23229 23230 23231 23232 23233 23234 23235 23236 23237 23238 23239 23240 23241 23242 23243 23244 23245 23246 23247 23248 23249 23250 23251 23252 23253 23254 23255 23256 23257 23258 23259 23260 23261 23262 23263 23264 23265 23266 23267 23268 23269 23270 23271 23272 23273 23274 23275 23276 23277 23278 23279 23280 23281 23282 23283 23284 23285 23286 23287 23288 23289 23290 23291 23292 23293 23294 23295 23296 23297 23298 23299 23300 23301 23302 23303 23304 23305 23306 23307 23308 23309 23310 23311 23312 23313 23314 23315 23316 23317 23318 23319 23320 23321 23322 23323 23324 23325 23326 23327 23328 23329 23330 23331 23332 23333 23334 23335 23336 23337 23338 23339 23340 23341 23342 23343 23344 23345 23346 23347 23348 23349 23350 23351 23352 23353 23354 23355 23356 23357 23358 23359 23360 23361 23362 23363 23364 23365 23366 23367 23368 23369 23370 23371 23372 23373 23374 23375 23376 23377 23378 23379 23380 23381 23382 23383 23384 23385 23386 23387 23388 23389 23390 23391 23392 23393 23394 23395 23396 23397 23398 23399 23400 23401 23402 23403 23404 23405 23406 23407 23408 23409 23410 23411 23412 23413 23414 23415 23416 23417 23418 23419 23420 23421 23422 23423 23424 23425 23426 23427 23428 23429 23430 23431 23432 23433 23434 23435 23436 23437 23438 23439 23440 23441 23442 23443 23444 23445 23446 23447 23448 23449 23450 23451 23452 23453 23454 23455 23456 23457 23458 23459 23460 23461 23462 23463 23464 23465 23466 23467 23468 23469 23470 23471 23472 23473 23474 23475 23476 23477 23478 23479 23480 23481 23482 23483 23484 23485 23486 23487 23488 23489 23490 23491 23492 23493 23494 23495 23496 23497 23498 23499 23500 23501 23502 23503 23504 23505 23506 23507 23508 23509 23510 23511 23512 23513 23514 23515 23516 23517 23518 23519 23520 23521 23522 23523 23524 23525 23526 23527 23528 23529 23530 23531 23532 23533 23534 23535 23536 23537 23538 23539 23540 23541 23542 23543 23544 23545 23546 23547 23548 23549 23550 23551 23552 23553 23554 23555 23556 23557 23558 23559 23560 23561 23562 23563 23564 23565 23566 23567 23568 23569 23570 23571 23572 23573 23574 23575 23576 23577 23578 23579 23580 23581 23582 23583 23584 23585 23586 23587 23588 23589 23590 23591 23592 23593 23594 23595 23596 23597 23598 23599 23600 23601 23602 23603 23604 23605 23606 23607 23608 23609 23610 23611 23612 23613 23614 23615 23616 23617 23618 23619 23620 23621 23622 23623 23624 23625 23626 23627 23628 23629 23630 23631 23632 23633 23634 23635 23636 23637 23638 23639 23640 23641 23642 23643 23644 23645 23646 23647 23648 23649 23650 23651 23652 23653 23654 23655 23656 23657 23658 23659 23660 23661 23662 23663 23664 23665 23666 23667 23668 23669 23670 23671 23672 23673 23674 23675 23676 23677 23678 23679 23680 23681 23682 23683 23684 23685 23686 23687 23688 23689 23690 23691 23692 23693 23694 23695 23696 23697 23698 23699 23700 23701 23702 23703 23704 23705 23706 23707 23708 23709 23710 23711 23712 23713 23714 23715 23716 23717 23718 23719 23720 23721 23722 23723 23724 23725 23726 23727 23728 23729 23730 23731 23732 23733 23734 23735 23736 23737 23738 23739 23740 23741 23742 23743 23744 23745 23746 23747 23748 23749 23750 23751 23752 23753 23754 23755 23756 23757 23758 23759 23760 23761 23762 23763 23764 23765 23766 23767 23768 23769 23770 23771 23772 23773 23774 23775 23776 23777 23778 23779 23780 23781 23782 23783 23784 23785 23786 23787 23788 23789 23790 23791 23792 23793 23794 23795 23796 23797 23798 23799 23800 23801 23802 23803 23804 23805 23806 23807 23808 23809 23810 23811 23812 23813 23814 23815 23816 23817 23818 23819 23820 23821 23822 23823 23824 23825 23826 23827 23828 23829 23830 23831 23832 23833 23834 23835 23836 23837 23838 23839 23840 23841 23842 23843 23844 23845 23846 23847 23848 23849 23850 23851 23852 23853 23854 23855 23856 23857 23858 23859 23860 23861 23862 23863 23864 23865 23866 23867 23868 23869 23870 23871 23872 23873 23874 23875 23876 23877 23878 23879 23880 23881 23882 23883 23884 23885 23886 23887 23888 23889 23890 23891 23892 23893 23894 23895 23896 23897 23898 23899 23900 23901 23902 23903 23904 23905 23906 23907 23908 23909 23910 23911 23912 23913 23914 23915 23916 23917 23918 23919 23920 23921 23922 23923 23924 23925 23926 23927 23928 23929 23930 23931 23932 23933 23934 23935 23936 23937 23938 23939 23940 23941 23942 23943 23944 23945 23946 23947 23948 23949 23950 23951 23952 23953 23954 23955 23956 23957 23958 23959 23960 23961 23962 23963 23964 23965 23966 23967 23968 23969 23970 23971 23972 23973 23974 23975 23976 23977 23978 23979 23980 23981 23982 23983 23984 23985 23986 23987 23988 23989 23990 23991 23992 23993 23994 23995 23996 23997 23998 23999 24000 24001 24002 24003 24004 24005 24006 24007 24008 24009 24010 24011 24012 24013 24014 24015 24016 24017 24018 24019 24020 24021 24022 24023 24024 24025 24026 24027 24028 24029 24030 24031 24032 24033 24034 24035 24036 24037 24038 24039 24040 24041 24042 24043 24044 24045 24046 24047 24048 24049 24050 24051 24052 24053 24054 24055 24056 24057 24058 24059 24060 24061 24062 24063 24064 24065 24066 24067 24068 24069 24070 24071 24072 24073 24074 24075 24076 24077 24078 24079 24080 24081 24082 24083 24084 24085 24086 24087 24088 24089 24090 24091 24092 24093 24094 24095 24096 24097 24098 24099 24100 24101 24102 24103 24104 24105 24106 24107 24108 24109 24110 24111 24112 24113 24114 24115 24116 24117 24118 24119 24120 24121 24122 24123 24124 24125 24126 24127 24128 24129 24130 24131 24132 24133 24134 24135 24136 24137 24138 24139 24140 24141 24142 24143 24144 24145 24146 24147 24148 24149 24150 24151 24152 24153 24154 24155 24156 24157 24158 24159 24160 24161 24162 24163 24164 24165 24166 24167 24168 24169 24170 24171 24172 24173 24174 24175 24176 24177 24178 24179 24180 24181 24182 24183 24184 24185 24186 24187 24188 24189 24190 24191 24192 24193 24194 24195 24196 24197 24198 24199 24200 24201 24202 24203 24204 24205 24206 24207 24208 24209 24210 24211 24212 24213 24214 24215 24216 24217 24218 24219 24220 24221 24222 24223 24224 24225 24226 24227 24228 24229 24230 24231 24232 24233 24234 24235 24236 24237 24238 24239 24240 24241 24242 24243 24244 24245 24246 24247 24248 24249 24250 24251 24252 24253 24254 24255 24256 24257 24258 24259 24260 24261 24262 24263 24264 24265 24266 24267 24268 24269 24270 24271 24272 24273 24274 24275 24276 24277 24278 24279 24280 24281 24282 24283 24284 24285 24286 24287 24288 24289 24290 24291 24292 24293 24294 24295 24296 24297 24298 24299 24300 24301 24302 24303 24304 24305 24306 24307 24308 24309 24310 24311 24312 24313 24314 24315 24316 24317 24318 24319 24320 24321 24322 24323 24324 24325 24326 24327 24328 24329 24330 24331 24332 24333 24334 24335 24336 24337 24338 24339 24340 24341 24342 24343 24344 24345 24346 24347 24348 24349 24350 24351 24352 24353 24354 24355 24356 24357 24358 24359 24360 24361 24362 24363 24364 24365 24366 24367 24368 24369 24370 24371 24372 24373 24374 24375 24376 24377 24378 24379 24380 24381 24382 24383 24384 24385 24386 24387 24388 24389 24390 24391 24392 24393 24394 24395 24396 24397 24398 24399 24400 24401 24402 24403 24404 24405 24406 24407 24408 24409 24410 24411 24412 24413 24414 24415 24416 24417 24418 24419 24420 24421 24422 24423 24424 24425 24426 24427 24428 24429 24430 24431 24432 24433 24434 24435 24436 24437 24438 24439 24440 24441 24442 24443 24444 24445 24446 24447 24448 24449 24450 24451 24452 24453 24454 24455 24456 24457 24458 24459 24460 24461 24462 24463 24464 24465 24466 24467 24468 24469 24470 24471 24472 24473 24474 24475 24476 24477 24478 24479 24480 24481 24482 24483 24484 24485 24486 24487 24488 24489 24490 24491 24492 24493 24494 24495 24496 24497 24498 24499 24500 24501 24502 24503 24504 24505 24506 24507 24508 24509 24510 24511 24512 24513 24514 24515 24516 24517 24518 24519 24520 24521 24522 24523 24524 24525 24526 24527 24528 24529 24530 24531 24532 24533 24534 24535 24536 24537 24538 24539 24540 24541 24542 24543 24544 24545 24546 24547 24548 24549 24550 24551 24552 24553 24554 24555 24556 24557 24558 24559 24560 24561 24562 24563 24564 24565 24566 24567 24568 24569 24570 24571 24572 24573 24574 24575 24576 24577 24578 24579 24580 24581 24582 24583 24584 24585 24586 24587 24588 24589 24590 24591 24592 24593 24594 24595 24596 24597 24598 24599 24600 24601 24602 24603 24604 24605 24606 24607 24608 24609 24610 24611 24612 24613 24614 24615 24616 24617 24618 24619 24620 24621 24622 24623 24624 24625 24626 24627 24628 24629 24630 24631 24632 24633 24634 24635 24636 24637 24638 24639 24640 24641 24642 24643 24644 24645 24646 24647 24648 24649 24650 24651 24652 24653 24654 24655 24656 24657 24658 24659 24660 24661 24662 24663 24664 24665 24666 24667 24668 24669 24670 24671 24672 24673 24674 24675 24676 24677 24678 24679 24680 24681 24682 24683 24684 24685 24686 24687 24688 24689 24690 24691 24692 24693 24694 24695 24696 24697 24698 24699 24700 24701 24702 24703 24704 24705 24706 24707 24708 24709 24710 24711 24712 24713 24714 24715 24716 24717 24718 24719 24720 24721 24722 24723 24724 24725 24726 24727 24728 24729 24730 24731 24732 24733 24734 24735 24736 24737 24738 24739 24740 24741 24742 24743 24744 24745 24746 24747 24748 24749 24750 24751 24752 24753 24754 24755 24756 24757 24758 24759 24760 24761 24762 24763 24764 24765 24766 24767 24768 24769 24770 24771 24772 24773 24774 24775 24776 24777 24778 24779 24780 24781 24782 24783 24784 24785 24786 24787 24788 24789 24790 24791 24792 24793 24794 24795 24796 24797 24798 24799 24800 24801 24802 24803 24804 24805 24806 24807 24808 24809 24810 24811 24812 24813 24814 24815 24816 24817 24818 24819 24820 24821 24822 24823 24824 24825 24826 24827 24828 24829 24830 24831 24832 24833 24834 24835 24836 24837 24838 24839 24840 24841 24842 24843 24844 24845 24846 24847 24848 24849 24850 24851 24852 24853 24854 24855 24856 24857 24858 24859 24860 24861 24862 24863 24864 24865 24866 24867 24868 24869 24870 24871 24872 24873 24874 24875 24876 24877 24878 24879 24880 24881 24882 24883 24884 24885 24886 24887 24888 24889 24890 24891 24892 24893 24894 24895 24896 24897 24898 24899 24900 24901 24902 24903 24904 24905 24906 24907 24908 24909 24910 24911 24912 24913 24914 24915 24916 24917 24918 24919 24920 24921 24922 24923 24924 24925 24926 24927 24928 24929 24930 24931 24932 24933 24934 24935 24936 24937 24938 24939 24940 24941 24942 24943 24944 24945 24946 24947 24948 24949 24950 24951 24952 24953 24954 24955 24956 24957 24958 24959 24960 24961 24962 24963 24964 24965 24966 24967 24968 24969 24970 24971 24972 24973 24974 24975 24976 24977 24978 24979 24980 24981 24982 24983 24984 24985 24986 24987 24988 24989 24990 24991 24992 24993 24994 24995 24996 24997 24998 24999 25000 25001 25002 25003 25004 25005 25006 25007 25008 25009 25010 25011 25012 25013 25014 25015 25016 25017 25018 25019 25020 25021 25022 25023 25024 25025 25026 25027 25028 25029 25030 25031 25032 25033 25034 25035 25036 25037 25038 25039 25040 25041 25042 25043 25044 25045 25046 25047 25048 25049 25050 25051 25052 25053 25054 25055 25056 25057 25058 25059 25060 25061 25062 25063 25064 25065 25066 25067 25068 25069 25070 25071 25072 25073 25074 25075 25076 25077 25078 25079 25080 25081 25082 25083 25084 25085 25086 25087 25088 25089 25090 25091 25092 25093 25094 25095 25096 25097 25098 25099 25100 25101 25102 25103 25104 25105 25106 25107 25108 25109 25110 25111 25112 25113 25114 25115 25116 25117 25118 25119 25120 25121 25122 25123 25124 25125 25126 25127 25128 25129 25130 25131 25132 25133 25134 25135 25136 25137 25138 25139 25140 25141 25142 25143 25144 25145 25146 25147 25148 25149 25150 25151 25152 25153 25154 25155 25156 25157 25158 25159 25160 25161 25162 25163 25164 25165 25166 25167 25168 25169 25170 25171 25172 25173 25174 25175 25176 25177 25178 25179 25180 25181 25182 25183 25184 25185 25186 25187 25188 25189 25190 25191 25192 25193 25194 25195 25196 25197 25198 25199 25200 25201 25202 25203 25204 25205 25206 25207 25208 25209 25210 25211 25212 25213 25214 25215 25216 25217 25218 25219 25220 25221 25222 25223 25224 25225 25226 25227 25228 25229 25230 25231 25232 25233 25234 25235 25236 25237 25238 25239 25240 25241 25242 25243 25244 25245 25246 25247 25248 25249 25250 25251 25252 25253 25254 25255 25256 25257 25258 25259 25260 25261 25262 25263 25264 25265 25266 25267 25268 25269 25270 25271 25272 25273 25274 25275 25276 25277 25278 25279 25280 25281 25282 25283 25284 25285 25286 25287 25288 25289 25290 25291 25292 25293 25294 25295 25296 25297 25298 25299 25300 25301 25302 25303 25304 25305 25306 25307 25308 25309 25310 25311 25312 25313 25314 25315 25316 25317 25318 25319 25320 25321 25322 25323 25324 25325 25326 25327 25328 25329 25330 25331 25332 25333 25334 25335 25336 25337 25338 25339 25340 25341 25342 25343 25344 25345 25346 25347 25348 25349 25350 25351 25352 25353 25354 25355 25356 25357 25358 25359 25360 25361 25362 25363 25364 25365 25366 25367 25368 25369 25370 25371 25372 25373 25374 25375 25376 25377 25378 25379 25380 25381 25382 25383 25384 25385 25386 25387 25388 25389 25390 25391 25392 25393 25394 25395 25396 25397 25398 25399 25400 25401 25402 25403 25404 25405 25406 25407 25408 25409 25410 25411 25412 25413 25414 25415 25416 25417 25418 25419 25420 25421 25422 25423 25424 25425 25426 25427 25428 25429 25430 25431 25432 25433 25434 25435 25436 25437 25438 25439 25440 25441 25442 25443 25444 25445 25446 25447 25448 25449 25450 25451 25452 25453 25454 25455 25456 25457 25458 25459 25460 25461 25462 25463 25464 25465 25466 25467 25468 25469 25470 25471 25472 25473 25474 25475 25476 25477 25478 25479 25480 25481 25482 25483 25484 25485 25486 25487 25488 25489 25490 25491 25492 25493 25494 25495 25496 25497 25498 25499 25500 25501 25502 25503 25504 25505 25506 25507 25508 25509 25510 25511 25512 25513 25514 25515 25516 25517 25518 25519 25520 25521 25522 25523 25524 25525 25526 25527 25528 25529 25530 25531 25532 25533 25534 25535 25536 25537 25538 25539 25540 25541 25542 25543 25544 25545 25546 25547 25548 25549 25550 25551 25552 25553 25554 25555 25556 25557 25558 25559 25560 25561 25562 25563 25564 25565 25566 25567 25568 25569 25570 25571 25572 25573 25574 25575 25576 25577 25578 25579 25580 25581 25582 25583 25584 25585 25586 25587 25588 25589 25590 25591 25592 25593 25594 25595 25596 25597 25598 25599 25600 25601 25602 25603 25604 25605 25606 25607 25608 25609 25610 25611 25612 25613 25614 25615 25616 25617 25618 25619 25620 25621 25622 25623 25624 25625 25626 25627 25628 25629 25630 25631 25632 25633 25634 25635 25636 25637 25638 25639 25640 25641 25642 25643 25644 25645 25646 25647 25648 25649 25650 25651 25652 25653 25654 25655 25656 25657 25658 25659 25660 25661 25662 25663 25664 25665 25666 25667 25668 25669 25670 25671 25672 25673 25674 25675 25676 25677 25678 25679 25680 25681 25682 25683 25684 25685 25686 25687 25688 25689 25690 25691 25692 25693 25694 25695 25696 25697 25698 25699 25700 25701 25702 25703 25704 25705 25706 25707 25708 25709 25710 25711 25712 25713 25714 25715 25716 25717 25718 25719 25720 25721 25722 25723 25724 25725 25726 25727 25728 25729 25730 25731 25732 25733 25734 25735 25736 25737 25738 25739 25740 25741 25742 25743 25744 25745 25746 25747 25748 25749 25750 25751 25752 25753 25754 25755 25756 25757 25758 25759 25760 25761 25762 25763 25764 25765 25766 25767 25768 25769 25770 25771 25772 25773 25774 25775 25776 25777 25778 25779 25780 25781 25782 25783 25784 25785 25786 25787 25788 25789 25790 25791 25792 25793 25794 25795 25796 25797 25798 25799 25800 25801 25802 25803 25804 25805 25806 25807 25808 25809 25810 25811 25812 25813 25814 25815 25816 25817 25818 25819 25820 25821 25822 25823 25824 25825 25826 25827 25828 25829 25830 25831 25832 25833 25834 25835 25836 25837 25838 25839 25840 25841 25842 25843 25844 25845 25846 25847 25848 25849 25850 25851 25852 25853 25854 25855 25856 25857 25858 25859 25860 25861 25862 25863 25864 25865 25866 25867 25868 25869 25870 25871 25872 25873 25874 25875 25876 25877 25878 25879 25880 25881 25882 25883 25884 25885 25886 25887 25888 25889 25890 25891 25892 25893 25894 25895 25896 25897 25898 25899 25900 25901 25902 25903 25904 25905 25906 25907 25908 25909 25910 25911 25912 25913 25914 25915 25916 25917 25918 25919 25920 25921 25922 25923 25924 25925 25926 25927 25928 25929 25930 25931 25932 25933 25934 25935 25936 25937 25938 25939 25940 25941 25942 25943 25944 25945 25946 25947 25948 25949 25950 25951 25952 25953 25954 25955 25956 25957 25958 25959 25960 25961 25962 25963 25964 25965 25966 25967 25968 25969 25970 25971 25972 25973 25974 25975 25976 25977 25978 25979 25980 25981 25982 25983 25984 25985 25986 25987 25988 25989 25990 25991 25992 25993 25994 25995 25996 25997 25998 25999 26000 26001 26002 26003 26004 26005 26006 26007 26008 26009 26010 26011 26012 26013 26014 26015 26016 26017 26018 26019 26020 26021 26022 26023 26024 26025 26026 26027 26028 26029 26030 26031 26032 26033 26034 26035 26036 26037 26038 26039 26040 26041 26042 26043 26044 26045 26046 26047 26048 26049 26050 26051 26052 26053 26054 26055 26056 26057 26058 26059 26060 26061 26062 26063 26064 26065 26066 26067 26068 26069 26070 26071 26072 26073 26074 26075 26076 26077 26078 26079 26080 26081 26082 26083 26084 26085 26086 26087 26088 26089 26090 26091 26092 26093 26094 26095 26096 26097 26098 26099 26100 26101 26102 26103 26104 26105 26106 26107 26108 26109 26110 26111 26112 26113 26114 26115 26116 26117 26118 26119 26120 26121 26122 26123 26124 26125 26126 26127 26128 26129 26130 26131 26132 26133 26134 26135 26136 26137 26138 26139 26140 26141 26142 26143 26144 26145 26146 26147 26148 26149 26150 26151 26152 26153 26154 26155 26156 26157 26158 26159 26160 26161 26162 26163 26164 26165 26166 26167 26168 26169 26170 26171 26172 26173 26174 26175 26176 26177 26178 26179 26180 26181 26182 26183 26184 26185 26186 26187 26188 26189 26190 26191 26192 26193 26194 26195 26196 26197 26198 26199 26200 26201 26202 26203 26204 26205 26206 26207 26208 26209 26210 26211 26212 26213 26214 26215 26216 26217 26218 26219 26220 26221 26222 26223 26224 26225 26226 26227 26228 26229 26230 26231 26232 26233 26234 26235 26236 26237 26238 26239 26240 26241 26242 26243 26244 26245 26246 26247 26248 26249 26250 26251 26252 26253 26254 26255 26256 26257 26258 26259 26260 26261 26262 26263 26264 26265 26266 26267 26268 26269 26270 26271 26272 26273 26274 26275 26276 26277 26278 26279 26280 26281 26282 26283 26284 26285 26286 26287 26288 26289 26290 26291 26292 26293 26294 26295 26296 26297 26298 26299 26300 26301 26302 26303 26304 26305 26306 26307 26308 26309 26310 26311 26312 26313 26314 26315 26316 26317 26318 26319 26320 26321 26322 26323 26324 26325 26326 26327 26328 26329 26330 26331 26332 26333 26334 26335 26336 26337 26338 26339 26340 26341 26342 26343 26344 26345 26346 26347 26348 26349 26350 26351 26352 26353 26354 26355 26356 26357 26358 26359 26360 26361 26362 26363 26364 26365 26366 26367 26368 26369 26370 26371 26372 26373 26374 26375 26376 26377 26378 26379 26380 26381 26382 26383 26384 26385 26386 26387 26388 26389 26390 26391 26392 26393 26394 26395 26396 26397 26398 26399 26400 26401 26402 26403 26404 26405 26406 26407 26408 26409 26410 26411 26412 26413 26414 26415 26416 26417 26418 26419 26420 26421 26422 26423 26424 26425 26426 26427 26428 26429 26430 26431 26432 26433 26434 26435 26436 26437 26438 26439 26440 26441 26442 26443 26444 26445 26446 26447 26448 26449 26450 26451 26452 26453 26454 26455 26456 26457 26458 26459 26460 26461 26462 26463 26464 26465 26466 26467 26468 26469 26470 26471 26472 26473 26474 26475 26476 26477 26478 26479 26480 26481 26482 26483 26484 26485 26486 26487 26488 26489 26490 26491 26492 26493 26494 26495 26496 26497 26498 26499 26500 26501 26502 26503 26504 26505 26506 26507 26508 26509 26510 26511 26512 26513 26514 26515 26516 26517 26518 26519 26520 26521 26522 26523 26524 26525 26526 26527 26528 26529 26530 26531 26532 26533 26534 26535 26536 26537 26538 26539 26540 26541 26542 26543 26544 26545 26546 26547 26548 26549 26550 26551 26552 26553 26554 26555 26556 26557 26558 26559 26560 26561 26562 26563 26564 26565 26566 26567 26568 26569 26570 26571 26572 26573 26574 26575 26576 26577 26578 26579 26580 26581 26582 26583 26584 26585 26586 26587 26588 26589 26590 26591 26592 26593 26594 26595 26596 26597 26598 26599 26600 26601 26602 26603 26604 26605 26606 26607 26608 26609 26610 26611 26612 26613 26614 26615 26616 26617 26618 26619 26620 26621 26622 26623 26624 26625 26626 26627 26628 26629 26630 26631 26632 26633 26634 26635 26636 26637 26638 26639 26640 26641 26642 26643 26644 26645 26646 26647 26648 26649 26650 26651 26652 26653 26654 26655 26656 26657 26658 26659 26660 26661 26662 26663 26664 26665 26666 26667 26668 26669 26670 26671 26672 26673 26674 26675 26676 26677 26678 26679 26680 26681 26682 26683 26684 26685 26686 26687 26688 26689 26690 26691 26692 26693 26694 26695 26696 26697 26698 26699 26700 26701 26702 26703 26704 26705 26706 26707 26708 26709 26710 26711 26712 26713 26714 26715 26716 26717 26718 26719 26720 26721 26722 26723 26724 26725 26726 26727 26728 26729 26730 26731 26732 26733 26734 26735 26736 26737 26738 26739 26740 26741 26742 26743 26744 26745 26746 26747 26748 26749 26750 26751 26752 26753 26754 26755 26756 26757 26758 26759 26760 26761 26762 26763 26764 26765 26766 26767 26768 26769 26770 26771 26772 26773 26774 26775 26776 26777 26778 26779 26780 26781 26782 26783 26784 26785 26786 26787 26788 26789 26790 26791 26792 26793 26794 26795 26796 26797 26798 26799 26800 26801 26802 26803 26804 26805 26806 26807 26808 26809 26810 26811 26812 26813 26814 26815 26816 26817 26818 26819 26820 26821 26822 26823 26824 26825 26826 26827 26828 26829 26830 26831 26832 26833 26834 26835 26836 26837 26838 26839 26840 26841 26842 26843 26844 26845 26846 26847 26848 26849 26850 26851 26852 26853 26854 26855 26856 26857 26858 26859 26860 26861 26862 26863 26864 26865 26866 26867 26868 26869 26870 26871 26872 26873 26874 26875 26876 26877 26878 26879 26880 26881 26882 26883 26884 26885 26886 26887 26888 26889 26890 26891 26892 26893 26894 26895 26896 26897 26898 26899 26900 26901 26902 26903 26904 26905 26906 26907 26908 26909 26910 26911 26912 26913 26914 26915 26916 26917 26918 26919 26920 26921 26922 26923 26924 26925 26926 26927 26928 26929 26930 26931 26932 26933 26934 26935 26936 26937 26938 26939 26940 26941 26942 26943 26944 26945 26946 26947 26948 26949 26950 26951 26952 26953 26954 26955 26956 26957 26958 26959 26960 26961 26962 26963 26964 26965 26966 26967 26968 26969 26970 26971 26972 26973 26974 26975 26976 26977 26978 26979 26980 26981 26982 26983 26984 26985 26986 26987 26988 26989 26990 26991 26992 26993 26994 26995 26996 26997 26998 26999 27000 27001 27002 27003 27004 27005 27006 27007 27008 27009 27010 27011 27012 27013 27014 27015 27016 27017 27018 27019 27020 27021 27022 27023 27024 27025 27026 27027 27028 27029 27030 27031 27032 27033 27034 27035 27036 27037 27038 27039 27040 27041 27042 27043 27044 27045 27046 27047 27048 27049 27050 27051 27052 27053 27054 27055 27056 27057 27058 27059 27060 27061 27062 27063 27064 27065 27066 27067 27068 27069 27070 27071 27072 27073 27074 27075 27076 27077 27078 27079 27080 27081 27082 27083 27084 27085 27086 27087 27088 27089 27090 27091 27092 27093 27094 27095 27096 27097 27098 27099 27100 27101 27102 27103 27104 27105 27106 27107 27108 27109 27110 27111 27112 27113 27114 27115 27116 27117 27118 27119 27120 27121 27122 27123 27124 27125 27126 27127 27128 27129 27130 27131 27132 27133 27134 27135 27136 27137 27138 27139 27140 27141 27142 27143 27144 27145 27146 27147 27148 27149 27150 27151 27152 27153 27154 27155 27156 27157 27158 27159 27160 27161 27162 27163 27164 27165 27166 27167 27168 27169 27170 27171 27172 27173 27174 27175 27176 27177 27178 27179 27180 27181 27182 27183 27184 27185 27186 27187 27188 27189 27190 27191 27192 27193 27194 27195 27196 27197 27198 27199 27200 27201 27202 27203 27204 27205 27206 27207 27208 27209 27210 27211 27212 27213 27214 27215 27216 27217 27218 27219 27220 27221 27222 27223 27224 27225 27226 27227 27228 27229 27230 27231 27232 27233 27234 27235 27236 27237 27238 27239 27240 27241 27242 27243 27244 27245 27246 27247 27248 27249 27250 27251 27252 27253 27254 27255 27256 27257 27258 27259 27260 27261 27262 27263 27264 27265 27266 27267 27268 27269 27270 27271 27272 27273 27274 27275 27276 27277 27278 27279 27280 27281 27282 27283 27284 27285 27286 27287 27288 27289 27290 27291 27292 27293 27294 27295 27296 27297 27298 27299 27300 27301 27302 27303 27304 27305 27306 27307 27308 27309 27310 27311 27312 27313 27314 27315 27316 27317 27318 27319 27320 27321 27322 27323 27324 27325 27326 27327 27328 27329 27330 27331 27332 27333 27334 27335 27336 27337 27338 27339 27340 27341 27342 27343 27344 27345 27346 27347 27348 27349 27350 27351 27352 27353 27354 27355 27356 27357 27358 27359 27360 27361 27362 27363 27364 27365 27366 27367 27368 27369 27370 27371 27372 27373 27374 27375 27376 27377 27378 27379 27380 27381 27382 27383 27384 27385 27386 27387 27388 27389 27390 27391 27392 27393 27394 27395 27396 27397 27398 27399 27400 27401 27402 27403 27404 27405 27406 27407 27408 27409 27410 27411 27412 27413 27414 27415 27416 27417 27418 27419 27420 27421 27422 27423 27424 27425 27426 27427 27428 27429 27430 27431 27432 27433 27434 27435 27436 27437 27438 27439 27440 27441 27442 27443 27444 27445 27446 27447 27448 27449 27450 27451 27452 27453 27454 27455 27456 27457 27458 27459 27460 27461 27462 27463 27464 27465 27466 27467 27468 27469 27470 27471 27472 27473 27474 27475 27476 27477 27478 27479 27480 27481 27482 27483 27484 27485 27486 27487 27488 27489 27490 27491 27492 27493 27494 27495 27496 27497 27498 27499 27500 27501 27502 27503 27504 27505 27506 27507 27508 27509 27510 27511 27512 27513 27514 27515 27516 27517 27518 27519 27520 27521 27522 27523 27524 27525 27526 27527 27528 27529 27530 27531 27532 27533 27534 27535 27536 27537 27538 27539 27540 27541 27542 27543 27544 27545 27546 27547 27548 27549 27550 27551 27552 27553 27554 27555 27556 27557 27558 27559 27560 27561 27562 27563 27564 27565 27566 27567 27568 27569 27570 27571 27572 27573 27574 27575 27576 27577 27578 27579 27580 27581 27582 27583 27584 27585 27586 27587 27588 27589 27590 27591 27592 27593 27594 27595 27596 27597 27598 27599 27600 27601 27602 27603 27604 27605 27606 27607 27608 27609 27610 27611 27612 27613 27614 27615 27616 27617 27618 27619 27620 27621 27622 27623 27624 27625 27626 27627 27628 27629 27630 27631 27632 27633 27634 27635 27636 27637 27638 27639 27640 27641 27642 27643 27644 27645 27646 27647 27648 27649 27650 27651 27652 27653 27654 27655 27656 27657 27658 27659 27660 27661 27662 27663 27664 27665 27666 27667 27668 27669 27670 27671 27672 27673 27674 27675 27676 27677 27678 27679 27680 27681 27682 27683 27684 27685 27686 27687 27688 27689 27690 27691 27692 27693 27694 27695 27696 27697 27698 27699 27700 27701 27702 27703 27704 27705 27706 27707 27708 27709 27710 27711 27712 27713 27714 27715 27716 27717 27718 27719 27720 27721 27722 27723 27724 27725 27726 27727 27728 27729 27730 27731 27732 27733 27734 27735 27736 27737 27738 27739 27740 27741 27742 27743 27744 27745 27746 27747 27748 27749 27750 27751 27752 27753 27754 27755 27756 27757 27758 27759 27760 27761 27762 27763 27764 27765 27766 27767 27768 27769 27770 27771 27772 27773 27774 27775 27776 27777 27778 27779 27780 27781 27782 27783 27784 27785 27786 27787 27788 27789 27790 27791 27792 27793 27794 27795 27796 27797 27798 27799 27800 27801 27802 27803 27804 27805 27806 27807 27808 27809 27810 27811 27812 27813 27814 27815 27816 27817 27818 27819 27820 27821 27822 27823 27824 27825 27826 27827 27828 27829 27830 27831 27832 27833 27834 27835 27836 27837 27838 27839 27840 27841 27842 27843 27844 27845 27846 27847 27848 27849 27850 27851 27852 27853 27854 27855 27856 27857 27858 27859 27860 27861 27862 27863 27864 27865 27866 27867 27868 27869 27870 27871 27872 27873 27874 27875 27876 27877 27878 27879 27880 27881 27882 27883 27884 27885 27886 27887 27888 27889 27890 27891 27892 27893 27894 27895 27896 27897 27898 27899 27900 27901 27902 27903 27904 27905 27906 27907 27908 27909 27910 27911 27912 27913 27914 27915 27916 27917 27918 27919 27920 27921 27922 27923 27924 27925 27926 27927 27928 27929 27930 27931 27932 27933 27934 27935 27936 27937 27938 27939 27940 27941 27942 27943 27944 27945 27946 27947 27948 27949 27950 27951 27952 27953 27954 27955 27956 27957 27958 27959 27960 27961 27962 27963 27964 27965 27966 27967 27968 27969 27970 27971 27972 27973 27974 27975 27976 27977 27978 27979 27980 27981 27982 27983 27984 27985 27986 27987 27988 27989 27990 27991 27992 27993 27994 27995 27996 27997 27998 27999 28000 28001 28002 28003 28004 28005 28006 28007 28008 28009 28010 28011 28012 28013 28014 28015 28016 28017 28018 28019 28020 28021 28022 28023 28024 28025 28026 28027 28028 28029 28030 28031 28032 28033 28034 28035 28036 28037 28038 28039 28040 28041 28042 28043 28044 28045 28046 28047 28048 28049 28050 28051 28052 28053 28054 28055 28056 28057 28058 28059 28060 28061 28062 28063 28064 28065 28066 28067 28068 28069 28070 28071 28072 28073 28074 28075 28076 28077 28078 28079 28080 28081 28082 28083 28084 28085 28086 28087 28088 28089 28090 28091 28092 28093 28094 28095 28096 28097 28098 28099 28100 28101 28102 28103 28104 28105 28106 28107 28108 28109 28110 28111 28112 28113 28114 28115 28116 28117 28118 28119 28120 28121 28122 28123 28124 28125 28126 28127 28128 28129 28130 28131 28132 28133 28134 28135 28136 28137 28138 28139 28140 28141 28142 28143 28144 28145 28146 28147 28148 28149 28150 28151 28152 28153 28154 28155 28156 28157 28158 28159 28160 28161 28162 28163 28164 28165 28166 28167 28168 28169 28170 28171 28172 28173 28174 28175 28176 28177 28178 28179 28180 28181 28182 28183 28184 28185 28186 28187 28188 28189 28190 28191 28192 28193 28194 28195 28196 28197 28198 28199 28200 28201 28202 28203 28204 28205 28206 28207 28208 28209 28210 28211 28212 28213 28214 28215 28216 28217 28218 28219 28220 28221 28222 28223 28224 28225 28226 28227 28228 28229 28230 28231 28232 28233 28234 28235 28236 28237 28238 28239 28240 28241 28242 28243 28244 28245 28246 28247 28248 28249 28250 28251 28252 28253 28254 28255 28256 28257 28258 28259 28260 28261 28262 28263 28264 28265 28266 28267 28268 28269 28270 28271 28272 28273 28274 28275 28276 28277 28278 28279 28280 28281 28282 28283 28284 28285 28286 28287 28288 28289 28290 28291 28292 28293 28294 28295 28296 28297 28298 28299 28300 28301 28302 28303 28304 28305 28306 28307 28308 28309 28310 28311 28312 28313 28314 28315 28316 28317 28318 28319 28320 28321 28322 28323 28324 28325 28326 28327 28328 28329 28330 28331 28332 28333 28334 28335 28336 28337 28338 28339 28340 28341 28342 28343 28344 28345 28346 28347 28348 28349 28350 28351 28352 28353 28354 28355 28356 28357 28358 28359 28360 28361 28362 28363 28364 28365 28366 28367 28368 28369 28370 28371 28372 28373 28374 28375 28376 28377 28378 28379 28380 28381 28382 28383 28384 28385 28386 28387 28388 28389 28390 28391 28392 28393 28394 28395 28396 28397 28398 28399 28400 28401 28402 28403 28404 28405 28406 28407 28408 28409 28410 28411 28412 28413 28414 28415 28416 28417 28418 28419 28420 28421 28422 28423 28424 28425 28426 28427 28428 28429 28430 28431 28432 28433 28434 28435 28436 28437 28438 28439 28440 28441 28442 28443 28444 28445 28446 28447 28448 28449 28450 28451 28452 28453 28454 28455 28456 28457 28458 28459 28460 28461 28462 28463 28464 28465 28466 28467 28468 28469 28470 28471 28472 28473 28474 28475 28476 28477 28478 28479 28480 28481 28482 28483 28484 28485 28486 28487 28488 28489 28490 28491 28492 28493 28494 28495 28496 28497 28498 28499 28500 28501 28502 28503 28504 28505 28506 28507 28508 28509 28510 28511 28512 28513 28514 28515 28516 28517 28518 28519 28520 28521 28522 28523 28524 28525 28526 28527 28528 28529 28530 28531 28532 28533 28534 28535 28536 28537 28538 28539 28540 28541 28542 28543 28544 28545 28546 28547 28548 28549 28550 28551 28552 28553 28554 28555 28556 28557 28558 28559 28560 28561 28562 28563 28564 28565 28566 28567 28568 28569 28570 28571 28572 28573 28574 28575 28576 28577 28578 28579 28580 28581 28582 28583 28584 28585 28586 28587 28588 28589 28590 28591 28592 28593 28594 28595 28596 28597 28598 28599 28600 28601 28602 28603 28604 28605 28606 28607 28608 28609 28610 28611 28612 28613 28614 28615 28616 28617 28618 28619 28620 28621 28622 28623 28624 28625 28626 28627 28628 28629 28630 28631 28632 28633 28634 28635 28636 28637 28638 28639 28640 28641 28642 28643 28644 28645 28646 28647 28648 28649 28650 28651 28652 28653 28654 28655 28656 28657 28658 28659 28660 28661 28662 28663 28664 28665 28666 28667 28668 28669 28670 28671 28672 28673 28674 28675 28676 28677 28678 28679 28680 28681 28682 28683 28684 28685 28686 28687 28688 28689 28690 28691 28692 28693 28694 28695 28696 28697 28698 28699 28700 28701 28702 28703 28704 28705 28706 28707 28708 28709 28710 28711 28712 28713 28714 28715 28716 28717 28718 28719 28720 28721 28722 28723 28724 28725 28726 28727 28728 28729 28730 28731 28732 28733 28734 28735 28736 28737 28738 28739 28740 28741 28742 28743 28744 28745 28746 28747 28748 28749 28750 28751 28752 28753 28754 28755 28756 28757 28758 28759 28760 28761 28762 28763 28764 28765 28766 28767 28768 28769 28770 28771 28772 28773 28774 28775 28776 28777 28778 28779 28780 28781 28782 28783 28784 28785 28786 28787 28788 28789 28790 28791 28792 28793 28794 28795 28796 28797 28798 28799 28800 28801 28802 28803 28804 28805 28806 28807 28808 28809 28810 28811 28812 28813 28814 28815 28816 28817 28818 28819 28820 28821 28822 28823 28824 28825 28826 28827 28828 28829 28830 28831 28832 28833 28834 28835 28836 28837 28838 28839 28840 28841 28842 28843 28844 28845 28846 28847 28848 28849 28850 28851 28852 28853 28854 28855 28856 28857 28858 28859 28860 28861 28862 28863 28864 28865 28866 28867 28868 28869 28870 28871 28872 28873 28874 28875 28876 28877 28878 28879 28880 28881 28882 28883 28884 28885 28886 28887 28888 28889 28890 28891 28892 28893 28894 28895 28896 28897 28898 28899 28900 28901 28902 28903 28904 28905 28906 28907 28908 28909 28910 28911 28912 28913 28914 28915 28916 28917 28918 28919 28920 28921 28922 28923 28924 28925 28926 28927 28928 28929 28930 28931 28932 28933 28934 28935 28936 28937 28938 28939 28940 28941 28942 28943 28944 28945 28946 28947 28948 28949 28950 28951 28952 28953 28954 28955 28956 28957 28958 28959 28960 28961 28962 28963 28964 28965 28966 28967 28968 28969 28970 28971 28972 28973 28974 28975 28976 28977 28978 28979 28980 28981 28982 28983 28984 28985 28986 28987 28988 28989 28990 28991 28992 28993 28994 28995 28996 28997 28998 28999 29000 29001 29002 29003 29004 29005 29006 29007 29008 29009 29010 29011 29012 29013 29014 29015 29016 29017 29018 29019 29020 29021 29022 29023 29024 29025 29026 29027 29028 29029 29030 29031 29032 29033 29034 29035 29036 29037 29038 29039 29040 29041 29042 29043 29044 29045 29046 29047 29048 29049 29050 29051 29052 29053 29054 29055 29056 29057 29058 29059 29060 29061 29062 29063 29064 29065 29066 29067 29068 29069 29070 29071 29072 29073 29074 29075 29076 29077 29078 29079 29080 29081 29082 29083 29084 29085 29086 29087 29088 29089 29090 29091 29092 29093 29094 29095 29096 29097 29098 29099 29100 29101 29102 29103 29104 29105 29106 29107 29108 29109 29110 29111 29112 29113 29114 29115 29116 29117 29118 29119 29120 29121 29122 29123 29124 29125 29126 29127 29128 29129 29130 29131 29132 29133 29134 29135 29136 29137 29138 29139 29140 29141 29142 29143 29144 29145 29146 29147 29148 29149 29150 29151 29152 29153 29154 29155 29156 29157 29158 29159 29160 29161 29162 29163 29164 29165 29166 29167 29168 29169 29170 29171 29172 29173 29174 29175 29176 29177 29178 29179 29180 29181 29182 29183 29184 29185 29186 29187 29188 29189 29190 29191 29192 29193 29194 29195 29196 29197 29198 29199 29200 29201 29202 29203 29204 29205 29206 29207 29208 29209 29210 29211 29212 29213 29214 29215 29216 29217 29218 29219 29220 29221 29222 29223 29224 29225 29226 29227 29228 29229 29230 29231 29232 29233 29234 29235 29236 29237 29238 29239 29240 29241 29242 29243 29244 29245 29246 29247 29248 29249 29250 29251 29252 29253 29254 29255 29256 29257 29258 29259 29260 29261 29262 29263 29264 29265 29266 29267 29268 29269 29270 29271 29272 29273 29274 29275 29276 29277 29278 29279 29280 29281 29282 29283 29284 29285 29286 29287 29288 29289 29290 29291 29292 29293 29294 29295 29296 29297 29298 29299 29300 29301 29302 29303 29304 29305 29306 29307 29308 29309 29310 29311 29312 29313 29314 29315 29316 29317 29318 29319 29320 29321 29322 29323 29324 29325 29326 29327 29328 29329 29330 29331 29332 29333 29334 29335 29336 29337 29338 29339 29340 29341 29342 29343 29344 29345 29346 29347 29348 29349 29350 29351 29352 29353 29354 29355 29356 29357 29358 29359 29360 29361 29362 29363 29364 29365 29366 29367 29368 29369 29370 29371 29372 29373 29374 29375 29376 29377 29378 29379 29380 29381 29382 29383 29384 29385 29386 29387 29388 29389 29390 29391 29392 29393 29394 29395 29396 29397 29398 29399 29400 29401 29402 29403 29404 29405 29406 29407 29408 29409 29410 29411 29412 29413 29414 29415 29416 29417 29418 29419 29420 29421 29422 29423 29424 29425 29426 29427 29428 29429 29430 29431 29432 29433 29434 29435 29436 29437 29438 29439 29440 29441 29442 29443 29444 29445 29446 29447 29448 29449 29450 29451 29452 29453 29454 29455 29456 29457 29458 29459 29460 29461 29462 29463 29464 29465 29466 29467 29468 29469 29470 29471 29472 29473 29474 29475 29476 29477 29478 29479 29480 29481 29482 29483 29484 29485 29486 29487 29488 29489 29490 29491 29492 29493 29494 29495 29496 29497 29498 29499 29500 29501 29502 29503 29504 29505 29506 29507 29508 29509 29510 29511 29512 29513 29514 29515 29516 29517 29518 29519 29520 29521 29522 29523 29524 29525 29526 29527 29528 29529 29530 29531 29532 29533 29534 29535 29536 29537 29538 29539 29540 29541 29542 29543 29544 29545 29546 29547 29548 29549 29550 29551 29552 29553 29554 29555 29556 29557 29558 29559 29560 29561 29562 29563 29564 29565 29566 29567 29568 29569 29570 29571 29572 29573 29574 29575 29576 29577 29578 29579 29580 29581 29582 29583 29584 29585 29586 29587 29588 29589 29590 29591 29592 29593 29594 29595 29596 29597 29598 29599 29600 29601 29602 29603 29604 29605 29606 29607 29608 29609 29610 29611 29612 29613 29614 29615 29616 29617 29618 29619 29620 29621 29622 29623 29624 29625 29626 29627 29628 29629 29630 29631 29632 29633 29634 29635 29636 29637 29638 29639 29640 29641 29642 29643 29644 29645 29646 29647 29648 29649 29650 29651 29652 29653 29654 29655 29656 29657 29658 29659 29660 29661 29662 29663 29664 29665 29666 29667 29668 29669 29670 29671 29672 29673 29674 29675 29676 29677 29678 29679 29680 29681 29682 29683 29684 29685 29686 29687 29688 29689 29690 29691 29692 29693 29694 29695 29696 29697 29698 29699 29700 29701 29702 29703 29704 29705 29706 29707 29708 29709 29710 29711 29712 29713 29714 29715 29716 29717 29718 29719 29720 29721 29722 29723 29724 29725 29726 29727 29728 29729 29730 29731 29732 29733 29734 29735 29736 29737 29738 29739 29740 29741 29742 29743 29744 29745 29746 29747 29748 29749 29750 29751 29752 29753 29754 29755 29756 29757 29758 29759 29760 29761 29762 29763 29764 29765 29766 29767 29768 29769 29770 29771 29772 29773 29774 29775 29776 29777 29778 29779 29780 29781 29782 29783 29784 29785 29786 29787 29788 29789 29790 29791 29792 29793 29794 29795 29796 29797 29798 29799 29800 29801 29802 29803 29804 29805 29806 29807 29808 29809 29810 29811 29812 29813 29814 29815 29816 29817 29818 29819 29820 29821 29822 29823 29824 29825 29826 29827 29828 29829 29830 29831 29832 29833 29834 29835 29836 29837 29838 29839 29840 29841 29842 29843 29844 29845 29846 29847 29848 29849 29850 29851 29852 29853 29854 29855 29856 29857 29858 29859 29860 29861 29862 29863 29864 29865 29866 29867 29868 29869 29870 29871 29872 29873 29874 29875 29876 29877 29878 29879 29880 29881 29882 29883 29884 29885 29886 29887 29888 29889 29890 29891 29892 29893 29894 29895 29896 29897 29898 29899 29900 29901 29902 29903 29904 29905 29906 29907 29908 29909 29910 29911 29912 29913 29914 29915 29916 29917 29918 29919 29920 29921 29922 29923 29924 29925 29926 29927 29928 29929 29930 29931 29932 29933 
</DataArray>
<DataArray type="UInt32" Name="offsets" format="ascii">
3 6 9 12 15 17 20 22 25 28 31 33 36 39 42 45 48 51 54 57 60 63 66 69 71 74 77 79 82 85 88 91 94 97 99 102 105 108 111 114 117 120 123 126 129 132 135 138 141 144 147 149 152 154 157 160 163 166 169 172 175 178 181 184 187 190 193 196 198 201 204 207 210 213 216 219 222 225 227 230 233 236 239 242 244 247 250 253 256 259 262 264 267 269 272 275 278 281 284 286 289 292 295 298 301 303 306 309 312 315 318 321 324 327 330 333 336 338 340 343 346 348 351 353 355 358 361 364 367 370 372 374 376 379 382 385 388 391 394 397 400 403 406 408 411 414 417 419 422 425 428 431 434 437 440 443 446 449 452 455 457 460 463 466 469 471 474 477 480 482 485 488 490 493 496 499 502 505 508 511 514 517 519 522 524 527 530 533 535 538 541 543 545 548 551 554 557 560 563 566 569 571 574 576 579 581 584 587 590 593 596 599 601 604 607 610 613 616 619 622 624 626 629 631 633 636 638 641 644 647 649 652 655 658 661 664 667 670 673 675 678 681 684 687 690 692 695 698 701 704 707 710 713 716 719 722 725 728 731 734 737 740 743 746 749 752 755 758 761 764 767 770 773 776 779 782 785 788 791 794 797 800 803 806 809 812 815 818 821 823 826 828 831 834 836 839 841 844 847 850 852 855 858 860 862 865 868 871 873 875 878 881 884 887 890 893 895 898 901 904 906 909 912 915 918 921 924 926 929 932 934 937 940 942 944 946 948 951 953 955 958 961 964 967 970 972 975 978 981 984 987 990 993 995 998 1000 1003 1006 1009 1012 1015 1018 1021 1023 1026 1029 1032 1035 1038 1041 1044 1047 1049 1051 1054 1057 1059 1062 1064 1067 1069 1071 1074 1077 1080 1082 1085 1087 1089 1091 1093 1096 1099 1102 1105 1108 1111 1114 1116 1118 1121 1124 1127 1129 1132 1135 1137 1140 1143 1146 1149 1152 1155 1158 1160 1163 1166 1169 1172 1175 1178 1181 1184 1187 1189 1192 1195 1198 1200 1203 1205 1208 1211 1213 1216 1219 1222 1225 1228 1230 1233 1236 1239 1241 1244 1247 1250 1253 1256 1259 1262 1264 1267 1270 1273 1275 1278 1281 1284 1287 1290 1293 1296 1299 1302 1305 1308 1311 1314 1317 1320 1323 1326 1329 1332 1334 1337 1340 1343 1346 1349 1352 1355 1358 1361 1364 1367 1370 1373 1376 1379 1382 1385 1388 1390 1393 1396 1399 1402 1404 1407 1410 1413 1416 1419 1422 1425 1428 1430 1433 1436 1439 1441 1444 1447 1449 1452 1454 1457 1460 1463 1466 1468 1471 1474 1477 1479 1482 1484 1486 1488 1491 1494 1497 1500 1503 1506 1509 1512 1515 1518 1521 1524 1527 1529 1532 1535 1537 1540 1543 1545 1548 1551 1554 1557 1560 1563 1566 1568 1571 1573 1576 1579 1581 1584 1586 1589 1592 1595 1598 1601 1603 1606 1608 1611 1614 1616 1619 1621 1624 1627 1630 1632 1634 1637 1640 1642 1644 1646 1648 1651 1654 1657 1660 1663 1665 1667 1670 1673 1676 1679 1682 1684 1687 1690 1692 1695 1698 1701 1703 1706 1709 1711 1714 1717 1720 1723 1726 1729 1732 1735 1738 1741 1744 1747 1750 1752 1755 1758 1761 1764 1767 1769 1772 1775 1778 1781 1784 1786 1789 1792 1794 1796 1799 1802 1804 1807 1810 1813 1816 1819 1822 1825 1828 1831 1834 1836 1839 1842 1845 1848 1851 1853 1856 1859 1862 1865 1868 1871 1873 1876 1879 1882 1885 1888 1891 1894 1897 1899 1902 1905 1908 1911 1914 1916 1919 1922 1925 1928 1931 1934 1937 1939 1942 1945 1948 1951 1954 1956 1959 1962 1965 1968 1971 1973 1976 1979 1982 1985 1988 1991 1994 1996 1999 2002 2005 2008 2011 2014 2016 2019 2022 2024 2027 2030 2032 2035 2038 2040 2042 2045 2048 2051 2054 2057 2060 2063 2066 2069 2072 2074 2077 2080 2082 2085 2088 2091 2094 2097 2099 2102 2104 2107 2110 2113 2115 2118 2120 2122 2125 2128 2131 2134 2137 2140 2143 2145 2148 2151 2153 2156 2159 2162 2165 2168 2171 2174 2177 2180 2183 2186 2188 2191 2194 2197 2200 2203 2205 2207 2210 2213 2216 2219 2221 2224 2227 2230 2233 2236 2238 2241 2243 2246 2248 2250 2253 2256 2259 2262 2265 2268 2271 2274 2276 2278 2281 2284 2286 2289 2292 2295 2297 2300 2302 2305 2308 2310 2312 2314 2317 2320 2322 2325 2328 2331 2334 2336 2339 2342 2345 2348 2350 2353 2356 2358 2361 2364 2367 2370 2373 2376 2379 2382 2385 2388 2391 2393 2396 2399 2401 2404 2406 2409 2411 2414 2417 2420 2423 2426 2428 2431 2434 2437 2439 2442 2445 2447 2450 2453 2456 2459 2462 2465 2468 2471 2474 2477 2480 2483 2486 2489 2492 2495 2498 2501 2504 2507 2510 2513 2516 2519 2522 2525 2528 2531 2534 2537 2540 2543 2546 2549 2552 2555 2558 2561 2564 2567 2570 2572 2575 2578 2581 2584 2587 2590 2593 2596 2599 2602 2605 2608 2611 2614 2617 2620 2623 2626 2629 2632 2634 2637 2640 2643 2646 2649 2652 2655 2658 2661 2664 2666 2669 2672 2675 2678 2680 2683 2686 2689 2692 2695 2698 2701 2704 2706 2709 2712 2714 2717 2720 2723 2726 2729 2732 2735 2738 2741 2743 2746 2749 2752 2755 2758 2760 2763 2766 2769 2772 2775 2778 2781 2784 2787 2789 2791 2794 2797 2800 2803 2806 2809 2812 2815 2818 2821 2824 2827 2830 2833 2836 2839 2842 2845 2848 2851 2854 2857 2859 2862 2865 2868 2871 2873 2876 2879 2882 2885 2888 2890 2893 2896 2899 2902 2904 2907 2910 2913 2915 2918 2921 2924 2927 2930 2932 2935 2938 2941 2944 2947 2950 2953 2956 2959 2962 2964 2967 2969 2971 2974 2977 2980 2983 2986 2989 2991 2994 2997 3000 3003 3006 3009 3012 3015 3018 3021 3024 3027 3030 3033 3036 3039 3042 3045 3048 3051 3054 3056 3059 3062 3065 3068 3070 3073 3076 3079 3082 3085 3088 3091 3094 3097 3100 3103 3106 3109 3112 3115 3118 3121 3124 3127 3130 3133 3136 3139 3142 3145 3148 3151 3154 3157 3160 3163 3166 3169 3172 3175 3178 3181 3184 3187 3189 3192 3195 3198 3201 3204 3207 3210 3213 3216 3219 3222 3225 3228 3231 3233 3236 3239 3242 3245 3248 3251 3254 3257 3260 3262 3265 3268 3271 3273 3276 3278 3281 3283 3286 3289 3292 3295 3297 3300 3303 3306 3309 3312 3315 3318 3321 3324 3327 3330 3333 3335 3338 3341 3344 3347 3350 3353 3356 3359 3362 3365 3368 3371 3374 3377 3380 3382 3385 3388 3391 3394 3397 3400 3403 3406 3409 3412 3415 3418 3421 3424 3427 3430 3433 3436 3439 3442 3445 3448 3451 3454 3457 3460 3463 3466 3469 3472 3475 3478 3481 3484 3487 3490 3493 3495 3498 3501 3504 3507 3509 3512 3515 3518 3520 3523 3526 3529 3532 3534 3537 3540 3543 3545 3548 3551 3554 3557 3560 3563 3566 3569 3571 3574 3577 3580 3583 3586 3589 3592 3595 3598 3601 3604 3607 3610 3613 3616 3619 3622 3625 3628 3631 3634 3637 3640 3643 3646 3649 3652 3655 3658 3661 3664 3667 3670 3673 3676 3679 3682 3684 3687 3689 3692 3695 3697 3700 3703 3706 3709 3712 3715 3718 3721 3723 3726 3729 3732 3735 3738 3741 3744 3747 3750 3753 3756 3759 3762 3765 3767 3770 3773 3776 3779 3782 3785 3788 3791 3794 3797 3800 3803 3806 3808 3811 3814 3817 3819 3821 3824 3826 3829 3831 3834 3837 3840 3843 3845 3848 3850 3852 3855 3858 3861 3864 3867 3869 3871 3874 3877 3880 3882 3885 3888 3891 3894 3897 3899 3902 3905 3908 3911 3913 3916 3919 3922 3924 3927 3930 3933 3936 3939 3942 3945 3948 3951 3954 3957 3960 3963 3966 3968 3971 3974 3977 3980 3983 3986 3989 3992 3995 3998 4001 4004 4007 4010 4012 4015 4018 4020 4023 4026 4029 4032 4034 4036 4038 4041 4043 4046 4048 4051 4054 4057 4059 4062 4065 4067 4070 4073 4076 4079 4082 4084 4087 4090 4093 4096 4099 4102 4104 4107 4110 4113 4116 4119 4122 4125 4128 4131 4133 4136 4139 4141 4144 4146 4149 4152 4155 4158 4161 4164 4167 4170 4172 4175 4178 4180 4183 4186 4189 4192 4194 4197 4200 4203 4206 4209 4212 4215 4218 4220 4222 4225 4228 4231 4234 4237 4240 4243 4246 4249 4252 4254 4257 4259 4262 4264 4267 4270 4273 4276 4279 4281 4284 4287 4289 4292 4295 4298 4301 4304 4307 4310 4313 4315 4318 4321 4324 4327 4330 4333 4336 4338 4341 4344 4346 4349 4352 4354 4357 4359 4361 4364 4366 4369 4372 4374 4377 4380 4383 4386 4388 4390 4393 4395 4398 4400 4403 4406 4409 4412 4414 4416 4419 4422 4425 4428 4430 4433 4436 4439 4441 4444 4447 4450 4453 4455 4458 4461 4464 4466 4468 4471 4474 4477 4480 4482 4484 4487 4489 4492 4495 4498 4500 4502 4505 4508 4511 4514 4517 4520 4523 4526 4529 4532 4535 4538 4540 4543 4546 4549 4552 4555 4558 4561 4564 4567 4570 4573 4576 4579 4582 4585 4587 4590 4593 4596 4599 4602 4605 4608 4611 4613 4616 4619 4622 4625 4628 4631 4634 4637 4640 4643 4646 4649 4652 4654 4657 4660 4663 4665 4667 4670 4673 4676 4679 4682 4685 4688 4691 4694 4697 4700 4702 4705 4708 4711 4714 4717 4719 4722 4724 4727 4729 4732 4735 4738 4741 4744 4747 4750 4753 4756 4759 4762 4764 4767 4769 4772 4775 4777 4780 4783 4786 4789 4791 4794 4797 4799 4802 4805 4808 4811 4814 4817 4820 4823 4826 4829 4832 4834 4837 4840 4843 4846 4849 4852 4854 4856 4859 4862 4865 4868 4871 4874 4877 4880 4883 4886 4889 4892 4894 4897 4900 4903 4906 4909 4912 4914 4917 4920 4922 4925 4928 4930 4933 4936 4939 4942 4945 4947 4950 4953 4956 4959 4962 4965 4968 4971 4974 4976 4979 4982 4985 4988 4991 4994 4997 5000 5003 5006 5009 5012 5015 5018 5021 5024 5027 5030 5033 5036 5039 5042 5045 5048 5050 5052 5055 5058 5061 5064 5067 5069 5072 5075 5078 5081 5084 5087 5090 5093 5096 5098 5101 5104 5107 5109 5112 5115 5117 5120 5123 5126 5129 5132 5135 5138 5141 5144 5146 5148 5151 5154 5157 5160 5163 5166 5169 5172 5175 5178 5181 5184 5187 5190 5192 5195 5198 5201 5204 5207 5210 5212 5215 5218 5220 5223 5226 5228 5231 5234 5237 5239 5242 5245 5248 5251 5253 5256 5259 5262 5264 5267 5270 5273 5275 5278 5280 5283 5286 5289 5292 5295 5297 5300 5303 5306 5309 5312 5315 5318 5320 5323 5326 5329 5332 5335 5338 5341 5343 5346 5349 5352 5355 5358 5361 5364 5367 5369 5372 5375 5377 5380 5383 5386 5389 5392 5395 5398 5401 5403 5406 5409 5412 5415 5418 5421 5424 5427 5429 5432 5435 5438 5441 5443 5446 5449 5452 5455 5458 5461 5463 5466 5469 5472 5475 5477 5480 5483 5485 5488 5491 5493 5496 5499 5502 5505 5508 5511 5514 5517 5520 5523 5526 5529 5532 5535 5538 5540 5543 5545 5548 5551 5554 5557 5560 5562 5565 5568 5571 5574 5577 5580 5582 5585 5587 5590 5593 5596 5598 5600 5603 5605 5608 5611 5614 5617 5620 5623 5625 5628 5631 5633 5636 5639 5642 5645 5648 5651 5654 5656 5659 5662 5665 5668 5670 5673 5676 5678 5681 5683 5685 5687 5690 5693 5695 5698 5700 5703 5706 5708 5710 5712 5715 5718 5720 5723 5726 5729 5732 5735 5738 5741 5744 5747 5750 5753 5756 5759 5761 5764 5766 5769 5772 5775 5778 5781 5783 5785 5788 5791 5794 5796 5799 5802 5804 5806 5809 5812 5815 5818 5821 5824 5827 5830 5832 5835 5838 5841 5844 5847 5850 5853 5856 5858 5861 5864 5867 5870 5873 5876 5879 5882 5885 5888 5891 5893 5896 5899 5902 5904 5907 5910 5912 5915 5918 5921 5924 5926 5929 5932 5935 5938 5941 5944 5947 5950 5953 5956 5959 5962 5965 5968 5970 5973 5976 5979 5981 5984 5987 5990 5993 5996 5999 6002 6005 6008 6011 6014 6017 6020 6022 6025 6028 6031 6033 6036 6039 6041 6044 6046 6049 6052 6055 6058 6061 6064 6067 6070 6073 6075 6078 6081 6084 6087 6089 6092 6095 6098 6100 6103 6106 6109 6112 6114 6117 6120 6122 6125 6128 6131 6134 6136 6139 6142 6145 6148 6151 6154 6157 6159 6162 6165 6167 6170 6173 6175 6178 6181 6184 6187 6190 6192 6195 6197 6200 6203 6206 6209 6212 6215 6218 6221 6224 6227 6230 6233 6236 6239 6241 6244 6247 6250 6253 6256 6259 6262 6265 6268 6271 6274 6277 6280 6283 6286 6289 6292 6295 6298 6301 6304 6307 6310 6313 6315 6318 6321 6324 6327 6330 6333 6336 6339 6342 6345 6348 6351 6354 6357 6360 6362 6365 6368 6371 6374 6377 6380 6383 6386 6389 6392 6395 6398 6401 6404 6407 6410 6413 6416 6419 6422 6425 6428 6431 6434 6437 6440 6443 6446 6449 6452 6455 6458 6461 6464 6467 6470 6473 6476 6479 6482 6485 6488 6491 6494 6497 6500 6503 6506 6509 6512 6515 6518 6521 6524 6527 6530 6533 6536 6539 6542 6545 6548 6551 6554 6557 6560 6563 6566 6569 6572 6575 6578 6581 6584 6587 6590 6593 6596 6599 6602 6605 6608 6611 6614 6617 6620 6623 6626 6629 6632 6635 6638 6641 6644 6647 6650 6653 6656 6659 6662 6665 6668 6671 6674 6677 6680 6683 6686 6689 6692 6695 6698 6701 6704 6707 6710 6713 6716 6719 6722 6725 6728 6731 6734 6737 6740 6743 6746 6749 6752 6755 6758 6761 6764 6767 6770 6773 6776 6779 6782 6785 6788 6791 6794 6797 6800 6803 6806 6809 6812 6815 6818 6821 6824 6827 6830 6833 6836 6838 6841 6844 6847 6850 6853 6856 6859 6862 6865 6868 6870 6873 6876 6879 6882 6884 6887 6890 6893 6896 6898 6900 6903 6905 6908 6911 6914 6917 6920 6922 6924 6926 6928 6931 6934 6937 6940 6943 6946 6949 6951 6954 6957 6959 6962 6965 6967 6970 6973 6976 6978 6981 6983 6986 6989 6992 6995 6998 7001 7003 7005 7008 7011 7014 7017 7020 7023 7026 7029 7032 7035 7038 7041 7044 7047 7050 7053 7056 7059 7062 7065 7068 7071 7074 7077 7080 7083 7086 7089 7092 7095 7098 7101 7104 7107 7110 7113 7116 7119 7122 7125 7128 7131 7134 7137 7140 7143 7145 7148 7150 7153 7156 7159 7162 7165 7168 7171 7174 7176 7179 7182 7185 7188 7191 7194 7197 7200 7203 7206 7209 7212 7215 7218 7221 7224 7227 7229 7232 7234 7237 7240 7242 7245 7248 7250 7253 7255 7258 7261 7264 7267 7270 7273 7276 7279 7282 7285 7288 7291 7294 7297 7300 7303 7306 7309 7312 7315 7318 7321 7324 7327 7330 7333 7336 7339 7342 7345 7348 7351 7354 7357 7360 7363 7366 7368 7371 7374 7377 7380 7383 7386 7389 7392 7395 7398 7401 7404 7407 7410 7413 7416 7418 7421 7424 7427 7430 7433 7435 7438 7441 7444 7447 7450 7453 7456 7459 7462 7465 7468 7471 7474 7477 7480 7482 7485 7487 7490 7493 7496 7499 7502 7504 7506 7509 7512 7515 7518 7521 7524 7526 7528 7531 7534 7537 7540 7543 7546 7549 7552 7554 7557 7560 7563 7566 7569 7572 7574 7577 7580 7582 7585 7588 7591 7594 7597 7600 7603 7606 7609 7611 7613 7616 7619 7622 7625 7628 7631 7633 7636 7639 7642 7645 7648 7651 7654 7657 7660 7663 7666 7669 7672 7675 7678 7680 7682 7685 7688 7691 7693 7696 7699 7702 7705 7708 7711 7713 7716 7718 7720 7723 7725 7728 7731 7734 7737 7740 7743 7745 7748 7751 7754 7757 7760 7763 7766 7769 7771 7774 7777 7780 7783 7786 7789 7792 7795 7798 7801 7804 7807 7810 7813 7816 7818 7821 7823 7826 7829 7832 7835 7838 7841 7844 7847 7849 7852 7855 7858 7860 7862 7865 7868 7871 7874 7876 7879 7881 7883 7886 7889 7892 7895 7898 7901 7904 7907 7910 7912 7914 7916 7919 7922 7925 7927 7930 7933 7936 7938 7941 7944 7947 7950 7953 7956 7959 7962 7965 7968 7970 7973 7976 7979 7982 7984 7987 7990 7993 7996 7998 8001 8003 8006 8008 8011 8014 8017 8020 8022 8024 8027 8030 8032 8035 8038 8041 8043 8046 8049 8051 8054 8057 8059 8062 8065 8068 8071 8074 8077 8080 8082 8085 8088 8091 8094 8096 8099 8102 8105 8108 8110 8113 8115 8118 8121 8123 8126 8128 8131 8133 8136 8139 8142 8145 8147 8150 8153 8156 8159 8162 8164 8167 8169 8172 8174 8177 8180 8183 8186 8189 8192 8195 8198 8201 8203 8206 8209 8211 8214 8217 8220 8223 8226 8229 8232 8235 8238 8241 8244 8246 8248 8251 8254 8256 8259 8262 8265 8268 8271 8273 8276 8279 8282 8285 8288 8291 8294 8297 8300 8303 8306 8309 8311 8314 8317 8319 8321 8324 8327 8330 8333 8336 8339 8342 8345 8347 8350 8353 8355 8358 8361 8364 8367 8370 8373 8375 8378 8381 8384 8387 8390 8393 8396 8399 8402 8405 8408 8411 8413 8416 8419 8422 8424 8426 8429 8431 8434 8436 8439 8442 8445 8448 8451 8454 8456 8459 8462 8465 8468 8471 8474 8477 8480 8483 8486 8489 8492 8495 8498 8501 8504 8507 8510 8513 8516 8519 8521 8524 8527 8530 8532 8535 8537 8540 8543 8546 8549 8552 8555 8558 8561 8564 8567 8570 8572 8575 8577 8580 8583 8585 8588 8591 8594 8596 8599 8602 8605 8608 8611 8614 8617 8620 8623 8626 8629 8632 8635 8638 8641 8644 8647 8650 8653 8655 8658 8661 8664 8667 8669 8672 8675 8678 8681 8684 8687 8689 8692 8695 8698 8700 8703 8706 8709 8712 8715 8718 8721 8724 8727 8730 8732 8735 8738 8741 8743 8746 8749 8752 8755 8757 8760 8763 8766 8769 8772 8775 8778 8781 8784 8787 8790 8793 8795 8797 8800 8803 8806 8809 8812 8815 8818 8821 8823 8825 8828 8830 8833 8836 8839 8841 8844 8847 8850 8853 8856 8858 8861 8864 8867 8870 8873 8876 8879 8882 8885 8888 8891 8893 8896 8899 8902 8905 8907 8910 8913 8916 8918 8921 8924 8926 8929 8932 8935 8938 8941 8944 8947 8950 8953 8956 8959 8962 8965 8967 8970 8973 8976 8979 8982 8985 8988 8991 8994 8997 9000 9003 9006 9009 9012 9015 9018 9021 9024 9027 9030 9033 9036 9039 9042 9044 9047 9049 9052 9055 9058 9061 9063 9066 9069 9072 9075 9078 9081 9084 9087 9090 9093 9096 9099 9102 9105 9108 9111 9114 9117 9119 9122 9124 9127 9130 9133 9136 9139 9142 9145 9148 9150 9153 9156 9158 9161 9163 9166 9169 9172 9174 9177 9180 9183 9186 9189 9192 9195 9197 9200 9203 9206 9209 9211 9213 9216 9219 9222 9224 9227 9230 9233 9236 9239 9242 9245 9248 9251 9254 9257 9259 9262 9265 9268 9271 9274 9277 9279 9282 9285 9288 9291 9294 9297 9300 9303 9305 9308 9311 9313 9316 9319 9322 9325 9327 9330 9333 9336 9338 9341 9343 9346 9349 9352 9354 9357 9360 9363 9366 9369 9372 9374 9377 9380 9383 9386 9389 9392 9395 9398 9401 9404 9406 9409 9411 9414 9417 9420 9423 9426 9429 9432 9435 9438 9441 9444 9447 9450 9453 9455 9458 9461 9463 9466 9469 9472 9475 9478 9481 9484 9487 9490 9493 9496 9499 9502 9505 9508 9511 9514 9517 9519 9522 9525 9528 9531 9534 9537 9540 9543 9546 9548 9551 9554 9556 9559 9561 9564 9567 9570 9572 9575 9578 9581 9584 9587 9590 9593 9596 9599 9601 9604 9607 9610 9613 9616 9618 9621 9624 9626 9629 9632 9634 9637 9640 9643 9646 9648 9651 9654 9657 9659 9662 9665 9668 9671 9674 9677 9680 9683 9686 9689 9692 9695 9698 9701 9704 9707 9710 9713 9716 9719 9722 9725 9728 9730 9732 9735 9738 9740 9743 9746 9749 9751 9754 9757 9760 9763 9766 9769 9772 9775 9777 9780 9783 9786 9789 9792 9794 9797 9800 9802 9805 9808 9811 9813 9816 9819 9822 9825 9828 9831 9834 9837 9839 9842 9845 9848 9851 9853 9856 9859 9862 9865 9868 9871 9873 9876 9879 9882 9885 9888 9891 9894 9897 9900 9903 9905 9908 9911 9914 9917 9920 9923 9926 9929 9931 9933 9936 9938 9941 9944 9947 9950 9953 9956 9958 9961 9963 9966 9968 9971 9974 9977 9980 9983 9986 9988 9991 9993 9996 9998 10001 10003 10006 10009 10012 10014 10017 10019 10022 10024 10027 10030 10032 10035 10038 10041 10044 10046 10049 10051 10054 10057 10060 10062 10065 10068 10071 10074 10076 10079 10082 10085 10088 10090 10093 10096 10098 10101 10104 10107 10110 10112 10115 10118 10121 10124 10127 10130 10133 10136 10139 10142 10145 10148 10151 10154 10157 10159 10162 10165 10168 10171 10174 10177 10180 10183 10186 10189 10192 10195 10198 10201 10204 10207 10210 10212 10215 10218 10221 10224 10227 10230 10233 10236 10239 10242 10245 10248 10251 10254 10257 10260 10263 10266 10269 10272 10275 10278 10281 10284 10287 10290 10293 10296 10299 10302 10305 10308 10311 10314 10317 10320 10323 10326 10329 10332 10335 10338 10341 10344 10347 10350 10353 10356 10359 10362 10365 10368 10371 10374 10377 10380 10383 10386 10389 10392 10395 10398 10401 10404 10407 10410 10413 10416 10419 10422 10425 10428 10431 10434 10437 10440 10443 10446 10449 10452 10455 10458 10461 10464 10467 10470 10473 10476 10479 10482 10485 10488 10491 10494 10497 10500 10503 10506 10509 10512 10515 10517 10520 10523 10526 10529 10532 10535 10538 10541 10544 10547 10550 10553 10556 10559 10562 10565 10568 10571 10574 10576 10579 10582 10585 10588 10591 10594 10597 10600 10603 10606 10609 10612 10615 10618 10621 10624 10627 10630 10632 10635 10638 10641 10644 10647 10650 10653 10655 10657 10660 10663 10665 10668 10671 10674 10677 10680 10683 10686 10689 10692 10694 10697 10700 10703 10706 10709 10712 10715 10718 10721 10724 10726 10729 10732 10735 10738 10740 10743 10746 10748 10750 10753 10755 10758 10761 10763 10766 10769 10772 10775 10777 10779 10782 10785 10788 10791 10794 10797 10799 10802 10805 10807 10810 10813 10816 10819 10822 10824 10827 10829 10832 10834 10837 10839 10842 10844 10846 10849 10852 10855 10858 10860 10862 10865 10867 10870 10873 10875 10878 10881 10884 10887 10890 10892 10895 10897 10900 10902 10905 10908 10910 10912 10915 10918 10921 10923 10926 10929 10932 10935 10938 10940 10943 10945 10948 10951 10954 10957 10960 10963 10966 10969 10972 10975 10978 10981 10984 10987 10990 10992 10995 10998 11001 11004 11006 11008 11011 11014 11017 11019 11022 11025 11027 11029 11032 11035 11038 11040 11043 11046 11049 11052 11055 11057 11059 11062 11065 11068 11071 11074 11077 11080 11083 11086 11089 11092 11095 11097 11100 11103 11106 11108 11111 11114 11117 11120 11122 11125 11127 11130 11133 11136 11139 11142 11145 11148 11150 11152 11155 11157 11160 11163 11166 11168 11170 11173 11176 11178 11181 11184 11186 11189 11192 11194 11197 11199 11202 11205 11208 11211 11214 11217 11220 11223 11225 11228 11231 11234 11237 11239 11242 11245 11248 11251 11254 11257 11260 11263 11266 11269 11271 11274 11277 11280 11283 11286 11288 11291 11294 11297 11300 11303 11306 11309 11312 11315 11318 11321 11323 11326 11329 11332 11335 11337 11340 11343 11346 11349 11352 11355 11358 11361 11364 11367 11370 11373 11375 11378 11381 11384 11387 11390 11393 11395 11398 11401 11404 11406 11409 11412 11414 11417 11419 11422 11424 11427 11429 11432 11435 11438 11440 11443 11446 11449 11451 11453 11456 11459 11462 11464 11467 11470 11473 11476 11479 11481 11484 11487 11490 11493 11496 11499 11501 11504 11507 11509 11512 11515 11518 11521 11523 11526 11529 11532 11535 11538 11541 11544 11547 11550 11552 11555 11558 11561 11563 11566 11569 11571 11574 11577 11580 11583 11586 11589 11592 11595 11597 11599 11602 11605 11608 11610 11613 11616 11619 11622 11625 11628 11631 11633 11636 11639 11642 11645 11648 11651 11654 11656 11659 11662 11665 11668 11671 11674 11677 11679 11682 11685 11688 11691 11694 11697 11700 11703 11706 11709 11711 11714 11717 11720 11723 11726 11728 11731 11734 11737 11740 11742 11745 11748 11751 11754 11757 11760 11763 11766 11769 11772 11774 11777 11780 11783 11786 11789 11792 11795 11798 11800 11803 11806 11809 11811 11814 11817 11820 11823 11826 11828 11831 11834 11837 11840 11843 11846 11849 11851 11854 11857 11860 11863 11866 11869 11872 11875 11878 11880 11883 11886 11889 11892 11895 11898 11901 11904 11907 11910 11913 11916 11919 11922 11925 11928 11931 11934 11937 11940 11943 11946 11949 11952 11955 11958 11961 11964 11967 11969 11972 11975 11978 11980 11983 11986 11989 11992 11995 11998 12001 12004 12007 12010 12013 12016 12019 12022 12025 12027 12029 12032 12035 12038 12041 12044 12047 12050 12052 12055 12058 12061 12063 12065 12068 12071 12074 12077 12080 12083 12086 12089 12092 12095 12098 12101 12104 12107 12110 12113 12116 12119 12122 12125 12128 12130 12133 12136 12139 12141 12144 12147 12150 12153 12156 12159 12162 12165 12168 12171 12174 12177 12180 12183 12186 12189 12192 12195 12198 12201 12204 12207 12210 12213 12216 12219 12222 12225 12228 12230 12233 12236 12239 12242 12245 12248 12251 12254 12257 12260 12263 12266 12269 12272 12275 12278 12281 12284 12287 12290 12293 12295 12298 12301 12304 12307 12310 12313 12316 12319 12321 12324 12327 12330 12333 12336 12338 12341 12344 12347 12350 12353 12356 12359 12362 12365 12368 12371 12373 12375 12378 12381 12383 12386 12388 12391 12394 12397 12400 12403 12406 12409 12412 12415 12418 12421 12424 12427 12430 12433 12436 12439 12441 12444 12447 12450 12453 12456 12459 12462 12465 12468 12471 12474 12477 12479 12482 12485 12487 12490 12493 12496 12499 12502 12505 12507 12510 12513 12516 12518 12521 12524 12527 12530 12533 12535 12538 12540 12543 12546 12549 12552 12555 12558 12561 12564 12566 12569 12572 12575 12578 12580 12583 12586 12589 12592 12595 12598 12601 12604 12607 12609 12612 12614 12617 12620 12623 12626 12629 12632 12635 12638 12641 12643 12646 12649 12652 12655 12658 12661 12664 12667 12669 12672 12675 12678 12681 12684 12687 12690 12692 12695 12698 12701 12703 12706 12709 12712 12715 12717 12720 12723 12726 12729 12732 12734 12737 12740 12742 12745 12748 12751 12754 12757 12760 12763 12766 12769 12772 12775 12778 12781 12784 12787 12790 12793 12796 12799 12802 12805 12808 12811 12814 12816 12818 12821 12824 12827 12830 12833 12836 12839 12841 12844 12847 12850 12853 12856 12859 12862 12865 12868 12871 12874 12877 12880 12883 12886 12889 12892 12895 12898 12900 12903 12906 12909 12911 12913 12916 12919 12922 12925 12928 12931 12934 12937 12940 12943 12946 12949 12952 12955 12958 12961 12964 12967 12970 12973 12976 12979 12982 12985 12988 12991 12994 12996 12999 13002 13005 13007 13010 13013 13016 13019 13021 13024 13026 13029 13032 13035 13038 13041 13043 13046 13049 13051 13054 13057 13060 13063 13066 13069 13072 13075 13078 13081 13084 13087 13090 13093 13095 13098 13101 13104 13107 13110 13113 13116 13118 13120 13123 13126 13128 13131 13134 13137 13140 13143 13146 13149 13152 13155 13157 13159 13162 13165 13168 13171 13174 13177 13180 13183 13185 13188 13191 13194 13196 13199 13202 13205 13208 13211 13214 13216 13219 13222 13225 13227 13230 13233 13236 13239 13242 13245 13248 13250 13253 13256 13259 13262 13264 13267 13270 13272 13275 13278 13281 13283 13285 13288 13291 13294 13297 13299 13302 13305 13307 13310 13313 13316 13318 13321 13324 13327 13330 13332 13335 13337 13340 13343 13346 13349 13352 13355 13358 13361 13364 13367 13370 13373 13376 13378 13381 13383 13386 13389 13392 13395 13397 13400 13403 13406 13409 13412 13414 13417 13420 13423 13425 13428 13431 13434 13437 13440 13443 13446 13449 13452 13455 13458 13461 13464 13467 13470 13473 13476 13479 13482 13485 13488 13491 13494 13497 13500 13503 13506 13509 13512 13515 13518 13521 13524 13527 13529 13532 13535 13537 13540 13543 13546 13549 13552 13555 13557 13560 13562 13565 13568 13571 13574 13577 13580 13582 13585 13588 13591 13593 13596 13599 13602 13605 13608 13611 13614 13617 13619 13622 13624 13626 13629 13632 13635 13638 13641 13644 13647 13649 13652 13655 13658 13661 13664 13666 13669 13672 13675 13678 13681 13684 13687 13690 13693 13696 13699 13702 13705 13707 13710 13713 13716 13719 13722 13725 13728 13731 13734 13737 13740 13743 13746 13749 13752 13755 13758 13761 13764 13767 13770 13773 13776 13779 13782 13785 13788 13791 13794 13797 13800 13803 13806 13809 13812 13815 13818 13821 13824 13827 13830 13833 13836 13839 13842 13844 13847 13850 13853 13856 13859 13862 13865 13868 13871 13874 13877 13880 13883 13886 13888 13890 13893 13895 13898 13901 13903 13906 13909 13911 13913 13916 13919 13922 13925 13928 13931 13933 13936 13939 13942 13944 13947 13950 13953 13956 13959 13962 13965 13968 13971 13974 13977 13980 13983 13986 13989 13992 13995 13998 14001 14004 14007 14010 14013 14016 14019 14022 14025 14028 14031 14034 14037 14040 14042 14045 14048 14051 14053 14056 14059 14062 14065 14068 14071 14074 14076 14079 14082 14085 14087 14090 14093 14096 14099 14102 14105 14108 14111 14114 14117 14120 14123 14125 14128 14131 14134 14137 14140 14143 14146 14149 14152 14155 14158 14161 14164 14167 14170 14173 14176 14178 14181 14184 14187 14190 14193 14196 14198 14201 14204 14207 14210 14213 14216 14219 14222 14225 14228 14231 14234 14237 14240 14243 14246 14249 14252 14255 14258 14261 14264 14267 14270 14273 14276 14279 14282 14285 14288 14291 14294 14297 14300 14303 14306 14309 14312 14315 14318 14321 14324 14327 14330 14333 14336 14339 14342 14345 14348 14350 14353 14356 14359 14362 14365 14368 14371 14374 14377 14380 14383 14386 14389 14392 14395 14398 14401 14404 14407 14410 14412 14415 14418 14421 14424 14427 14430 14433 14436 14439 14442 14445 14448 14451 14454 14457 14460 14463 14466 14469 14472 14475 14477 14480 14483 14486 14489 14492 14495 14498 14501 14504 14507 14510 14513 14516 14519 14522 14525 14528 14531 14534 14537 14540 14543 14546 14549 14552 14554 14557 14560 14563 14566 14568 14571 14574 14577 14580 14583 14586 14589 14592 14595 14598 14601 14604 14607 14610 14612 14615 14618 14621 14623 14626 14629 14632 14635 14638 14641 14644 14647 14650 14653 14656 14659 14662 14664 14666 14669 14672 14675 14678 14681 14684 14687 14690 14692 14695 14698 14701 14703 14706 14709 14712 14715 14717 14720 14723 14726 14729 14731 14734 14736 14739 14742 14745 14748 14751 14754 14757 14759 14762 14765 14767 14770 14773 14776 14779 14781 14784 14787 14790 14793 14796 14799 14802 14805 14808 14811 14814 14816 14819 14821 14824 14827 14830 14832 14835 14838 14841 14844 14846 14849 14852 14855 14858 14861 14863 14866 14868 14871 14874 14877 14879 14882 14885 14888 14891 14893 14895 14898 14901 14904 14907 14910 14912 14915 14918 14921 14923 14926 14929 14932 14935 14937 14940 14943 14945 14948 14951 14954 14957 14960 14963 14966 14968 14971 14974 14977 14980 14983 14986 14989 14992 14995 14998 15001 15004 15007 15010 15013 15016 15019 15022 15025 15028 15031 15033 15036 15039 15042 15045 15048 15051 15054 15057 15060 15063 15066 15069 15072 15075 15078 15081 15084 15086 15089 15092 15095 15098 15100 15103 15105 15108 15111 15114 15117 15120 15123 15126 15129 15132 15134 15137 15140 15142 15144 15147 15150 15152 15155 15158 15161 15164 15167 15170 15173 15175 15177 15180 15183 15185 15187 15190 15193 15196 15199 15202 15205 15208 15210 15213 15216 15218 15221 15224 15227 15230 15233 15235 15238 15241 15244 15247 15250 15253 15256 15259 15262 15265 15268 15271 15274 15277 15280 15283 15286 15289 15292 15295 15298 15300 15302 15305 15308 15311 15314 15316 15319 15322 15324 15327 15330 15333 15336 15338 15341 15344 15347 15350 15353 15356 15359 15362 15365 15368 15371 15374 15377 15380 15383 15385 15388 15391 15394 15397 15399 15402 15405 15408 15411 15414 15417 15420 15423 15426 15429 15432 15435 15438 15441 15444 15447 15450 15453 15456 15459 15461 15463 15466 15469 15472 15475 15478 15481 15484 15487 15490 15492 15495 15498 15500 15503 15506 15508 15511 15514 15517 15520 15523 15526 15529 15532 15535 15538 15540 15543 15546 15548 15551 15554 15557 15560 15563 15566 15569 15572 15575 15578 15581 15584 15587 15590 15593 15596 15599 15602 15605 15608 15611 15614 15617 15620 15623 15626 15629 15632 15635 15637 15640 15643 15646 15648 15651 15654 15657 15660 15663 15666 15669 15672 15675 15677 15680 15683 15686 15689 15692 15695 15698 15700 15703 15706 15709 15712 15714 15717 15720 15723 15726 15729 15732 15735 15738 15741 15743 15746 15749 15751 15754 15757 15759 15762 15765 15768 15771 15773 15776 15779 15782 15785 15787 15790 15793 15796 15799 15802 15805 15808 15811 15814 15817 15819 15822 15825 15828 15831 15833 15836 15839 15842 15845 15847 15850 15853 15856 15859 15862 15865 15868 15870 15873 15876 15879 15881 15884 15887 15890 15893 15896 15898 15900 15903 15906 15909 15912 15914 15917 15919 15922 15925 15928 15931 15934 15937 15940 15943 15946 15949 15952 15955 15958 15961 15964 15967 15970 15973 15976 15979 15982 15985 15988 15991 15993 15996 15999 16002 16005 16008 16011 16014 16017 16020 16023 16025 16028 16030 16033 16036 16039 16042 16045 16048 16051 16054 16057 16059 16062 16065 16068 16071 16074 16077 16080 16083 16086 16089 16092 16095 16098 16101 16104 16107 16110 16113 16116 16119 16122 16125 16128 16131 16134 16137 16139 16141 16143 16146 16149 16152 16154 16157 16160 16163 16166 16169 16172 16175 16178 16181 16184 16186 16189 16192 16194 16197 16200 16203 16206 16209 16212 16215 16218 16221 16224 16227 16230 16233 16236 16239 16242 16245 16248 16251 16254 16257 16260 16263 16266 16269 16272 16275 16278 16281 16284 16287 16290 16293 16296 16299 16302 16305 16308 16311 16314 16317 16320 16323 16326 16329 16332 16334 16337 16340 16342 16345 16348 16350 16352 16355 16357 16360 16362 16365 16368 16371 16374 16377 16379 16382 16385 16388 16391 16393 16396 16399 16402 16405 16408 16410 16413 16416 16419 16421 16424 16427 16430 16433 16436 16439 16442 16445 16448 16451 16454 16456 16459 16462 16465 16467 16469 16471 16473 16475 16478 16481 16484 16487 16490 16492 16494 16497 16500 16503 16506 16508 16511 16514 16516 16518 16521 16524 16526 16529 16532 16535 16538 16541 16543 16546 16549 16551 16554 16557 16560 16562 16565 16568 16571 16574 16576 16579 16582 16585 16588 16591 16593 16595 16597 16600 16603 16606 16609 16612 16615 16618 16621 16624 16627 16629 16632 16635 16638 16641 16644 16647 16649 16652 16654 16657 16660 16663 16666 16669 16672 16675 16678 16681 16684 16687 16689 16692 16694 16697 16700 16703 16706 16709 16712 16715 16718 16720 16723 16726 16728 16731 16734 16737 16740 16742 16745 16748 16751 16754 16757 16760 16762 16764 16767 16770 16773 16776 16779 16782 16785 16788 16791 16794 16797 16800 16803 16806 16809 16812 16815 16818 16821 16824 16827 16830 16833 16835 16838 16841 16844 16847 16850 16853 16856 16859 16862 16865 16867 16870 16873 16876 16878 16881 16884 16887 16890 16893 16896 16899 16901 16904 16907 16910 16913 16916 16919 16921 16924 16927 16930 16933 16936 16939 16941 16944 16947 16950 16952 16955 16958 16961 16964 16966 16969 16972 16975 16978 16981 16983 16985 16988 16991 16994 16997 17000 17003 17006 17009 17012 17014 17017 17020 17023 17026 17029 17032 17034 17037 17040 17043 17046 17049 17052 17054 17057 17060 17063 17066 17069 17072 17075 17078 17081 17083 17086 17089 17091 17094 17097 17100 17103 17106 17109 17111 17114 17117 17120 17123 17126 17128 17131 17134 17137 17140 17143 17146 17149 17152 17155 17158 17161 17164 17167 17170 17173 17176 17178 17181 17184 17187 17190 17193 17195 17198 17201 17204 17207 17210 17213 17216 17219 17222 17225 17228 17231 17234 17236 17238 17241 17244 17246 17249 17252 17254 17257 17260 17263 17266 17269 17272 17274 17277 17279 17282 17285 17288 17291 17294 17297 17299 17302 17305 17308 17311 17314 17317 17320 17323 17326 17329 17332 17335 17338 17341 17343 17346 17349 17352 17354 17357 17360 17363 17366 17369 17372 17375 17378 17381 17384 17387 17390 17393 17396 17398 17401 17404 17407 17410 17413 17416 17419 17422 17425 17428 17431 17433 17436 17439 17442 17445 17447 17450 17453 17456 17458 17461 17464 17467 17470 17473 17476 17479 17482 17484 17487 17490 17493 17496 17499 17502 17505 17508 17511 17514 17516 17519 17521 17524 17527 17530 17533 17536 17539 17542 17545 17548 17551 17554 17557 17560 17563 17566 17569 17572 17575 17578 17581 17584 17587 17590 17593 17596 17599 17602 17605 17608 17611 17614 17617 17620 17623 17626 17629 17632 17635 17638 17640 17642 17645 17648 17651 17654 17657 17659 17662 17665 17667 17670 17673 17676 17679 17681 17684 17687 17689 17692 17695 17698 17701 17703 17705 17708 17711 17714 17717 17720 17722 17725 17728 17731 17734 17737 17740 17743 17746 17748 17751 17754 17757 17760 17763 17766 17769 17772 17774 17777 17780 17783 17786 17789 17792 17795 17798 17801 17804 17807 17810 17813 17816 17819 17822 17824 17827 17830 17833 17835 17838 17841 17844 17846 17848 17851 17854 17857 17860 17863 17866 17868 17870 17873 17876 17879 17882 17885 17888 17891 17894 17897 17900 17903 17906 17909 17912 17915 17918 17921 17923 17926 17929 17931 17934 17937 17940 17943 17945 17948 17951 17953 17956 17959 17962 17965 17968 17971 17973 17975 17978 17981 17984 17987 17990 17992 17995 17998 18001 18004 18007 18010 18013 18016 18018 18021 18024 18027 18029 18032 18035 18038 18041 18044 18046 18048 18051 18054 18056 18059 18061 18064 18067 18070 18072 18074 18077 18080 18083 18086 18089 18091 18094 18097 18100 18103 18106 18109 18112 18115 18118 18121 18124 18127 18130 18133 18136 18139 18142 18145 18147 18150 18152 18155 18158 18161 18164 18167 18170 18173 18176 18179 18182 18185 18188 18191 18193 18196 18199 18202 18205 18208 18211 18214 18217 18220 18223 18225 18228 18231 18234 18237 18239 18242 18245 18247 18250 18253 18256 18258 18261 18264 18267 18270 18273 18276 18278 18281 18283 18286 18289 18292 18294 18297 18299 18302 18305 18307 18310 18313 18316 18318 18321 18323 18325 18328 18331 18334 18336 18339 18342 18344 18347 18350 18352 18355 18358 18361 18364 18367 18370 18372 18375 18377 18379 18382 18384 18387 18390 18393 18396 18398 18401 18403 18406 18408 18411 18414 18416 18419 18422 18425 18428 18430 18433 18436 18439 18442 18445 18448 18451 18454 18457 18460 18463 18465 18467 18470 18473 18476 18479 18482 18485 18488 18491 18494 18497 18500 18503 18506 18509 18512 18515 18518 18521 18524 18526 18529 18532 18535 18538 18541 18544 18547 18550 18553 18556 18559 18562 18565 18568 18571 18574 18577 18579 18582 18585 18588 18591 18594 18596 18599 18602 18605 18608 18611 18613 18616 18619 18622 18625 18628 18630 18633 18636 18639 18641 18643 18646 18649 18652 18655 18658 18661 18663 18666 18668 18671 18674 18677 18680 18683 18686 18688 18691 18694 18697 18700 18703 18706 18709 18711 18713 18715 18718 18720 18723 18726 18729 18732 18734 18737 18739 18742 18744 18747 18750 18752 18755 18758 18760 18763 18766 18769 18771 18774 18776 18778 18781 18784 18787 18790 18793 18796 18798 18801 18804 18807 18810 18813 18816 18818 18821 18824 18827 18830 18833 18836 18839 18842 18845 18848 18851 18854 18857 18860 18862 18864 18867 18869 18872 18875 18878 18881 18884 18887 18890 18893 18895 18898 18900 18902 18905 18908 18911 18914 18916 18919 18922 18924 18927 18930 18933 18936 18938 18941 18943 18946 18949 18952 18955 18958 18961 18963 18965 18968 18971 18974 18977 18980 18982 18985 18988 18991 18994 18997 18999 19002 19005 19008 19011 19014 19017 19019 19022 19025 19027 19030 19033 19036 19039 19042 19045 19048 19051 19054 19057 19060 19063 19066 19069 19072 19074 19077 19080 19083 19085 19088 19090 19093 19096 19099 19102 19104 19107 19110 19112 19115 19118 19121 19124 19126 19129 19132 19135 19137 19139 19141 19144 19146 19149 19152 19155 19158 19161 19164 19167 19169 19172 19175 19178 19180 19183 19186 19189 19192 19195 19198 19201 19203 19206 19209 19212 19215 19218 19221 19224 19226 19229 19232 19234 19237 19240 19243 19245 19248 19251 19254 19257 19260 19263 19266 19269 19272 19275 19278 19281 19284 19287 19290 19293 19296 19299 19302 19305 19308 19311 19314 19317 19320 19323 19326 19329 19332 19335 19338 19341 19344 19347 19350 19353 19356 19359 19362 19365 19368 19371 19374 19377 19380 19383 19386 19389 19392 19395 19398 19401 19404 19407 19410 19413 19416 19419 19422 19425 19428 19431 19434 19437 19440 19443 19446 19449 19451 19454 19457 19459 19462 19465 19468 19471 19473 19476 19479 19482 19485 19488 19491 19494 19497 19500 19503 19506 19509 19511 19513 19516 19519 19522 19525 19528 19531 19534 19537 19540 19542 19545 19548 19551 19554 19557 19560 19563 19566 19569 19572 19575 19577 19579 19582 19584 19586 19589 19592 19594 19597 19600 19603 19606 19609 19612 19615 19617 19620 19623 19626 19629 19632 19634 19637 19640 19643 19645 19648 19651 19654 19657 19659 19662 19665 19668 19670 19673 19676 19679 19682 19685 19688 19691 19693 19696 19699 19702 19705 19708 19711 19714 19717 19720 19723 19726 19729 19732 19735 19738 19741 19744 19747 19750 19753 19756 19758 19761 19764 19767 19770 19772 19775 19778 19781 19784 19786 19789 19792 19795 19797 19799 19801 19804 19807 19810 19813 19816 19819 19821 19824 19827 19830 19833 19835 19837 19840 19843 19846 19848 19850 19853 19855 19858 19861 19864 19867 19869 19872 19875 19878 19880 19883 19886 19889 19891 19894 19897 19900 19903 19906 19909 19912 19915 19918 19921 19923 19926 19929 19932 19935 19938 19941 19944 19947 19950 19953 19956 19959 19961 19964 19967 19970 19973 19975 19977 19980 19983 19985 19988 19991 19994 19997 20000 20003 20006 20009 20012 20014 20016 20018 20021 20023 20026 20029 20032 20035 20038 20041 20044 20046 20049 20052 20055 20058 20060 20062 20065 20068 20071 20074 20077 20079 20082 20085 20088 20091 20094 20096 20099 20102 20105 20108 20110 20113 20116 20119 20122 20124 20126 20129 20131 20134 20137 20139 20141 20144 20147 20149 20152 20155 20158 20161 20164 20167 20170 20173 20175 20178 20180 20182 20184 20187 20190 20193 20196 20199 20202 20205 20208 20211 20214 20217 20220 20222 20225 20228 20231 20234 20237 20240 20243 20246 20249 20252 20255 20258 20261 20264 20267 20270 20273 20276 20279 20282 20285 20288 20291 20294 20296 20299 20301 20304 20306 20309 20312 20315 20318 20321 20324 20327 20330 20333 20336 20338 20341 20344 20346 20348 20351 20354 20357 20360 20362 20365 20368 20371 20374 20377 20380 20383 20385 20388 20391 20394 20397 20400 20403 20406 20408 20411 20414 20416 20419 20422 20425 20428 20431 20434 20437 20440 20442 20445 20447 20450 20453 20456 20459 20462 20465 20468 20471 20474 20477 20479 20482 20485 20488 20490 20493 20496 20499 20502 20504 20506 20509 20512 20515 20518 20520 20523 20526 20529 20531 20534 20537 20540 20543 20545 20548 20551 20554 20557 20560 20563 20566 20569 20572 20575 20578 20581 20584 20586 20589 20592 20595 20598 20601 20604 20606 20609 20612 20615 20618 20620 20623 20625 20628 20631 20634 20637 20640 20643 20646 20649 20652 20654 20657 20659 20662 20665 20668 20671 20674 20677 20680 20683 20686 20689 20692 20695 20698 20701 20704 20707 20710 20712 20714 20717 20720 20723 20726 20729 20731 20734 20736 20738 20740 20743 20746 20749 20752 20755 20758 20761 20764 20767 20770 20773 20776 20779 20782 20785 20788 20791 20794 20797 20800 20803 20806 20809 20812 20815 20818 20820 20823 20825 20827 20830 20833 20836 20839 20842 20845 20848 20851 20853 20856 20859 20862 20865 20868 20871 20873 20876 20879 20882 20885 20888 20891 20893 20896 20899 20902 20905 20908 20911 20914 20917 20920 20923 20925 20928 20931 20934 20937 20939 20942 20945 20948 20951 20953 20956 20959 20962 20965 20968 20971 20973 20976 20979 20982 20985 20988 20991 20994 20997 21000 21003 21006 21009 21012 21015 21018 21021 21024 21027 21030 21033 21036 21039 21042 21045 21048 21051 21054 21057 21060 21063 21066 21069 21072 21075 21078 21081 21083 21086 21089 21092 21095 21098 21101 21104 21107 21109 21112 21115 21118 21120 21123 21126 21129 21132 21135 21138 21141 21144 21147 21150 21153 21156 21159 21162 21165 21168 21171 21174 21177 21180 21183 21186 21188 21191 21194 21197 21200 21203 21206 21208 21211 21214 21216 21218 21221 21224 21227 21230 21233 21235 21238 21241 21244 21247 21250 21253 21256 21259 21262 21265 21267 21269 21272 21275 21278 21281 21283 21286 21289 21292 21295 21298 21300 21303 21305 21307 21310 21313 21316 21319 21322 21325 21328 21330 21333 21336 21339 21341 21343 21346 21349 21352 21355 21358 21361 21364 21367 21370 21373 21375 21378 21381 21384 21387 21390 21393 21396 21399 21402 21405 21408 21411 21414 21416 21418 21421 21424 21427 21429 21432 21435 21438 21441 21444 21447 21450 21453 21456 21459 21462 21465 21468 21471 21473 21476 21479 21482 21485 21487 21490 21493 21496 21499 21502 21505 21508 21511 21514 21517 21520 21522 21525 21528 21531 21534 21537 21540 21543 21546 21549 21552 21555 21557 21560 21563 21566 21569 21572 21575 21578 21581 21584 21587 21590 21593 21596 21598 21601 21604 21607 21610 21613 21616 21619 21622 21625 21628 21631 21634 21637 21639 21642 21645 21648 21650 21653 21656 21659 21662 21665 21668 21671 21674 21677 21680 21683 21686 21689 21692 21695 21697 21700 21703 21706 21709 21712 21715 21718 21721 21724 21727 21730 21733 21736 21739 21742 21745 21748 21751 21754 21757 21760 21763 21765 21768 21771 21774 21777 21780 21783 21785 21787 21790 21792 21795 21798 21801 21804 21807 21810 21813 21816 21819 21821 21824 21827 21830 21833 21836 21839 21842 21845 21847 21850 21853 21856 21859 21862 21864 21867 21870 21873 21876 21879 21881 21884 21887 21890 21892 21895 21898 21901 21904 21907 21910 21913 21916 21919 21922 21925 21928 21931 21934 21937 21940 21943 21946 21949 21952 21955 21958 21961 21964 21967 21969 21972 21975 21978 21981 21984 21987 21990 21993 21996 21999 22002 22005 22008 22011 22014 22017 22020 22022 22025 22028 22031 22033 22036 22039 22042 22045 22048 22051 22054 22057 22060 22063 22066 22069 22072 22075 22078 22081 22084 22087 22090 22093 22096 22099 22102 22105 22108 22111 22114 22117 22120 22123 22125 22128 22131 22133 22136 22139 22142 22145 22147 22150 22152 22155 22157 22160 22162 22165 22168 22171 22174 22177 22180 22183 22185 22188 22191 22193 22196 22199 22201 22204 22207 22210 22213 22216 22219 22221 22224 22227 22229 22232 22235 22238 22240 22243 22246 22248 22251 22253 22256 22259 22262 22265 22268 22271 22274 22277 22280 22283 22286 22289 22292 22295 22298 22301 22304 22307 22310 22313 22316 22319 22322 22325 22328 22331 22334 22337 22339 22341 22344 22347 22350 22353 22355 22358 22361 22364 22367 22370 22373 22376 22379 22381 22384 22387 22390 22393 22396 22399 22402 22405 22408 22411 22414 22417 22420 22422 22424 22427 22430 22433 22436 22439 22442 22445 22448 22451 22454 22457 22460 22463 22466 22469 22472 22475 22478 22481 22484 22487 22489 22492 22495 22498 22500 22503 22506 22509 22512 22514 22516 22518 22521 22523 22526 22528 22531 22534 22536 22538 22541 22544 22547 22549 22552 22555 22558 22560 22562 22565 22567 22570 22573 22575 22578 22581 22584 22586 22589 22592 22595 22598 22601 22604 22606 22609 22612 22615 22618 22621 22624 22627 22630 22633 22636 22638 22640 22643 22646 22648 22651 22654 22657 22659 22662 22665 22668 22671 22674 22677 22680 22683 22685 22687 22690 22693 22696 22698 22701 22703 22705 22707 22710 22713 22715 22717 22720 22723 22726 22728 22731 22734 22737 22740 22743 22746 22749 22752 22755 22758 22761 22764 22767 22770 22772 22775 22778 22781 22783 22786 22789 22791 22794 22797 22799 22802 22805 22808 22811 22814 22817 22820 22823 22826 22829 22832 22835 22838 22841 22844 22847 22849 22852 22854 22857 22860 22863 22866 22869 22872 22875 22878 22881 22884 22887 22890 22893 22896 22899 22902 22905 22908 22911 22914 22917 22920 22923 22926 22929 22932 22935 22938 22941 22944 22947 22950 22953 22956 22959 22962 22965 22968 22971 22974 22977 22980 22983 22986 22989 22992 22995 22998 23001 23004 23007 23010 23013 23016 23019 23022 23025 23028 23031 23034 23037 23040 23043 23046 23049 23052 23055 23058 23061 23064 23067 23070 23073 23076 23079 23082 23085 23088 23091 23094 23097 23100 23103 23106 23109 23112 23115 23118 23120 23123 23125 23128 23131 23133 23135 23137 23140 23143 23146 23148 23151 23154 23157 23160 23163 23165 23167 23170 23173 23176 23179 23182 23185 23188 23191 23194 23197 23200 23203 23205 23208 23211 23214 23217 23220 23223 23226 23229 23232 23235 23238 23241 23244 23247 23250 23253 23256 23259 23262 23264 23266 23269 23272 23275 23278 23281 23284 23287 23290 23293 23295 23298 23301 23304 23307 23310 23313 23316 23319 23322 23325 23328 23331 23334 23337 23340 23343 23346 23349 23352 23355 23358 23361 23364 23367 23370 23373 23375 23378 23381 23384 23387 23390 23393 23396 23399 23402 23405 23408 23411 23414 23417 23420 23423 23426 23429 23432 23435 23438 23441 23444 23447 23450 23453 23456 23459 23462 23465 23468 23471 23474 23477 23480 23483 23486 23489 23492 23495 23498 23501 23504 23507 23510 23513 23516 23519 23522 23525 23528 23531 23534 23537 23540 23543 23546 23549 23552 23555 23558 23561 23564 23567 23570 23573 23576 23579 23582 23585 23588 23591 23594 23597 23599 23602 23605 23608 23611 23614 23617 23620 23623 23626 23629 23632 23635 23638 23641 23644 23647 23650 23652 23655 23658 23661 23663 23666 23669 23672 23674 23677 23679 23682 23684 23686 23689 23692 23695 23698 23701 23704 23707 23710 23713 23716 23719 23722 23725 23728 23731 23734 23736 23738 23741 23744 23747 23750 23753 23756 23759 23762 23764 23767 23770 23773 23776 23779 23782 23785 23788 23791 23794 23797 23800 23803 23806 23809 23811 23814 23817 23820 23823 23826 23829 23832 23835 23838 23841 23844 23847 23849 23852 23855 23857 23859 23862 23865 23867 23870 23873 23876 23879 23882 23885 23888 23891 23894 23897 23900 23903 23906 23909 23912 23915 23918 23921 23924 23927 23930 23933 23936 23939 23942 23945 23948 23951 23954 23957 23960 23963 23966 23969 23972 23975 23978 23981 23984 23987 23990 23993 23995 23998 24001 24004 24007 24010 24013 24016 24019 24022 24025 24028 24031 24034 24037 24040 24043 24046 24049 24052 24054 24057 24060 24063 24066 24069 24072 24075 24078 24081 24084 24087 24090 24093 24096 24099 24102 24105 24107 24109 24112 24114 24117 24120 24123 24126 24129 24132 24134 24137 24140 24143 24146 24149 24152 24155 24158 24160 24163 24165 24168 24171 24174 24177 24179 24182 24185 24188 24191 24194 24197 24199 24202 24204 24206 24209 24212 24215 24218 24220 24223 24226 24229 24232 24235 24238 24241 24244 24247 24250 24253 24255 24258 24261 24264 24267 24270 24273 24276 24279 24282 24285 24287 24289 24292 24294 24297 24300 24302 24305 24308 24311 24313 24315 24317 24320 24323 24326 24329 24332 24335 24338 24341 24343 24346 24349 24351 24354 24357 24360 24363 24366 24369 24372 24375 24378 24381 24384 24387 24389 24392 24395 24398 24400 24403 24406 24409 24412 24415 24418 24421 24424 24427 24430 24432 24435 24438 24441 24444 24447 24450 24453 24456 24458 24461 24464 24467 24470 24472 24475 24478 24481 24483 24486 24489 24492 24495 24498 24501 24504 24507 24510 24513 24515 24518 24521 24524 24527 24530 24533 24536 24538 24541 24544 24547 24550 24552 24555 24558 24561 24564 24567 24570 24572 24575 24578 24581 24584 24586 24589 24592 24595 24597 24600 24603 24606 24609 24612 24615 24618 24621 24623 24626 24629 24632 24635 24638 24641 24644 24647 24650 24652 24655 24658 24661 24664 24667 24670 24673 24675 24678 24681 24684 24687 24690 24692 24695 24698 24701 24704 24707 24710 24713 24716 24719 24722 24725 24728 24731 24734 24737 24740 24743 24746 24749 24751 24754 24757 24760 24763 24766 24768 24771 24774 24777 24780 24783 24786 24789 24792 24795 24798 24801 24804 24807 24809 24812 24815 24818 24821 24824 24827 24830 24833 24836 24839 24841 24844 24847 24850 24853 24856 24859 24861 24864 24867 24869 24872 24875 24877 24880 24883 24886 24889 24892 24895 24898 24901 24904 24907 24910 24913 24915 24918 24921 24924 24927 24930 24933 24936 24938 24940 24943 24946 24949 24951 24953 24956 24958 24961 24964 24966 24968 24971 24974 24976 24979 24982 24985 24987 24990 24993 24996 24999 25002 25005 25007 25010 25013 25016 25018 25021 25024 25027 25029 25031 25034 25036 25038 25041 25044 25047 25050 25053 25056 25059 25061 25064 25067 25070 25073 25076 25079 25082 25085 25088 25091 25094 25097 25099 25102 25105 25108 25111 25114 25117 25119 25122 25125 25128 25131 25134 25137 25140 25143 25146 25149 25152 25155 25158 25161 25164 25167 25170 25172 25175 25178 25180 25183 25186 25189 25192 25194 25197 25199 25202 25205 25208 25211 25214 25217 25220 25222 25225 25228 25231 25233 25236 25239 25242 25245 25248 25251 25254 25257 25259 25262 25265 25267 25269 25272 25275 25278 25281 25284 25286 25289 25292 25295 25298 25300 25303 25306 25309 25312 25315 25318 25321 25324 25327 25329 25332 25335 25338 25341 25344 25347 25350 25353 25356 25358 25361 25364 25367 25370 25373 25376 25379 25382 25385 25387 25390 25393 25396 25398 25401 25404 25407 25410 25413 25416 25419 25421 25424 25427 25430 25432 25435 25438 25441 25444 25446 25449 25452 25455 25457 25460 25463 25466 25469 25472 25475 25478 25481 25483 25486 25489 25492 25495 25498 25501 25504 25507 25510 25513 25516 25519 25522 25525 25528 25531 25534 25537 25539 25542 25545 25547 25550 25553 25556 25559 25562 25565 25568 25571 25574 25577 25580 25583 25586 25589 25592 25595 25598 25601 25604 25607 25610 25613 25616 25619 25622 25625 25628 25631 25633 25636 25639 25642 25645 25648 25651 25653 25656 25658 25661 25664 25667 25670 25672 25675 25678 25681 25683 25686 25688 25691 25694 25697 25700 25703 25706 25709 25712 25715 25718 25721 25724 25727 25729 25732 25735 25738 25741 25744 25746 25749 25752 25755 25757 25759 25762 25765 25768 25771 25774 25776 25779 25781 25784 25787 25790 25792 25795 25798 25801 25804 25806 25809 25812 25815 25818 25821 25823 25826 25829 25832 25835 25837 25840 25843 25846 25849 25852 25855 25858 25861 25864 25867 25869 25872 25875 25878 25881 25883 25886 25889 25892 25895 25898 25901 25904 25907 25910 25913 25916 25919 25922 25925 25928 25931 25934 25937 25940 25943 25946 25949 25952 25955 25958 25961 25964 25967 25970 25972 25975 25978 25981 25984 25986 25989 25991 25994 25997 26000 26002 26005 26008 26011 26014 26017 26020 26023 26026 26029 26032 26035 26038 26041 26044 26047 26049 26052 26055 26058 26061 26064 26067 26070 26073 26076 26079 26082 26085 26088 26091 26094 26097 26100 26103 26106 26109 26112 26115 26118 26121 26124 26127 26130 26133 26136 26139 26142 26145 26148 26151 26154 26156 26159 26162 26165 26168 26171 26174 26177 26180 26183 26186 26188 26190 26193 26196 26199 26202 26205 26208 26211 26214 26216 26219 26222 26225 26227 26230 26233 26236 26239 26242 26244 26247 26250 26252 26255 26258 26261 26264 26266 26269 26271 26274 26277 26280 26283 26286 26288 26291 26294 26297 26300 26303 26306 26309 26312 26315 26318 26321 26324 26327 26330 26333 26336 26339 26342 26345 26348 26351 26354 26357 26360 26363 26365 26368 26371 26374 26377 26380 26383 26385 26388 26391 26394 26396 26399 26402 26404 26407 26410 26413 26416 26419 26422 26425 26428 26431 26434 26437 26440 26443 26446 26448 26451 26453 26456 26459 26461 26464 26467 26469 26472 26475 26478 26481 26484 26487 26490 26493 26495 26498 26501 26504 26507 26510 26513 26516 26518 26521 26523 26526 26529 26532 26535 26538 26541 26544 26547 26550 26553 26556 26559 26562 26565 26568 26571 26574 26577 26580 26583 26586 26589 26592 26595 26598 26601 26604 26607 26610 26613 26616 26619 26621 26624 26627 26630 26633 26636 26639 26642 26645 26648 26651 26654 26657 26659 26662 26664 26667 26670 26673 26676 26679 26682 26685 26687 26690 26692 26695 26698 26700 26703 26706 26709 26712 26714 26717 26719 26722 26725 26728 26731 26734 26737 26740 26742 26745 26748 26751 26753 26756 26759 26761 26764 26767 26769 26772 26775 26778 26781 26784 26787 26790 26793 26795 26798 26801 26804 26807 26810 26812 26815 26817 26820 26823 26825 26828 26831 26834 26837 26840 26843 26846 26849 26852 26855 26858 26860 26863 26865 26868 26871 26873 26876 26879 26881 26884 26887 26890 26892 26895 26898 26901 26904 26907 26910 26913 26916 26919 26922 26925 26927 26929 26932 26935 26938 26940 26942 26945 26948 26951 26954 26957 26960 26963 26966 26969 26972 26975 26978 26981 26984 26987 26990 26993 26995 26998 27001 27004 27007 27010 27013 27016 27019 27022 27025 27028 27031 27034 27037 27040 27043 27046 27049 27052 27055 27057 27060 27062 27065 27068 27070 27073 27076 27079 27082 27084 27087 27090 27093 27096 27099 27102 27105 27108 27111 27114 27117 27120 27122 27125 27128 27131 27133 27136 27139 27142 27145 27148 27150 27153 27156 27158 27160 27162 27164 27167 27170 27173 27176 27179 27182 27184 27187 27190 27192 27194 27196 27199 27201 27204 27207 27210 27213 27216 27219 27222 27225 27228 27230 27233 27236 27239 27242 27245 27248 27251 27254 27257 27260 27263 27266 27269 27272 27275 27277 27279 27282 27285 27287 27290 27293 27296 27298 27301 27303 27305 27308 27311 27314 27317 27320 27322 27325 27328 27330 27333 27336 27339 27341 27344 27347 27350 27353 27356 27358 27361 27364 27367 27370 27373 27376 27379 27382 27385 27388 27391 27394 27397 27400 27403 27406 27409 27412 27414 27417 27420 27423 27426 27429 27432 27435 27438 27441 27444 27447 27450 27453 27456 27459 27462 27465 27468 27471 27474 27477 27480 27483 27486 27488 27491 27494 27496 27499 27502 27505 27508 27511 27514 27517 27520 27523 27526 27529 27531 27534 27537 27540 27543 27546 27548 27550 27553 27556 27559 27562 27564 27567 27570 27573 27576 27579 27582 27585 27588 27590 27592 27595 27598 27600 27603 27606 27608 27611 27613 27615 27618 27620 27623 27626 27629 27632 27634 27637 27640 27643 27645 27648 27651 27654 27656 27659 27662 27664 27667 27670 27672 27675 27678 27681 27684 27687 27690 27693 27696 27699 27701 27703 27706 27709 27711 27714 27717 27720 27723 27725 27728 27731 27734 27736 27739 27742 27745 27748 27750 27753 27756 27759 27762 27765 27768 27771 27774 27777 27780 27783 27786 27789 27792 27795 27798 27801 27804 27807 27810 27813 27816 27819 27821 27824 27827 27830 27833 27836 27839 27842 27845 27848 27851 27854 27857 27860 27863 27866 27869 27872 27875 27878 27881 27884 27887 27890 27893 27896 27899 27901 27904 27907 27910 27913 27916 27919 27922 27925 27928 27931 27934 27937 27940 27943 27946 27949 27951 27954 27956 27959 27962 27965 27968 27971 27974 27977 27980 27983 27986 27989 27992 27995 27998 28001 28004 28007 28010 28013 28016 28018 28021 28024 28027 28030 28033 28036 28039 28041 28043 28046 28049 28052 28055 28058 28061 28064 28066 28069 28072 28075 28078 28080 28083 28086 28088 28091 28093 28096 28098 28101 28104 28107 28110 28113 28116 28119 28121 28124 28126 28129 28132 28134 28137 28140 28143 28146 28149 28152 28155 28158 28161 28164 28167 28170 28173 28176 28179 28182 28185 28188 28191 28194 28196 28199 28202 28205 28208 28211 28214 28216 28218 28221 28224 28226 28229 28232 28235 28237 28240 28243 28246 28249 28252 28255 28258 28260 28263 28266 28269 28272 28275 28278 28281 28284 28287 28290 28293 28296 28299 28302 28305 28308 28310 28313 28316 28319 28322 28325 28328 28331 28334 28337 28339 28342 28345 28348 28351 28354 28356 28359 28362 28365 28368 28371 28374 28377 28379 28382 28385 28388 28391 28394 28397 28400 28403 28406 28408 28411 28414 28416 28419 28421 28424 28426 28429 28431 28434 28437 28440 28443 28446 28448 28451 28454 28457 28460 28463 28465 28468 28471 28474 28477 28480 28483 28486 28489 28491 28493 28496 28499 28502 28505 28508 28511 28514 28517 28520 28523 28526 28529 28532 28534 28537 28540 28543 28546 28549 28552 28555 28558 28561 28563 28566 28569 28572 28575 28578 28581 28584 28587 28590 28592 28595 28598 28600 28602 28605 28608 28611 28613 28616 28619 28622 28625 28628 28630 28632 28635 28638 28641 28644 28647 28650 28653 28656 28658 28661 28663 28666 28669 28671 28674 28677 28680 28683 28686 28689 28692 28695 28698 28701 28704 28707 28710 28712 28715 28718 28721 28724 28726 28729 28732 28735 28738 28741 28744 28747 28750 28753 28756 28759 28762 28765 28768 28770 28773 28776 28778 28781 28784 28786 28789 28792 28795 28798 28801 28804 28807 28810 28813 28816 28819 28822 28824 28827 28830 28833 28836 28839 28841 28844 28847 28850 28853 28855 28858 28861 28864 28867 28870 28873 28875 28878 28881 28884 28886 28889 28892 28895 28897 28900 28903 28905 28908 28911 28914 28917 28920 28923 28926 28929 28932 28935 28938 28941 28944 28947 28950 28953 28956 28959 28962 28965 28968 28971 28974 28977 28979 28982 28985 28987 28989 28992 28995 28998 29001 29003 29006 29008 29010 29013 29015 29018 29021 29023 29025 29028 29031 29033 29036 29039 29042 29045 29048 29050 29052 29055 29057 29060 29062 29065 29068 29071 29074 29077 29080 29083 29086 29089 29092 29095 29098 29101 29104 29106 29109 29112 29115 29118 29120 29123 29126 29129 29132 29135 29138 29141 29144 29147 29150 29153 29156 29159 29161 29164 29167 29169 29171 29174 29177 29180 29183 29185 29188 29190 29193 29196 29199 29202 29205 29208 29211 29214 29217 29220 29223 29226 29229 29232 29235 29238 29241 29244 29247 29250 29253 29255 29257 29260 29263 29266 29269 29271 29274 29277 29280 29283 29286 29288 29291 29294 29297 29300 29302 29305 29308 29311 29314 29317 29320 29323 29325 29328 29331 29334 29337 29339 29342 29345 29348 29351 29354 29357 29360 29363 29366 29369 29372 29375 29378 29381 29384 29387 29390 29393 29396 29399 29402 29405 29408 29411 29414 29417 29420 29423 29426 29428 29431 29433 29435 29438 29441 29444 29447 29450 29453 29456 29459 29461 29464 29467 29470 29473 29475 29478 29481 29484 29487 29490 29493 29496 29499 29502 29505 29508 29511 29514 29517 29520 29523 29526 29529 29532 29535 29538 29541 29544 29547 29550 29553 29556 29558 29561 29564 29567 29569 29571 29574 29577 29580 29583 29586 29589 29591 29594 29597 29599 29602 29605 29608 29611 29614 29617 29619 29622 29625 29628 29631 29633 29636 29639 29641 29644 29647 29650 29653 29656 29659 29662 29665 29668 29671 29674 29677 29680 29683 29685 29688 29691 29694 29697 29700 29703 29706 29709 29712 29715 29718 29721 29724 29727 29730 29733 29736 29739 29742 29745 29748 29751 29754 29757 29760 29763 29766 29769 29772 29775 29778 29781 29784 29787 29790 29793 29796 29799 29802 29805 29808 29811 29814 29816 29819 29822 29825 29828 29830 29833 29836 29838 29841 29843 29846 29849 29852 29855 29857 29860 29863 29865 29868 29870 29873 29875 29878 29881 29884 29887 29890 29893 29896 29899 29902 29905 29908 29911 29913 29916 29919 29922 29925 29928 29931 29934 
</DataArray>
<DataArray type="UInt32" Name="types" format="ascii">
5 5 5 5 5 3 5 3 5 5 5 3 5 5 5 5 5 5 5 5 5 5 5 5 3 5 5 3 5 5 5 5 5 5 3 5 5 5 5 5 5 5 5 5 5 5 5 5 5 5 5 3 5 3 5 5 5 5 5 5 5 5 5 5 5 5 5 5 3 5 5 5 5 5 5 5 5 5 3 5 5 5 5 5 3 5 5 5 5 5 5 3 5 3 5 5 5 5 5 3 5 5 5 5 5 3 5 5 5 5 5 5 5 5 5 5 5 3 3 5 5 3 5 3 3 5 5 5 5 5 3 3 3 5 5 5 5 5 5 5 5 5 5 3 5 5 5 3 5 5 5 5 5 5 5 5 5 5 5 5 3 5 5 5 5 3 5 5 5 3 5 5 3 5 5 5 5 5 5 5 5 5 3 5 3 5 5 5 3 5 5 3 3 5 5 5 5 5 5 5 5 3 5 3 5 3 5 5 5 5 5 5 3 5 5 5 5 5 5 5 3 3 5 3 3 5 3 5 5 5 3 5 5 5 5 5 5 5 5 3 5 5 5 5 5 3 5 5 5 5 5 5 5 5 5 5 5 5 5 5 5 5 5 5 5 5 5 5 5 5 5 5 5 5 5 5 5 5 5 5 5 5 5 5 5 5 5 5 5 3 5 3 5 5 3 5 3 5 5 5 3 5 5 3 3 5 5 5 3 3 5 5 5 5 5 5 3 5 5 5 3 5 5 5 5 5 5 3 5 5 3 5 5 3 3 3 3 5 3 3 5 5 5 5 5 3 5 5 5 5 5 5 5 3 5 3 5 5 5 5 5 5 5 3 5 5 5 5 5 5 5 5 3 3 5 5 3 5 3 5 3 3 5 5 5 3 5 3 3 3 3 5 5 5 5 5 5 5 3 3 5 5 5 3 5 5 3 5 5 5 5 5 5 5 3 5 5 5 5 5 5 5 5 5 3 5 5 5 3 5 3 5 5 3 5 5 5 5 5 3 5 5 5 3 5 5 5 5 5 5 5 3 5 5 5 3 5 5 5 5 5 5 5 5 5 5 5 5 5 5 5 5 5 5 5 3 5 5 5 5 5 5 5 5 5 5 5 5 5 5 5 5 5 5 3 5 5 5 5 3 5 5 5 5 5 5 5 5 3 5 5 5 3 5 5 3 5 3 5 5 5 5 3 5 5 5 3 5 3 3 3 5 5 5 5 5 5 5 5 5 5 5 5 5 3 5 5 3 5 5 3 5 5 5 5 5 5 5 3 5 3 5 5 3 5 3 5 5 5 5 5 3 5 3 5 5 3 5 3 5 5 5 3 3 5 5 3 3 3 3 5 5 5 5 5 3 3 5 5 5 5 5 3 5 5 3 5 5 5 3 5 5 3 5 5 5 5 5 5 5 5 5 5 5 5 5 3 5 5 5 5 5 3 5 5 5 5 5 3 5 5 3 3 5 5 3 5 5 5 5 5 5 5 5 5 5 3 5 5 5 5 5 3 5 5 5 5 5 5 3 5 5 5 5 5 5 5 5 3 5 5 5 5 5 3 5 5 5 5 5 5 5 3 5 5 5 5 5 3 5 5 5 5 5 3 5 5 5 5 5 5 5 3 5 5 5 5 5 5 3 5 5 3 5 5 3 5 5 3 3 5 5 5 5 5 5 5 5 5 5 3 5 5 3 5 5 5 5 5 3 5 3 5 5 5 3 5 3 3 5 5 5 5 5 5 5 3 5 5 3 5 5 5 5 5 5 5 5 5 5 5 3 5 5 5 5 5 3 3 5 5 5 5 3 5 5 5 5 5 3 5 3 5 3 3 5 5 5 5 5 5 5 5 3 3 5 5 3 5 5 5 3 5 3 5 5 3 3 3 5 5 3 5 5 5 5 3 5 5 5 5 3 5 5 3 5 5 5 5 5 5 5 5 5 5 5 3 5 5 3 5 3 5 3 5 5 5 5 5 3 5 5 5 3 5 5 3 5 5 5 5 5 5 5 5 5 5 5 5 5 5 5 5 5 5 5 5 5 5 5 5 5 5 5 5 5 5 5 5 5 5 5 5 5 5 5 5 5 3 5 5 5 5 5 5 5 5 5 5 5 5 5 5 5 5 5 5 5 5 3 5 5 5 5 5 5 5 5 5 5 3 5 5 5 5 3 5 5 5 5 5 5 5 5 3 5 5 3 5 5 5 5 5 5 5 5 5 3 5 5 5 5 5 3 5 5 5 5 5 5 5 5 5 3 3 5 5 5 5 5 5 5 5 5 5 5 5 5 5 5 5 5 5 5 5 5 5 3 5 5 5 5 3 5 5 5 5 5 3 5 5 5 5 3 5 5 5 3 5 5 5 5 5 3 5 5 5 5 5 5 5 5 5 5 3 5 3 3 5 5 5 5 5 5 3 5 5 5 5 5 5 5 5 5 5 5 5 5 5 5 5 5 5 5 5 5 3 5 5 5 5 3 5 5 5 5 5 5 5 5 5 5 5 5 5 5 5 5 5 5 5 5 5 5 5 5 5 5 5 5 5 5 5 5 5 5 5 5 5 5 5 3 5 5 5 5 5 5 5 5 5 5 5 5 5 5 3 5 5 5 5 5 5 5 5 5 3 5 5 5 3 5 3 5 3 5 5 5 5 3 5 5 5 5 5 5 5 5 5 5 5 5 3 5 5 5 5 5 5 5 5 5 5 5 5 5 5 5 3 5 5 5 5 5 5 5 5 5 5 5 5 5 5 5 5 5 5 5 5 5 5 5 5 5 5 5 5 5 5 5 5 5 5 5 5 5 3 5 5 5 5 3 5 5 5 3 5 5 5 5 3 5 5 5 3 5 5 5 5 5 5 5 5 3 5 5 5 5 5 5 5 5 5 5 5 5 5 5 5 5 5 5 5 5 5 5 5 5 5 5 5 5 5 5 5 5 5 5 5 5 5 3 5 3 5 5 3 5 5 5 5 5 5 5 5 3 5 5 5 5 5 5 5 5 5 5 5 5 5 5 3 5 5 5 5 5 5 5 5 5 5 5 5 5 3 5 5 5 3 3 5 3 5 3 5 5 5 5 3 5 3 3 5 5 5 5 5 3 3 5 5 5 3 5 5 5 5 5 3 5 5 5 5 3 5 5 5 3 5 5 5 5 5 5 5 5 5 5 5 5 5 5 3 5 5 5 5 5 5 5 5 5 5 5 5 5 5 3 5 5 3 5 5 5 5 3 3 3 5 3 5 3 5 5 5 3 5 5 3 5 5 5 5 5 3 5 5 5 5 5 5 3 5 5 5 5 5 5 5 5 5 3 5 5 3 5 3 5 5 5 5 5 5 5 5 3 5 5 3 5 5 5 5 3 5 5 5 5 5 5 5 5 3 3 5 5 5 5 5 5 5 5 5 5 3 5 3 5 3 5 5 5 5 5 3 5 5 3 5 5 5 5 5 5 5 5 3 5 5 5 5 5 5 5 3 5 5 3 5 5 3 5 3 3 5 3 5 5 3 5 5 5 5 3 3 5 3 5 3 5 5 5 5 3 3 5 5 5 5 3 5 5 5 3 5 5 5 5 3 5 5 5 3 3 5 5 5 5 3 3 5 3 5 5 5 3 3 5 5 5 5 5 5 5 5 5 5 5 5 3 5 5 5 5 5 5 5 5 5 5 5 5 5 5 5 3 5 5 5 5 5 5 5 5 3 5 5 5 5 5 5 5 5 5 5 5 5 5 3 5 5 5 3 3 5 5 5 5 5 5 5 5 5 5 5 3 5 5 5 5 5 3 5 3 5 3 5 5 5 5 5 5 5 5 5 5 5 3 5 3 5 5 3 5 5 5 5 3 5 5 3 5 5 5 5 5 5 5 5 5 5 5 3 5 5 5 5 5 5 3 3 5 5 5 5 5 5 5 5 5 5 5 5 3 5 5 5 5 5 5 3 5 5 3 5 5 3 5 5 5 5 5 3 5 5 5 5 5 5 5 5 5 3 5 5 5 5 5 5 5 5 5 5 5 5 5 5 5 5 5 5 5 5 5 5 5 5 3 3 5 5 5 5 5 3 5 5 5 5 5 5 5 5 5 3 5 5 5 3 5 5 3 5 5 5 5 5 5 5 5 5 3 3 5 5 5 5 5 5 5 5 5 5 5 5 5 5 3 5 5 5 5 5 5 3 5 5 3 5 5 3 5 5 5 3 5 5 5 5 3 5 5 5 3 5 5 5 3 5 3 5 5 5 5 5 3 5 5 5 5 5 5 5 3 5 5 5 5 5 5 5 3 5 5 5 5 5 5 5 5 3 5 5 3 5 5 5 5 5 5 5 5 3 5 5 5 5 5 5 5 5 3 5 5 5 5 3 5 5 5 5 5 5 3 5 5 5 5 3 5 5 3 5 5 3 5 5 5 5 5 5 5 5 5 5 5 5 5 5 5 3 5 3 5 5 5 5 5 3 5 5 5 5 5 5 3 5 3 5 5 5 3 3 5 3 5 5 5 5 5 5 3 5 5 3 5 5 5 5 5 5 5 3 5 5 5 5 3 5 5 3 5 3 3 3 5 5 3 5 3 5 5 3 3 3 5 5 3 5 5 5 5 5 5 5 5 5 5 5 5 5 3 5 3 5 5 5 5 5 3 3 5 5 5 3 5 5 3 3 5 5 5 5 5 5 5 5 3 5 5 5 5 5 5 5 5 3 5 5 5 5 5 5 5 5 5 5 5 3 5 5 5 3 5 5 3 5 5 5 5 3 5 5 5 5 5 5 5 5 5 5 5 5 5 5 3 5 5 5 3 5 5 5 5 5 5 5 5 5 5 5 5 5 3 5 5 5 3 5 5 3 5 3 5 5 5 5 5 5 5 5 5 3 5 5 5 5 3 5 5 5 3 5 5 5 5 3 5 5 3 5 5 5 5 3 5 5 5 5 5 5 5 3 5 5 3 5 5 3 5 5 5 5 5 3 5 3 5 5 5 5 5 5 5 5 5 5 5 5 5 5 3 5 5 5 5 5 5 5 5 5 5 5 5 5 5 5 5 5 5 5 5 5 5 5 5 3 5 5 5 5 5 5 5 5 5 5 5 5 5 5 5 3 5 5 5 5 5 5 5 5 5 5 5 5 5 5 5 5 5 5 5 5 5 5 5 5 5 5 5 5 5 5 5 5 5 5 5 5 5 5 5 5 5 5 5 5 5 5 5 5 5 5 5 5 5 5 5 5 5 5 5 5 5 5 5 5 5 5 5 5 5 5 5 5 5 5 5 5 5 5 5 5 5 5 5 5 5 5 5 5 5 5 5 5 5 5 5 5 5 5 5 5 5 5 5 5 5 5 5 5 5 5 5 5 5 5 5 5 5 5 5 5 5 5 5 5 5 5 5 5 5 5 5 5 5 5 5 5 5 5 5 5 5 5 5 5 5 5 5 5 5 5 5 5 5 5 5 5 5 5 3 5 5 5 5 5 5 5 5 5 5 3 5 5 5 5 3 5 5 5 5 3 3 5 3 5 5 5 5 5 3 3 3 3 5 5 5 5 5 5 5 3 5 5 3 5 5 3 5 5 5 3 5 3 5 5 5 5 5 5 3 3 5 5 5 5 5 5 5 5 5 5 5 5 5 5 5 5 5 5 5 5 5 5 5 5 5 5 5 5 5 5 5 5 5 5 5 5 5 5 5 5 5 5 5 5 5 5 3 5 3 5 5 5 5 5 5 5 5 3 5 5 5 5 5 5 5 5 5 5 5 5 5 5 5 5 5 3 5 3 5 5 3 5 5 3 5 3 5 5 5 5 5 5 5 5 5 5 5 5 5 5 5 5 5 5 5 5 5 5 5 5 5 5 5 5 5 5 5 5 5 5 5 5 5 3 5 5 5 5 5 5 5 5 5 5 5 5 5 5 5 5 3 5 5 5 5 5 3 5 5 5 5 5 5 5 5 5 5 5 5 5 5 5 3 5 3 5 5 5 5 5 3 3 5 5 5 5 5 5 3 3 5 5 5 5 5 5 5 5 3 5 5 5 5 5 5 3 5 5 3 5 5 5 5 5 5 5 5 5 3 3 5 5 5 5 5 5 3 5 5 5 5 5 5 5 5 5 5 5 5 5 5 5 3 3 5 5 5 3 5 5 5 5 5 5 3 5 3 3 5 3 5 5 5 5 5 5 3 5 5 5 5 5 5 5 5 3 5 5 5 5 5 5 5 5 5 5 5 5 5 5 5 3 5 3 5 5 5 5 5 5 5 5 3 5 5 5 3 3 5 5 5 5 3 5 3 3 5 5 5 5 5 5 5 5 5 3 3 3 5 5 5 3 5 5 5 3 5 5 5 5 5 5 5 5 5 5 3 5 5 5 5 3 5 5 5 5 3 5 3 5 3 5 5 5 5 3 3 5 5 3 5 5 5 3 5 5 3 5 5 3 5 5 5 5 5 5 5 3 5 5 5 5 3 5 5 5 5 3 5 3 5 5 3 5 3 5 3 5 5 5 5 3 5 5 5 5 5 3 5 3 5 3 5 5 5 5 5 5 5 5 5 3 5 5 3 5 5 5 5 5 5 5 5 5 5 5 3 3 5 5 3 5 5 5 5 5 3 5 5 5 5 5 5 5 5 5 5 5 5 3 5 5 3 3 5 5 5 5 5 5 5 5 3 5 5 3 5 5 5 5 5 5 3 5 5 5 5 5 5 5 5 5 5 5 5 3 5 5 5 3 3 5 3 5 3 5 5 5 5 5 5 3 5 5 5 5 5 5 5 5 5 5 5 5 5 5 5 5 5 5 5 5 5 3 5 5 5 3 5 3 5 5 5 5 5 5 5 5 5 5 5 3 5 3 5 5 3 5 5 5 3 5 5 5 5 5 5 5 5 5 5 5 5 5 5 5 5 5 5 5 3 5 5 5 5 3 5 5 5 5 5 5 3 5 5 5 3 5 5 5 5 5 5 5 5 5 5 3 5 5 5 3 5 5 5 5 3 5 5 5 5 5 5 5 5 5 5 5 5 3 3 5 5 5 5 5 5 5 5 3 3 5 3 5 5 5 3 5 5 5 5 5 3 5 5 5 5 5 5 5 5 5 5 5 3 5 5 5 5 3 5 5 5 3 5 5 3 5 5 5 5 5 5 5 5 5 5 5 5 5 3 5 5 5 5 5 5 5 5 5 5 5 5 5 5 5 5 5 5 5 5 5 5 5 5 5 3 5 3 5 5 5 5 3 5 5 5 5 5 5 5 5 5 5 5 5 5 5 5 5 5 5 3 5 3 5 5 5 5 5 5 5 5 3 5 5 3 5 3 5 5 5 3 5 5 5 5 5 5 5 3 5 5 5 5 3 3 5 5 5 3 5 5 5 5 5 5 5 5 5 5 5 3 5 5 5 5 5 5 3 5 5 5 5 5 5 5 5 3 5 5 3 5 5 5 5 3 5 5 5 3 5 3 5 5 5 3 5 5 5 5 5 5 3 5 5 5 5 5 5 5 5 5 5 3 5 3 5 5 5 5 5 5 5 5 5 5 5 5 5 5 3 5 5 3 5 5 5 5 5 5 5 5 5 5 5 5 5 5 5 5 5 5 3 5 5 5 5 5 5 5 5 5 3 5 5 3 5 3 5 5 5 3 5 5 5 5 5 5 5 5 5 3 5 5 5 5 5 3 5 5 3 5 5 3 5 5 5 5 3 5 5 5 3 5 5 5 5 5 5 5 5 5 5 5 5 5 5 5 5 5 5 5 5 5 5 5 3 3 5 5 3 5 5 5 3 5 5 5 5 5 5 5 5 3 5 5 5 5 5 3 5 5 3 5 5 5 3 5 5 5 5 5 5 5 5 3 5 5 5 5 3 5 5 5 5 5 5 3 5 5 5 5 5 5 5 5 5 5 3 5 5 5 5 5 5 5 5 3 3 5 3 5 5 5 5 5 5 3 5 3 5 3 5 5 5 5 5 5 3 5 3 5 3 5 3 5 5 5 3 5 3 5 3 5 5 3 5 5 5 5 3 5 3 5 5 5 3 5 5 5 5 3 5 5 5 5 3 5 5 3 5 5 5 5 3 5 5 5 5 5 5 5 5 5 5 5 5 5 5 5 3 5 5 5 5 5 5 5 5 5 5 5 5 5 5 5 5 5 3 5 5 5 5 5 5 5 5 5 5 5 5 5 5 5 5 5 5 5 5 5 5 5 5 5 5 5 5 5 5 5 5 5 5 5 5 5 5 5 5 5 5 5 5 5 5 5 5 5 5 5 5 5 5 5 5 5 5 5 5 5 5 5 5 5 5 5 5 5 5 5 5 5 5 5 5 5 5 5 5 5 5 5 5 5 5 5 5 5 5 5 5 5 5 5 5 5 5 5 5 5 3 5 5 5 5 5 5 5 5 5 5 5 5 5 5 5 5 5 5 5 3 5 5 5 5 5 5 5 5 5 5 5 5 5 5 5 5 5 5 3 5 5 5 5 5 5 5 3 3 5 5 3 5 5 5 5 5 5 5 5 5 3 5 5 5 5 5 5 5 5 5 5 3 5 5 5 5 3 5 5 3 3 5 3 5 5 3 5 5 5 5 3 3 5 5 5 5 5 5 3 5 5 3 5 5 5 5 5 3 5 3 5 3 5 3 5 3 3 5 5 5 5 3 3 5 3 5 5 3 5 5 5 5 5 3 5 3 5 3 5 5 3 3 5 5 5 3 5 5 5 5 5 3 5 3 5 5 5 5 5 5 5 5 5 5 5 5 5 5 5 3 5 5 5 5 3 3 5 5 5 3 5 5 3 3 5 5 5 3 5 5 5 5 5 3 3 5 5 5 5 5 5 5 5 5 5 5 5 3 5 5 5 3 5 5 5 5 3 5 3 5 5 5 5 5 5 5 3 3 5 3 5 5 5 3 3 5 5 3 5 5 3 5 5 3 5 3 5 5 5 5 5 5 5 5 3 5 5 5 5 3 5 5 5 5 5 5 5 5 5 5 3 5 5 5 5 5 3 5 5 5 5 5 5 5 5 5 5 5 3 5 5 5 5 3 5 5 5 5 5 5 5 5 5 5 5 5 3 5 5 5 5 5 5 3 5 5 5 3 5 5 3 5 3 5 3 5 3 5 5 5 3 5 5 5 3 3 5 5 5 3 5 5 5 5 5 3 5 5 5 5 5 5 3 5 5 3 5 5 5 5 3 5 5 5 5 5 5 5 5 5 3 5 5 5 3 5 5 3 5 5 5 5 5 5 5 5 3 3 5 5 5 3 5 5 5 5 5 5 5 3 5 5 5 5 5 5 5 3 5 5 5 5 5 5 5 3 5 5 5 5 5 5 5 5 5 5 3 5 5 5 5 5 3 5 5 5 5 3 5 5 5 5 5 5 5 5 5 5 3 5 5 5 5 5 5 5 5 3 5 5 5 3 5 5 5 5 5 3 5 5 5 5 5 5 5 3 5 5 5 5 5 5 5 5 5 3 5 5 5 5 5 5 5 5 5 5 5 5 5 5 5 5 5 5 5 5 5 5 5 5 5 5 5 5 5 3 5 5 5 3 5 5 5 5 5 5 5 5 5 5 5 5 5 5 5 3 3 5 5 5 5 5 5 5 3 5 5 5 3 3 5 5 5 5 5 5 5 5 5 5 5 5 5 5 5 5 5 5 5 5 5 3 5 5 5 3 5 5 5 5 5 5 5 5 5 5 5 5 5 5 5 5 5 5 5 5 5 5 5 5 5 5 5 5 5 3 5 5 5 5 5 5 5 5 5 5 5 5 5 5 5 5 5 5 5 5 5 3 5 5 5 5 5 5 5 5 3 5 5 5 5 5 3 5 5 5 5 5 5 5 5 5 5 5 3 3 5 5 3 5 3 5 5 5 5 5 5 5 5 5 5 5 5 5 5 5 5 5 3 5 5 5 5 5 5 5 5 5 5 5 5 3 5 5 3 5 5 5 5 5 5 3 5 5 5 3 5 5 5 5 5 3 5 3 5 5 5 5 5 5 5 5 3 5 5 5 5 3 5 5 5 5 5 5 5 5 5 3 5 3 5 5 5 5 5 5 5 5 5 3 5 5 5 5 5 5 5 5 3 5 5 5 5 5 5 5 3 5 5 5 3 5 5 5 5 3 5 5 5 5 5 3 5 5 3 5 5 5 5 5 5 5 5 5 5 5 5 5 5 5 5 5 5 5 5 5 5 5 5 3 3 5 5 5 5 5 5 5 3 5 5 5 5 5 5 5 5 5 5 5 5 5 5 5 5 5 5 5 3 5 5 5 3 3 5 5 5 5 5 5 5 5 5 5 5 5 5 5 5 5 5 5 5 5 5 5 5 5 5 5 5 3 5 5 5 3 5 5 5 5 3 5 3 5 5 5 5 5 3 5 5 3 5 5 5 5 5 5 5 5 5 5 5 5 5 5 3 5 5 5 5 5 5 5 3 3 5 5 3 5 5 5 5 5 5 5 5 5 3 3 5 5 5 5 5 5 5 5 3 5 5 5 3 5 5 5 5 5 5 3 5 5 5 3 5 5 5 5 5 5 5 3 5 5 5 5 3 5 5 3 5 5 5 3 3 5 5 5 5 3 5 5 3 5 5 5 3 5 5 5 5 3 5 3 5 5 5 5 5 5 5 5 5 5 5 5 5 3 5 3 5 5 5 5 3 5 5 5 5 5 3 5 5 5 3 5 5 5 5 5 5 5 5 5 5 5 5 5 5 5 5 5 5 5 5 5 5 5 5 5 5 5 5 5 5 5 5 5 5 3 5 5 3 5 5 5 5 5 5 3 5 3 5 5 5 5 5 5 3 5 5 5 3 5 5 5 5 5 5 5 5 3 5 3 3 5 5 5 5 5 5 5 3 5 5 5 5 5 3 5 5 5 5 5 5 5 5 5 5 5 5 5 3 5 5 5 5 5 5 5 5 5 5 5 5 5 5 5 5 5 5 5 5 5 5 5 5 5 5 5 5 5 5 5 5 5 5 5 5 5 5 5 5 5 5 5 5 5 3 5 5 5 5 5 5 5 5 5 5 5 5 5 5 3 3 5 3 5 5 3 5 5 3 3 5 5 5 5 5 5 3 5 5 5 3 5 5 5 5 5 5 5 5 5 5 5 5 5 5 5 5 5 5 5 5 5 5 5 5 5 5 5 5 5 5 5 5 3 5 5 5 3 5 5 5 5 5 5 5 3 5 5 5 3 5 5 5 5 5 5 5 5 5 5 5 5 3 5 5 5 5 5 5 5 5 5 5 5 5 5 5 5 5 5 3 5 5 5 5 5 5 3 5 5 5 5 5 5 5 5 5 5 5 5 5 5 5 5 5 5 5 5 5 5 5 5 5 5 5 5 5 5 5 5 5 5 5 5 5 5 5 5 5 5 5 5 5 5 5 5 5 5 3 5 5 5 5 5 5 5 5 5 5 5 5 5 5 5 5 5 5 5 5 3 5 5 5 5 5 5 5 5 5 5 5 5 5 5 5 5 5 5 5 5 5 3 5 5 5 5 5 5 5 5 5 5 5 5 5 5 5 5 5 5 5 5 5 5 5 5 5 3 5 5 5 5 3 5 5 5 5 5 5 5 5 5 5 5 5 5 5 3 5 5 5 3 5 5 5 5 5 5 5 5 5 5 5 5 5 3 3 5 5 5 5 5 5 5 5 3 5 5 5 3 5 5 5 5 3 5 5 5 5 3 5 3 5 5 5 5 5 5 5 3 5 5 3 5 5 5 5 3 5 5 5 5 5 5 5 5 5 5 5 3 5 3 5 5 5 3 5 5 5 5 3 5 5 5 5 5 3 5 3 5 5 5 3 5 5 5 5 3 3 5 5 5 5 5 3 5 5 5 3 5 5 5 5 3 5 5 3 5 5 5 5 5 5 5 3 5 5 5 5 5 5 5 5 5 5 5 5 5 5 5 5 5 5 5 5 5 3 5 5 5 5 5 5 5 5 5 5 5 5 5 5 5 5 5 3 5 5 5 5 3 5 3 5 5 5 5 5 5 5 5 5 3 5 5 3 3 5 5 3 5 5 5 5 5 5 5 3 3 5 5 3 3 5 5 5 5 5 5 5 3 5 5 3 5 5 5 5 5 3 5 5 5 5 5 5 5 5 5 5 5 5 5 5 5 5 5 5 5 5 5 3 3 5 5 5 5 3 5 5 3 5 5 5 5 3 5 5 5 5 5 5 5 5 5 5 5 5 5 5 5 3 5 5 5 5 3 5 5 5 5 5 5 5 5 5 5 5 5 5 5 5 5 5 5 5 5 3 3 5 5 5 5 5 5 5 5 5 3 5 5 3 5 5 3 5 5 5 5 5 5 5 5 5 5 3 5 5 3 5 5 5 5 5 5 5 5 5 5 5 5 5 5 5 5 5 5 5 5 5 5 5 5 5 5 5 5 5 3 5 5 5 3 5 5 5 5 5 5 5 5 5 3 5 5 5 5 5 5 5 3 5 5 5 5 3 5 5 5 5 5 5 5 5 5 3 5 5 3 5 5 3 5 5 5 5 3 5 5 5 5 3 5 5 5 5 5 5 5 5 5 5 3 5 5 5 5 3 5 5 5 5 3 5 5 5 5 5 5 5 3 5 5 5 3 5 5 5 5 5 3 3 5 5 5 5 3 5 3 5 5 5 5 5 5 5 5 5 5 5 5 5 5 5 5 5 5 5 5 5 5 5 5 3 5 5 5 5 5 5 5 5 5 5 3 5 3 5 5 5 5 5 5 5 5 5 3 5 5 5 5 5 5 5 5 5 5 5 5 5 5 5 5 5 5 5 5 5 5 5 5 5 5 3 3 3 5 5 5 3 5 5 5 5 5 5 5 5 5 5 3 5 5 3 5 5 5 5 5 5 5 5 5 5 5 5 5 5 5 5 5 5 5 5 5 5 5 5 5 5 5 5 5 5 5 5 5 5 5 5 5 5 5 5 5 5 5 5 5 5 3 5 5 3 5 5 3 3 5 3 5 3 5 5 5 5 5 3 5 5 5 5 3 5 5 5 5 5 3 5 5 5 3 5 5 5 5 5 5 5 5 5 5 5 3 5 5 5 3 3 3 3 3 5 5 5 5 5 3 3 5 5 5 5 3 5 5 3 3 5 5 3 5 5 5 5 5 3 5 5 3 5 5 5 3 5 5 5 5 3 5 5 5 5 5 3 3 3 5 5 5 5 5 5 5 5 5 5 3 5 5 5 5 5 5 3 5 3 5 5 5 5 5 5 5 5 5 5 5 3 5 3 5 5 5 5 5 5 5 5 3 5 5 3 5 5 5 5 3 5 5 5 5 5 5 3 3 5 5 5 5 5 5 5 5 5 5 5 5 5 5 5 5 5 5 5 5 5 5 5 3 5 5 5 5 5 5 5 5 5 5 3 5 5 5 3 5 5 5 5 5 5 5 3 5 5 5 5 5 5 3 5 5 5 5 5 5 3 5 5 5 3 5 5 5 5 3 5 5 5 5 5 3 3 5 5 5 5 5 5 5 5 5 3 5 5 5 5 5 5 3 5 5 5 5 5 5 3 5 5 5 5 5 5 5 5 5 3 5 5 3 5 5 5 5 5 5 3 5 5 5 5 5 3 5 5 5 5 5 5 5 5 5 5 5 5 5 5 5 5 3 5 5 5 5 5 3 5 5 5 5 5 5 5 5 5 5 5 5 5 3 3 5 5 3 5 5 3 5 5 5 5 5 5 3 5 3 5 5 5 5 5 5 3 5 5 5 5 5 5 5 5 5 5 5 5 5 5 3 5 5 5 3 5 5 5 5 5 5 5 5 5 5 5 5 5 5 3 5 5 5 5 5 5 5 5 5 5 5 3 5 5 5 5 3 5 5 5 3 5 5 5 5 5 5 5 5 3 5 5 5 5 5 5 5 5 5 5 3 5 3 5 5 5 5 5 5 5 5 5 5 5 5 5 5 5 5 5 5 5 5 5 5 5 5 5 5 5 5 5 5 5 5 5 5 5 5 5 5 5 3 3 5 5 5 5 5 3 5 5 3 5 5 5 5 3 5 5 3 5 5 5 5 3 3 5 5 5 5 5 3 5 5 5 5 5 5 5 5 3 5 5 5 5 5 5 5 5 3 5 5 5 5 5 5 5 5 5 5 5 5 5 5 5 5 3 5 5 5 3 5 5 5 3 3 5 5 5 5 5 5 3 3 5 5 5 5 5 5 5 5 5 5 5 5 5 5 5 5 5 3 5 5 3 5 5 5 5 3 5 5 3 5 5 5 5 5 5 3 3 5 5 5 5 5 3 5 5 5 5 5 5 5 5 3 5 5 5 3 5 5 5 5 5 3 3 5 5 3 5 3 5 5 5 3 3 5 5 5 5 5 3 5 5 5 5 5 5 5 5 5 5 5 5 5 5 5 5 5 5 3 5 3 5 5 5 5 5 5 5 5 5 5 5 5 5 3 5 5 5 5 5 5 5 5 5 5 3 5 5 5 5 3 5 5 3 5 5 5 3 5 5 5 5 5 5 3 5 3 5 5 5 3 5 3 5 5 3 5 5 5 3 5 3 3 5 5 5 3 5 5 3 5 5 3 5 5 5 5 5 5 3 5 3 3 5 3 5 5 5 5 3 5 3 5 3 5 5 3 5 5 5 5 3 5 5 5 5 5 5 5 5 5 5 5 3 3 5 5 5 5 5 5 5 5 5 5 5 5 5 5 5 5 5 5 5 3 5 5 5 5 5 5 5 5 5 5 5 5 5 5 5 5 5 3 5 5 5 5 5 3 5 5 5 5 5 3 5 5 5 5 5 3 5 5 5 3 3 5 5 5 5 5 5 3 5 3 5 5 5 5 5 5 3 5 5 5 5 5 5 5 3 3 3 5 3 5 5 5 5 3 5 3 5 3 5 5 3 5 5 3 5 5 5 3 5 3 3 5 5 5 5 5 5 3 5 5 5 5 5 5 3 5 5 5 5 5 5 5 5 5 5 5 5 5 5 3 3 5 3 5 5 5 5 5 5 5 5 3 5 3 3 5 5 5 5 3 5 5 3 5 5 5 5 3 5 3 5 5 5 5 5 5 3 3 5 5 5 5 5 3 5 5 5 5 5 3 5 5 5 5 5 5 3 5 5 3 5 5 5 5 5 5 5 5 5 5 5 5 5 5 5 3 5 5 5 3 5 3 5 5 5 5 3 5 5 3 5 5 5 5 3 5 5 5 3 3 3 5 3 5 5 5 5 5 5 5 3 5 5 5 3 5 5 5 5 5 5 5 3 5 5 5 5 5 5 5 3 5 5 3 5 5 5 3 5 5 5 5 5 5 5 5 5 5 5 5 5 5 5 5 5 5 5 5 5 5 5 5 5 5 5 5 5 5 5 5 5 5 5 5 5 5 5 5 5 5 5 5 5 5 5 5 5 5 5 5 5 5 5 5 5 5 5 5 5 5 5 5 5 5 5 5 3 5 5 3 5 5 5 5 3 5 5 5 5 5 5 5 5 5 5 5 5 3 3 5 5 5 5 5 5 5 5 5 3 5 5 5 5 5 5 5 5 5 5 5 3 3 5 3 3 5 5 3 5 5 5 5 5 5 5 3 5 5 5 5 5 3 5 5 5 3 5 5 5 5 3 5 5 5 3 5 5 5 5 5 5 5 3 5 5 5 5 5 5 5 5 5 5 5 5 5 5 5 5 5 5 5 5 5 3 5 5 5 5 3 5 5 5 5 3 5 5 5 3 3 3 5 5 5 5 5 5 3 5 5 5 5 3 3 5 5 5 3 3 5 3 5 5 5 5 3 5 5 5 3 5 5 5 3 5 5 5 5 5 5 5 5 5 5 3 5 5 5 5 5 5 5 5 5 5 5 5 3 5 5 5 5 3 3 5 5 3 5 5 5 5 5 5 5 5 5 3 3 3 5 3 5 5 5 5 5 5 5 3 5 5 5 5 3 3 5 5 5 5 5 3 5 5 5 5 5 3 5 5 5 5 3 5 5 5 5 3 3 5 3 5 5 3 3 5 5 3 5 5 5 5 5 5 5 5 3 5 3 3 3 5 5 5 5 5 5 5 5 5 5 5 5 3 5 5 5 5 5 5 5 5 5 5 5 5 5 5 5 5 5 5 5 5 5 5 5 5 3 5 3 5 3 5 5 5 5 5 5 5 5 5 5 3 5 5 3 3 5 5 5 5 3 5 5 5 5 5 5 5 3 5 5 5 5 5 5 5 3 5 5 3 5 5 5 5 5 5 5 5 3 5 3 5 5 5 5 5 5 5 5 5 5 3 5 5 5 3 5 5 5 5 3 3 5 5 5 5 3 5 5 5 3 5 5 5 5 3 5 5 5 5 5 5 5 5 5 5 5 5 5 3 5 5 5 5 5 5 3 5 5 5 5 3 5 3 5 5 5 5 5 5 5 5 5 3 5 3 5 5 5 5 5 5 5 5 5 5 5 5 5 5 5 5 5 3 3 5 5 5 5 5 3 5 3 3 3 5 5 5 5 5 5 5 5 5 5 5 5 5 5 5 5 5 5 5 5 5 5 5 5 5 5 3 5 3 3 5 5 5 5 5 5 5 5 3 5 5 5 5 5 5 3 5 5 5 5 5 5 3 5 5 5 5 5 5 5 5 5 5 3 5 5 5 5 3 5 5 5 5 3 5 5 5 5 5 5 3 5 5 5 5 5 5 5 5 5 5 5 5 5 5 5 5 5 5 5 5 5 5 5 5 5 5 5 5 5 5 5 5 5 5 5 5 3 5 5 5 5 5 5 5 5 3 5 5 5 3 5 5 5 5 5 5 5 5 5 5 5 5 5 5 5 5 5 5 5 5 5 5 3 5 5 5 5 5 5 3 5 5 3 3 5 5 5 5 5 3 5 5 5 5 5 5 5 5 5 5 3 3 5 5 5 5 3 5 5 5 5 5 3 5 3 3 5 5 5 5 5 5 5 3 5 5 5 3 3 5 5 5 5 5 5 5 5 5 5 3 5 5 5 5 5 5 5 5 5 5 5 5 5 3 3 5 5 5 3 5 5 5 5 5 5 5 5 5 5 5 5 5 5 3 5 5 5 5 3 5 5 5 5 5 5 5 5 5 5 5 3 5 5 5 5 5 5 5 5 5 5 5 3 5 5 5 5 5 5 5 5 5 5 5 5 5 3 5 5 5 5 5 5 5 5 5 5 5 5 5 3 5 5 5 3 5 5 5 5 5 5 5 5 5 5 5 5 5 5 5 3 5 5 5 5 5 5 5 5 5 5 5 5 5 5 5 5 5 5 5 5 5 5 3 5 5 5 5 5 5 3 3 5 3 5 5 5 5 5 5 5 5 5 3 5 5 5 5 5 5 5 5 3 5 5 5 5 5 3 5 5 5 5 5 3 5 5 5 3 5 5 5 5 5 5 5 5 5 5 5 5 5 5 5 5 5 5 5 5 5 5 5 5 5 3 5 5 5 5 5 5 5 5 5 5 5 5 5 5 5 5 5 3 5 5 5 3 5 5 5 5 5 5 5 5 5 5 5 5 5 5 5 5 5 5 5 5 5 5 5 5 5 5 5 5 5 5 3 5 5 3 5 5 5 5 3 5 3 5 3 5 3 5 5 5 5 5 5 5 3 5 5 3 5 5 3 5 5 5 5 5 5 3 5 5 3 5 5 5 3 5 5 3 5 3 5 5 5 5 5 5 5 5 5 5 5 5 5 5 5 5 5 5 5 5 5 5 5 5 5 5 5 5 3 3 5 5 5 5 3 5 5 5 5 5 5 5 5 3 5 5 5 5 5 5 5 5 5 5 5 5 5 3 3 5 5 5 5 5 5 5 5 5 5 5 5 5 5 5 5 5 5 5 5 5 3 5 5 5 3 5 5 5 5 3 3 3 5 3 5 3 5 5 3 3 5 5 5 3 5 5 5 3 3 5 3 5 5 3 5 5 5 3 5 5 5 5 5 5 3 5 5 5 5 5 5 5 5 5 5 3 3 5 5 3 5 5 5 3 5 5 5 5 5 5 5 5 3 3 5 5 5 3 5 3 3 3 5 5 3 3 5 5 5 3 5 5 5 5 5 5 5 5 5 5 5 5 5 5 3 5 5 5 3 5 5 3 5 5 3 5 5 5 5 5 5 5 5 5 5 5 5 5 5 5 5 3 5 3 5 5 5 5 5 5 5 5 5 5 5 5 5 5 5 5 5 5 5 5 5 5 5 5 5 5 5 5 5 5 5 5 5 5 5 5 5 5 5 5 5 5 5 5 5 5 5 5 5 5 5 5 5 5 5 5 5 5 5 5 5 5 5 5 5 5 5 5 5 5 5 5 5 5 5 5 5 5 5 5 5 5 5 5 5 5 5 5 3 5 3 5 5 3 3 3 5 5 5 3 5 5 5 5 5 3 3 5 5 5 5 5 5 5 5 5 5 5 5 3 5 5 5 5 5 5 5 5 5 5 5 5 5 5 5 5 5 5 5 3 3 5 5 5 5 5 5 5 5 5 3 5 5 5 5 5 5 5 5 5 5 5 5 5 5 5 5 5 5 5 5 5 5 5 5 5 5 3 5 5 5 5 5 5 5 5 5 5 5 5 5 5 5 5 5 5 5 5 5 5 5 5 5 5 5 5 5 5 5 5 5 5 5 5 5 5 5 5 5 5 5 5 5 5 5 5 5 5 5 5 5 5 5 5 5 5 5 5 5 5 5 5 5 5 5 5 5 5 5 5 5 5 3 5 5 5 5 5 5 5 5 5 5 5 5 5 5 5 5 5 3 5 5 5 3 5 5 5 3 5 3 5 3 3 5 5 5 5 5 5 5 5 5 5 5 5 5 5 5 5 3 3 5 5 5 5 5 5 5 5 3 5 5 5 5 5 5 5 5 5 5 5 5 5 5 5 3 5 5 5 5 5 5 5 5 5 5 5 5 3 5 5 3 3 5 5 3 5 5 5 5 5 5 5 5 5 5 5 5 5 5 5 5 5 5 5 5 5 5 5 5 5 5 5 5 5 5 5 5 5 5 5 5 5 5 5 5 5 5 3 5 5 5 5 5 5 5 5 5 5 5 5 5 5 5 5 5 5 5 3 5 5 5 5 5 5 5 5 5 5 5 5 5 5 5 5 5 3 3 5 3 5 5 5 5 5 5 3 5 5 5 5 5 5 5 5 3 5 3 5 5 5 5 3 5 5 5 5 5 5 3 5 3 3 5 5 5 5 3 5 5 5 5 5 5 5 5 5 5 5 3 5 5 5 5 5 5 5 5 5 5 3 3 5 3 5 5 3 5 5 5 3 3 3 5 5 5 5 5 5 5 5 3 5 5 3 5 5 5 5 5 5 5 5 5 5 5 5 3 5 5 5 3 5 5 5 5 5 5 5 5 5 5 3 5 5 5 5 5 5 5 5 3 5 5 5 5 3 5 5 5 3 5 5 5 5 5 5 5 5 5 5 3 5 5 5 5 5 5 5 3 5 5 5 5 3 5 5 5 5 5 5 3 5 5 5 5 3 5 5 5 3 5 5 5 5 5 5 5 5 3 5 5 5 5 5 5 5 5 5 3 5 5 5 5 5 5 5 3 5 5 5 5 5 3 5 5 5 5 5 5 5 5 5 5 5 5 5 5 5 5 5 5 5 3 5 5 5 5 5 3 5 5 5 5 5 5 5 5 5 5 5 5 5 3 5 5 5 5 5 5 5 5 5 5 3 5 5 5 5 5 5 3 5 5 3 5 5 3 5 5 5 5 5 5 5 5 5 5 5 5 3 5 5 5 5 5 5 5 3 3 5 5 5 3 3 5 3 5 5 3 3 5 5 3 5 5 5 3 5 5 5 5 5 5 3 5 5 5 3 5 5 5 3 3 5 3 3 5 5 5 5 5 5 5 3 5 5 5 5 5 5 5 5 5 5 5 5 3 5 5 5 5 5 5 3 5 5 5 5 5 5 5 5 5 5 5 5 5 5 5 5 5 3 5 5 3 5 5 5 5 3 5 3 5 5 5 5 5 5 5 3 5 5 5 3 5 5 5 5 5 5 5 5 3 5 5 3 3 5 5 5 5 5 3 5 5 5 5 3 5 5 5 5 5 5 5 5 5 3 5 5 5 5 5 5 5 5 5 3 5 5 5 5 5 5 5 5 5 3 5 5 5 3 5 5 5 5 5 5 5 3 5 5 5 3 5 5 5 5 3 5 5 5 3 5 5 5 5 5 5 5 5 3 5 5 5 5 5 5 5 5 5 5 5 5 5 5 5 5 5 5 3 5 5 3 5 5 5 5 5 5 5 5 5 5 5 5 5 5 5 5 5 5 5 5 5 5 5 5 5 5 5 5 3 5 5 5 5 5 5 3 5 3 5 5 5 5 3 5 5 5 3 5 3 5 5 5 5 5 5 5 5 5 5 5 5 5 3 5 5 5 5 5 3 5 5 5 3 3 5 5 5 5 5 3 5 3 5 5 5 3 5 5 5 5 3 5 5 5 5 5 3 5 5 5 5 3 5 5 5 5 5 5 5 5 5 5 3 5 5 5 5 3 5 5 5 5 5 5 5 5 5 5 5 5 5 5 5 5 5 5 5 5 5 5 5 5 5 5 5 5 5 3 5 5 5 5 3 5 3 5 5 5 3 5 5 5 5 5 5 5 5 5 5 5 5 5 5 5 3 5 5 5 5 5 5 5 5 5 5 5 5 5 5 5 5 5 5 5 5 5 5 5 5 5 5 5 5 5 5 5 5 5 5 5 3 5 5 5 5 5 5 5 5 5 5 3 3 5 5 5 5 5 5 5 5 3 5 5 5 3 5 5 5 5 5 3 5 5 3 5 5 5 5 3 5 3 5 5 5 5 5 3 5 5 5 5 5 5 5 5 5 5 5 5 5 5 5 5 5 5 5 5 5 5 5 5 5 3 5 5 5 5 5 5 3 5 5 5 3 5 5 3 5 5 5 5 5 5 5 5 5 5 5 5 5 5 3 5 3 5 5 3 5 5 3 5 5 5 5 5 5 5 5 3 5 5 5 5 5 5 5 3 5 3 5 5 5 5 5 5 5 5 5 5 5 5 5 5 5 5 5 5 5 5 5 5 5 5 5 5 5 5 5 5 5 5 3 5 5 5 5 5 5 5 5 5 5 5 5 3 5 3 5 5 5 5 5 5 5 3 5 3 5 5 3 5 5 5 5 3 5 3 5 5 5 5 5 5 5 3 5 5 5 3 5 5 3 5 5 3 5 5 5 5 5 5 5 5 3 5 5 5 5 5 3 5 3 5 5 3 5 5 5 5 5 5 5 5 5 5 5 3 5 3 5 5 3 5 5 3 5 5 5 3 5 5 5 5 5 5 5 5 5 5 5 3 3 5 5 5 3 3 5 5 5 5 5 5 5 5 5 5 5 5 5 5 5 5 5 3 5 5 5 5 5 5 5 5 5 5 5 5 5 5 5 5 5 5 5 5 3 5 3 5 5 3 5 5 5 5 3 5 5 5 5 5 5 5 5 5 5 5 5 3 5 5 5 3 5 5 5 5 5 3 5 5 3 3 3 3 5 5 5 5 5 5 3 5 5 3 3 3 5 3 5 5 5 5 5 5 5 5 5 3 5 5 5 5 5 5 5 5 5 5 5 5 5 5 5 3 3 5 5 3 5 5 5 3 5 3 3 5 5 5 5 5 3 5 5 3 5 5 5 3 5 5 5 5 5 3 5 5 5 5 5 5 5 5 5 5 5 5 5 5 5 5 5 5 3 5 5 5 5 5 5 5 5 5 5 5 5 5 5 5 5 5 5 5 5 5 5 5 5 3 5 5 3 5 5 5 5 5 5 5 5 5 5 5 3 5 5 5 5 5 3 3 5 5 5 5 3 5 5 5 5 5 5 5 5 3 3 5 5 3 5 5 3 5 3 3 5 3 5 5 5 5 3 5 5 5 3 5 5 5 3 5 5 3 5 5 3 5 5 5 5 5 5 5 5 5 3 3 5 5 3 5 5 5 5 3 5 5 5 3 5 5 5 5 3 5 5 5 5 5 5 5 5 5 5 5 5 5 5 5 5 5 5 5 5 5 5 5 3 5 5 5 5 5 5 5 5 5 5 5 5 5 5 5 5 5 5 5 5 5 5 5 5 5 5 3 5 5 5 5 5 5 5 5 5 5 5 5 5 5 5 5 3 5 3 5 5 5 5 5 5 5 5 5 5 5 5 5 5 5 5 5 5 5 5 3 5 5 5 5 5 5 5 3 3 5 5 5 5 5 5 5 3 5 5 5 5 3 5 5 3 5 3 5 3 5 5 5 5 5 5 5 3 5 3 5 5 3 5 5 5 5 5 5 5 5 5 5 5 5 5 5 5 5 5 5 5 5 3 5 5 5 5 5 5 3 3 5 5 3 5 5 5 3 5 5 5 5 5 5 5 3 5 5 5 5 5 5 5 5 5 5 5 5 5 5 5 5 3 5 5 5 5 5 5 5 5 5 3 5 5 5 5 5 3 5 5 5 5 5 5 5 3 5 5 5 5 5 5 5 5 5 3 5 5 3 5 3 5 3 5 3 5 5 5 5 5 3 5 5 5 5 5 3 5 5 5 5 5 5 5 5 3 3 5 5 5 5 5 5 5 5 5 5 5 5 5 3 5 5 5 5 5 5 5 5 5 3 5 5 5 5 5 5 5 5 5 3 5 5 3 3 5 5 5 3 5 5 5 5 5 3 3 5 5 5 5 5 5 5 5 3 5 3 5 5 3 5 5 5 5 5 5 5 5 5 5 5 5 5 3 5 5 5 5 3 5 5 5 5 5 5 5 5 5 5 5 5 5 5 3 5 5 3 5 5 3 5 5 5 5 5 5 5 5 5 5 5 5 3 5 5 5 5 5 3 5 5 5 5 3 5 5 5 5 5 5 3 5 5 5 3 5 5 5 3 5 5 3 5 5 5 5 5 5 5 5 5 5 5 5 5 5 5 5 5 5 5 5 5 5 5 5 3 5 5 3 3 5 5 5 5 3 5 3 3 5 3 5 5 3 3 5 5 3 5 5 5 5 5 3 3 5 3 5 3 5 5 5 5 5 5 5 5 5 5 5 5 5 5 3 5 5 5 5 3 5 5 5 5 5 5 5 5 5 5 5 5 5 3 5 5 3 3 5 5 5 5 3 5 3 5 5 5 5 5 5 5 5 5 5 5 5 5 5 5 5 5 5 5 5 5 3 3 5 5 5 5 3 5 5 5 5 5 3 5 5 5 5 3 5 5 5 5 5 5 5 3 5 5 5 5 3 5 5 5 5 5 5 5 5 5 5 5 5 5 5 5 5 5 5 5 5 5 5 5 5 5 5 5 5 5 3 5 3 3 5 5 5 5 5 5 5 5 3 5 5 5 5 3 5 5 5 5 5 5 5 5 5 5 5 5 5 5 5 5 5 5 5 5 5 5 5 5 5 5 5 3 5 5 5 3 3 5 5 5 5 5 5 3 5 5 3 5 5 5 5 5 5 3 5 5 5 5 3 5 5 3 5 5 5 5 5 5 5 5 5 5 5 5 5 5 3 5 5 5 5 5 5 5 5 5 5 5 5 5 5 5 5 5 5 5 5 5 5 5 5 5 5 5 5 5 5 5 5 5 5 5 5 5 5 5 5 5 5 5 3 5 5 5 5 3 5 5 3 5 3 5 5 5 5 3 5 5 3 5 3 5 3 5 5 5 5 5 5 5 5 5 5 5 5 3 5 5 5 5 5 5 5 
</DataArray>
</Cells>
<PointData Scalars="" Vectors="displacement," Tensors="">
<DataArray type="Float64" Name="displacement" NumberOfComponents="3" format="ascii">
-0.0449952217207698 -0.044996601030082933 0 -0.044142518954206136 -0.043102352748985398 0 -0.044997552209426611 -0.039213873254061463 0 -0.0449952217207698 -0.044996601030082933 0 -0.044142518954206136 -0.043102352748985398 0 -0.040356063457345361 -0.044997383268363791 0 -0.044142518954206136 -0.043102352748985398 0 -0.044382965427799716 -0.041411085221048839 0 -0.044997552209426611 -0.039213873254061463 0 -0.044142518954206136 -0.043102352748985398 0 -0.044382965427799716 -0.041411085221048839 0 -0.044212534431469649 -0.042576826484806485 0 -0.044382965427799716 -0.041411085221048839 0 -0.044585968037168459 -0.042222392042488684 0 -0.044212534431469649 -0.042576826484806485 0 -0.045792264635572913 -0.039737101621874799 0 -0.043940392675349819 -0.041710820996095667 0 -0.044142518954206136 -0.043102352748985398 0 -0.044212534431469649 -0.042576826484806485 0 -0.043530864013664856 -0.043267576904269092 0 -0.043940392675349819 -0.041710820996095667 0 -0.041490755777277802 -0.046218490262239197 0 -0.044585968037168459 -0.042222392042488684 0 -0.044212534431469649 -0.042576826484806485 0 -0.043530864013664856 -0.043267576904269092 0 -0.039965261689489315 -0.049889583514463799 0 -0.040088536342809906 -0.047488119056443852 0 -0.038688785061448697 -0.048554552846245824 0 -0.044142518954206136 -0.043102352748985398 0 -0.043530864013664856 -0.043267576904269092 0 -0.040356063457345361 -0.044997383268363791 0 -0.041490755777277802 -0.046218490262239197 0 -0.040344880963435449 -0.0449977072441827 0 -0.040088536342809906 -0.047488119056443852 0 -0.040343834717910164 -0.04499995600456274 0 -0.039091762682732963 -0.046149723639589676 0 -0.03822877791043474 -0.04499992997285427 0 -0.039091762682732963 -0.046149723639589676 0 -0.037713749314786056 -0.047075704262944197 0 -0.040343834717910164 -0.04499995600456274 0 -0.03822877791043474 -0.04499992997285427 0 -0.039091762682732963 -0.046149723639589676 0 -0.03822877791043474 -0.04499992997285427 0 -0.037713749314786056 -0.047075704262944197 0 -0.036113484047604269 -0.044999937991279153 0 -0.040088536342809906 -0.047488119056443852 0 -0.039091762682732963 -0.046149723639589676 0 -0.037713749314786056 -0.047075704262944197 0 -0.033998148108890479 -0.044999927724079729 0 -0.036113484047604269 -0.044999937991279153 0 -0.034083247536170119 -0.046448967199322629 0 -0.036113484047604269 -0.044999937991279153 0 -0.035480988110714262 -0.047134686256667849 0 -0.034083247536170119 -0.046448967199322629 0 -0.037713749314786056 -0.047075704262944197 0 -0.036113484047604269 -0.044999937991279153 0 -0.035480988110714262 -0.047134686256667849 0 -0.037713749314786056 -0.047075704262944197 0 -0.035480988110714262 -0.047134686256667849 0 -0.036483459927666433 -0.048388701833118365 0 -0.035480988110714262 -0.047134686256667849 0 -0.034083247536170119 -0.046448967199322629 0 -0.034430801191559869 -0.048129099303942852 0 -0.035480988110714262 -0.047134686256667849 0 -0.034430801191559869 -0.048129099303942852 0 -0.036483459927666433 -0.048388701833118365 0 -0.034430801191559869 -0.048129099303942852 0 -0.036483459927666433 -0.048388701833118365 0 -0.035194841814273972 -0.04963547775404227 0 -0.040574539366316373 -0.041971346039351813 0 -0.04124136898537397 -0.042102008513916996 0 -0.044678090342796233 -0.034140530125053581 0 -0.045520145262571789 -0.034347877332705425 0 -0.045114295682256299 -0.034575462827933286 0 -0.036483459927666433 -0.048388701833118365 0 -0.035194841814273972 -0.04963547775404227 0 -0.037622964001259952 -0.04978748280426025 0 -0.040574539366316373 -0.041971346039351813 0 -0.034897748894838619 -0.041089382418780303 0 -0.034430801191559869 -0.048129099303942852 0 -0.035194841814273972 -0.04963547775404227 0 -0.032804165550173528 -0.049420507099786563 0 -0.044678090342796233 -0.034140530125053581 0 -0.044275684944212246 -0.034489444293862831 0 -0.04245888959169155 -0.033854797594216286 0 -0.040088536342809906 -0.047488119056443852 0 -0.037713749314786056 -0.047075704262944197 0 -0.038688785061448697 -0.048554552846245824 0 -0.037713749314786056 -0.047075704262944197 0 -0.036483459927666433 -0.048388701833118365 0 -0.038688785061448697 -0.048554552846245824 0 -0.036483459927666433 -0.048388701833118365 0 -0.038688785061448697 -0.048554552846245824 0 -0.037622964001259952 -0.04978748280426025 0 -0.039965261689489315 -0.049889583514463799 0 -0.038688785061448697 -0.048554552846245824 0 -0.037622964001259952 -0.04978748280426025 0 -0.043940392675349819 -0.041710820996095667 0 -0.04124136898537397 -0.042102008513916996 0 -0.046214495485364819 -0.034472831069082312 0 -0.045520145262571789 -0.034347877332705425 0 -0.045836017807143539 -0.034726799575219534 0 -0.045520145262571789 -0.034347877332705425 0 -0.045836017807143539 -0.034726799575219534 0 -0.045470889568374036 -0.034727479154419767 0 -0.045520145262571789 -0.034347877332705425 0 -0.045470889568374036 -0.034727479154419767 0 -0.045114295682256299 -0.034575462827933286 0 -0.045470889568374036 -0.034727479154419767 0 -0.045114295682256299 -0.034575462827933286 0 -0.045141085937133292 -0.034931096231333308 0 -0.045699322030787651 -0.035100978785439947 0 -0.045141085937133292 -0.034931096231333308 0 -0.045100355431361178 -0.035253822325392557 0 -0.045470889568374036 -0.034727479154419767 0 -0.045699322030787651 -0.035100978785439947 0 -0.045141085937133292 -0.034931096231333308 0 -0.045699322030787651 -0.035100978785439947 0 -0.046304392922089016 -0.035384967685875457 0 -0.046229366030181754 -0.034923725374709794 0 -0.045836017807143539 -0.034726799575219534 0 -0.045470889568374036 -0.034727479154419767 0 -0.045699322030787651 -0.035100978785439947 0 -0.045836017807143539 -0.034726799575219534 0 -0.045699322030787651 -0.035100978785439947 0 -0.046229366030181754 -0.034923725374709794 0 -0.044139946986690631 -0.034755956859616889 0 -0.044674134771016248 -0.034700574514969502 0 -0.044730885507678862 -0.035091374128714596 0 -0.044275684944212246 -0.034489444293862831 0 -0.044139946986690631 -0.034755956859616889 0 -0.044674134771016248 -0.034700574514969502 0 -0.044678090342796233 -0.034140530125053581 0 -0.044275684944212246 -0.034489444293862831 0 -0.044674134771016248 -0.034700574514969502 0 -0.044678090342796233 -0.034140530125053581 0 -0.044674134771016248 -0.034700574514969502 0 -0.045114295682256299 -0.034575462827933286 0 -0.044674134771016248 -0.034700574514969502 0 -0.045114295682256299 -0.034575462827933286 0 -0.045141085937133292 -0.034931096231333308 0 -0.044674134771016248 -0.034700574514969502 0 -0.045141085937133292 -0.034931096231333308 0 -0.044730885507678862 -0.035091374128714596 0 -0.045141085937133292 -0.034931096231333308 0 -0.044730885507678862 -0.035091374128714596 0 -0.045100355431361178 -0.035253822325392557 0 -0.04415759090532699 -0.034796118153581149 0 -0.044182091611145197 -0.03516900900523405 0 -0.044139946986690631 -0.034755956859616889 0 -0.044730885507678862 -0.035091374128714596 0 -0.04442507829643997 -0.035293840029618467 0 -0.044182091611145197 -0.03516900900523405 0 -0.044367374128948797 -0.035975455306376851 0 -0.04442507829643997 -0.035293840029618467 0 -0.044855865730608256 -0.035497762176733547 0 -0.044514448976179295 -0.035796821323214711 0 -0.044730885507678862 -0.035091374128714596 0 -0.04442507829643997 -0.035293840029618467 0 -0.044855865730608256 -0.035497762176733547 0 -0.044855865730608256 -0.035497762176733547 0 -0.045100355431361178 -0.035253822325392557 0 -0.045387790087590502 -0.035519973090380824 0 -0.044730885507678862 -0.035091374128714596 0 -0.044855865730608256 -0.035497762176733547 0 -0.045100355431361178 -0.035253822325392557 0 -0.044855865730608256 -0.035497762176733547 0 -0.045071471540668089 -0.035929444805390211 0 -0.045387790087590502 -0.035519973090380824 0 -0.044855865730608256 -0.035497762176733547 0 -0.045071471540668089 -0.035929444805390211 0 -0.044514448976179295 -0.035796821323214711 0 -0.045071471540668089 -0.035929444805390211 0 -0.044514448976179295 -0.035796821323214711 0 -0.044789265982060657 -0.036139804989632318 0 -0.045699322030787651 -0.035100978785439947 0 -0.045927453527586967 -0.035543184465484351 0 -0.046304392922089016 -0.035384967685875457 0 -0.045699322030787651 -0.035100978785439947 0 -0.045100355431361178 -0.035253822325392557 0 -0.045387790087590502 -0.035519973090380824 0 -0.045699322030787651 -0.035100978785439947 0 -0.045387790087590502 -0.035519973090380824 0 -0.045927453527586967 -0.035543184465484351 0 -0.045387790087590502 -0.035519973090380824 0 -0.045927453527586967 -0.035543184465484351 0 -0.045737467823354909 -0.035935065802500575 0 -0.045071471540668089 -0.035929444805390211 0 -0.045387790087590502 -0.035519973090380824 0 -0.045737467823354909 -0.035935065802500575 0 -0.045927453527586967 -0.035543184465484351 0 -0.046541973662120192 -0.035884628411462227 0 -0.046304392922089016 -0.035384967685875457 0 -0.045927453527586967 -0.035543184465484351 0 -0.046541973662120192 -0.035884628411462227 0 -0.045737467823354909 -0.035935065802500575 0 -0.046601672195805521 -0.035851163948598795 0 -0.046732082767564596 -0.036129880535847543 0 -0.046541973662120192 -0.035884628411462227 0 -0.047230035632881535 -0.036299916750639774 0 -0.046759268732678515 -0.035981536586854969 0 -0.047230035632881535 -0.036299916750639774 0 -0.047011459292187828 -0.036713272826274415 0 -0.046759268732678515 -0.035981536586854969 0 -0.047011459292187828 -0.036713272826274415 0 -0.046759268732678515 -0.035981536586854969 0 -0.046639989979917883 -0.037106084833444589 0 -0.046541973662120192 -0.035884628411462227 0 -0.046759268732678515 -0.035981536586854969 0 -0.046657192990780111 -0.03592043552024108 0 -0.046759268732678515 -0.035981536586854969 0 -0.046602900859580659 -0.03587244576207381 0 -0.046657192990780111 -0.03592043552024108 0 -0.046759268732678515 -0.035981536586854969 0 -0.046490111645317411 -0.035828749858106822 0 -0.046362293828472977 -0.035755271074441458 0 -0.046759268732678515 -0.035981536586854969 0 -0.046490111645317411 -0.035828749858106822 0 -0.046602900859580659 -0.03587244576207381 0 -0.046490111645317411 -0.035828749858106822 0 -0.046362293828472977 -0.035755271074441458 0 -0.046522350548069746 -0.035855076122485174 0 -0.044999742269461046 -0.03424979834884842 0 -0.046362293828472977 -0.035755271074441458 0 -0.04610003782033513 -0.033578799805656687 0 -0.046368078063261979 -0.035537184606627269 0 -0.046366866787954798 -0.034989404696099582 0 -0.044999742269461046 -0.03424979834884842 0 -0.046362293828472977 -0.035755271074441458 0 -0.044999921181612723 -0.036727426879830251 0 -0.046759268732678515 -0.035981536586854969 0 -0.046362293828472977 -0.035755271074441458 0 -0.046639989979917883 -0.037106084833444589 0 -0.046362293828472977 -0.035755271074441458 0 -0.046639989979917883 -0.037106084833444589 0 -0.045829356221012772 -0.037780326679133773 0 -0.046362293828472977 -0.035755271074441458 0 -0.045829356221012772 -0.037780326679133773 0 -0.044999921181612723 -0.036727426879830251 0 -0.045829356221012772 -0.037780326679133773 0 -0.044999921181612723 -0.036727426879830251 0 -0.044999748844020575 -0.039202650768680521 0 -0.045792264635572913 -0.039737101621874799 0 -0.044998778690676131 -0.039204712980911931 0 -0.046544009439938118 -0.038480572723794057 0 -0.045829356221012772 -0.037780326679133773 0 -0.044999748844020575 -0.039202650768680521 0 -0.046544009439938118 -0.038480572723794057 0 -0.046639989979917883 -0.037106084833444589 0 -0.045829356221012772 -0.037780326679133773 0 -0.046544009439938118 -0.038480572723794057 0 -0.047635368443885481 -0.038349384167176093 0 -0.047107494336547553 -0.037723600587905429 0 -0.046544009439938118 -0.038480572723794057 0 -0.046639989979917883 -0.037106084833444589 0 -0.047107494336547553 -0.037723600587905429 0 -0.047635368443885481 -0.038349384167176093 0 -0.047107494336547553 -0.037723600587905429 0 -0.047614916490660401 -0.037326524289178813 0 -0.046214495485364819 -0.034472831069082312 0 -0.045836017807143539 -0.034726799575219534 0 -0.046229366030181754 -0.034923725374709794 0 -0.043940392675349819 -0.041710820996095667 0 -0.047132824135436083 -0.035055508445418375 0 -0.047011459292187828 -0.036713272826274415 0 -0.047107494336547553 -0.037723600587905429 0 -0.047614916490660401 -0.037326524289178813 0 -0.046732082767564596 -0.036129880535847543 0 -0.047132824135436083 -0.035055508445418375 0 -0.047230035632881535 -0.036299916750639774 0 -0.047011459292187828 -0.036713272826274415 0 -0.047614916490660401 -0.037326524289178813 0 -0.047011459292187828 -0.036713272826274415 0 -0.046639989979917883 -0.037106084833444589 0 -0.047107494336547553 -0.037723600587905429 0 -0.022565043111122236 -0.035249319684156649 0 -0.023135510339861411 -0.036644675171529258 0 -0.021707585892127314 -0.036454310296919173 0 -0.024326008197514064 -0.035352631370856667 0 -0.022565043111122236 -0.035249319684156649 0 -0.023135510339861411 -0.036644675171529258 0 -0.024326008197514064 -0.035352631370856667 0 -0.024493764864411943 -0.036750339545695745 0 -0.023135510339861411 -0.036644675171529258 0 -0.024717522315122319 -0.041984051518332573 0 -0.022946925770823825 -0.041653187294825707 0 -0.025192957436973116 -0.048585504760567645 0 -0.023957033178829159 -0.047269013233517516 0 -0.024964450885435023 -0.04697712487897724 0 -0.025192957436973116 -0.048585504760567645 0 -0.023107412585898816 -0.048290056630183355 0 -0.023957033178829159 -0.047269013233517516 0 -0.023107412585898816 -0.048290056630183355 0 -0.023957033178829159 -0.047269013233517516 0 -0.022514895120644616 -0.04657199716189997 0 -0.023957033178829159 -0.047269013233517516 0 -0.024173689629921218 -0.046226474988366913 0 -0.022514895120644616 -0.04657199716189997 0 -0.023783721347676364 -0.044999863825467272 0 -0.024173689629921218 -0.046226474988366913 0 -0.022514895120644616 -0.04657199716189997 0 -0.02378344631665015 -0.044998899048512515 0 -0.022059578724181048 -0.047644026401394472 0 -0.023783721347676364 -0.044999863825467272 0 -0.024723199639568871 -0.04551464161431884 0 -0.024173689629921218 -0.046226474988366913 0 -0.023783721347676364 -0.044999863825467272 0 -0.024723199639568871 -0.04551464161431884 0 -0.02539861922336022 -0.044999896059209697 0 -0.024723199639568871 -0.04551464161431884 0 -0.02539861922336022 -0.044999896059209697 0 -0.025280028166713146 -0.045446949646196458 0 -0.024723199639568871 -0.04551464161431884 0 -0.025246550883346135 -0.046019331783553309 0 -0.025280028166713146 -0.045446949646196458 0 -0.024723199639568871 -0.04551464161431884 0 -0.025246550883346135 -0.046019331783553309 0 -0.024173689629921218 -0.046226474988366913 0 -0.025246550883346135 -0.046019331783553309 0 -0.024173689629921218 -0.046226474988366913 0 -0.024964450885435023 -0.04697712487897724 0 -0.023957033178829159 -0.047269013233517516 0 -0.024173689629921218 -0.046226474988366913 0 -0.024964450885435023 -0.04697712487897724 0 -0.025246550883346135 -0.046019331783553309 0 -0.024964450885435023 -0.04697712487897724 0 -0.026033492100090861 -0.047103919755255096 0 -0.025246550883346135 -0.046019331783553309 0 -0.026033492100090861 -0.047103919755255096 0 -0.026269644755930344 -0.045755870248828753 0 -0.025246550883346135 -0.046019331783553309 0 -0.025540877111874503 -0.045606800679216311 0 -0.026119285383312284 -0.045858947043128387 0 -0.026457006578586403 -0.045848520607355184 0 -0.025861437636156257 -0.045080882547921905 0 -0.027088779534094373 -0.045722586711831832 0 -0.02540378776694191 -0.045989007206206058 0 -0.026383361077889442 -0.045820537613413426 0 -0.02566127559973291 -0.045104167381458012 0 -0.027384178681427 -0.045752464420245179 0 -0.025246550883346135 -0.046019331783553309 0 -0.025540877111874503 -0.045606800679216311 0 -0.025280028166713146 -0.045446949646196458 0 -0.025555265510093815 -0.044999997447978189 0 -0.02566174950175934 -0.045137203333043899 0 -0.027664441029641832 -0.04499999716216338 0 -0.026383361077889442 -0.045820537613413426 0 -0.02566127559973291 -0.045104167381458012 0 -0.025540877111874503 -0.045606800679216311 0 -0.026119285383312284 -0.045858947043128387 0 -0.025561238783194374 -0.045105595905610717 0 -0.025555577321521812 -0.045000240590324661 0 -0.02566127559973291 -0.045104167381458012 0 -0.02566127559973291 -0.045104167381458012 0 -0.025399691886281026 -0.045000116356353523 0 -0.025555260724815218 -0.044999999656823733 0 -0.025661550082641135 -0.045137219963096539 0 -0.025399288000680573 -0.044999999979952431 0 -0.025561238783194374 -0.045105595905610717 0 -0.02539861922336022 -0.044999896059209697 0 -0.025280028166713146 -0.045446949646196458 0 -0.025540877111874503 -0.045606800679216311 0 -0.025561238783194374 -0.045105595905610717 0 -0.025280028166713146 -0.045446949646196458 0 -0.02566174950175934 -0.045137203333043899 0 -0.027664441029641832 -0.04499999716216338 0 -0.027189833911933924 -0.045936037343918171 0 -0.026715859050509164 -0.045756578173690755 0 -0.027452014339533974 -0.045611193204800629 0 -0.027751211963741106 -0.04627706713541458 0 -0.026383361077889442 -0.045820537613413426 0 -0.027384178681427 -0.045752464420245179 0 -0.027384178681427 -0.045752464420245179 0 -0.028905656476992829 -0.046366977703614462 0 -0.026383361077889442 -0.045820537613413426 0 -0.027745116456958079 -0.047251605832720416 0 -0.026715859050509164 -0.045756578173690755 0 -0.027751211963741106 -0.04627706713541458 0 -0.027892357828799598 -0.047275503927353281 0 -0.027452014339533974 -0.045611193204800629 0 -0.027751211963741106 -0.04627706713541458 0 -0.028749548645037318 -0.046286730947726798 0 -0.026033492100090861 -0.047103919755255096 0 -0.026269644755930344 -0.045755870248828753 0 -0.02752728998548179 -0.047162918546914304 0 -0.027751211963741106 -0.04627706713541458 0 -0.027892357828799598 -0.047275503927353281 0 -0.028749548645037318 -0.046286730947726798 0 -0.026033492100090861 -0.047103919755255096 0 -0.02752728998548179 -0.047162918546914304 0 -0.026586928775500684 -0.047936497295843962 0 -0.02752728998548179 -0.047162918546914304 0 -0.026586928775500684 -0.047936497295843962 0 -0.027632897426250153 -0.048898682271819587 0 -0.02752728998548179 -0.047162918546914304 0 -0.027632897426250153 -0.048898682271819587 0 -0.028964717968564098 -0.048776234284348831 0 -0.025192957436973116 -0.048585504760567645 0 -0.026586928775500684 -0.047936497295843962 0 -0.027632897426250153 -0.048898682271819587 0 -0.025192957436973116 -0.048585504760567645 0 -0.026033492100090861 -0.047103919755255096 0 -0.026586928775500684 -0.047936497295843962 0 -0.025192957436973116 -0.048585504760567645 0 -0.024964450885435023 -0.04697712487897724 0 -0.026033492100090861 -0.047103919755255096 0 -0.024717522315122319 -0.041984051518332573 0 -0.027016751811525255 -0.042142020920063708 0 -0.024326008197514064 -0.035352631370856667 0 -0.025520572788479738 -0.03629757711796034 0 -0.024493764864411943 -0.036750339545695745 0 -0.024326008197514064 -0.035352631370856667 0 -0.026072667128681431 -0.035429744497230006 0 -0.025520572788479738 -0.03629757711796034 0 -0.026072667128681431 -0.035429744497230006 0 -0.026479553953964133 -0.03623700116206649 0 -0.025520572788479738 -0.03629757711796034 0 -0.027016751811525255 -0.042142020920063708 0 -0.0286354789245774 -0.042433625851420027 0 -0.027632897426250153 -0.048898682271819587 0 -0.028964717968564098 -0.048776234284348831 0 -0.030274370582392764 -0.04907305482582041 0 -0.026072667128681431 -0.035429744497230006 0 -0.026479553953964133 -0.03623700116206649 0 -0.027539047492265559 -0.035833941869740982 0 -0.026072667128681431 -0.035429744497230006 0 -0.027539047492265559 -0.035833941869740982 0 -0.028301963119899118 -0.035501016261839234 0 -0.026479553953964133 -0.03623700116206649 0 -0.027539047492265559 -0.035833941869740982 0 -0.027030319453930019 -0.036678720169118502 0 -0.028301963119899118 -0.035501016261839234 0 -0.030182467638340989 -0.037044207808494337 0 -0.029229044015650456 -0.037219659745598564 0 -0.027539047492265559 -0.035833941869740982 0 -0.028301963119899118 -0.035501016261839234 0 -0.02843192756249768 -0.036625431413298812 0 -0.028301963119899118 -0.035501016261839234 0 -0.029229044015650456 -0.037219659745598564 0 -0.02843192756249768 -0.036625431413298812 0 -0.028964717968564098 -0.048776234284348831 0 -0.030274370582392764 -0.04907305482582041 0 -0.029945043526847324 -0.048053904309259092 0 -0.030274370582392764 -0.04907305482582041 0 -0.029945043526847324 -0.048053904309259092 0 -0.031180444684232686 -0.047963552618512865 0 -0.029945043526847324 -0.048053904309259092 0 -0.030124296204992258 -0.04700946487932163 0 -0.031180444684232686 -0.047963552618512865 0 -0.029945043526847324 -0.048053904309259092 0 -0.029109865814605503 -0.047506509956501741 0 -0.030124296204992258 -0.04700946487932163 0 -0.027892357828799598 -0.047275503927353281 0 -0.028964717968564098 -0.048776234284348831 0 -0.029109865814605503 -0.047506509956501741 0 -0.027745116456958079 -0.047251605832720416 0 -0.028873004560358583 -0.048674727885575052 0 -0.028964717968564098 -0.048776234284348831 0 -0.029945043526847324 -0.048053904309259092 0 -0.029109865814605503 -0.047506509956501741 0 -0.027892357828799598 -0.047275503927353281 0 -0.029109865814605503 -0.047506509956501741 0 -0.028749548645037318 -0.046286730947726798 0 -0.028956782759041889 -0.046390489233415773 0 -0.029781832097860925 -0.045368409205059038 0 -0.030124296204992258 -0.04700946487932163 0 -0.029109865814605503 -0.047506509956501741 0 -0.028749548645037318 -0.046286730947726798 0 -0.030124296204992258 -0.04700946487932163 0 -0.028905656476992829 -0.046366977703614462 0 -0.029967806749410592 -0.046926012837963584 0 -0.027759916996795093 -0.045764521430101901 0 -0.028956782759041889 -0.046390489233415773 0 -0.029781832097860925 -0.045368409205059038 0 -0.027664441029641832 -0.04499999716216338 0 -0.027189833911933924 -0.045936037343918171 0 -0.029535894700727289 -0.045468257063782096 0 -0.027664441029641832 -0.04499999716216338 0 -0.029535894700727289 -0.045468257063782096 0 -0.029773617252758375 -0.044999997538438849 0 -0.027384178681427 -0.045752464420245179 0 -0.029675559937478963 -0.045430637964899129 0 -0.029781832097860925 -0.045368409205059038 0 -0.030124296204992258 -0.04700946487932163 0 -0.031143753673807315 -0.046112834091072259 0 -0.029781832097860925 -0.045368409205059038 0 -0.031143753673807315 -0.046112834091072259 0 -0.031882935683079872 -0.044999792285835762 0 -0.029675559937478963 -0.045430637964899129 0 -0.031882342569422649 -0.045000072469815418 0 -0.029535894700727289 -0.045468257063782096 0 -0.029773617252758375 -0.044999997538438849 0 -0.03188279442354551 -0.044999998158436368 0 -0.030124296204992258 -0.04700946487932163 0 -0.031563698956580864 -0.046992473175666752 0 -0.031180444684232686 -0.047963552618512865 0 -0.030124296204992258 -0.04700946487932163 0 -0.031563698956580864 -0.046992473175666752 0 -0.031143753673807315 -0.046112834091072259 0 -0.031563698956580864 -0.046992473175666752 0 -0.032596059075637611 -0.04593927258221038 0 -0.032484492732699932 -0.047526906682216312 0 -0.031563698956580864 -0.046992473175666752 0 -0.031143753673807315 -0.046112834091072259 0 -0.032596059075637611 -0.04593927258221038 0 -0.031143753673807315 -0.046112834091072259 0 -0.031882935683079872 -0.044999792285835762 0 -0.032596059075637611 -0.04593927258221038 0 -0.033998148108890479 -0.044999927724079729 0 -0.031882935683079872 -0.044999792285835762 0 -0.032596059075637611 -0.04593927258221038 0 -0.033998148108890479 -0.044999927724079729 0 -0.034083247536170119 -0.046448967199322629 0 -0.032596059075637611 -0.04593927258221038 0 -0.034083247536170119 -0.046448967199322629 0 -0.032596059075637611 -0.04593927258221038 0 -0.032754060798677716 -0.047718376252809502 0 -0.032622725307008001 -0.045412599170787549 0 -0.032476776549802182 -0.049281010033936673 0 -0.034083247536170119 -0.046448967199322629 0 -0.034430801191559869 -0.048129099303942852 0 -0.032754060798677716 -0.047718376252809502 0 -0.032476776549802182 -0.049281010033936673 0 -0.034897748894838619 -0.041089382418780303 0 -0.034430801191559869 -0.048129099303942852 0 -0.032754060798677716 -0.047718376252809502 0 -0.032804165550173528 -0.049420507099786563 0 -0.031563698956580864 -0.046992473175666752 0 -0.032484492732699932 -0.047526906682216312 0 -0.031180444684232686 -0.047963552618512865 0 -0.032484492732699932 -0.047526906682216312 0 -0.031180444684232686 -0.047963552618512865 0 -0.032492807851536236 -0.049145589782496696 0 -0.0286354789245774 -0.042433625851420027 0 -0.034897748894838619 -0.041089382418780303 0 -0.028301963119899118 -0.035501016261839234 0 -0.031368956128943949 -0.035705130481000255 0 -0.030182467638340989 -0.037044207808494337 0 -0.030274370582392764 -0.04907305482582041 0 -0.031180444684232686 -0.047963552618512865 0 -0.032492807851536236 -0.049145589782496696 0 -0.045714029818880973 -0.034214961489468884 0 -0.038981576049329031 -0.035632143085900202 0 -0.034897748894838619 -0.041089382418780303 0 -0.038981576049329031 -0.035632143085900202 0 -0.044275684944212246 -0.034489444293862831 0 -0.044139946986690631 -0.034755956859616889 0 -0.043744952557113637 -0.034986864415690828 0 -0.044275684944212246 -0.034489444293862831 0 -0.04245888959169155 -0.033854797594216286 0 -0.042383489948848371 -0.036274939812102121 0 -0.031368956128943949 -0.035705130481000255 0 -0.030182467638340989 -0.037044207808494337 0 -0.031351426038755868 -0.038739787881325635 0 -0.030182467638340989 -0.037044207808494337 0 -0.029915224303487396 -0.038691831006143138 0 -0.031351426038755868 -0.038739787881325635 0 -0.030182467638340989 -0.037044207808494337 0 -0.029915224303487396 -0.038691831006143138 0 -0.029229044015650456 -0.037219659745598564 0 -0.037211983861571214 -0.035601978536469583 0 -0.037201014970948916 -0.036395318432897658 0 -0.036503873567932374 -0.036251173777054682 0 -0.029915224303487396 -0.038691831006143138 0 -0.029890240499911867 -0.040093084050864203 0 -0.028658327489027607 -0.037975435092867368 0 -0.029915224303487396 -0.038691831006143138 0 -0.031351426038755868 -0.038739787881325635 0 -0.029890240499911867 -0.040093084050864203 0 -0.038981576049329031 -0.035632143085900202 0 -0.031692466131379826 -0.037732276199767455 0 -0.044139946986690631 -0.034755956859616889 0 -0.043990787309465131 -0.035239783903868942 0 -0.043744952557113637 -0.034986864415690828 0 -0.038981576049329031 -0.035632143085900202 0 -0.040366267385101795 -0.035731407840503063 0 -0.043990787309465131 -0.035239783903868942 0 -0.043744952557113637 -0.034986864415690828 0 -0.043715857260061219 -0.035271939481095353 0 -0.040366267385101795 -0.035731407840503063 0 -0.039055459927476527 -0.036684054669449621 0 -0.043990787309465131 -0.035239783903868942 0 -0.043874376711523437 -0.035538205612520454 0 -0.043687003491767559 -0.035496840092465579 0 -0.043990787309465131 -0.035239783903868942 0 -0.043715857260061219 -0.035271939481095353 0 -0.043687003491767559 -0.035496840092465579 0 -0.037201014970948916 -0.036395318432897658 0 -0.037220465575271811 -0.037200617860582354 0 -0.036904903495082464 -0.036544979155194161 0 -0.043874376711523437 -0.035538205612520454 0 -0.043687003491767559 -0.035496840092465579 0 -0.043759149844938026 -0.035738184677307855 0 -0.038275838364078087 -0.036606176435004412 0 -0.038276967537138579 -0.036418259518564311 0 -0.037903759971572228 -0.03573856961114364 0 -0.037187062675420705 -0.037175592325948817 0 -0.037186747136145518 -0.037451628207895014 0 -0.036904903495082464 -0.036544979155194161 0 -0.039055459927476527 -0.036684054669449621 0 -0.036658424033454144 -0.036615102211002004 0 -0.033457912997821179 -0.036841570294606635 0 -0.033056919237383492 -0.036784131255487983 0 -0.033037733751582109 -0.03619047326570702 0 -0.033056919237383492 -0.036784131255487983 0 -0.032723234425230972 -0.037041065693590412 0 -0.033161816291032688 -0.037164296578796469 0 -0.033457912997821179 -0.036841570294606635 0 -0.033295981517056102 -0.036952458633940685 0 -0.033441102443025061 -0.037147074065957769 0 -0.033457912997821179 -0.036841570294606635 0 -0.033295981517056102 -0.036952458633940685 0 -0.033056919237383492 -0.036784131255487983 0 -0.033295981517056102 -0.036952458633940685 0 -0.033056919237383492 -0.036784131255487983 0 -0.033161816291032688 -0.037164296578796469 0 -0.037186747136145518 -0.037451628207895014 0 -0.036904903495082464 -0.036544979155194161 0 -0.036503873567932374 -0.036251173777054682 0 -0.033056919237383492 -0.036784131255487983 0 -0.033037733751582109 -0.03619047326570702 0 -0.032665936618052671 -0.036532244588787899 0 -0.036658424033454144 -0.036615102211002004 0 -0.031692466131379826 -0.037732276199767455 0 -0.039055459927476527 -0.036684054669449621 0 -0.037191421071597799 -0.036462541620598005 0 -0.037201014970948916 -0.036395318432897658 0 -0.036904903495082464 -0.036544979155194161 0 -0.036503873567932374 -0.036251173777054682 0 -0.028871829210880839 -0.038135755286348473 0 -0.027489139814704362 -0.037839784127587532 0 -0.031692466131379826 -0.037732276199767455 0 -0.028871829210880839 -0.038135755286348473 0 -0.028685628368031801 -0.038249744831192076 0 -0.027920484701143021 -0.038963574481306204 0 -0.027716835998721729 -0.037415913778682267 0 -0.028871829210880839 -0.038135755286348473 0 -0.030414810246509418 -0.039131821940448723 0 -0.033056919237383492 -0.036784131255487983 0 -0.032665936618052671 -0.036532244588787899 0 -0.032723234425230972 -0.037041065693590412 0 -0.027814666197513667 -0.038991575456573946 0 -0.026917876062978182 -0.039844359041650769 0 -0.027923024270614289 -0.040149727054728988 0 -0.027807476527199837 -0.039062062567018545 0 -0.026917876062978182 -0.039844359041650769 0 -0.026875097156402225 -0.039095650850129664 0 -0.028871829210880839 -0.038135755286348473 0 -0.026632853071363993 -0.040109267294074179 0 -0.026917876062978182 -0.039844359041650769 0 -0.026875097156402225 -0.039095650850129664 0 -0.026108286651921195 -0.038994857386637286 0 -0.027807476527199837 -0.039062062567018545 0 -0.026875097156402225 -0.039095650850129664 0 -0.02668212979927596 -0.038319207912220613 0 -0.027807476527199837 -0.039062062567018545 0 -0.02668212979927596 -0.038319207912220613 0 -0.027297415217991075 -0.038052780905767858 0 -0.026875097156402225 -0.039095650850129664 0 -0.02668212979927596 -0.038319207912220613 0 -0.026108286651921195 -0.038994857386637286 0 -0.02668212979927596 -0.038319207912220613 0 -0.026982806990944467 -0.037412712629554042 0 -0.026192487094831331 -0.037628731608355462 0 -0.026982806990944467 -0.037412712629554042 0 -0.026343416643404314 -0.036901585364151598 0 -0.026192487094831331 -0.037628731608355462 0 -0.026982806990944467 -0.037412712629554042 0 -0.027297415217991075 -0.038052780905767858 0 -0.027716835998721729 -0.037415913778682267 0 -0.02668212979927596 -0.038319207912220613 0 -0.026982806990944467 -0.037412712629554042 0 -0.027297415217991075 -0.038052780905767858 0 -0.031692466131379826 -0.037732276199767455 0 -0.028155989385560222 -0.037628540449509397 0 -0.028685628368031801 -0.038249744831192076 0 -0.027716835998721729 -0.037415913778682267 0 -0.028026970980634752 -0.037099212306796289 0 -0.027807476527199837 -0.039062062567018545 0 -0.027297415217991075 -0.038052780905767858 0 -0.027716835998721729 -0.037415913778682267 0 -0.027716835998721729 -0.037415913778682267 0 -0.028026970980634752 -0.037099212306796289 0 -0.027456022399527255 -0.036896660035359255 0 -0.027539047492265559 -0.035833941869740982 0 -0.028658327489027607 -0.037975435092867368 0 -0.02843192756249768 -0.036625431413298812 0 -0.027539047492265559 -0.035833941869740982 0 -0.028026970980634752 -0.037099212306796289 0 -0.027456022399527255 -0.036896660035359255 0 -0.027603933240075124 -0.035937415549476881 0 -0.028155989385560222 -0.037628540449509397 0 -0.029915224303487396 -0.038691831006143138 0 -0.028658327489027607 -0.037975435092867368 0 -0.029229044015650456 -0.037219659745598564 0 -0.028658327489027607 -0.037975435092867368 0 -0.029229044015650456 -0.037219659745598564 0 -0.02843192756249768 -0.036625431413298812 0 -0.027539047492265559 -0.035833941869740982 0 -0.027030319453930019 -0.036678720169118502 0 -0.027456022399527255 -0.036896660035359255 0 -0.026479553953964133 -0.03623700116206649 0 -0.027030319453930019 -0.036678720169118502 0 -0.026343416643404314 -0.036901585364151598 0 -0.026982806990944467 -0.037412712629554042 0 -0.027030319453930019 -0.036678720169118502 0 -0.026343416643404314 -0.036901585364151598 0 -0.026982806990944467 -0.037412712629554042 0 -0.027030319453930019 -0.036678720169118502 0 -0.027456022399527255 -0.036896660035359255 0 -0.026982806990944467 -0.037412712629554042 0 -0.027716835998721729 -0.037415913778682267 0 -0.027456022399527255 -0.036896660035359255 0 -0.025476736321822693 -0.037214628044646265 0 -0.026343416643404314 -0.036901585364151598 0 -0.025520572788479738 -0.03629757711796034 0 -0.025476736321822693 -0.037214628044646265 0 -0.026343416643404314 -0.036901585364151598 0 -0.026192487094831331 -0.037628731608355462 0 -0.026479553953964133 -0.03623700116206649 0 -0.026343416643404314 -0.036901585364151598 0 -0.025520572788479738 -0.03629757711796034 0 -0.025476736321822693 -0.037214628044646265 0 -0.025520572788479738 -0.03629757711796034 0 -0.024493764864411943 -0.036750339545695745 0 -0.025476736321822693 -0.037214628044646265 0 -0.024493764864411943 -0.036750339545695745 0 -0.024722647356715841 -0.037673535958518446 0 -0.024722647356715841 -0.037673535958518446 0 -0.025554036479669535 -0.038191434468166793 0 -0.02434249604340943 -0.038519317302910652 0 -0.025476736321822693 -0.037214628044646265 0 -0.024722647356715841 -0.037673535958518446 0 -0.025554036479669535 -0.038191434468166793 0 -0.025476736321822693 -0.037214628044646265 0 -0.025554036479669535 -0.038191434468166793 0 -0.026192487094831331 -0.037628731608355462 0 -0.02668212979927596 -0.038319207912220613 0 -0.025554036479669535 -0.038191434468166793 0 -0.026192487094831331 -0.037628731608355462 0 -0.02668212979927596 -0.038319207912220613 0 -0.025554036479669535 -0.038191434468166793 0 -0.026108286651921195 -0.038994857386637286 0 -0.025554036479669535 -0.038191434468166793 0 -0.026108286651921195 -0.038994857386637286 0 -0.02517665902759721 -0.038873339257379215 0 -0.026108286651921195 -0.038994857386637286 0 -0.025424396189909614 -0.039617533218435176 0 -0.02517665902759721 -0.038873339257379215 0 -0.026917876062978182 -0.039844359041650769 0 -0.026108286651921195 -0.038994857386637286 0 -0.025424396189909614 -0.039617533218435176 0 -0.026917876062978182 -0.039844359041650769 0 -0.025424396189909614 -0.039617533218435176 0 -0.02611343418757836 -0.040450474963006931 0 -0.025424396189909614 -0.039617533218435176 0 -0.02517665902759721 -0.038873339257379215 0 -0.024209563597199155 -0.039451372158103522 0 -0.025424396189909614 -0.039617533218435176 0 -0.024209563597199155 -0.039451372158103522 0 -0.024204419868861151 -0.040413264161209154 0 -0.02517665902759721 -0.038873339257379215 0 -0.02434249604340943 -0.038519317302910652 0 -0.024209563597199155 -0.039451372158103522 0 -0.025554036479669535 -0.038191434468166793 0 -0.02517665902759721 -0.038873339257379215 0 -0.02434249604340943 -0.038519317302910652 0 -0.02434249604340943 -0.038519317302910652 0 -0.024209563597199155 -0.039451372158103522 0 -0.023143883156876294 -0.038984377446009057 0 -0.02434249604340943 -0.038519317302910652 0 -0.023143883156876294 -0.038984377446009057 0 -0.02320909982293658 -0.038035214530467015 0 -0.024209563597199155 -0.039451372158103522 0 -0.022847672990885623 -0.040093964992022876 0 -0.024204419868861151 -0.040413264161209154 0 -0.024209563597199155 -0.039451372158103522 0 -0.022847672990885623 -0.040093964992022876 0 -0.023143883156876294 -0.038984377446009057 0 -0.022847672990885623 -0.040093964992022876 0 -0.023143883156876294 -0.038984377446009057 0 -0.022158889216505509 -0.039112458406456767 0 -0.023143883156876294 -0.038984377446009057 0 -0.02320909982293658 -0.038035214530467015 0 -0.022113349530363091 -0.03823009661404754 0 -0.023143883156876294 -0.038984377446009057 0 -0.022113349530363091 -0.03823009661404754 0 -0.022158889216505509 -0.039112458406456767 0 -0.02320909982293658 -0.038035214530467015 0 -0.022164583544807034 -0.037341518825868357 0 -0.022113349530363091 -0.03823009661404754 0 -0.02320909982293658 -0.038035214530467015 0 -0.023135510339861411 -0.036644675171529258 0 -0.022164583544807034 -0.037341518825868357 0 -0.02434249604340943 -0.038519317302910652 0 -0.02320909982293658 -0.038035214530467015 0 -0.023808701055493174 -0.03733671735827656 0 -0.02320909982293658 -0.038035214530467015 0 -0.023808701055493174 -0.03733671735827656 0 -0.023135510339861411 -0.036644675171529258 0 -0.024722647356715841 -0.037673535958518446 0 -0.02434249604340943 -0.038519317302910652 0 -0.023808701055493174 -0.03733671735827656 0 -0.024493764864411943 -0.036750339545695745 0 -0.023808701055493174 -0.03733671735827656 0 -0.023135510339861411 -0.036644675171529258 0 -0.024493764864411943 -0.036750339545695745 0 -0.024722647356715841 -0.037673535958518446 0 -0.023808701055493174 -0.03733671735827656 0 -0.023135510339861411 -0.036644675171529258 0 -0.021707585892127314 -0.036454310296919173 0 -0.022164583544807034 -0.037341518825868357 0 -0.026293105680028357 -0.019150425412542759 0 -0.026144562009180368 -0.019414983428884643 0 -0.025772371857768792 -0.019135582647143694 0 -0.026293105680028357 -0.019150425412542759 0 -0.026144562009180368 -0.019414983428884643 0 -0.026552370051482678 -0.019316269839497038 0 -0.026552370051482678 -0.019316269839497038 0 -0.026704587445156185 -0.019061967003579205 0 -0.027122097763631659 -0.019381498199573518 0 -0.026738434601029485 -0.019072055506950451 0 -0.027114844025508379 -0.019402151157977748 0 -0.026293105680028357 -0.019150425412542759 0 -0.026552370051482678 -0.019316269839497038 0 -0.026704587445156185 -0.019061967003579205 0 -0.026738434601029485 -0.019072055506950451 0 -0.026545156462846844 -0.020392692945928451 0 -0.027021935494460348 -0.019246111638849213 0 -0.026898647203204649 -0.019139841380475028 0 -0.027182493184195845 -0.019206977801207999 0 -0.026293105680028357 -0.019150425412542759 0 -0.026704587445156185 -0.019061967003579205 0 -0.026295957582291019 -0.018802791515412854 0 -0.026545156462846844 -0.020392692945928451 0 -0.02704388797686022 -0.022318489857542846 0 -0.026545299525002394 -0.024707713652305584 0 -0.026187254695037455 -0.024811863160434027 0 -0.026799453670646397 -0.025051536034336314 0 -0.026545156462846844 -0.020392692945928451 0 -0.025428612176648668 -0.018568961597955746 0 -0.026293105680028357 -0.019150425412542759 0 -0.026295957582291019 -0.018802791515412854 0 -0.025772371857768792 -0.019135582647143694 0 -0.026295957582291019 -0.018802791515412854 0 -0.025620057520030395 -0.018767625831758172 0 -0.025772371857768792 -0.019135582647143694 0 -0.024028396160098445 -0.030868576264367287 0 -0.024652283655478221 -0.031094352487623593 0 -0.023789655634374306 -0.031063651663904613 0 -0.026545156462846844 -0.020392692945928451 0 -0.025012238126266215 -0.022972930766099794 0 -0.026187254695037455 -0.024811863160434027 0 -0.026276940356245542 -0.024374446560024805 0 -0.025757829331749596 -0.024349549638432645 0 -0.026069367873803109 -0.018964731918887041 0 -0.025621584900043636 -0.018502061486684283 0 -0.025620057520030395 -0.018767625831758172 0 -0.024963592187673689 -0.03201007125433062 0 -0.025012238126266215 -0.022972930766099794 0 -0.023536197505956622 -0.0357355148006104 0 -0.024963592187673689 -0.03201007125433062 0 -0.022847672990885623 -0.040093964992022876 0 -0.022497495084662675 -0.040937718667977033 0 -0.023457239975858128 -0.041258970433980698 0 -0.024204419868861151 -0.040413264161209154 0 -0.023457239975858128 -0.041258970433980698 0 -0.025007088262114775 -0.041276682719257357 0 -0.022847672990885623 -0.040093964992022876 0 -0.024204419868861151 -0.040413264161209154 0 -0.023457239975858128 -0.041258970433980698 0 -0.024963592187673689 -0.03201007125433062 0 -0.025712844667675417 -0.03693733750483625 0 -0.024963592187673689 -0.03201007125433062 0 -0.026813825997862632 -0.027832374119399886 0 -0.026545299525002394 -0.024707713652305584 0 -0.026187254695037455 -0.024811863160434027 0 -0.026276940356245542 -0.024374446560024805 0 -0.026545299525002394 -0.024707713652305584 0 -0.026276940356245542 -0.024374446560024805 0 -0.026918912888541629 -0.024593958365500889 0 -0.025589349560584368 -0.031740734570635358 0 -0.026423238628890941 -0.031744057324293841 0 -0.026456979916945709 -0.032017162771355946 0 -0.025424396189909614 -0.039617533218435176 0 -0.024204419868861151 -0.040413264161209154 0 -0.025007088262114775 -0.041276682719257357 0 -0.025424396189909614 -0.039617533218435176 0 -0.025007088262114775 -0.041276682719257357 0 -0.02611343418757836 -0.040450474963006931 0 -0.025007088262114775 -0.041276682719257357 0 -0.02611343418757836 -0.040450474963006931 0 -0.026539641260499 -0.041274682242330461 0 -0.025712844667675417 -0.03693733750483625 0 -0.026481247768790808 -0.036510602046548921 0 -0.026423238628890941 -0.031744057324293841 0 -0.026456979916945709 -0.032017162771355946 0 -0.02722198185291639 -0.031760745280274179 0 -0.026456979916945709 -0.032017162771355946 0 -0.027283164960817997 -0.032268925127112949 0 -0.02722198185291639 -0.031760745280274179 0 -0.026918912888541629 -0.024593958365500889 0 -0.027167885189163118 -0.024933585870272803 0 -0.027545591713581587 -0.024814983087575345 0 -0.026813825997862632 -0.027832374119399886 0 -0.027153324394212183 -0.028562424973451708 0 -0.027167885189163118 -0.024933585870272803 0 -0.02740317536121711 -0.025270226902546954 0 -0.027545591713581587 -0.024814983087575345 0 -0.026918912888541629 -0.024593958365500889 0 -0.027167885189163118 -0.024933585870272803 0 -0.026799453670646397 -0.025051536034336314 0 -0.026545299525002394 -0.024707713652305584 0 -0.026918912888541629 -0.024593958365500889 0 -0.026799453670646397 -0.025051536034336314 0 -0.027182493184195845 -0.019206977801207999 0 -0.027122097763631659 -0.019381498199573518 0 -0.027355357903907054 -0.019494500797732191 0 -0.027021935494460348 -0.019246111638849213 0 -0.027182493184195845 -0.019206977801207999 0 -0.027122097763631659 -0.019381498199573518 0 -0.027167885189163118 -0.024933585870272803 0 -0.026799453670646397 -0.025051536034336314 0 -0.02740317536121711 -0.025270226902546954 0 -0.02704388797686022 -0.022318489857542846 0 -0.027478004044521626 -0.022420476290711446 0 -0.027182493184195845 -0.019206977801207999 0 -0.027573937242175071 -0.019395178783924001 0 -0.027355357903907054 -0.019494500797732191 0 -0.02740317536121711 -0.025270226902546954 0 -0.027814113272803958 -0.025170992752489019 0 -0.027975772029048562 -0.025468798064089481 0 -0.027478004044521626 -0.022420476290711446 0 -0.028001225092134503 -0.02156016930546294 0 -0.02740317536121711 -0.025270226902546954 0 -0.027814113272803958 -0.025170992752489019 0 -0.027545591713581587 -0.024814983087575345 0 -0.027814113272803958 -0.025170992752489019 0 -0.028171829030453725 -0.025243812267434447 0 -0.027975772029048562 -0.025468798064089481 0 -0.029545701249694228 -0.023516273393916553 0 -0.02899564627918148 -0.021806894739241158 0 -0.029545701249694228 -0.023516273393916553 0 -0.028001225092134503 -0.02156016930546294 0 -0.029545701249694228 -0.023516273393916553 0 -0.029045510751839969 -0.02056231217502499 0 -0.029545701249694228 -0.023516273393916553 0 -0.029316786911752837 -0.028739032254802902 0 -0.027814113272803958 -0.025170992752489019 0 -0.028171829030453725 -0.025243812267434447 0 -0.028143722406777223 -0.02502567643828045 0 -0.029316786911752837 -0.028739032254802902 0 -0.027153324394212183 -0.028562424973451708 0 -0.029316786911752837 -0.028739032254802902 0 -0.030050295164475407 -0.03295815843318068 0 -0.032344881162834314 -0.030814633306081064 0 -0.032393175791708771 -0.031370697996409284 0 -0.03216008926810672 -0.031146982783299564 0 -0.02803772310729134 -0.032485704503182181 0 -0.027799765838511799 -0.032227238251256909 0 -0.027283164960817997 -0.032268925127112949 0 -0.027814113272803958 -0.025170992752489019 0 -0.028143722406777223 -0.02502567643828045 0 -0.027545591713581587 -0.024814983087575345 0 -0.02803772310729134 -0.032485704503182181 0 -0.027799765838511799 -0.032227238251256909 0 -0.027971244387407664 -0.031935401306364505 0 -0.027799765838511799 -0.032227238251256909 0 -0.027283164960817997 -0.032268925127112949 0 -0.027562040802138466 -0.031984790109303871 0 -0.026481247768790808 -0.036510602046548921 0 -0.029941211467978249 -0.036133948037816756 0 -0.027283164960817997 -0.032268925127112949 0 -0.02722198185291639 -0.031760745280274179 0 -0.027562040802138466 -0.031984790109303871 0 -0.02722198185291639 -0.031760745280274179 0 -0.027562040802138466 -0.031984790109303871 0 -0.027963559017254298 -0.031789992875105103 0 -0.026917876062978182 -0.039844359041650769 0 -0.02611343418757836 -0.040450474963006931 0 -0.02711092866014627 -0.040595904940595097 0 -0.026539641260499 -0.041274682242330461 0 -0.02711092866014627 -0.040595904940595097 0 -0.028044726270947815 -0.041256630270265472 0 -0.026917876062978182 -0.039844359041650769 0 -0.02711092866014627 -0.040595904940595097 0 -0.027923024270614289 -0.040149727054728988 0 -0.02611343418757836 -0.040450474963006931 0 -0.026539641260499 -0.041274682242330461 0 -0.02711092866014627 -0.040595904940595097 0 -0.02711092866014627 -0.040595904940595097 0 -0.027923024270614289 -0.040149727054728988 0 -0.028044726270947815 -0.041256630270265472 0 -0.030414810246509418 -0.039131821940448723 0 -0.029941211467978249 -0.036133948037816756 0 -0.032723234425230972 -0.037041065693590412 0 -0.032766204157084783 -0.037565397766088637 0 -0.033083153514739151 -0.037398279245383144 0 -0.029941211467978249 -0.036133948037816756 0 -0.030050295164475407 -0.03295815843318068 0 -0.027799765838511799 -0.032227238251256909 0 -0.027562040802138466 -0.031984790109303871 0 -0.027796263644670766 -0.032008420764491903 0 -0.027799765838511799 -0.032227238251256909 0 -0.027796263644670766 -0.032008420764491903 0 -0.027971244387407664 -0.031935401306364505 0 -0.027562040802138466 -0.031984790109303871 0 -0.027963559017254298 -0.031789992875105103 0 -0.027796263644670766 -0.032008420764491903 0 -0.027963559017254298 -0.031789992875105103 0 -0.027796263644670766 -0.032008420764491903 0 -0.027971244387407664 -0.031935401306364505 0 -0.032403322373546574 -0.031511392592466138 0 -0.032393175791708771 -0.031370697996409284 0 -0.03216008926810672 -0.031146982783299564 0 -0.032403322373546574 -0.031511392592466138 0 -0.032013816353271315 -0.031486473153313016 0 -0.03216008926810672 -0.031146982783299564 0 -0.032766204157084783 -0.037565397766088637 0 -0.03326600430037787 -0.037577825422804106 0 -0.033083153514739151 -0.037398279245383144 0 -0.029941211467978249 -0.036133948037816756 0 -0.032764746172247894 -0.03452780538451436 0 -0.032013816353271315 -0.031486473153313016 0 -0.031889486463948756 -0.031128202061717465 0 -0.03216008926810672 -0.031146982783299564 0 -0.03326600430037787 -0.037577825422804106 0 -0.033083153514739151 -0.037398279245383144 0 -0.033303930197488951 -0.037325446169514352 0 -0.03326600430037787 -0.037577825422804106 0 -0.033303930197488951 -0.037325446169514352 0 -0.033574442494413777 -0.037350712133127371 0 -0.033083153514739151 -0.037398279245383144 0 -0.033303930197488951 -0.037325446169514352 0 -0.033161816291032688 -0.037164296578796469 0 -0.033295981517056102 -0.036952458633940685 0 -0.033161816291032688 -0.037164296578796469 0 -0.033441102443025061 -0.037147074065957769 0 -0.033303930197488951 -0.037325446169514352 0 -0.033161816291032688 -0.037164296578796469 0 -0.033441102443025061 -0.037147074065957769 0 -0.032723234425230972 -0.037041065693590412 0 -0.033083153514739151 -0.037398279245383144 0 -0.033161816291032688 -0.037164296578796469 0 -0.033457912997821179 -0.036841570294606635 0 -0.033441102443025061 -0.037147074065957769 0 -0.033852223880981386 -0.037400627263530967 0 -0.036658424033454144 -0.036615102211002004 0 -0.038132465846052649 -0.035661251234760549 0 -0.039055459927476527 -0.036684054669449621 0 -0.038132465846052649 -0.035661251234760549 0 -0.033441102443025061 -0.037147074065957769 0 -0.033574442494413777 -0.037350712133127371 0 -0.033852223880981386 -0.037400627263530967 0 -0.033303930197488951 -0.037325446169514352 0 -0.033441102443025061 -0.037147074065957769 0 -0.033574442494413777 -0.037350712133127371 0 -0.033930358319554106 -0.036080091811294242 0 -0.038132465846052649 -0.035661251234760549 0 -0.037749106950883585 -0.035608705693269564 0 -0.037557315256928431 -0.035174534868820856 0 -0.037295796742715229 -0.035500009983978453 0 -0.038132465846052649 -0.035661251234760549 0 -0.03954852780694789 -0.034700647521629428 0 -0.037188764760610456 -0.03155747903656228 0 -0.036796908640237054 -0.03203512110497115 0 -0.037459386306572758 -0.032043279820398764 0 -0.037765611918494063 -0.03427098189824538 0 -0.03954852780694789 -0.034700647521629428 0 -0.038132465846052649 -0.035661251234760549 0 -0.037765611918494063 -0.03427098189824538 0 -0.032013816353271315 -0.031486473153313016 0 -0.031653174799199657 -0.031477530587495771 0 -0.031889486463948756 -0.031128202061717465 0 -0.033574442494413777 -0.037350712133127371 0 -0.03387791108152078 -0.03739733523142183 0 -0.033816856381115465 -0.037577799286362824 0 -0.03387791108152078 -0.03739733523142183 0 -0.033911920314507286 -0.037468959099598999 0 -0.033816856381115465 -0.037577799286362824 0 -0.032764746172247894 -0.03452780538451436 0 -0.034609121008825398 -0.032618537732617719 0 -0.03326600430037787 -0.037577825422804106 0 -0.033574442494413777 -0.037350712133127371 0 -0.033816856381115465 -0.037577799286362824 0 -0.037765611918494063 -0.03427098189824538 0 -0.037322111828612378 -0.031190005602471201 0 -0.037765611918494063 -0.03427098189824538 0 -0.034609121008825398 -0.032618537732617719 0 -0.034609121008825398 -0.032618537732617719 0 -0.037322111828612378 -0.031190005602471201 0 -0.034609121008825398 -0.032618537732617719 0 -0.032987689918876684 -0.029588795065344096 0 -0.033258788033645133 -0.029146321865209865 0 -0.033225440809600375 -0.028137547318700426 0 -0.03414584992215193 -0.027983725298023541 0 -0.033258788033645133 -0.029146321865209865 0 -0.033225440809600375 -0.028137547318700426 0 -0.032668229941236054 -0.028542422274357156 0 -0.033402521069045364 -0.027304577554931604 0 -0.03414584992215193 -0.027983725298023541 0 -0.035029166043401991 -0.026849013460013366 0 -0.033225440809600375 -0.028137547318700426 0 -0.033402521069045364 -0.027304577554931604 0 -0.032647357692766436 -0.027717651270147352 0 -0.033225440809600375 -0.028137547318700426 0 -0.033402521069045364 -0.027304577554931604 0 -0.03414584992215193 -0.027983725298023541 0 -0.031889486463948756 -0.031128202061717465 0 -0.03216008926810672 -0.031146982783299564 0 -0.032153731998413163 -0.030741878243597909 0 -0.032344881162834314 -0.030814633306081064 0 -0.03216008926810672 -0.031146982783299564 0 -0.032153731998413163 -0.030741878243597909 0 -0.029316786911752837 -0.028739032254802902 0 -0.031914626989810284 -0.02653356293574289 0 -0.032987689918876684 -0.029588795065344096 0 -0.031914626989810284 -0.02653356293574289 0 -0.031140355564720428 -0.021426278287106661 0 -0.030902670354775973 -0.021011594039755204 0 -0.030378950239313685 -0.021104983801636387 0 -0.030117948732713271 -0.025502727727059103 0 -0.030309555285675662 -0.026958109784087574 0 -0.02926054794651009 -0.026577278504365098 0 -0.031345802538499376 -0.021159673953841711 0 -0.031140355564720428 -0.021426278287106661 0 -0.030902670354775973 -0.021011594039755204 0 -0.029545701249694228 -0.023516273393916553 0 -0.031914626989810284 -0.02653356293574289 0 -0.031345802538499376 -0.021159673953841711 0 -0.030902670354775973 -0.021011594039755204 0 -0.031003642791303659 -0.020684849775694559 0 -0.030902670354775973 -0.021011594039755204 0 -0.030378950239313685 -0.021104983801636387 0 -0.030654777097230471 -0.020684597795612259 0 -0.031914626989810284 -0.02653356293574289 0 -0.031694798604426574 -0.023368361897023699 0 -0.033402521069045364 -0.027304577554931604 0 -0.035029166043401991 -0.026849013460013366 0 -0.033198963113015761 -0.026159526660997249 0 -0.030378950239313685 -0.021104983801636387 0 -0.030654777097230471 -0.020684597795612259 0 -0.030253886058611287 -0.02055060631621243 0 -0.030654777097230471 -0.020684597795612259 0 -0.030812808909366236 -0.02030778123554575 0 -0.03047429704380443 -0.020198375355572527 0 -0.030654777097230471 -0.020684597795612259 0 -0.03047429704380443 -0.020198375355572527 0 -0.030253886058611287 -0.02055060631621243 0 -0.030902670354775973 -0.021011594039755204 0 -0.030654777097230471 -0.020684597795612259 0 -0.031003642791303659 -0.020684849775694559 0 -0.031345802538499376 -0.021159673953841711 0 -0.031003642791303659 -0.020684849775694559 0 -0.031273497260810378 -0.02064718177353235 0 -0.0289860582139265 -0.022930127705806696 0 -0.028793846387027186 -0.021592657447136322 0 -0.028873501779626855 -0.021736700423997828 0 -0.029045510751839969 -0.02056231217502499 0 -0.029445549098875534 -0.0199329307255523 0 -0.031003642791303659 -0.020684849775694559 0 -0.031273497260810378 -0.02064718177353235 0 -0.031198192346239148 -0.020185066493172987 0 -0.031003642791303659 -0.020684849775694559 0 -0.030812808909366236 -0.02030778123554575 0 -0.031198192346239148 -0.020185066493172987 0 -0.030654777097230471 -0.020684597795612259 0 -0.031003642791303659 -0.020684849775694559 0 -0.030812808909366236 -0.02030778123554575 0 -0.030812808909366236 -0.02030778123554575 0 -0.031198192346239148 -0.020185066493172987 0 -0.03073652811738127 -0.019798859933296203 0 -0.030812808909366236 -0.02030778123554575 0 -0.03047429704380443 -0.020198375355572527 0 -0.03073652811738127 -0.019798859933296203 0 -0.03047429704380443 -0.020198375355572527 0 -0.030310272831275187 -0.019809365110032437 0 -0.030014387039918395 -0.020030549871705619 0 -0.03047429704380443 -0.020198375355572527 0 -0.030310272831275187 -0.019809365110032437 0 -0.03073652811738127 -0.019798859933296203 0 -0.03073652811738127 -0.019798859933296203 0 -0.030308327189719559 -0.019367128731318503 0 -0.031052472321216999 -0.019273829183528775 0 -0.030310272831275187 -0.019809365110032437 0 -0.03073652811738127 -0.019798859933296203 0 -0.030308327189719559 -0.019367128731318503 0 -0.029703522767859182 -0.019189870551827252 0 -0.028813622692172441 -0.019509078771927132 0 -0.028816617597492641 -0.019062068777582153 0 -0.028456000244500981 -0.019297832411023841 0 -0.028025170610736887 -0.018944386388984113 0 -0.028466959189705529 -0.018075054570046985 0 -0.029352911645862633 -0.018140995264217245 0 -0.028856882891062911 -0.018599391452322929 0 -0.028456000244500981 -0.019297832411023841 0 -0.028046351658680767 -0.019071643259184947 0 -0.02769297065491971 -0.019024327863225179 0 -0.028672089980444876 -0.018709192149805896 0 -0.027702630097087531 -0.018985122118499832 0 -0.028456000244500981 -0.019297832411023841 0 -0.028025170610736887 -0.018944386388984113 0 -0.028046351658680767 -0.019071643259184947 0 -0.028813622692172441 -0.019509078771927132 0 -0.028622239223214472 -0.019196789704162873 0 -0.02798912648376364 -0.018954305532258704 0 -0.028046351658680767 -0.019071643259184947 0 -0.027835020394021456 -0.019062259772826155 0 -0.027612035961867565 -0.019720952063038914 0 -0.027601380369248651 -0.019676845246203636 0 -0.02761495358769981 -0.019699714192054379 0 -0.029445549098875534 -0.0199329307255523 0 -0.028813622692172441 -0.019509078771927132 0 -0.031198192346239148 -0.020185066493172987 0 -0.03073652811738127 -0.019798859933296203 0 -0.031052472321216999 -0.019273829183528775 0 -0.02761495358769981 -0.019699714192054379 0 -0.027602510834252511 -0.019655095999114542 0 -0.02761377751014181 -0.019713014376632736 0 -0.027601380369248651 -0.019676845246203636 0 -0.02761495358769981 -0.019699714192054379 0 -0.027602510834252511 -0.019655095999114542 0 -0.02798912648376364 -0.018954305532258704 0 -0.027706489390743657 -0.019151432129100636 0 -0.027835020394021456 -0.019062259772826155 0 -0.027706489390743657 -0.019151432129100636 0 -0.027835020394021456 -0.019062259772826155 0 -0.02769297065491971 -0.019024327863225179 0 -0.028813622692172441 -0.019509078771927132 0 -0.027475312286447999 -0.019415850871897185 0 -0.028046351658680767 -0.019071643259184947 0 -0.027835020394021456 -0.019062259772826155 0 -0.02769297065491971 -0.019024327863225179 0 -0.027706489390743657 -0.019151432129100636 0 -0.027689377400146532 -0.019542723366817946 0 -0.027736656608020313 -0.019180674799500478 0 -0.027706489390743657 -0.019151432129100636 0 -0.02769297065491971 -0.019024327863225179 0 -0.027736656608020313 -0.019180674799500478 0 -0.027475312286447999 -0.019415850871897185 0 -0.027791635418906814 -0.019495863527083209 0 -0.027602510834252511 -0.019655095999114542 0 -0.02761377751014181 -0.019713014376632736 0 -0.027689377400146532 -0.019542723366817946 0 -0.02761377751014181 -0.019713014376632736 0 -0.027615073443731458 -0.019784030094602157 0 -0.027689377400146532 -0.019542723366817946 0 -0.02761377751014181 -0.019713014376632736 0 -0.027668016161926792 -0.019710707351348465 0 -0.027615073443731458 -0.019784030094602157 0 -0.027668016161926792 -0.019710707351348465 0 -0.027569682798646303 -0.019610570804889378 0 -0.027615073443731458 -0.019784030094602157 0 -0.02761495358769981 -0.019699714192054379 0 -0.02761377751014181 -0.019713014376632736 0 -0.027668016161926792 -0.019710707351348465 0 -0.02761495358769981 -0.019699714192054379 0 -0.027668016161926792 -0.019710707351348465 0 -0.027633287309722931 -0.019729661757501783 0 -0.027612035961867565 -0.019720952063038914 0 -0.02761495358769981 -0.019699714192054379 0 -0.027633287309722931 -0.019729661757501783 0 -0.027897188936611576 -0.01927326559714895 0 -0.028001225092134503 -0.02156016930546294 0 -0.027668016161926792 -0.019710707351348465 0 -0.027633287309722931 -0.019729661757501783 0 -0.027640303582585974 -0.019772169357105417 0 -0.027615423092042443 -0.019757712807997131 0 -0.027633287309722931 -0.019729661757501783 0 -0.027640303582585974 -0.019772169357105417 0 -0.027615423092042443 -0.019757712807997131 0 -0.027612035961867565 -0.019720952063038914 0 -0.027633287309722931 -0.019729661757501783 0 -0.029045510751839969 -0.02056231217502499 0 -0.028001225092134503 -0.02156016930546294 0 -0.028967109622430494 -0.022902991064350148 0 -0.028873501779626855 -0.021736700423997828 0 -0.029721522077250113 -0.021962485061737872 0 -0.028793846387027186 -0.021592657447136322 0 -0.028873501779626855 -0.021736700423997828 0 -0.029721522077250113 -0.021962485061737872 0 -0.027668016161926792 -0.019710707351348465 0 -0.027827944687684091 -0.019554258196639675 0 -0.027569682798646303 -0.019610570804889378 0 -0.027573937242175071 -0.019395178783924001 0 -0.027827944687684091 -0.019554258196639675 0 -0.027569682798646303 -0.019610570804889378 0 -0.027569682798646303 -0.019610570804889378 0 -0.027355357903907054 -0.019494500797732191 0 -0.027469675190389273 -0.019738790819736972 0 -0.027573937242175071 -0.019395178783924001 0 -0.027569682798646303 -0.019610570804889378 0 -0.027355357903907054 -0.019494500797732191 0 -0.027181409280248106 -0.019651512121429158 0 -0.027355357903907054 -0.019494500797732191 0 -0.027469675190389273 -0.019738790819736972 0 -0.027122097763631659 -0.019381498199573518 0 -0.027181409280248106 -0.019651512121429158 0 -0.027355357903907054 -0.019494500797732191 0 -0.027181409280248106 -0.019651512121429158 0 -0.027469675190389273 -0.019738790819736972 0 -0.027408615029369528 -0.019850809745040908 0 -0.027569682798646303 -0.019610570804889378 0 -0.027615073443731458 -0.019784030094602157 0 -0.027469675190389273 -0.019738790819736972 0 -0.027615073443731458 -0.019784030094602157 0 -0.027469675190389273 -0.019738790819736972 0 -0.027643103602485553 -0.019838808271761744 0 -0.027615073443731458 -0.019784030094602157 0 -0.027643103602485553 -0.019838808271761744 0 -0.027689377400146532 -0.019542723366817946 0 -0.027643103602485553 -0.019838808271761744 0 -0.027689377400146532 -0.019542723366817946 0 -0.027904282128181319 -0.019371592209596711 0 -0.027643103602485553 -0.019838808271761744 0 -0.027656064832984568 -0.020036586746321423 0 -0.027904282128181319 -0.019371592209596711 0 -0.027656064832984568 -0.020036586746321423 0 -0.028494483248639412 -0.019441197032087718 0 -0.027904282128181319 -0.019371592209596711 0 -0.027643103602485553 -0.019838808271761744 0 -0.027656064832984568 -0.020036586746321423 0 -0.027408615029369528 -0.019850809745040908 0 -0.027469675190389273 -0.019738790819736972 0 -0.027643103602485553 -0.019838808271761744 0 -0.027408615029369528 -0.019850809745040908 0 -0.027408615029369528 -0.019850809745040908 0 -0.026725790855911341 -0.020128675899062604 0 -0.026867459106936192 -0.019788344062497288 0 -0.027656064832984568 -0.020036586746321423 0 -0.027408615029369528 -0.019850809745040908 0 -0.026725790855911341 -0.020128675899062604 0 -0.027670004240875287 -0.020066017877042017 0 -0.027677674798878123 -0.020137085051248817 0 -0.027656064832984568 -0.020036586746321423 0 -0.026725790855911341 -0.020128675899062604 0 -0.026813747478470425 -0.020969629347620977 0 -0.026366513741595547 -0.020708229936815994 0 -0.026813747478470425 -0.020969629347620977 0 -0.026189857131571438 -0.021089023235995059 0 -0.026366513741595547 -0.020708229936815994 0 -0.026725790855911341 -0.020128675899062604 0 -0.026813747478470425 -0.020969629347620977 0 -0.026366513741595547 -0.020708229936815994 0 -0.026725790855911341 -0.020128675899062604 0 -0.026005737457625227 -0.020419241847485746 0 -0.026725790855911341 -0.020128675899062604 0 -0.026110926986327155 -0.020099841334455193 0 -0.026005737457625227 -0.020419241847485746 0 -0.026725790855911341 -0.020128675899062604 0 -0.026433649658774365 -0.019940850675962494 0 -0.026110926986327155 -0.020099841334455193 0 -0.026433649658774365 -0.019940850675962494 0 -0.025863391968854486 -0.019880075586517176 0 -0.026110926986327155 -0.020099841334455193 0 -0.026725790855911341 -0.020128675899062604 0 -0.026433649658774365 -0.019940850675962494 0 -0.026867459106936192 -0.019788344062497288 0 -0.026433649658774365 -0.019940850675962494 0 -0.026284185183285371 -0.019697622491738342 0 -0.025863391968854486 -0.019880075586517176 0 -0.026433649658774365 -0.019940850675962494 0 -0.026867459106936192 -0.019788344062497288 0 -0.026284185183285371 -0.019697622491738342 0 -0.027181409280248106 -0.019651512121429158 0 -0.027408615029369528 -0.019850809745040908 0 -0.026867459106936192 -0.019788344062497288 0 -0.026867459106936192 -0.019788344062497288 0 -0.026697930623587635 -0.019541848700116004 0 -0.026284185183285371 -0.019697622491738342 0 -0.027122097763631659 -0.019381498199573518 0 -0.027181409280248106 -0.019651512121429158 0 -0.026697930623587635 -0.019541848700116004 0 -0.027181409280248106 -0.019651512121429158 0 -0.026867459106936192 -0.019788344062497288 0 -0.026697930623587635 -0.019541848700116004 0 -0.026552370051482678 -0.019316269839497038 0 -0.027122097763631659 -0.019381498199573518 0 -0.026697930623587635 -0.019541848700116004 0 -0.026144562009180368 -0.019414983428884643 0 -0.026552370051482678 -0.019316269839497038 0 -0.026697930623587635 -0.019541848700116004 0 -0.026144562009180368 -0.019414983428884643 0 -0.026697930623587635 -0.019541848700116004 0 -0.026284185183285371 -0.019697622491738342 0 -0.026144562009180368 -0.019414983428884643 0 -0.026284185183285371 -0.019697622491738342 0 -0.02567768477688584 -0.019604832616335655 0 -0.041421987783397195 -0.026919134084368506 0 -0.043852938312911864 -0.031860042428767804 0 -0.044530541765006301 -0.028834086069835983 0 -0.043825603039164801 -0.029728269304256646 0 -0.045206098847068069 -0.030743743112224137 0 -0.038956751981840267 -0.026104940349058331 0 -0.039316589506720623 -0.026764070737091882 0 -0.039639069638144432 -0.0280338785963237 0 -0.039659110631151448 -0.026226965781826782 0 -0.038956751981840267 -0.026104940349058331 0 -0.039316589506720623 -0.026764070737091882 0 -0.039659110631151448 -0.026226965781826782 0 -0.038956751981840267 -0.026104940349058331 0 -0.039391384380611696 -0.025429387272560357 0 -0.039414950539132368 -0.026759080881370408 0 -0.040878803506842532 -0.027063783173060945 0 -0.039659110631151448 -0.026226965781826782 0 -0.039978352445999024 -0.02591264760274252 0 -0.040447899439648084 -0.026807776502168142 0 -0.039978352445999024 -0.02591264760274252 0 -0.040447899439648084 -0.026807776502168142 0 -0.04058065578877889 -0.025955299935752272 0 -0.039659110631151448 -0.026226965781826782 0 -0.039316589506720623 -0.026764070737091882 0 -0.040447899439648084 -0.026807776502168142 0 -0.039659110631151448 -0.026226965781826782 0 -0.039978352445999024 -0.02591264760274252 0 -0.039391384380611696 -0.025429387272560357 0 -0.039978352445999024 -0.02591264760274252 0 -0.04000512918236284 -0.025107286196347885 0 -0.039391384380611696 -0.025429387272560357 0 -0.039978352445999024 -0.02591264760274252 0 -0.04000512918236284 -0.025107286196347885 0 -0.04058065578877889 -0.025955299935752272 0 -0.04000512918236284 -0.025107286196347885 0 -0.04058065578877889 -0.025955299935752272 0 -0.040743318548177636 -0.025183980459794697 0 -0.04000512918236284 -0.025107286196347885 0 -0.039391384380611696 -0.025429387272560357 0 -0.039413536709541924 -0.024478778310744166 0 -0.041421987783397195 -0.026919134084368506 0 -0.042301095679442666 -0.025949633339955879 0 -0.038956751981840267 -0.026104940349058331 0 -0.039391384380611696 -0.025429387272560357 0 -0.038597156044791518 -0.024866213946214709 0 -0.044530541765006301 -0.028834086069835983 0 -0.043134389194642034 -0.028818054661187375 0 -0.043833507895347019 -0.026904419234026165 0 -0.046118906464257002 -0.028420084352467758 0 -0.046810646545182105 -0.029886009414397549 0 -0.047513390475796766 -0.027999664536806423 0 -0.045203464605190133 -0.029255326135536341 0 -0.042301095679442666 -0.025949633339955879 0 -0.046118906464257002 -0.028420084352467758 0 -0.044999951524961695 -0.029686240996688353 0 -0.046810646545182105 -0.029886009414397549 0 -0.046118906464257002 -0.028420084352467758 0 -0.044999951524961695 -0.029686240996688353 0 -0.044999978087418915 -0.027393487098344532 0 -0.04499998144841523 -0.029685727149816751 0 -0.045433384365715493 -0.03256840592725254 0 -0.044999951524961695 -0.029686240996688353 0 -0.046810646545182105 -0.029886009414397549 0 -0.045587476411019588 -0.031740274864617057 0 -0.045203464605190133 -0.029255326135536341 0 -0.045160045922986197 -0.032696647626702942 0 -0.043825603039164801 -0.029728269304256646 0 -0.043134389194642034 -0.028818054661187375 0 -0.042452864470948676 -0.030705565132767655 0 -0.044530541765006301 -0.028834086069835983 0 -0.043825603039164801 -0.029728269304256646 0 -0.043134389194642034 -0.028818054661187375 0 -0.046562685618315093 -0.035835646325895629 0 -0.046504382927527864 -0.035785101313789286 0 -0.046526915904004748 -0.035826627771775046 0 -0.043825603039164801 -0.029728269304256646 0 -0.043827325049198937 -0.030717841050038341 0 -0.042452864470948676 -0.030705565132767655 0 -0.045403266824818871 -0.033215238270901032 0 -0.045160045922986197 -0.032696647626702942 0 -0.0449999977185188 -0.029686326032021301 0 -0.045610801317054556 -0.031783200985853237 0 -0.04499999638253236 -0.031771764355073367 0 -0.046810646545182105 -0.029886009414397549 0 -0.046099837982795426 -0.031748470970632464 0 -0.045587476411019588 -0.031740274864617057 0 -0.046504382927527864 -0.035785101313789286 0 -0.046491929129952425 -0.035799197337353907 0 -0.046526915904004748 -0.035826627771775046 0 -0.045160045922986197 -0.032696647626702942 0 -0.045311353659892709 -0.03515708159724211 0 -0.046496041728094711 -0.035754339402163389 0 -0.046466105759424364 -0.035761574615064497 0 -0.046491929129952425 -0.035799197337353907 0 -0.045160045922986197 -0.032696647626702942 0 -0.045433384365715493 -0.03256840592725254 0 -0.045433384365715493 -0.03256840592725254 0 -0.045000384862746455 -0.031772744836690431 0 -0.045433384365715493 -0.03256840592725254 0 -0.046366866787954798 -0.034989404696099582 0 -0.045610411514697184 -0.031788406408643735 0 -0.045000101296708402 -0.031771595486249207 0 -0.04610003782033513 -0.033578799805656687 0 -0.046466105759424364 -0.035761574615064497 0 -0.046491929129952425 -0.035799197337353907 0 -0.046522350548069746 -0.035855076122485174 0 -0.044999742269461046 -0.03424979834884842 0 -0.045000101296708402 -0.031771595486249207 0 -0.04610003782033513 -0.033578799805656687 0 -0.046491929129952425 -0.035799197337353907 0 -0.046522350548069746 -0.035855076122485174 0 -0.046526915904004748 -0.035826627771775046 0 -0.046562685618315093 -0.035835646325895629 0 -0.046550263325241446 -0.03586177395721498 0 -0.046526915904004748 -0.035826627771775046 0 -0.046562685618315093 -0.035835646325895629 0 -0.046550263325241446 -0.03586177395721498 0 -0.046606459705185552 -0.035912704868974507 0 -0.046522350548069746 -0.035855076122485174 0 -0.046550263325241446 -0.03586177395721498 0 -0.046526915904004748 -0.035826627771775046 0 -0.046490111645317411 -0.035828749858106822 0 -0.046522350548069746 -0.035855076122485174 0 -0.046550263325241446 -0.03586177395721498 0 -0.046550263325241446 -0.03586177395721498 0 -0.046602900859580659 -0.03587244576207381 0 -0.046606459705185552 -0.035912704868974507 0 -0.046490111645317411 -0.035828749858106822 0 -0.046550263325241446 -0.03586177395721498 0 -0.046602900859580659 -0.03587244576207381 0 -0.046602900859580659 -0.03587244576207381 0 -0.046657192990780111 -0.03592043552024108 0 -0.046606459705185552 -0.035912704868974507 0 -0.046657192990780111 -0.03592043552024108 0 -0.046655626765537667 -0.036027989003844546 0 -0.046606459705185552 -0.035912704868974507 0 -0.046562685618315093 -0.035835646325895629 0 -0.046606459705185552 -0.035912704868974507 0 -0.04663389867410065 -0.035913694211385641 0 -0.045403266824818871 -0.033215238270901032 0 -0.043852938312911864 -0.031860042428767804 0 -0.043825603039164801 -0.029728269304256646 0 -0.043827325049198937 -0.030717841050038341 0 -0.045206098847068069 -0.030743743112224137 0 -0.046655626765537667 -0.036027989003844546 0 -0.046606459705185552 -0.035912704868974507 0 -0.04663389867410065 -0.035913694211385641 0 -0.045736426085149683 -0.035691094158823128 0 -0.043852938312911864 -0.031860042428767804 0 -0.046655626765537667 -0.036027989003844546 0 -0.046708996715146868 -0.036182731492724121 0 -0.045992376489078085 -0.036430548341609643 0 -0.039316589506720623 -0.026764070737091882 0 -0.039639069638144432 -0.0280338785963237 0 -0.041291113783547578 -0.027257165529925229 0 -0.043852938312911864 -0.031860042428767804 0 -0.044227799807075689 -0.032552495831277672 0 -0.039639069638144432 -0.0280338785963237 0 -0.041291113783547578 -0.027257165529925229 0 -0.042465377277189152 -0.028221304084783908 0 -0.046541973662120192 -0.035884628411462227 0 -0.046655626765537667 -0.036027989003844546 0 -0.045992376489078085 -0.036430548341609643 0 -0.046541973662120192 -0.035884628411462227 0 -0.046657192990780111 -0.03592043552024108 0 -0.046655626765537667 -0.036027989003844546 0 -0.046541973662120192 -0.035884628411462227 0 -0.045737467823354909 -0.035935065802500575 0 -0.045992376489078085 -0.036430548341609643 0 -0.045737467823354909 -0.035935065802500575 0 -0.045465468251434916 -0.036194018098344723 0 -0.045992376489078085 -0.036430548341609643 0 -0.045071471540668089 -0.035929444805390211 0 -0.045737467823354909 -0.035935065802500575 0 -0.045465468251434916 -0.036194018098344723 0 -0.043291209849437191 -0.027824709754012921 0 -0.042465377277189152 -0.028221304084783908 0 -0.045273069077778151 -0.02839000087901666 0 -0.044227799807075689 -0.032552495831277672 0 -0.044480682881910254 -0.030993573430403376 0 -0.041512323968256826 -0.027015226934625006 0 -0.042562704059765602 -0.027274616934063311 0 -0.042089022821159505 -0.026398013775029646 0 -0.042193179410709339 -0.027181909350312811 0 -0.044480682881910254 -0.030993573430403376 0 -0.045465468251434916 -0.036194018098344723 0 -0.045992376489078085 -0.036430548341609643 0 -0.045056491137992982 -0.036487190841038894 0 -0.040447899439648084 -0.026807776502168142 0 -0.041512323968256826 -0.027015226934625006 0 -0.041081524069224204 -0.026415844207799008 0 -0.040878803506842532 -0.027063783173060945 0 -0.042193179410709339 -0.027181909350312811 0 -0.041291113783547578 -0.027257165529925229 0 -0.043291209849437191 -0.027824709754012921 0 -0.042465377277189152 -0.028221304084783908 0 -0.044367374128948797 -0.035975455306376851 0 -0.042086603330275127 -0.034573167948283835 0 -0.044514448976179295 -0.035796821323214711 0 -0.044789265982060657 -0.036139804989632318 0 -0.044525790960754819 -0.036357541405787133 0 -0.044789265982060657 -0.036139804989632318 0 -0.045056491137992982 -0.036487190841038894 0 -0.044525790960754819 -0.036357541405787133 0 -0.043874376711523437 -0.035538205612520454 0 -0.043759149844938026 -0.035738184677307855 0 -0.043806591397269883 -0.035714573260061278 0 -0.043874376711523437 -0.035538205612520454 0 -0.043806591397269883 -0.035714573260061278 0 -0.043801523433874737 -0.035746119742475858 0 -0.043759149844938026 -0.035738184677307855 0 -0.043806591397269883 -0.035714573260061278 0 -0.043780016377474647 -0.035741554365610211 0 -0.04035858548349066 -0.034437646815949012 0 -0.03954852780694789 -0.034700647521629428 0 -0.043806591397269883 -0.035714573260061278 0 -0.043771000685763006 -0.035737977401081651 0 -0.043801523433874737 -0.035746119742475858 0 -0.03954852780694789 -0.034700647521629428 0 -0.042086603330275127 -0.034573167948283835 0 -0.045071471540668089 -0.035929444805390211 0 -0.045465468251434916 -0.036194018098344723 0 -0.045056491137992982 -0.036487190841038894 0 -0.045071471540668089 -0.035929444805390211 0 -0.044789265982060657 -0.036139804989632318 0 -0.045056491137992982 -0.036487190841038894 0 -0.044480682881910254 -0.030993573430403376 0 -0.042086603330275127 -0.034573167948283835 0 -0.044293766946537493 -0.032040092786958768 0 -0.041028929151291853 -0.032010783783134794 0 -0.041015019167817253 -0.031293844682778259 0 -0.044480682881910254 -0.030993573430403376 0 -0.040356834444641665 -0.030782134688554608 0 -0.042562704059765602 -0.027274616934063311 0 -0.043510107990741356 -0.027048625113010455 0 -0.043512088288695988 -0.027299764366068104 0 -0.042562704059765602 -0.027274616934063311 0 -0.043510107990741356 -0.027048625113010455 0 -0.042954709092162272 -0.025951003707900194 0 -0.036577380932804007 -0.028899550142948385 0 -0.036590900592908454 -0.029548487973933033 0 -0.037370478529069599 -0.030970523055825275 0 -0.03620943816990832 -0.028646839525136622 0 -0.037322111828612378 -0.031190005602471201 0 -0.03620943816990832 -0.028646839525136622 0 -0.038015617148509574 -0.029155839229580236 0 -0.038015946402046447 -0.029640154846948506 0 -0.03926770001289815 -0.031926672110670705 0 -0.038061951949849286 -0.03190667267772504 0 -0.033258788033645133 -0.029146321865209865 0 -0.032668229941236054 -0.028542422274357156 0 -0.032900079159291398 -0.029141569505778349 0 -0.038015617148509574 -0.029155839229580236 0 -0.037322111828612378 -0.031190005602471201 0 -0.038015617148509574 -0.029155839229580236 0 -0.040356834444641665 -0.030782134688554608 0 -0.037322111828612378 -0.031190005602471201 0 -0.040356834444641665 -0.030782134688554608 0 -0.040356834444641665 -0.030782134688554608 0 -0.042086603330275127 -0.034573167948283835 0 -0.039285487437703673 -0.032576040086688261 0 -0.039309032820257724 -0.03368472270277198 0 -0.039809468738944816 -0.033231317382526299 0 -0.040077113507308047 -0.033867850482739062 0 -0.039309032820257724 -0.03368472270277198 0 -0.039809468738944816 -0.033231317382526299 0 -0.040421384877916383 -0.033439060210456006 0 -0.040077113507308047 -0.033867850482739062 0 -0.039809468738944816 -0.033231317382526299 0 -0.040421384877916383 -0.033439060210456006 0 -0.039954059815082987 -0.0325882289522594 0 -0.039809468738944816 -0.033231317382526299 0 -0.039954059815082987 -0.0325882289522594 0 -0.039285487437703673 -0.032576040086688261 0 -0.039809468738944816 -0.033231317382526299 0 -0.03620943816990832 -0.028646839525136622 0 -0.03464955151644921 -0.026881368451524747 0 -0.038015617148509574 -0.029155839229580236 0 -0.040222157369817151 -0.026161766183590559 0 -0.038066816249967654 -0.028656445894657497 0 -0.037014247727699234 -0.026192840466467287 0 -0.036580468262505231 -0.026183570669765253 0 -0.032681526360223694 -0.028540899355220067 0 -0.031991446341629537 -0.02700443698522545 0 -0.032647357692766436 -0.027717651270147352 0 -0.038066816249967654 -0.028656445894657497 0 -0.038071487042591029 -0.028955667451289802 0 -0.036580468262505231 -0.026183570669765253 0 -0.033402521069045364 -0.027304577554931604 0 -0.031991446341629537 -0.02700443698522545 0 -0.032647357692766436 -0.027717651270147352 0 -0.033225440809600375 -0.028137547318700426 0 -0.032668229941236054 -0.028542422274357156 0 -0.032647357692766436 -0.027717651270147352 0 -0.03620943816990832 -0.028646839525136622 0 -0.034100171489809664 -0.027903718820630505 0 -0.042954709092162272 -0.025951003707900194 0 -0.042089022821159505 -0.026398013775029646 0 -0.041938687712972406 -0.025705793000331892 0 -0.042562704059765602 -0.027274616934063311 0 -0.042954709092162272 -0.025951003707900194 0 -0.042089022821159505 -0.026398013775029646 0 -0.040222157369817151 -0.026161766183590559 0 -0.037379229174783576 -0.023491793439011418 0 -0.036580468262505231 -0.026183570669765253 0 -0.03594164590603463 -0.023690534504144233 0 -0.035062765257473781 -0.023368125267448851 0 -0.042954709092162272 -0.025951003707900194 0 -0.041938687712972406 -0.025705793000331892 0 -0.042374997831711655 -0.02482104640841501 0 -0.033198963113015761 -0.026159526660997249 0 -0.031991446341629537 -0.02700443698522545 0 -0.031318085791956163 -0.025446890378903988 0 -0.03464955151644921 -0.026881368451524747 0 -0.031722157322537414 -0.023107744693793685 0 -0.033402521069045364 -0.027304577554931604 0 -0.033198963113015761 -0.026159526660997249 0 -0.031991446341629537 -0.02700443698522545 0 -0.037014247727699234 -0.026192840466467287 0 -0.036580468262505231 -0.026183570669765253 0 -0.03594164590603463 -0.023690534504144233 0 -0.031694798604426574 -0.023368361897023699 0 -0.031722157322537414 -0.023107744693793685 0 -0.04058065578877889 -0.025955299935752272 0 -0.041081524069224204 -0.026415844207799008 0 -0.041246755377969783 -0.025781982267747482 0 -0.041081524069224204 -0.026415844207799008 0 -0.041574331389464252 -0.026268170377717375 0 -0.041246755377969783 -0.025781982267747482 0 -0.040447899439648084 -0.026807776502168142 0 -0.04058065578877889 -0.025955299935752272 0 -0.041081524069224204 -0.026415844207799008 0 -0.041512323968256826 -0.027015226934625006 0 -0.041081524069224204 -0.026415844207799008 0 -0.041574331389464252 -0.026268170377717375 0 -0.041512323968256826 -0.027015226934625006 0 -0.042089022821159505 -0.026398013775029646 0 -0.041574331389464252 -0.026268170377717375 0 -0.042089022821159505 -0.026398013775029646 0 -0.041574331389464252 -0.026268170377717375 0 -0.041938687712972406 -0.025705793000331892 0 -0.041574331389464252 -0.026268170377717375 0 -0.041938687712972406 -0.025705793000331892 0 -0.041246755377969783 -0.025781982267747482 0 -0.041938687712972406 -0.025705793000331892 0 -0.041506595783657556 -0.025077969624459705 0 -0.041246755377969783 -0.025781982267747482 0 -0.041938687712972406 -0.025705793000331892 0 -0.041506595783657556 -0.025077969624459705 0 -0.042374997831711655 -0.02482104640841501 0 -0.041506595783657556 -0.025077969624459705 0 -0.041246755377969783 -0.025781982267747482 0 -0.040743318548177636 -0.025183980459794697 0 -0.04058065578877889 -0.025955299935752272 0 -0.041246755377969783 -0.025781982267747482 0 -0.040743318548177636 -0.025183980459794697 0 -0.040743318548177636 -0.025183980459794697 0 -0.041086142746130622 -0.02427950705754895 0 -0.040164938657153475 -0.024560804428813521 0 -0.041506595783657556 -0.025077969624459705 0 -0.040743318548177636 -0.025183980459794697 0 -0.041086142746130622 -0.02427950705754895 0 -0.041066537230991115 -0.02400521080590242 0 -0.037379229174783576 -0.023491793439011418 0 -0.039562367688801607 -0.02334497179501056 0 -0.039338963660365628 -0.023404148206007981 0 -0.039192239230908345 -0.023180578633377035 0 -0.041506595783657556 -0.025077969624459705 0 -0.041086142746130622 -0.02427950705754895 0 -0.042374997831711655 -0.02482104640841501 0 -0.039562367688801607 -0.02334497179501056 0 -0.039338963660365628 -0.023404148206007981 0 -0.03954567469698976 -0.023456748041841752 0 -0.029322695332510577 -0.020241202380463161 0 -0.029410413725146318 -0.019844036842958247 0 -0.029248218054001855 -0.019664963020676704 0 -0.039338963660365628 -0.023404148206007981 0 -0.03954567469698976 -0.023456748041841752 0 -0.039469192789546255 -0.023515900541282622 0 -0.034166514345134819 -0.021591957749078582 0 -0.034179861531583783 -0.020918540244120907 0 -0.03954567469698976 -0.023456748041841752 0 -0.039592669548233789 -0.023475300083012959 0 -0.039557610279980469 -0.023478562174925097 0 -0.03954567469698976 -0.023456748041841752 0 -0.039599375006855689 -0.023503144826166021 0 -0.039592669548233789 -0.023475300083012959 0 -0.039562367688801607 -0.02334497179501056 0 -0.03954567469698976 -0.023456748041841752 0 -0.039599375006855689 -0.023503144826166021 0 -0.030253886058611287 -0.02055060631621243 0 -0.029847270603010425 -0.020380902331753558 0 -0.029647231154600582 -0.020796750238466919 0 -0.030378950239313685 -0.021104983801636387 0 -0.030253886058611287 -0.02055060631621243 0 -0.029647231154600582 -0.020796750238466919 0 -0.034166514345134819 -0.021591957749078582 0 -0.037379229174783576 -0.023491793439011418 0 -0.029322695332510577 -0.020241202380463161 0 -0.029941369304670184 -0.021421690308062961 0 -0.029943445178093189 -0.020557540197759613 0 -0.029847270603010425 -0.020380902331753558 0 -0.029647231154600582 -0.020796750238466919 0 -0.029466170805644034 -0.020288745314492783 0 -0.031722157322537414 -0.023107744693793685 0 -0.029585890265668078 -0.020088324222750833 0 -0.031722157322537414 -0.023107744693793685 0 -0.037379229174783576 -0.023491793439011418 0 -0.030442039999076721 -0.021605206944580804 0 -0.029941369304670184 -0.021421690308062961 0 -0.029943445178093189 -0.020557540197759613 0 -0.029322695332510577 -0.020241202380463161 0 -0.029410413725146318 -0.019844036842958247 0 -0.029943445178093189 -0.020557540197759613 0 -0.029517097053389736 -0.020046164525778346 0 -0.029585890265668078 -0.020088324222750833 0 -0.029410413725146318 -0.019844036842958247 0 -0.029622008817071412 -0.019868872512278191 0 -0.029430390422607054 -0.019706753302212242 0 -0.029410413725146318 -0.019844036842958247 0 -0.029466170805644034 -0.020288745314492783 0 -0.029622008817071412 -0.019868872512278191 0 -0.029466170805644034 -0.020288745314492783 0 -0.029622008817071412 -0.019868872512278191 0 -0.02973567166492419 -0.020142412159962219 0 -0.029847270603010425 -0.020380902331753558 0 -0.029466170805644034 -0.020288745314492783 0 -0.02973567166492419 -0.020142412159962219 0 -0.029847270603010425 -0.020380902331753558 0 -0.02973567166492419 -0.020142412159962219 0 -0.030014387039918395 -0.020030549871705619 0 -0.029622008817071412 -0.019868872512278191 0 -0.02973567166492419 -0.020142412159962219 0 -0.030014387039918395 -0.020030549871705619 0 -0.029622008817071412 -0.019868872512278191 0 -0.030014387039918395 -0.020030549871705619 0 -0.029951517742870262 -0.01971317897196935 0 -0.030310272831275187 -0.019809365110032437 0 -0.030014387039918395 -0.020030549871705619 0 -0.029951517742870262 -0.01971317897196935 0 -0.030253886058611287 -0.02055060631621243 0 -0.029847270603010425 -0.020380902331753558 0 -0.030014387039918395 -0.020030549871705619 0 -0.03047429704380443 -0.020198375355572527 0 -0.030253886058611287 -0.02055060631621243 0 -0.030014387039918395 -0.020030549871705619 0 -0.029703522767859182 -0.019189870551827252 0 -0.029400229170999784 -0.019439180753915781 0 -0.030308327189719559 -0.019367128731318503 0 -0.029951517742870262 -0.01971317897196935 0 -0.029494906186273425 -0.019481033669791724 0 -0.028816617597492641 -0.019062068777582153 0 -0.029494906186273425 -0.019481033669791724 0 -0.029456549288984508 -0.019405116315089347 0 -0.030310272831275187 -0.019809365110032437 0 -0.030308327189719559 -0.019367128731318503 0 -0.029951517742870262 -0.01971317897196935 0 -0.029494906186273425 -0.019481033669791724 0 -0.029456549288984508 -0.019405116315089347 0 -0.029248218054001855 -0.019664963020676704 0 -0.029979291898911176 -0.017366215500826499 0 -0.031537746778179145 -0.01683775559774579 0 -0.030884343380930823 -0.01742347971058562 0 -0.028962222193826732 -0.018087270235636884 0 -0.034179861531583783 -0.020918540244120907 0 -0.029622008817071412 -0.019868872512278191 0 -0.029951517742870262 -0.01971317897196935 0 -0.029494906186273425 -0.019481033669791724 0 -0.029622008817071412 -0.019868872512278191 0 -0.029494906186273425 -0.019481033669791724 0 -0.029430390422607054 -0.019706753302212242 0 -0.029979291898911176 -0.017366215500826499 0 -0.030410915566307276 -0.017777396959727815 0 -0.030884343380930823 -0.01742347971058562 0 -0.030410915566307276 -0.017777396959727815 0 -0.031151838218865271 -0.018000857925518313 0 -0.030574800701055563 -0.018371512899570491 0 -0.030410915566307276 -0.017777396959727815 0 -0.029951211269983888 -0.018093311913416132 0 -0.030574800701055563 -0.018371512899570491 0 -0.029979291898911176 -0.017366215500826499 0 -0.030410915566307276 -0.017777396959727815 0 -0.029951211269983888 -0.018093311913416132 0 -0.028672089980444876 -0.018709192149805896 0 -0.028962222193826732 -0.018087270235636884 0 -0.028466959189705529 -0.018075054570046985 0 -0.029979291898911176 -0.017366215500826499 0 -0.029352911645862633 -0.018140995264217245 0 -0.028816617597492641 -0.019062068777582153 0 -0.028456000244500981 -0.019297832411023841 0 -0.029456549288984508 -0.019405116315089347 0 -0.029979291898911176 -0.017366215500826499 0 -0.029951211269983888 -0.018093311913416132 0 -0.029352911645862633 -0.018140995264217245 0 -0.039582512814853477 -0.023433490829739605 0 -0.039569133102700819 -0.023446696170867577 0 -0.039576248402982815 -0.023370615834469831 0 -0.039582512814853477 -0.023433490829739605 0 -0.039592669548233789 -0.023475300083012959 0 -0.039557610279980469 -0.023478562174925097 0 -0.039582512814853477 -0.023433490829739605 0 -0.039592669548233789 -0.023475300083012959 0 -0.039599827059472029 -0.023445085320610442 0 -0.03954567469698976 -0.023456748041841752 0 -0.039557610279980469 -0.023478562174925097 0 -0.039469192789546255 -0.023515900541282622 0 -0.039582512814853477 -0.023433490829739605 0 -0.039557610279980469 -0.023478562174925097 0 -0.039569133102700819 -0.023446696170867577 0 -0.038467048438228187 -0.021334540608236852 0 -0.034179861531583783 -0.020918540244120907 0 -0.029494906186273425 -0.019481033669791724 0 -0.029430390422607054 -0.019706753302212242 0 -0.029248218054001855 -0.019664963020676704 0 -0.029410413725146318 -0.019844036842958247 0 -0.029430390422607054 -0.019706753302212242 0 -0.029248218054001855 -0.019664963020676704 0 -0.031537746778179145 -0.01683775559774579 0 -0.031151838218865271 -0.018000857925518313 0 -0.032296425961315725 -0.018186104744813178 0 -0.031537746778179145 -0.01683775559774579 0 -0.030884343380930823 -0.01742347971058562 0 -0.031151838218865271 -0.018000857925518313 0 -0.030410915566307276 -0.017777396959727815 0 -0.030884343380930823 -0.01742347971058562 0 -0.031151838218865271 -0.018000857925518313 0 -0.034179861531583783 -0.020918540244120907 0 -0.036103570015164996 -0.020829192898437668 0 -0.039576248402982815 -0.023370615834469831 0 -0.039620164329915969 -0.02335007611268718 0 -0.039619879010691722 -0.023392610189737349 0 -0.039582512814853477 -0.023433490829739605 0 -0.039576248402982815 -0.023370615834469831 0 -0.039620164329915969 -0.02335007611268718 0 -0.039620164329915969 -0.02335007611268718 0 -0.03975523029857448 -0.023323852682213812 0 -0.03978761197784194 -0.023369701944426995 0 -0.039620164329915969 -0.02335007611268718 0 -0.039619879010691722 -0.023392610189737349 0 -0.039691273700479819 -0.02339098410351691 0 -0.039620164329915969 -0.02335007611268718 0 -0.03978761197784194 -0.023369701944426995 0 -0.039691273700479819 -0.02339098410351691 0 -0.039620164329915969 -0.02335007611268718 0 -0.039600445626656489 -0.023492940671303787 0 -0.039257403678286645 -0.023551012804394603 0 -0.03975523029857448 -0.023323852682213812 0 -0.039782039230338337 -0.023298947503721038 0 -0.039785447129450216 -0.023311739588959868 0 -0.039669759774650939 -0.023449642969490293 0 -0.039172129930137772 -0.02318403842858046 0 -0.039620164329915969 -0.02335007611268718 0 -0.03975523029857448 -0.023323852682213812 0 -0.039782039230338337 -0.023298947503721038 0 -0.039582512814853477 -0.023433490829739605 0 -0.039620164329915969 -0.02335007611268718 0 -0.039599827059472029 -0.023445085320610442 0 -0.039620164329915969 -0.02335007611268718 0 -0.039600445626656489 -0.023492940671303787 0 -0.039599827059472029 -0.023445085320610442 0 -0.039592669548233789 -0.023475300083012959 0 -0.039600445626656489 -0.023492940671303787 0 -0.039599827059472029 -0.023445085320610442 0 -0.039562367688801607 -0.02334497179501056 0 -0.039599375006855689 -0.023503144826166021 0 -0.0396111766974033 -0.023675244592486218 0 -0.041066537230991115 -0.02400521080590242 0 -0.039316704975374879 -0.023566917656343861 0 -0.039599375006855689 -0.023503144826166021 0 -0.039600445626656489 -0.023492940671303787 0 -0.0396111766974033 -0.023675244592486218 0 -0.039599375006855689 -0.023503144826166021 0 -0.039592669548233789 -0.023475300083012959 0 -0.039600445626656489 -0.023492940671303787 0 -0.0396111766974033 -0.023675244592486218 0 -0.039257403678286645 -0.023551012804394603 0 -0.039413536709541924 -0.024478778310744166 0 -0.039600445626656489 -0.023492940671303787 0 -0.0396111766974033 -0.023675244592486218 0 -0.039257403678286645 -0.023551012804394603 0 -0.039391384380611696 -0.025429387272560357 0 -0.039413536709541924 -0.024478778310744166 0 -0.038597156044791518 -0.024866213946214709 0 -0.039172129930137772 -0.02318403842858046 0 -0.042301095679442666 -0.025949633339955879 0 -0.039257403678286645 -0.023551012804394603 0 -0.039413536709541924 -0.024478778310744166 0 -0.038597156044791518 -0.024866213946214709 0 -0.041086142746130622 -0.02427950705754895 0 -0.0396111766974033 -0.023675244592486218 0 -0.040164938657153475 -0.024560804428813521 0 -0.04000512918236284 -0.025107286196347885 0 -0.039413536709541924 -0.024478778310744166 0 -0.040164938657153475 -0.024560804428813521 0 -0.04000512918236284 -0.025107286196347885 0 -0.040743318548177636 -0.025183980459794697 0 -0.040164938657153475 -0.024560804428813521 0 -0.0396111766974033 -0.023675244592486218 0 -0.039413536709541924 -0.024478778310744166 0 -0.040164938657153475 -0.024560804428813521 0 -0.046118906464257002 -0.028420084352467758 0 -0.044999978087418915 -0.027393487098344532 0 -0.046869857468640454 -0.026170618115578227 0 -0.046118906464257002 -0.028420084352467758 0 -0.047513390475796766 -0.027999664536806423 0 -0.046869857468640454 -0.026170618115578227 0 -0.042301095679442666 -0.025949633339955879 0 -0.043450308303104361 -0.024776577743798708 0 -0.039782039230338337 -0.023298947503721038 0 -0.039786730661373462 -0.023321520906445237 0 -0.039785447129450216 -0.023311739588959868 0 -0.039782039230338337 -0.023298947503721038 0 -0.039824867497744991 -0.023410108168259773 0 -0.039786730661373462 -0.023321520906445237 0 -0.044999978087418915 -0.027393487098344532 0 -0.046869857468640454 -0.026170618115578227 0 -0.044999977018215183 -0.02510062966650883 0 -0.04622509785066034 -0.024337785320427491 0 -0.044999977018215183 -0.02510062966650883 0 -0.044999972885754858 -0.022807841434578223 0 -0.046869857468640454 -0.026170618115578227 0 -0.04622509785066034 -0.024337785320427491 0 -0.044999977018215183 -0.02510062966650883 0 -0.03975523029857448 -0.023323852682213812 0 -0.039838081563955574 -0.023320566214264957 0 -0.03978761197784194 -0.023369701944426995 0 -0.043450308303104361 -0.024776577743798708 0 -0.042908549317602275 -0.02375340725675211 0 -0.039786730661373462 -0.023321520906445237 0 -0.039838081563955574 -0.023320566214264957 0 -0.039785447129450216 -0.023311739588959868 0 -0.03975523029857448 -0.023323852682213812 0 -0.039838081563955574 -0.023320566214264957 0 -0.039785447129450216 -0.023311739588959868 0 -0.042908549317602275 -0.02375340725675211 0 -0.044031346616306755 -0.023048428448863827 0 -0.04622509785066034 -0.024337785320427491 0 -0.044999972885754858 -0.022807841434578223 0 -0.045574243666976384 -0.022503970946166151 0 -0.039838081563955574 -0.023320566214264957 0 -0.03978761197784194 -0.023369701944426995 0 -0.039906567588685042 -0.023398164669060587 0 -0.045000001303280232 -0.022807506809812521 0 -0.044031346616306755 -0.023048428448863827 0 -0.045537272728021806 -0.02240344148114445 0 -0.045283137044792449 -0.021680063785787455 0 -0.047024412997438057 -0.021546740272912115 0 -0.044999965798012263 -0.022807693313362774 0 -0.045283137044792449 -0.021680063785787455 0 -0.044999916965245051 -0.020137010555545461 0 -0.044031346616306755 -0.023048428448863827 0 -0.043374819218506666 -0.022569783907130707 0 -0.044031346616306755 -0.023048428448863827 0 -0.044687451520016311 -0.022149859486718361 0 -0.044999965798012263 -0.022807693313362774 0 -0.045582488136795607 -0.022494462670390944 0 -0.045283137044792449 -0.021680063785787455 0 -0.045283137044792449 -0.021680063785787455 0 -0.047024412997438057 -0.021546740272912115 0 -0.046257068638595925 -0.02041826184573366 0 -0.03978761197784194 -0.023369701944426995 0 -0.039906567588685042 -0.023398164669060587 0 -0.039794900847736639 -0.02343262996276509 0 -0.03978761197784194 -0.023369701944426995 0 -0.039794900847736639 -0.02343262996276509 0 -0.039691273700479819 -0.02339098410351691 0 -0.047024412997438057 -0.021546740272912115 0 -0.047484579586025095 -0.020184534261657665 0 -0.046257068638595925 -0.02041826184573366 0 -0.047484579586025095 -0.020184534261657665 0 -0.046257068638595925 -0.02041826184573366 0 -0.046879417094189725 -0.019510032266461679 0 -0.045283137044792449 -0.021680063785787455 0 -0.044999916965245051 -0.020137010555545461 0 -0.046257068638595925 -0.02041826184573366 0 -0.044999916965245051 -0.020137010555545461 0 -0.046257068638595925 -0.02041826184573366 0 -0.045844814691087123 -0.019115648184921504 0 -0.039619879010691722 -0.023392610189737349 0 -0.039650456379006563 -0.023416606650475003 0 -0.039615930634956865 -0.023428659884864596 0 -0.039576248402982815 -0.023370615834469831 0 -0.039619879010691722 -0.023392610189737349 0 -0.039615930634956865 -0.023428659884864596 0 -0.036103570015164996 -0.020829192898437668 0 -0.036653499288892451 -0.020628593321265595 0 -0.039619879010691722 -0.023392610189737349 0 -0.039650456379006563 -0.023416606650475003 0 -0.039663928914806065 -0.023403940124138243 0 -0.039794900847736639 -0.02343262996276509 0 -0.039663928914806065 -0.023403940124138243 0 -0.039680564035515453 -0.023428682520440159 0 -0.043374819218506666 -0.022569783907130707 0 -0.042589986098699649 -0.020818520659667324 0 -0.039794900847736639 -0.02343262996276509 0 -0.039663928914806065 -0.023403940124138243 0 -0.039691273700479819 -0.02339098410351691 0 -0.039794900847736639 -0.02343262996276509 0 -0.039679348457849491 -0.023433941845911195 0 -0.039680564035515453 -0.023428682520440159 0 -0.039650456379006563 -0.023416606650475003 0 -0.039663928914806065 -0.023403940124138243 0 -0.039680564035515453 -0.023428682520440159 0 -0.039619879010691722 -0.023392610189737349 0 -0.039663928914806065 -0.023403940124138243 0 -0.039691273700479819 -0.02339098410351691 0 -0.047024412997438057 -0.021546740272912115 0 -0.047484579586025095 -0.020184534261657665 0 -0.048493527245470937 -0.020705382483901219 0 -0.042589986098699649 -0.020818520659667324 0 -0.040944006213478226 -0.019623584393793757 0 -0.047484579586025095 -0.020184534261657665 0 -0.048493527245470937 -0.020705382483901219 0 -0.048797653901216834 -0.019245562991284926 0 -0.042589986098699649 -0.020818520659667324 0 -0.042437384997704553 -0.021175530287056266 0 -0.039650456379006563 -0.023416606650475003 0 -0.039675943125671555 -0.023430734524588472 0 -0.039680564035515453 -0.023428682520440159 0 -0.033074978779726726 -0.019504555328583095 0 -0.032595300793351108 -0.019740020543530277 0 -0.032195628252159637 -0.019162589306794538 0 -0.040453920536206327 -0.020380883967566089 0 -0.040373885465937752 -0.020414998674445482 0 -0.040422575615688176 -0.02048914207652083 0 -0.042589986098699649 -0.020818520659667324 0 -0.036653499288892451 -0.020628593321265595 0 -0.039650456379006563 -0.023416606650475003 0 -0.039675943125671555 -0.023430734524588472 0 -0.039615930634956865 -0.023428659884864596 0 -0.036653499288892451 -0.020628593321265595 0 -0.040944006213478226 -0.019623584393793757 0 -0.036653499288892451 -0.020628593321265595 0 -0.03299573789760641 -0.020716081357053093 0 -0.033139175149219123 -0.019461801290420931 0 -0.032595300793351108 -0.019740020543530277 0 -0.032846368571602731 -0.02012202676052121 0 -0.032846368571602731 -0.02012202676052121 0 -0.033515096842568218 -0.020127532392743865 0 -0.03266301760289185 -0.020753759719432042 0 -0.033139175149219123 -0.019461801290420931 0 -0.032846368571602731 -0.02012202676052121 0 -0.033515096842568218 -0.020127532392743865 0 -0.047484579586025095 -0.020184534261657665 0 -0.048797653901216834 -0.019245562991284926 0 -0.047503179473295618 -0.018913757239867886 0 -0.048797653901216834 -0.019245562991284926 0 -0.047503179473295618 -0.018913757239867886 0 -0.047602456975700064 -0.017055460925912352 0 -0.040849284759959338 -0.018194321310207963 0 -0.040752360858045983 -0.017933059614823645 0 -0.04076703287725713 -0.01792847960874103 0 -0.040849284759959338 -0.018194321310207963 0 -0.04076703287725713 -0.01792847960874103 0 -0.040887693987785932 -0.017943625525535817 0 -0.040944006213478226 -0.019623584393793757 0 -0.044632152523339241 -0.017560706067287886 0 -0.03266301760289185 -0.020753759719432042 0 -0.033173953074638274 -0.021658203337947188 0 -0.03217528997063103 -0.021671684801879931 0 -0.033515096842568218 -0.020127532392743865 0 -0.03266301760289185 -0.020753759719432042 0 -0.033173953074638274 -0.021658203337947188 0 -0.040944006213478226 -0.019623584393793757 0 -0.036844959692786963 -0.01904967573167347 0 -0.044999916965245051 -0.020137010555545461 0 -0.045844814691087123 -0.019115648184921504 0 -0.044999945226019987 -0.017466473048341348 0 -0.045844814691087123 -0.019115648184921504 0 -0.046759504616817903 -0.018298259760000473 0 -0.045838210479335117 -0.017868542906686727 0 -0.046257068638595925 -0.02041826184573366 0 -0.045844814691087123 -0.019115648184921504 0 -0.046879417094189725 -0.019510032266461679 0 -0.047484579586025095 -0.020184534261657665 0 -0.046879417094189725 -0.019510032266461679 0 -0.047503179473295618 -0.018913757239867886 0 -0.046879417094189725 -0.019510032266461679 0 -0.047503179473295618 -0.018913757239867886 0 -0.046759504616817903 -0.018298259760000473 0 -0.045844814691087123 -0.019115648184921504 0 -0.046879417094189725 -0.019510032266461679 0 -0.046759504616817903 -0.018298259760000473 0 -0.047503179473295618 -0.018913757239867886 0 -0.046759504616817903 -0.018298259760000473 0 -0.047602456975700064 -0.017055460925912352 0 -0.046759504616817903 -0.018298259760000473 0 -0.046588642394633464 -0.017344253684031617 0 -0.045838210479335117 -0.017868542906686727 0 -0.046759504616817903 -0.018298259760000473 0 -0.046588642394633464 -0.017344253684031617 0 -0.047602456975700064 -0.017055460925912352 0 -0.044999945226019987 -0.017466473048341348 0 -0.045838210479335117 -0.017868542906686727 0 -0.046223937601044381 -0.016164027386124824 0 -0.045844814691087123 -0.019115648184921504 0 -0.044999945226019987 -0.017466473048341348 0 -0.045838210479335117 -0.017868542906686727 0 -0.045853248858147393 -0.017800672682750263 0 -0.046277573961922128 -0.016095753930826358 0 -0.046588642394633464 -0.017344253684031617 0 -0.045838210479335117 -0.017868542906686727 0 -0.046148370382407232 -0.016457032622093613 0 -0.044999945226019987 -0.017466473048341348 0 -0.046223937601044381 -0.016164027386124824 0 -0.045000002529012484 -0.014795541579559382 0 -0.046223937601044381 -0.016164027386124824 0 -0.045000002529012484 -0.014795541579559382 0 -0.046582845603596788 -0.014498287728644662 0 -0.045000002529012484 -0.014795541579559382 0 -0.046582845603596788 -0.014498287728644662 0 -0.045925605744085204 -0.013288868051957886 0 -0.040817324537304835 -0.017917799188888386 0 -0.040761714107119158 -0.017942674952461109 0 -0.040775741935691404 -0.0179252177191607 0 -0.046277573961922128 -0.016095753930826358 0 -0.044664285234148705 -0.015733373659125065 0 -0.044664285234148705 -0.015733373659125065 0 -0.044632152523339241 -0.017560706067287886 0 -0.046148370382407232 -0.016457032622093613 0 -0.04643964971429225 -0.015018732855947932 0 -0.047602456975700064 -0.017055460925912352 0 -0.046588642394633464 -0.017344253684031617 0 -0.046148370382407232 -0.016457032622093613 0 -0.047602456975700064 -0.017055460925912352 0 -0.040817324537304835 -0.017917799188888386 0 -0.040752360858045983 -0.017933059614823645 0 -0.040775741935691404 -0.0179252177191607 0 -0.040752360858045983 -0.017933059614823645 0 -0.040761732861763614 -0.017926416181230677 0 -0.04076703287725713 -0.01792847960874103 0 -0.042072102576316987 -0.017926180438776675 0 -0.036844959692786963 -0.01904967573167347 0 -0.04076703287725713 -0.01792847960874103 0 -0.040739183125416703 -0.017927013083984998 0 -0.040703465825321715 -0.017909751702190224 0 -0.040752360858045983 -0.017933059614823645 0 -0.040761732861763614 -0.017926416181230677 0 -0.040775741935691404 -0.0179252177191607 0 -0.040761732861763614 -0.017926416181230677 0 -0.04076703287725713 -0.01792847960874103 0 -0.040739183125416703 -0.017927013083984998 0 -0.040761732861763614 -0.017926416181230677 0 -0.040739183125416703 -0.017927013083984998 0 -0.040775741935691404 -0.0179252177191607 0 -0.03549519844371711 -0.017180785183380929 0 -0.034075829023459257 -0.018254958146465917 0 -0.032761276024456477 -0.017197616842177264 0 -0.036844959692786963 -0.01904967573167347 0 -0.03225104976540534 -0.019431418172474083 0 -0.03549519844371711 -0.017180785183380929 0 -0.034075829023459257 -0.018254958146465917 0 -0.034868989833740809 -0.020049299956103085 0 -0.036844959692786963 -0.01904967573167347 0 -0.037018577822496443 -0.017074375873698724 0 -0.040739183125416703 -0.017927013083984998 0 -0.040703465825321715 -0.017909751702190224 0 -0.040694981325434587 -0.017937569459982535 0 -0.037018577822496443 -0.017074375873698724 0 -0.041725478460694562 -0.016758078530092604 0 -0.037018577822496443 -0.017074375873698724 0 -0.034686850237350561 -0.0175764851340896 0 -0.041050359116935803 -0.01484487334275587 0 -0.041719717279018777 -0.015199627162435413 0 -0.040895079249597198 -0.015638490554537268 0 -0.040739183125416703 -0.017927013083984998 0 -0.040761714107119158 -0.017942674952461109 0 -0.040775741935691404 -0.0179252177191607 0 -0.040739183125416703 -0.017927013083984998 0 -0.040694981325434587 -0.017937569459982535 0 -0.040761714107119158 -0.017942674952461109 0 -0.041719717279018777 -0.015199627162435413 0 -0.041868358888292156 -0.015742798953363571 0 -0.040895079249597198 -0.015638490554537268 0 -0.041719717279018777 -0.015199627162435413 0 -0.041868358888292156 -0.015742798953363571 0 -0.042379529183110089 -0.015560611047798519 0 -0.040895079249597198 -0.015638490554537268 0 -0.041517165078227863 -0.01629324465927515 0 -0.040735657479022989 -0.016420668563710095 0 -0.041868358888292156 -0.015742798953363571 0 -0.040895079249597198 -0.015638490554537268 0 -0.041517165078227863 -0.01629324465927515 0 -0.041868358888292156 -0.015742798953363571 0 -0.041517165078227863 -0.01629324465927515 0 -0.042293119463168508 -0.016155126112896254 0 -0.046142936979645749 -0.013542762565641554 0 -0.045026915658297251 -0.013248249956088771 0 -0.045026915658297251 -0.013248249956088771 0 -0.042214271689305034 -0.016166345793565386 0 -0.041868358888292156 -0.015742798953363571 0 -0.042293119463168508 -0.016155126112896254 0 -0.042379529183110089 -0.015560611047798519 0 -0.044939028995323337 -0.013779987695873458 0 -0.043906146619317764 -0.013958759105145652 0 -0.044802384944641414 -0.014597439461014945 0 -0.045026915658297251 -0.013248249956088771 0 -0.044964559892340751 -0.012560000846926716 0 -0.047035757162007537 -0.01161584444870906 0 -0.045221583972984168 -0.012022753881958347 0 -0.04603399088379153 -0.010547091007375666 0 -0.044999928461040763 -0.011587745576482273 0 -0.045221583972984168 -0.012022753881958347 0 -0.04603399088379153 -0.010547091007375666 0 -0.044999999340879088 -0.011588078928769894 0 -0.044999998612699037 -0.012124828973759293 0 -0.045267634021532249 -0.012077787470739686 0 -0.044999647915874248 -0.011588894257458888 0 -0.044964559892340751 -0.012560000846926716 0 -0.044999986147665115 -0.012124866552344862 0 -0.045267202794008164 -0.012078497940285402 0 -0.045925605744085204 -0.013288868051957886 0 -0.045000131158254963 -0.012126171346697927 0 -0.044964559892340751 -0.012560000846926716 0 -0.045000002529012484 -0.014795541579559382 0 -0.044999986147665115 -0.012124866552344862 0 -0.045925605744085204 -0.013288868051957886 0 -0.043906146619317764 -0.013958759105145652 0 -0.044258907712425299 -0.01461933049004111 0 -0.044802384944641414 -0.014597439461014945 0 -0.044964559892340751 -0.012560000846926716 0 -0.045062498925878519 -0.013959484838116345 0 -0.044664285234148705 -0.015733373659125065 0 -0.045062498925878519 -0.013959484838116345 0 -0.041725478460694562 -0.016758078530092604 0 -0.042214271689305034 -0.016166345793565386 0 -0.040817324537304835 -0.017917799188888386 0 -0.040761714107119158 -0.017942674952461109 0 -0.040813996058985044 -0.017939245679013335 0 -0.044615944731016516 -0.01528378397544277 0 -0.044258907712425299 -0.01461933049004111 0 -0.044802384944641414 -0.014597439461014945 0 -0.044664285234148705 -0.015733373659125065 0 -0.042214271689305034 -0.016166345793565386 0 -0.028183971733232314 -0.018483692173573388 0 -0.028650769757398057 -0.018029124349965651 0 -0.027901633064765525 -0.017793405640045046 0 -0.028183971733232314 -0.018483692173573388 0 -0.028688126007772218 -0.018624043792847374 0 -0.028650769757398057 -0.018029124349965651 0 -0.027846093926921726 -0.017696943984955412 0 -0.027901633064765525 -0.017793405640045046 0 -0.027766738891872152 -0.01771031613383384 0 -0.027846093926921726 -0.017696943984955412 0 -0.027839100662328222 -0.017688389253072225 0 -0.027901633064765525 -0.017793405640045046 0 -0.027879383808375489 -0.018566019498336413 0 -0.027899012170879117 -0.01763781565065984 0 -0.027846093926921726 -0.017696943984955412 0 -0.027878970895085387 -0.017630197917057711 0 -0.027839100662328222 -0.017688389253072225 0 -0.027846093926921726 -0.017696943984955412 0 -0.027878970895085387 -0.017630197917057711 0 -0.027879943225552394 -0.017637753338637582 0 -0.027878970895085387 -0.017630197917057711 0 -0.027839100662328222 -0.017688389253072225 0 -0.027884665769450308 -0.017559957442735499 0 -0.028183971733232314 -0.018483692173573388 0 -0.028688126007772218 -0.018624043792847374 0 -0.028428147374274959 -0.019107446964851529 0 -0.027879383808375489 -0.018566019498336413 0 -0.031360352041304988 -0.015258503466869956 0 -0.028688126007772218 -0.018624043792847374 0 -0.029181486899898339 -0.018479123938218558 0 -0.029004208743277839 -0.019013992057007833 0 -0.029712250789651357 -0.01823335173658882 0 -0.029181486899898339 -0.018479123938218558 0 -0.029607283387857133 -0.018898580260872964 0 -0.034686850237350561 -0.0175764851340896 0 -0.039904477347130915 -0.014275089045809921 0 -0.029181486899898339 -0.018479123938218558 0 -0.029607283387857133 -0.018898580260872964 0 -0.029004208743277839 -0.019013992057007833 0 -0.029712250789651357 -0.01823335173658882 0 -0.029181486899898339 -0.018479123938218558 0 -0.029339469081062344 -0.017806696415378461 0 -0.028688126007772218 -0.018624043792847374 0 -0.029181486899898339 -0.018479123938218558 0 -0.028650769757398057 -0.018029124349965651 0 -0.029181486899898339 -0.018479123938218558 0 -0.028650769757398057 -0.018029124349965651 0 -0.029339469081062344 -0.017806696415378461 0 -0.028650769757398057 -0.018029124349965651 0 -0.028887774298284312 -0.017516577604248788 0 -0.028346780388070619 -0.017524306128031412 0 -0.028650769757398057 -0.018029124349965651 0 -0.028887774298284312 -0.017516577604248788 0 -0.029339469081062344 -0.017806696415378461 0 -0.029870696577611135 -0.017550041854023979 0 -0.029712250789651357 -0.01823335173658882 0 -0.029339469081062344 -0.017806696415378461 0 -0.028887774298284312 -0.017516577604248788 0 -0.029339469081062344 -0.017806696415378461 0 -0.029337976858569797 -0.017281111278849418 0 -0.029870696577611135 -0.017550041854023979 0 -0.029339469081062344 -0.017806696415378461 0 -0.029337976858569797 -0.017281111278849418 0 -0.03244412906574886 -0.018646632613298873 0 -0.032761276024456477 -0.017197616842177264 0 -0.030004135091702414 -0.017231793145398022 0 -0.034075829023459257 -0.018254958146465917 0 -0.034868989833740809 -0.020049299956103085 0 -0.03244412906574886 -0.018646632613298873 0 -0.037018577822496443 -0.017074375873698724 0 -0.030334591930822285 -0.017653980783907598 0 -0.034075829023459257 -0.018254958146465917 0 -0.03244412906574886 -0.018646632613298873 0 -0.032761276024456477 -0.017197616842177264 0 -0.028887774298284312 -0.017516577604248788 0 -0.029337976858569797 -0.017281111278849418 0 -0.028788257494547834 -0.017039807888603785 0 -0.03225104976540534 -0.019431418172474083 0 -0.029385704700065345 -0.018447687508082625 0 -0.028887774298284312 -0.017516577604248788 0 -0.028788257494547834 -0.017039807888603785 0 -0.028346780388070619 -0.017524306128031412 0 -0.030334591930822285 -0.017653980783907598 0 -0.029385704700065345 -0.018447687508082625 0 -0.028788257494547834 -0.017039807888603785 0 -0.028346780388070619 -0.017524306128031412 0 -0.028028093159151005 -0.017207510755199214 0 -0.029385704700065345 -0.018447687508082625 0 -0.027197057471515265 -0.017388273892469708 0 -0.028650769757398057 -0.018029124349965651 0 -0.028346780388070619 -0.017524306128031412 0 -0.027901633064765525 -0.017793405640045046 0 -0.027901633064765525 -0.017793405640045046 0 -0.027746250176974435 -0.017598569056942747 0 -0.027658040956696495 -0.017672216726462422 0 -0.028346780388070619 -0.017524306128031412 0 -0.027901633064765525 -0.017793405640045046 0 -0.027746250176974435 -0.017598569056942747 0 -0.027746250176974435 -0.017598569056942747 0 -0.028028093159151005 -0.017207510755199214 0 -0.027438380972779761 -0.017636929008869498 0 -0.028346780388070619 -0.017524306128031412 0 -0.027746250176974435 -0.017598569056942747 0 -0.028028093159151005 -0.017207510755199214 0 -0.027197057471515265 -0.017388273892469708 0 -0.027611069411104996 -0.017610018456103018 0 -0.027012317199998588 -0.017717213107728693 0 -0.026993871294092909 -0.017940550038186783 0 -0.027438380972779761 -0.017636929008869498 0 -0.031178633467763971 -0.021669838285323095 0 -0.029874597589834177 -0.020881525600830217 0 -0.030882317269454222 -0.020767030012285283 0 -0.026773396874480826 -0.017739211452943597 0 -0.027012317199998588 -0.017717213107728693 0 -0.026993871294092909 -0.017940550038186783 0 -0.029385704700065345 -0.018447687508082625 0 -0.028414228934324798 -0.019583624915906313 0 -0.029874597589834177 -0.020881525600830217 0 -0.030340873653317106 -0.020033572909393903 0 -0.030882317269454222 -0.020767030012285283 0 -0.029874597589834177 -0.020881525600830217 0 -0.030340873653317106 -0.020033572909393903 0 -0.029584347658511364 -0.020047324470436431 0 -0.028414228934324798 -0.019583624915906313 0 -0.027956827739612569 -0.019128838349465566 0 -0.029874597589834177 -0.020881525600830217 0 -0.029584347658511364 -0.020047324470436431 0 -0.028633801793142333 -0.020028349857001471 0 -0.03217528997063103 -0.021671684801879931 0 -0.031178633467763971 -0.021669838285323095 0 -0.031734056840922273 -0.0208998561088952 0 -0.03266301760289185 -0.020753759719432042 0 -0.03217528997063103 -0.021671684801879931 0 -0.031734056840922273 -0.0208998561088952 0 -0.031178633467763971 -0.021669838285323095 0 -0.031734056840922273 -0.0208998561088952 0 -0.030882317269454222 -0.020767030012285283 0 -0.030340873653317106 -0.020033572909393903 0 -0.031312778511727979 -0.020269107169602844 0 -0.031065300051594309 -0.019686092572231629 0 -0.030340873653317106 -0.020033572909393903 0 -0.030882317269454222 -0.020767030012285283 0 -0.031312778511727979 -0.020269107169602844 0 -0.031312778511727979 -0.020269107169602844 0 -0.031931612742159006 -0.019729438140428671 0 -0.031065300051594309 -0.019686092572231629 0 -0.031734056840922273 -0.0208998561088952 0 -0.030882317269454222 -0.020767030012285283 0 -0.031312778511727979 -0.020269107169602844 0 -0.03266301760289185 -0.020753759719432042 0 -0.031734056840922273 -0.0208998561088952 0 -0.032202365543191211 -0.020284536482822423 0 -0.031734056840922273 -0.0208998561088952 0 -0.031312778511727979 -0.020269107169602844 0 -0.032202365543191211 -0.020284536482822423 0 -0.031312778511727979 -0.020269107169602844 0 -0.032202365543191211 -0.020284536482822423 0 -0.031931612742159006 -0.019729438140428671 0 -0.032595300793351108 -0.019740020543530277 0 -0.032846368571602731 -0.02012202676052121 0 -0.032202365543191211 -0.020284536482822423 0 -0.032595300793351108 -0.019740020543530277 0 -0.032202365543191211 -0.020284536482822423 0 -0.031931612742159006 -0.019729438140428671 0 -0.032846368571602731 -0.02012202676052121 0 -0.03266301760289185 -0.020753759719432042 0 -0.032202365543191211 -0.020284536482822423 0 -0.032595300793351108 -0.019740020543530277 0 -0.032195628252159637 -0.019162589306794538 0 -0.031931612742159006 -0.019729438140428671 0 -0.032195628252159637 -0.019162589306794538 0 -0.031537324827098666 -0.019304147356274042 0 -0.031418564122508881 -0.018682605285330559 0 -0.032195628252159637 -0.019162589306794538 0 -0.031931612742159006 -0.019729438140428671 0 -0.031537324827098666 -0.019304147356274042 0 -0.031537324827098666 -0.019304147356274042 0 -0.031418564122508881 -0.018682605285330559 0 -0.030618523304975501 -0.019149051730241111 0 -0.031537324827098666 -0.019304147356274042 0 -0.031065300051594309 -0.019686092572231629 0 -0.030618523304975501 -0.019149051730241111 0 -0.031931612742159006 -0.019729438140428671 0 -0.031537324827098666 -0.019304147356274042 0 -0.031065300051594309 -0.019686092572231629 0 -0.031151838218865271 -0.018000857925518313 0 -0.032296425961315725 -0.018186104744813178 0 -0.031418564122508881 -0.018682605285330559 0 -0.031418564122508881 -0.018682605285330559 0 -0.030618523304975501 -0.019149051730241111 0 -0.030574800701055563 -0.018371512899570491 0 -0.031151838218865271 -0.018000857925518313 0 -0.031418564122508881 -0.018682605285330559 0 -0.030574800701055563 -0.018371512899570491 0 -0.032296425961315725 -0.018186104744813178 0 -0.033074978779726726 -0.019504555328583095 0 -0.032195628252159637 -0.019162589306794538 0 -0.032296425961315725 -0.018186104744813178 0 -0.032195628252159637 -0.019162589306794538 0 -0.031418564122508881 -0.018682605285330559 0 -0.029584347658511364 -0.020047324470436431 0 -0.029508554716286092 -0.019268646621979652 0 -0.028633801793142333 -0.020028349857001471 0 -0.030340873653317106 -0.020033572909393903 0 -0.029584347658511364 -0.020047324470436431 0 -0.029508554716286092 -0.019268646621979652 0 -0.030340873653317106 -0.020033572909393903 0 -0.029508554716286092 -0.019268646621979652 0 -0.030618523304975501 -0.019149051730241111 0 -0.029508554716286092 -0.019268646621979652 0 -0.030618523304975501 -0.019149051730241111 0 -0.030092803925263169 -0.018697661203873561 0 -0.030340873653317106 -0.020033572909393903 0 -0.031065300051594309 -0.019686092572231629 0 -0.030618523304975501 -0.019149051730241111 0 -0.030618523304975501 -0.019149051730241111 0 -0.030092803925263169 -0.018697661203873561 0 -0.030574800701055563 -0.018371512899570491 0 -0.029951211269983888 -0.018093311913416132 0 -0.030092803925263169 -0.018697661203873561 0 -0.030574800701055563 -0.018371512899570491 0 -0.029951211269983888 -0.018093311913416132 0 -0.030092803925263169 -0.018697661203873561 0 -0.029545072310936608 -0.018523537825178793 0 -0.029951211269983888 -0.018093311913416132 0 -0.029352911645862633 -0.018140995264217245 0 -0.029545072310936608 -0.018523537825178793 0 -0.029508554716286092 -0.019268646621979652 0 -0.030092803925263169 -0.018697661203873561 0 -0.029545072310936608 -0.018523537825178793 0 -0.029508554716286092 -0.019268646621979652 0 -0.029545072310936608 -0.018523537825178793 0 -0.028856882891062911 -0.018599391452322929 0 -0.029352911645862633 -0.018140995264217245 0 -0.029545072310936608 -0.018523537825178793 0 -0.028856882891062911 -0.018599391452322929 0 -0.029508554716286092 -0.019268646621979652 0 -0.028856882891062911 -0.018599391452322929 0 -0.028483120611000879 -0.019096645428970455 0 -0.028466959189705529 -0.018075054570046985 0 -0.028856882891062911 -0.018599391452322929 0 -0.028101333492770199 -0.018791573379755386 0 -0.028856882891062911 -0.018599391452322929 0 -0.028483120611000879 -0.019096645428970455 0 -0.028101333492770199 -0.018791573379755386 0 -0.029508554716286092 -0.019268646621979652 0 -0.028483120611000879 -0.019096645428970455 0 -0.028633801793142333 -0.020028349857001471 0 -0.027702871548853428 -0.019005106489541384 0 -0.027956827739612569 -0.019128838349465566 0 -0.028483120611000879 -0.019096645428970455 0 -0.027649896354474235 -0.018966225393738458 0 -0.028633801793142333 -0.020028349857001471 0 -0.028483120611000879 -0.019096645428970455 0 -0.027649896354474235 -0.018966225393738458 0 -0.028101333492770199 -0.018791573379755386 0 -0.028466959189705529 -0.018075054570046985 0 -0.028101333492770199 -0.018791573379755386 0 -0.02769297065491971 -0.019024327863225179 0 -0.027649896354474235 -0.018966225393738458 0 -0.028101333492770199 -0.018791573379755386 0 -0.02769297065491971 -0.019024327863225179 0 -0.027649896354474235 -0.018966225393738458 0 -0.02769297065491971 -0.019024327863225179 0 -0.027750458981351832 -0.018946244201707034 0 -0.02769297065491971 -0.019024327863225179 0 -0.027736656608020313 -0.019180674799500478 0 -0.027750458981351832 -0.018946244201707034 0 -0.027750458981351832 -0.018946244201707034 0 -0.027849283397847955 -0.018483643806010076 0 -0.027945318080206394 -0.018843455200872369 0 -0.027736656608020313 -0.019180674799500478 0 -0.027750458981351832 -0.018946244201707034 0 -0.027945318080206394 -0.018843455200872369 0 -0.027649896354474235 -0.018966225393738458 0 -0.027750458981351832 -0.018946244201707034 0 -0.027849283397847955 -0.018483643806010076 0 -0.027849283397847955 -0.018483643806010076 0 -0.027506463648959013 -0.01780746392560079 0 -0.027474109953992309 -0.01815272513603243 0 -0.027649896354474235 -0.018966225393738458 0 -0.027849283397847955 -0.018483643806010076 0 -0.027474109953992309 -0.01815272513603243 0 -0.027849283397847955 -0.018483643806010076 0 -0.028247625990371717 -0.017794606050551175 0 -0.028166394274310523 -0.018411956008214717 0 -0.027849283397847955 -0.018483643806010076 0 -0.027945318080206394 -0.018843455200872369 0 -0.028166394274310523 -0.018411956008214717 0 -0.027849283397847955 -0.018483643806010076 0 -0.028247625990371717 -0.017794606050551175 0 -0.027506463648959013 -0.01780746392560079 0 -0.027506463648959013 -0.01780746392560079 0 -0.027474109953992309 -0.01815272513603243 0 -0.027438380972779761 -0.017636929008869498 0 -0.027236329555110236 -0.018255757032962203 0 -0.027474109953992309 -0.01815272513603243 0 -0.027438380972779761 -0.017636929008869498 0 -0.026993871294092909 -0.017940550038186783 0 -0.027236329555110236 -0.018255757032962203 0 -0.027438380972779761 -0.017636929008869498 0 -0.027649896354474235 -0.018966225393738458 0 -0.027236329555110236 -0.018255757032962203 0 -0.027474109953992309 -0.01815272513603243 0 -0.02887684293430615 -0.019008417516573436 0 -0.02847318886051927 -0.018991704346304209 0 -0.028655176533095836 -0.01850458566777716 0 -0.026288434649039776 -0.021171219181162812 0 -0.026813747478470425 -0.020969629347620977 0 -0.026189857131571438 -0.021089023235995059 0 -0.027418181568119933 -0.020192849147623381 0 -0.027677674798878123 -0.020137085051248817 0 -0.028494483248639412 -0.019441197032087718 0 -0.02847318886051927 -0.018991704346304209 0 -0.027904282128181319 -0.019371592209596711 0 -0.02887684293430615 -0.019008417516573436 0 -0.028494483248639412 -0.019441197032087718 0 -0.02847318886051927 -0.018991704346304209 0 -0.02847318886051927 -0.018991704346304209 0 -0.028243539593902356 -0.018755500171246452 0 -0.028655176533095836 -0.01850458566777716 0 -0.02847318886051927 -0.018991704346304209 0 -0.028243539593902356 -0.018755500171246452 0 -0.027904282128181319 -0.019371592209596711 0 -0.027736656608020313 -0.019180674799500478 0 -0.027904282128181319 -0.019371592209596711 0 -0.027945318080206394 -0.018843455200872369 0 -0.027689377400146532 -0.019542723366817946 0 -0.027736656608020313 -0.019180674799500478 0 -0.027904282128181319 -0.019371592209596711 0 -0.028243539593902356 -0.018755500171246452 0 -0.027904282128181319 -0.019371592209596711 0 -0.027945318080206394 -0.018843455200872369 0 -0.028243539593902356 -0.018755500171246452 0 -0.027945318080206394 -0.018843455200872369 0 -0.028166394274310523 -0.018411956008214717 0 -0.028247625990371717 -0.017794606050551175 0 -0.028166394274310523 -0.018411956008214717 0 -0.02830902194898894 -0.018344885385806291 0 -0.028247625990371717 -0.017794606050551175 0 -0.029829115870242791 -0.017830099039167054 0 -0.029193645681733861 -0.016885545197222289 0 -0.028276102382954894 -0.01781082786035771 0 -0.028955461722924181 -0.018063885281413509 0 -0.029829115870242791 -0.017830099039167054 0 -0.031031406785366658 -0.017077421433711149 0 -0.030106185590264626 -0.016924067891446265 0 -0.029829115870242791 -0.017830099039167054 0 -0.030106185590264626 -0.016924067891446265 0 -0.029193645681733861 -0.016885545197222289 0 -0.028243539593902356 -0.018755500171246452 0 -0.028166394274310523 -0.018411956008214717 0 -0.02830902194898894 -0.018344885385806291 0 -0.028243539593902356 -0.018755500171246452 0 -0.02830902194898894 -0.018344885385806291 0 -0.028655176533095836 -0.01850458566777716 0 -0.028955461722924181 -0.018063885281413509 0 -0.030376122911108895 -0.018184023991986244 0 -0.029829115870242791 -0.017830099039167054 0 -0.031352546560869186 -0.018035807987143531 0 -0.031031406785366658 -0.017077421433711149 0 -0.031352546560869186 -0.018035807987143531 0 -0.031031406785366658 -0.017077421433711149 0 -0.031933640422823137 -0.017334044941993681 0 -0.031031406785366658 -0.017077421433711149 0 -0.031933640422823137 -0.017334044941993681 0 -0.031979300642606401 -0.016647358997967678 0 -0.031933640422823137 -0.017334044941993681 0 -0.031979300642606401 -0.016647358997967678 0 -0.03252374771510743 -0.016947527245210946 0 -0.031933640422823137 -0.017334044941993681 0 -0.032309412442202819 -0.01781225678410547 0 -0.032611585085084681 -0.0174138127907606 0 -0.02887684293430615 -0.019008417516573436 0 -0.028655176533095836 -0.01850458566777716 0 -0.029174139143176916 -0.01866985867963206 0 -0.031352546560869186 -0.018035807987143531 0 -0.032309412442202819 -0.01781225678410547 0 -0.032844069370448509 -0.018377012479523357 0 -0.031352546560869186 -0.018035807987143531 0 -0.031933640422823137 -0.017334044941993681 0 -0.032309412442202819 -0.01781225678410547 0 -0.030376122911108895 -0.018184023991986244 0 -0.029110276239236458 -0.019657137604212224 0 -0.031848176922490465 -0.015073944138683735 0 -0.032813474389436943 -0.014098869898585961 0 -0.032480507856000505 -0.015738514515413568 0 -0.03179309094384461 -0.0010280673144983652 0 -0.032090300465999137 -0.00074159945544563792 0 -0.032077775980373431 -0.0012473355797546499 0 -0.032471752508652328 -0.0081763076815268843 0 -0.031646492329586169 -0.011779851872635366 0 -0.031848176922490465 -0.015073944138683735 0 -0.031552344439633485 -0.016101030027781339 0 -0.031265370351034341 -0.015640650200429786 0 -0.031848176922490465 -0.015073944138683735 0 -0.032048721358400166 -0.016039313013402483 0 -0.032480507856000505 -0.015738514515413568 0 -0.032048721358400166 -0.016039313013402483 0 -0.032439707357219238 -0.01642026702802226 0 -0.032480507856000505 -0.015738514515413568 0 -0.031979300642606401 -0.016647358997967678 0 -0.032439707357219238 -0.01642026702802226 0 -0.03252374771510743 -0.016947527245210946 0 -0.032048721358400166 -0.016039313013402483 0 -0.031979300642606401 -0.016647358997967678 0 -0.032439707357219238 -0.01642026702802226 0 -0.032048721358400166 -0.016039313013402483 0 -0.031979300642606401 -0.016647358997967678 0 -0.031552344439633485 -0.016101030027781339 0 -0.031031406785366658 -0.017077421433711149 0 -0.031979300642606401 -0.016647358997967678 0 -0.031552344439633485 -0.016101030027781339 0 -0.031848176922490465 -0.015073944138683735 0 -0.032048721358400166 -0.016039313013402483 0 -0.031552344439633485 -0.016101030027781339 0 -0.030652020204803076 -0.016398366796378034 0 -0.031155287988167284 -0.015961155560862229 0 -0.030050572854446674 -0.016189095284911446 0 -0.029862661243202901 -0.015998680690392585 0 -0.031646492329586169 -0.011779851872635366 0 -0.031552344439633485 -0.016101030027781339 0 -0.030652020204803076 -0.016398366796378034 0 -0.031265370351034341 -0.015640650200429786 0 -0.031031406785366658 -0.017077421433711149 0 -0.031552344439633485 -0.016101030027781339 0 -0.030652020204803076 -0.016398366796378034 0 -0.031031406785366658 -0.017077421433711149 0 -0.030652020204803076 -0.016398366796378034 0 -0.030106185590264626 -0.016924067891446265 0 -0.032090300465999137 -0.00074159945544563792 0 -0.032524349690209599 -0.0011223265185372842 0 -0.032077775980373431 -0.0012473355797546499 0 -0.032090300465999137 -0.00074159945544563792 0 -0.032524349690209599 -0.0011223265185372842 0 -0.033152099262794582 -0.00079419973518561832 0 -0.031646492329586169 -0.011779851872635366 0 -0.031423452166274936 -0.0076922313771565888 0 -0.031155287988167284 -0.015961155560862229 0 -0.029959039403566996 -0.015400753536025737 0 -0.030050572854446674 -0.016189095284911446 0 -0.029959039403566996 -0.015400753536025737 0 -0.030050572854446674 -0.016189095284911446 0 -0.029152961690166193 -0.015384323073105454 0 -0.032524349690209599 -0.0011223265185372842 0 -0.033152099262794582 -0.00079419973518561832 0 -0.032972486197458808 -0.0012371974595012528 0 -0.030652020204803076 -0.016398366796378034 0 -0.030050572854446674 -0.016189095284911446 0 -0.030106185590264626 -0.016924067891446265 0 -0.030050572854446674 -0.016189095284911446 0 -0.030106185590264626 -0.016924067891446265 0 -0.029193645681733861 -0.016885545197222289 0 -0.030050572854446674 -0.016189095284911446 0 -0.029193645681733861 -0.016885545197222289 0 -0.028826417677722479 -0.016102136786155592 0 -0.029193645681733861 -0.016885545197222289 0 -0.028826417677722479 -0.016102136786155592 0 -0.028569930625286392 -0.01684071968120782 0 -0.028247625990371717 -0.017794606050551175 0 -0.029193645681733861 -0.016885545197222289 0 -0.028569930625286392 -0.01684071968120782 0 -0.029959039403566996 -0.015400753536025737 0 -0.029152961690166193 -0.015384323073105454 0 -0.0291047848046148 -0.014854106538871143 0 -0.029991136420864952 -0.016177464953112581 0 -0.02908903976965448 -0.015784902608291598 0 -0.031423452166274936 -0.0076922313771565888 0 -0.031797171945006947 -0.0079287278992102913 0 -0.033152099262794582 -0.00079419973518561832 0 -0.03429769259651342 -0.00085963337428192625 0 -0.033532138947111843 -0.0011803127050678936 0 -0.03429769259651342 -0.00085963337428192625 0 -0.034046164327522194 -0.001444844899913059 0 -0.033532138947111843 -0.0011803127050678936 0 -0.034046164327522194 -0.001444844899913059 0 -0.033243226653242842 -0.0015965941721414296 0 -0.033532138947111843 -0.0011803127050678936 0 -0.03429769259651342 -0.00085963337428192625 0 -0.034046164327522194 -0.001444844899913059 0 -0.034928913376672623 -0.0013956225917206536 0 -0.034046164327522194 -0.001444844899913059 0 -0.033657755883521316 -0.002076050564232791 0 -0.034497943662629399 -0.0019209003327062988 0 -0.033657755883521316 -0.002076050564232791 0 -0.034497943662629399 -0.0019209003327062988 0 -0.034113980913558765 -0.0024792858978244614 0 -0.034046164327522194 -0.001444844899913059 0 -0.033657755883521316 -0.002076050564232791 0 -0.033243226653242842 -0.0015965941721414296 0 -0.033243226653242842 -0.0015965941721414296 0 -0.032922404737041583 -0.0021793322447438831 0 -0.032480745987885792 -0.0016263394013702099 0 -0.033657755883521316 -0.002076050564232791 0 -0.033243226653242842 -0.0015965941721414296 0 -0.032922404737041583 -0.0021793322447438831 0 -0.033243226653242842 -0.0015965941721414296 0 -0.032972486197458808 -0.0012371974595012528 0 -0.032480745987885792 -0.0016263394013702099 0 -0.033243226653242842 -0.0015965941721414296 0 -0.033532138947111843 -0.0011803127050678936 0 -0.032972486197458808 -0.0012371974595012528 0 -0.033152099262794582 -0.00079419973518561832 0 -0.033532138947111843 -0.0011803127050678936 0 -0.032972486197458808 -0.0012371974595012528 0 -0.032077775980373431 -0.0012473355797546499 0 -0.032480745987885792 -0.0016263394013702099 0 -0.031797262381769852 -0.0015658572638726847 0 -0.032524349690209599 -0.0011223265185372842 0 -0.032972486197458808 -0.0012371974595012528 0 -0.032480745987885792 -0.0016263394013702099 0 -0.032524349690209599 -0.0011223265185372842 0 -0.032077775980373431 -0.0012473355797546499 0 -0.032480745987885792 -0.0016263394013702099 0 -0.032922404737041583 -0.0021793322447438831 0 -0.032480745987885792 -0.0016263394013702099 0 -0.032095110785303395 -0.002189148703667767 0 -0.032922404737041583 -0.0021793322447438831 0 -0.032095110785303395 -0.002189148703667767 0 -0.032440392761756844 -0.0026050231994019426 0 -0.032480745987885792 -0.0016263394013702099 0 -0.032095110785303395 -0.002189148703667767 0 -0.031797262381769852 -0.0015658572638726847 0 -0.032095110785303395 -0.002189148703667767 0 -0.031462809987615609 -0.0022806604413118489 0 -0.031797262381769852 -0.0015658572638726847 0 -0.032095110785303395 -0.002189148703667767 0 -0.031462809987615609 -0.0022806604413118489 0 -0.031818394109920246 -0.0026270555341540822 0 -0.03179309094384461 -0.0010280673144983652 0 -0.032077775980373431 -0.0012473355797546499 0 -0.031797262381769852 -0.0015658572638726847 0 -0.03179309094384461 -0.0010280673144983652 0 -0.031797262381769852 -0.0015658572638726847 0 -0.03114847556276925 -0.00160152506763446 0 -0.032471752508652328 -0.0081763076815268843 0 -0.029821566316900073 -0.0067596426472858514 0 -0.031462809987615609 -0.0022806604413118489 0 -0.031797262381769852 -0.0015658572638726847 0 -0.03114847556276925 -0.00160152506763446 0 -0.027581140249644868 -0.017644605018808109 0 -0.027658040956696495 -0.017672216726462422 0 -0.027438380972779761 -0.017636929008869498 0 -0.027581140249644868 -0.017644605018808109 0 -0.027658040956696495 -0.017672216726462422 0 -0.027690117297697242 -0.017679677039820371 0 -0.027746250176974435 -0.017598569056942747 0 -0.027658040956696495 -0.017672216726462422 0 -0.027438380972779761 -0.017636929008869498 0 -0.027503644568987351 -0.017733822681807714 0 -0.027286171313896861 -0.017107489837095369 0 -0.027506463648959013 -0.01780746392560079 0 -0.027581140249644868 -0.017644605018808109 0 -0.027438380972779761 -0.017636929008869498 0 -0.027506463648959013 -0.01780746392560079 0 -0.0271183681113371 -0.016485111838897622 0 -0.027995546875088633 -0.01672506815412015 0 -0.028247625990371717 -0.017794606050551175 0 -0.027506463648959013 -0.01780746392560079 0 -0.027995546875088633 -0.01672506815412015 0 -0.028826417677722479 -0.016102136786155592 0 -0.027995546875088633 -0.01672506815412015 0 -0.028569930625286392 -0.01684071968120782 0 -0.028247625990371717 -0.017794606050551175 0 -0.027995546875088633 -0.01672506815412015 0 -0.028569930625286392 -0.01684071968120782 0 -0.02908903976965448 -0.015784902608291598 0 -0.028046228068930024 -0.01512770921321341 0 -0.028826417677722479 -0.016102136786155592 0 -0.027995546875088633 -0.01672506815412015 0 -0.027864225099255117 -0.015780760279775371 0 -0.029152961690166193 -0.015384323073105454 0 -0.0291047848046148 -0.014854106538871143 0 -0.02854326845170814 -0.014825233898468394 0 -0.0271183681113371 -0.016485111838897622 0 -0.027995546875088633 -0.01672506815412015 0 -0.027864225099255117 -0.015780760279775371 0 -0.0271183681113371 -0.016485111838897622 0 -0.027864225099255117 -0.015780760279775371 0 -0.026929914455415156 -0.015340113987842137 0 -0.028046228068930024 -0.01512770921321341 0 -0.028004652693179696 -0.016285020305840139 0 -0.02854326845170814 -0.014825233898468394 0 -0.028514009758994222 -0.01445876238994992 0 -0.028031094064799953 -0.014445078052103332 0 -0.03429769259651342 -0.00085963337428192625 0 -0.035710082476398973 -0.00098467420099013865 0 -0.034928913376672623 -0.0013956225917206536 0 -0.0291047848046148 -0.014854106538871143 0 -0.02854326845170814 -0.014825233898468394 0 -0.028514009758994222 -0.01445876238994992 0 -0.031797171945006947 -0.0079287278992102913 0 -0.032005043580854514 -0.0076556190000021378 0 -0.034046164327522194 -0.001444844899913059 0 -0.034928913376672623 -0.0013956225917206536 0 -0.034497943662629399 -0.0019209003327062988 0 -0.035710082476398973 -0.00098467420099013865 0 -0.034928913376672623 -0.0013956225917206536 0 -0.035698135067879701 -0.0014322645523230219 0 -0.034928913376672623 -0.0013956225917206536 0 -0.035365605636619848 -0.0018099509642175138 0 -0.035698135067879701 -0.0014322645523230219 0 -0.035365605636619848 -0.0018099509642175138 0 -0.034497943662629399 -0.0019209003327062988 0 -0.034987789330976224 -0.0024381280911209982 0 -0.034928913376672623 -0.0013956225917206536 0 -0.035365605636619848 -0.0018099509642175138 0 -0.034497943662629399 -0.0019209003327062988 0 -0.032005043580854514 -0.0076556190000021378 0 -0.033224955812184633 -0.0081740425690005059 0 -0.035710082476398973 -0.00098467420099013865 0 -0.036321505097497202 -0.0015447095532317009 0 -0.037376832846280315 -0.0012696055078266228 0 -0.035710082476398973 -0.00098467420099013865 0 -0.035698135067879701 -0.0014322645523230219 0 -0.036321505097497202 -0.0015447095532317009 0 -0.035365605636619848 -0.0018099509642175138 0 -0.035698135067879701 -0.0014322645523230219 0 -0.036321505097497202 -0.0015447095532317009 0 -0.035365605636619848 -0.0018099509642175138 0 -0.036321505097497202 -0.0015447095532317009 0 -0.036340061785684843 -0.0020682013981233927 0 -0.036321505097497202 -0.0015447095532317009 0 -0.036881436393695247 -0.001839288246996699 0 -0.036340061785684843 -0.0020682013981233927 0 -0.036321505097497202 -0.0015447095532317009 0 -0.036881436393695247 -0.001839288246996699 0 -0.037376832846280315 -0.0012696055078266228 0 -0.036881436393695247 -0.001839288246996699 0 -0.037376832846280315 -0.0012696055078266228 0 -0.037524065675345789 -0.0023157180681290285 0 -0.028514009758994222 -0.01445876238994992 0 -0.028007063100584935 -0.014132343345115863 0 -0.028031094064799953 -0.014445078052103332 0 -0.027783547111600023 -0.017662655817059524 0 -0.0277638876465446 -0.017685964641394505 0 -0.027799582640335913 -0.017687026297446222 0 -0.027783547111600023 -0.017662655817059524 0 -0.0277638876465446 -0.017685964641394505 0 -0.027775098397179451 -0.017676467523786762 0 -0.033224955812184633 -0.0081740425690005059 0 -0.028004652693179696 -0.016285020305840139 0 -0.027581140249644868 -0.017644605018808109 0 -0.027701970048151538 -0.017689411710123434 0 -0.027690117297697242 -0.017679677039820371 0 -0.027286171313896861 -0.017107489837095369 0 -0.028004652693179696 -0.016285020305840139 0 -0.028067156366526336 -0.016963135733417845 0 -0.028004652693179696 -0.016285020305840139 0 -0.0277638876465446 -0.017685964641394505 0 -0.027701970048151538 -0.017689411710123434 0 -0.027690117297697242 -0.017679677039820371 0 -0.027901633064765525 -0.017793405640045046 0 -0.027658040956696495 -0.017672216726462422 0 -0.027766738891872152 -0.01771031613383384 0 -0.027658040956696495 -0.017672216726462422 0 -0.027690117297697242 -0.017679677039820371 0 -0.027766738891872152 -0.01771031613383384 0 -0.0277638876465446 -0.017685964641394505 0 -0.027690117297697242 -0.017679677039820371 0 -0.027766738891872152 -0.01771031613383384 0 -0.0277638876465446 -0.017685964641394505 0 -0.027766738891872152 -0.01771031613383384 0 -0.027799582640335913 -0.017687026297446222 0 -0.027846093926921726 -0.017696943984955412 0 -0.027766738891872152 -0.01771031613383384 0 -0.027799582640335913 -0.017687026297446222 0 -0.033224955812184633 -0.0081740425690005059 0 -0.033612499720907844 -0.010457293633237968 0 -0.027783547111600023 -0.017662655817059524 0 -0.027799582640335913 -0.017687026297446222 0 -0.027879943225552394 -0.017637753338637582 0 -0.027846093926921726 -0.017696943984955412 0 -0.027799582640335913 -0.017687026297446222 0 -0.027879943225552394 -0.017637753338637582 0 -0.038411714742219223 -0.0019508994161698508 0 -0.038877435752822105 -0.0024970117671078954 0 -0.0395842440592548 -0.0025695292943641377 0 -0.038877435752822105 -0.0024970117671078954 0 -0.039212316566296049 -0.0028492757149066027 0 -0.0395842440592548 -0.0025695292943641377 0 -0.038877435752822105 -0.0024970117671078954 0 -0.039212316566296049 -0.0028492757149066027 0 -0.038608738064371956 -0.0027352053188440138 0 -0.039212316566296049 -0.0028492757149066027 0 -0.038926137644614285 -0.0029598771554994337 0 -0.038608738064371956 -0.0027352053188440138 0 -0.039212316566296049 -0.0028492757149066027 0 -0.038926137644614285 -0.0029598771554994337 0 -0.039259957740600003 -0.0031301999987953292 0 -0.038926137644614285 -0.0029598771554994337 0 -0.03870093336405233 -0.0029313182064055372 0 -0.038766920287275547 -0.0030377732257559674 0 -0.039212316566296049 -0.0028492757149066027 0 -0.039527370253063743 -0.0030962171038931099 0 -0.0395842440592548 -0.0025695292943641377 0 -0.039212316566296049 -0.0028492757149066027 0 -0.039527370253063743 -0.0030962171038931099 0 -0.039259957740600003 -0.0031301999987953292 0 -0.039527370253063743 -0.0030962171038931099 0 -0.039259957740600003 -0.0031301999987953292 0 -0.039443395690160477 -0.003365008556264678 0 -0.039527370253063743 -0.0030962171038931099 0 -0.039443395690160477 -0.003365008556264678 0 -0.039747593704895216 -0.0034290378175659878 0 -0.038926137644614285 -0.0029598771554994337 0 -0.039259957740600003 -0.0031301999987953292 0 -0.039107528329489452 -0.0032801741776886965 0 -0.038926137644614285 -0.0029598771554994337 0 -0.039107528329489452 -0.0032801741776886965 0 -0.038766920287275547 -0.0030377732257559674 0 -0.039107528329489452 -0.0032801741776886965 0 -0.03862039290428692 -0.0032190768016253277 0 -0.038766920287275547 -0.0030377732257559674 0 -0.039259957740600003 -0.0031301999987953292 0 -0.039107528329489452 -0.0032801741776886965 0 -0.039443395690160477 -0.003365008556264678 0 -0.039443395690160477 -0.003365008556264678 0 -0.039675326144129525 -0.0034811132401715585 0 -0.039406286943492623 -0.0035111067374417075 0 -0.039107528329489452 -0.0032801741776886965 0 -0.039443395690160477 -0.003365008556264678 0 -0.039406286943492623 -0.0035111067374417075 0 -0.039443395690160477 -0.003365008556264678 0 -0.039675326144129525 -0.0034811132401715585 0 -0.039747593704895216 -0.0034290378175659878 0 -0.03862039290428692 -0.0032190768016253277 0 -0.037139385236702044 -0.0034948166342227086 0 -0.035997432690994202 -0.0045479466212050065 0 -0.03862039290428692 -0.0032190768016253277 0 -0.039895143856315152 -0.0036779715098786379 0 -0.039406286943492623 -0.0035111067374417075 0 -0.038645360420512802 -0.0031479284474980082 0 -0.03800791982485207 -0.0040042657619687953 0 -0.039107528329489452 -0.0032801741776886965 0 -0.03862039290428692 -0.0032190768016253277 0 -0.039406286943492623 -0.0035111067374417075 0 -0.03862039290428692 -0.0032190768016253277 0 -0.037139385236702044 -0.0034948166342227086 0 -0.037822880673131901 -0.0030661300163378966 0 -0.037139385236702044 -0.0034948166342227086 0 -0.036988171262358781 -0.0031190915781813358 0 -0.037822880673131901 -0.0030661300163378966 0 -0.037353485677519387 -0.0027090916685089685 0 -0.036973380564555403 -0.002312717097121969 0 -0.036432033191024206 -0.0027631697678453457 0 -0.033224955812184633 -0.0081740425690005059 0 -0.038939505114476684 -0.00059582020545555496 0 -0.036988171262358781 -0.0031190915781813358 0 -0.037353485677519387 -0.0027090916685089685 0 -0.036432033191024206 -0.0027631697678453457 0 -0.038411714742219223 -0.0019508994161698508 0 -0.038456289164669602 -0.0030131536072702165 0 -0.038608738064371956 -0.0027352053188440138 0 -0.037376832846280315 -0.0012696055078266228 0 -0.038456289164669602 -0.0030131536072702165 0 -0.037524065675345789 -0.0023157180681290285 0 -0.038411714742219223 -0.0019508994161698508 0 -0.038877435752822105 -0.0024970117671078954 0 -0.038608738064371956 -0.0027352053188440138 0 -0.037353485677519387 -0.0027090916685089685 0 -0.037834905569987205 -0.0027922091506258988 0 -0.037822880673131901 -0.0030661300163378966 0 -0.036988171262358781 -0.0031190915781813358 0 -0.037353485677519387 -0.0027090916685089685 0 -0.037822880673131901 -0.0030661300163378966 0 -0.037353485677519387 -0.0027090916685089685 0 -0.037834905569987205 -0.0027922091506258988 0 -0.037524065675345789 -0.0023157180681290285 0 -0.038456289164669602 -0.0030131536072702165 0 -0.037834905569987205 -0.0027922091506258988 0 -0.037524065675345789 -0.0023157180681290285 0 -0.03870093336405233 -0.0029313182064055372 0 -0.038456289164669602 -0.0030131536072702165 0 -0.038608738064371956 -0.0027352053188440138 0 -0.03870093336405233 -0.0029313182064055372 0 -0.038766920287275547 -0.0030377732257559674 0 -0.038456289164669602 -0.0030131536072702165 0 -0.03862039290428692 -0.0032190768016253277 0 -0.038766920287275547 -0.0030377732257559674 0 -0.038456289164669602 -0.0030131536072702165 0 -0.038456289164669602 -0.0030131536072702165 0 -0.037834905569987205 -0.0027922091506258988 0 -0.037822880673131901 -0.0030661300163378966 0 -0.03862039290428692 -0.0032190768016253277 0 -0.038456289164669602 -0.0030131536072702165 0 -0.037822880673131901 -0.0030661300163378966 0 -0.038926137644614285 -0.0029598771554994337 0 -0.03870093336405233 -0.0029313182064055372 0 -0.038608738064371956 -0.0027352053188440138 0 -0.037353485677519387 -0.0027090916685089685 0 -0.036973380564555403 -0.002312717097121969 0 -0.037524065675345789 -0.0023157180681290285 0 -0.036881436393695247 -0.001839288246996699 0 -0.036973380564555403 -0.002312717097121969 0 -0.037524065675345789 -0.0023157180681290285 0 -0.036973380564555403 -0.002312717097121969 0 -0.036340061785684843 -0.0020682013981233927 0 -0.036432033191024206 -0.0027631697678453457 0 -0.036340061785684843 -0.0020682013981233927 0 -0.035828980192484421 -0.0024367342857425688 0 -0.036432033191024206 -0.0027631697678453457 0 -0.036881436393695247 -0.001839288246996699 0 -0.036973380564555403 -0.002312717097121969 0 -0.036340061785684843 -0.0020682013981233927 0 -0.035365605636619848 -0.0018099509642175138 0 -0.036340061785684843 -0.0020682013981233927 0 -0.035828980192484421 -0.0024367342857425688 0 -0.035828980192484421 -0.0024367342857425688 0 -0.036432033191024206 -0.0027631697678453457 0 -0.035356505467856493 -0.0031873527182724667 0 -0.034497943662629399 -0.0019209003327062988 0 -0.034987789330976224 -0.0024381280911209982 0 -0.034113980913558765 -0.0024792858978244614 0 -0.035365605636619848 -0.0018099509642175138 0 -0.035828980192484421 -0.0024367342857425688 0 -0.034987789330976224 -0.0024381280911209982 0 -0.035828980192484421 -0.0024367342857425688 0 -0.034987789330976224 -0.0024381280911209982 0 -0.035356505467856493 -0.0031873527182724667 0 -0.034987789330976224 -0.0024381280911209982 0 -0.034494624165097548 -0.0029488311888668356 0 -0.034113980913558765 -0.0024792858978244614 0 -0.034987789330976224 -0.0024381280911209982 0 -0.034494624165097548 -0.0029488311888668356 0 -0.035356505467856493 -0.0031873527182724667 0 -0.035356505467856493 -0.0031873527182724667 0 -0.035149423587410196 -0.0040596926569197549 0 -0.034415451220891 -0.0036354361342157667 0 -0.034494624165097548 -0.0029488311888668356 0 -0.035356505467856493 -0.0031873527182724667 0 -0.034415451220891 -0.0036354361342157667 0 -0.035356505467856493 -0.0031873527182724667 0 -0.036297755118307205 -0.0035539454436896334 0 -0.035149423587410196 -0.0040596926569197549 0 -0.037139385236702044 -0.0034948166342227086 0 -0.036297755118307205 -0.0035539454436896334 0 -0.035997432690994202 -0.0045479466212050065 0 -0.036988171262358781 -0.0031190915781813358 0 -0.036432033191024206 -0.0027631697678453457 0 -0.036297755118307205 -0.0035539454436896334 0 -0.037139385236702044 -0.0034948166342227086 0 -0.036988171262358781 -0.0031190915781813358 0 -0.036297755118307205 -0.0035539454436896334 0 -0.036432033191024206 -0.0027631697678453457 0 -0.035356505467856493 -0.0031873527182724667 0 -0.036297755118307205 -0.0035539454436896334 0 -0.035997432690994202 -0.0045479466212050065 0 -0.035149423587410196 -0.0040596926569197549 0 -0.034796103230715698 -0.0045613779631963327 0 -0.036297755118307205 -0.0035539454436896334 0 -0.035997432690994202 -0.0045479466212050065 0 -0.035149423587410196 -0.0040596926569197549 0 -0.035149423587410196 -0.0040596926569197549 0 -0.034796103230715698 -0.0045613779631963327 0 -0.034325695842296167 -0.0042518137577617944 0 -0.035149423587410196 -0.0040596926569197549 0 -0.034415451220891 -0.0036354361342157667 0 -0.034325695842296167 -0.0042518137577617944 0 -0.039895143856315152 -0.0036779715098786379 0 -0.040195035108282977 -0.0037507234731037798 0 -0.040555674525875871 -0.0038977477849475107 0 -0.035997432690994202 -0.0045479466212050065 0 -0.034796103230715698 -0.0045613779631963327 0 -0.034713704940782984 -0.0047255024173096672 0 -0.03800791982485207 -0.0040042657619687953 0 -0.037675624878592107 -0.0042728699122013339 0 -0.039895143856315152 -0.0036779715098786379 0 -0.039916502716944011 -0.0035893708246734143 0 -0.040195035108282977 -0.0037507234731037798 0 -0.039916502716944011 -0.0035893708246734143 0 -0.040225517210453858 -0.0037408057904572494 0 -0.040195035108282977 -0.0037507234731037798 0 -0.039916502716944011 -0.0035893708246734143 0 -0.039930595088568256 -0.0034494280303094438 0 -0.040391684561154446 -0.0036953646995658649 0 -0.039930595088568256 -0.0034494280303094438 0 -0.039675326144129525 -0.0034811132401715585 0 -0.039747593704895216 -0.0034290378175659878 0 -0.039916502716944011 -0.0035893708246734143 0 -0.039930595088568256 -0.0034494280303094438 0 -0.039675326144129525 -0.0034811132401715585 0 -0.039916502716944011 -0.0035893708246734143 0 -0.039675326144129525 -0.0034811132401715585 0 -0.039406286943492623 -0.0035111067374417075 0 -0.039895143856315152 -0.0036779715098786379 0 -0.039916502716944011 -0.0035893708246734143 0 -0.039406286943492623 -0.0035111067374417075 0 -0.032169990929561264 -0.0031002351732272232 0 -0.031938695417981909 -0.0033885821563954996 0 -0.03161870751604183 -0.0029827811168244216 0 -0.032169990929561264 -0.0031002351732272232 0 -0.031818394109920246 -0.0026270555341540822 0 -0.03161870751604183 -0.0029827811168244216 0 -0.032169990929561264 -0.0031002351732272232 0 -0.031818394109920246 -0.0026270555341540822 0 -0.032440392761756844 -0.0026050231994019426 0 -0.032095110785303395 -0.002189148703667767 0 -0.031818394109920246 -0.0026270555341540822 0 -0.032440392761756844 -0.0026050231994019426 0 -0.032169990929561264 -0.0031002351732272232 0 -0.033433063190364938 -0.0029905945145527898 0 -0.032586962249276555 -0.003467939228107144 0 -0.032169990929561264 -0.0031002351732272232 0 -0.032440392761756844 -0.0026050231994019426 0 -0.033433063190364938 -0.0029905945145527898 0 -0.033433063190364938 -0.0029905945145527898 0 -0.033636603735149158 -0.0038802278056488614 0 -0.032882439789183399 -0.0039882853176071579 0 -0.033423722742799471 -0.0029777654322846081 0 -0.032697329263108699 -0.0037592998749776934 0 -0.033657755883521316 -0.002076050564232791 0 -0.032922404737041583 -0.0021793322447438831 0 -0.033433063190364938 -0.0029905945145527898 0 -0.032922404737041583 -0.0021793322447438831 0 -0.032440392761756844 -0.0026050231994019426 0 -0.033433063190364938 -0.0029905945145527898 0 -0.033657755883521316 -0.002076050564232791 0 -0.033433063190364938 -0.0029905945145527898 0 -0.034113980913558765 -0.0024792858978244614 0 -0.034494624165097548 -0.0029488311888668356 0 -0.033433063190364938 -0.0029905945145527898 0 -0.034113980913558765 -0.0024792858978244614 0 -0.034494624165097548 -0.0029488311888668356 0 -0.033433063190364938 -0.0029905945145527898 0 -0.034415451220891 -0.0036354361342157667 0 -0.033433063190364938 -0.0029905945145527898 0 -0.034415451220891 -0.0036354361342157667 0 -0.033636603735149158 -0.0038802278056488614 0 -0.034325695842296167 -0.0042518137577617944 0 -0.033543756780038618 -0.0048344701402115095 0 -0.033636603735149158 -0.0038802278056488614 0 -0.034415451220891 -0.0036354361342157667 0 -0.034325695842296167 -0.0042518137577617944 0 -0.033636603735149158 -0.0038802278056488614 0 -0.034796103230715698 -0.0045613779631963327 0 -0.034325695842296167 -0.0042518137577617944 0 -0.033543756780038618 -0.0048344701402115095 0 -0.034694280115484886 -0.0045233003725944363 0 -0.033581084351697307 -0.0045007622431238459 0 -0.034796103230715698 -0.0045613779631963327 0 -0.033598401271637289 -0.00404568694314612 0 -0.034142715034216169 -0.0045382425243375938 0 -0.033543756780038618 -0.0048344701402115095 0 -0.033636603735149158 -0.0038802278056488614 0 -0.032882439789183399 -0.0039882853176071579 0 -0.032169990929561264 -0.0031002351732272232 0 -0.032586962249276555 -0.003467939228107144 0 -0.031938695417981909 -0.0033885821563954996 0 -0.033581084351697307 -0.0045007622431238459 0 -0.032449407468292731 -0.0040668215687741354 0 -0.033598401271637289 -0.00404568694314612 0 -0.032843276370825396 -0.0039192645436745607 0 -0.033200130370327437 -0.0043076851544623651 0 -0.032697329263108699 -0.0037592998749776934 0 -0.032449407468292731 -0.0040668215687741354 0 -0.033543756780038618 -0.0048344701402115095 0 -0.032882439789183399 -0.0039882853176071579 0 -0.032181210463636346 -0.0048916237323227193 0 -0.032449407468292731 -0.0040668215687741354 0 -0.031839644545174503 -0.0035897278485981518 0 -0.032108225460359852 -0.003715353769181961 0 -0.031938695417981909 -0.0033885821563954996 0 -0.031845018071288922 -0.0036207096740148502 0 -0.032586962249276555 -0.003467939228107144 0 -0.032108225460359852 -0.003715353769181961 0 -0.031938695417981909 -0.0033885821563954996 0 -0.032765752170997239 -0.0046660659091154154 0 -0.032861781203597416 -0.0043517527292092576 0 -0.032227672597303941 -0.0042934367347130667 0 -0.032765752170997239 -0.0046660659091154154 0 -0.032861781203597416 -0.0043517527292092576 0 -0.033142905532809047 -0.0046133556817391508 0 -0.032449407468292731 -0.0040668215687741354 0 -0.032327771635004263 -0.004161195427280706 0 -0.032843276370825396 -0.0039192645436745607 0 -0.032861781203597416 -0.0043517527292092576 0 -0.032227672597303941 -0.0042934367347130667 0 -0.032843276370825396 -0.0039192645436745607 0 -0.032861781203597416 -0.0043517527292092576 0 -0.033200130370327437 -0.0043076851544623651 0 -0.032861781203597416 -0.0043517527292092576 0 -0.033200130370327437 -0.0043076851544623651 0 -0.033142905532809047 -0.0046133556817391508 0 -0.033142905532809047 -0.0046133556817391508 0 -0.033583158561751876 -0.0045811242586771576 0 -0.033373979833967574 -0.0047910406237664013 0 -0.033200130370327437 -0.0043076851544623651 0 -0.033142905532809047 -0.0046133556817391508 0 -0.033583158561751876 -0.0045811242586771576 0 -0.033598401271637289 -0.00404568694314612 0 -0.033200130370327437 -0.0043076851544623651 0 -0.033583158561751876 -0.0045811242586771576 0 -0.033598401271637289 -0.00404568694314612 0 -0.033583158561751876 -0.0045811242586771576 0 -0.034142715034216169 -0.0045382425243375938 0 -0.033583158561751876 -0.0045811242586771576 0 -0.034142715034216169 -0.0045382425243375938 0 -0.033891562573557479 -0.0048574155229540008 0 -0.033583158561751876 -0.0045811242586771576 0 -0.033891562573557479 -0.0048574155229540008 0 -0.033373979833967574 -0.0047910406237664013 0 -0.033168808008062906 -0.0048560432579315979 0 -0.033003999776885756 -0.0048645565784506753 0 -0.032811979377760037 -0.0043870404395419419 0 -0.033891562573557479 -0.0048574155229540008 0 -0.033168808008062906 -0.0048560432579315979 0 -0.033373979833967574 -0.0047910406237664013 0 -0.041424073790406378 -0.0037879907401676578 0 -0.04251527114180164 -0.0031415821410864966 0 -0.041130897250531068 -0.0033661595133379634 0 -0.037688205358726391 -0.0042599348068789343 0 -0.037858381265305253 -0.0039960133636531003 0 -0.033168808008062906 -0.0048560432579315979 0 -0.033373979833967574 -0.0047910406237664013 0 -0.033003999776885756 -0.0048645565784506753 0 -0.032765752170997239 -0.0046660659091154154 0 -0.033142905532809047 -0.0046133556817391508 0 -0.033003999776885756 -0.0048645565784506753 0 -0.033142905532809047 -0.0046133556817391508 0 -0.033373979833967574 -0.0047910406237664013 0 -0.033003999776885756 -0.0048645565784506753 0 -0.033003999776885756 -0.0048645565784506753 0 -0.032795690861035565 -0.0049273879241918377 0 -0.033046233803965167 -0.0044541285814767538 0 -0.032765752170997239 -0.0046660659091154154 0 -0.033003999776885756 -0.0048645565784506753 0 -0.032795690861035565 -0.0049273879241918377 0 -0.040366685370861723 -0.0037083426496008604 0 -0.040225517210453858 -0.0037408057904572494 0 -0.040409203134843988 -0.0037764365369556533 0 -0.040353067874359119 -0.0037423794679338394 0 -0.040460073269725151 -0.0037906467732335093 0 -0.040391684561154446 -0.0036953646995658649 0 -0.040366685370861723 -0.0037083426496008604 0 -0.040353067874359119 -0.0037423794679338394 0 -0.040225517210453858 -0.0037408057904572494 0 -0.040366685370861723 -0.0037083426496008604 0 -0.040353067874359119 -0.0037423794679338394 0 -0.040460073269725151 -0.0037906467732335093 0 -0.039916502716944011 -0.0035893708246734143 0 -0.040225517210453858 -0.0037408057904572494 0 -0.040391684561154446 -0.0036953646995658649 0 -0.040353067874359119 -0.0037423794679338394 0 -0.040225517210453858 -0.0037408057904572494 0 -0.040391684561154446 -0.0036953646995658649 0 -0.040225517210453858 -0.0037408057904572494 0 -0.040195035108282977 -0.0037507234731037798 0 -0.040409203134843988 -0.0037764365369556533 0 -0.040195035108282977 -0.0037507234731037798 0 -0.040409203134843988 -0.0037764365369556533 0 -0.040555674525875871 -0.0038977477849475107 0 -0.034796103230715698 -0.0045613779631963327 0 -0.034142715034216169 -0.0045382425243375938 0 -0.034713704940782984 -0.0047255024173096672 0 -0.034142715034216169 -0.0045382425243375938 0 -0.033891562573557479 -0.0048574155229540008 0 -0.034713704940782984 -0.0047255024173096672 0 -0.037688205358726391 -0.0042599348068789343 0 -0.037675624878592107 -0.0042728699122013339 0 -0.041424073790406378 -0.0037879907401676578 0 -0.040555674525875871 -0.0038977477849475107 0 -0.040707133359788948 -0.0036945906288870052 0 -0.040366685370861723 -0.0037083426496008604 0 -0.040409203134843988 -0.0037764365369556533 0 -0.040707133359788948 -0.0036945906288870052 0 -0.040409203134843988 -0.0037764365369556533 0 -0.040555674525875871 -0.0038977477849475107 0 -0.040707133359788948 -0.0036945906288870052 0 -0.040707133359788948 -0.0036945906288870052 0 -0.041130897250531068 -0.0033661595133379634 0 -0.040550065346517207 -0.0033303398795442181 0 -0.041424073790406378 -0.0037879907401676578 0 -0.040707133359788948 -0.0036945906288870052 0 -0.041130897250531068 -0.0033661595133379634 0 -0.04251527114180164 -0.0031415821410864966 0 -0.041130897250531068 -0.0033661595133379634 0 -0.041445777684972131 -0.0025839559968529576 0 -0.041130897250531068 -0.0033661595133379634 0 -0.040550065346517207 -0.0033303398795442181 0 -0.041445777684972131 -0.0025839559968529576 0 -0.040366685370861723 -0.0037083426496008604 0 -0.040707133359788948 -0.0036945906288870052 0 -0.040550065346517207 -0.0033303398795442181 0 -0.040366685370861723 -0.0037083426496008604 0 -0.040550065346517207 -0.0033303398795442181 0 -0.040346945688404204 -0.0035917285719520623 0 -0.040366685370861723 -0.0037083426496008604 0 -0.040346945688404204 -0.0035917285719520623 0 -0.040460073269725151 -0.0037906467732335093 0 -0.040550065346517207 -0.0033303398795442181 0 -0.040346945688404204 -0.0035917285719520623 0 -0.040110714913485161 -0.003185713499797438 0 -0.040401029101424624 -0.003485182362652153 0 -0.040515001391279983 -0.0037255477906801226 0 -0.040110714913485161 -0.003185713499797438 0 -0.040346945688404204 -0.0035917285719520623 0 -0.040515001391279983 -0.0037255477906801226 0 -0.040110714913485161 -0.003185713499797438 0 -0.040401029101424624 -0.003485182362652153 0 -0.040724690378595191 -0.0037653868356643853 0 -0.040457577485269978 -0.0035080169338464642 0 -0.040401029101424624 -0.003485182362652153 0 -0.040724690378595191 -0.0037653868356643853 0 -0.040515001391279983 -0.0037255477906801226 0 -0.040941886122654148 -0.003953326325286069 0 -0.040515001391279983 -0.0037255477906801226 0 -0.040799560049862536 -0.0039029427833100097 0 -0.040724690378595191 -0.0037653868356643853 0 -0.040941886122654148 -0.003953326325286069 0 -0.040515001391279983 -0.0037255477906801226 0 -0.040724690378595191 -0.0037653868356643853 0 -0.040941886122654148 -0.003953326325286069 0 -0.041156536587336937 -0.0040443048865969125 0 -0.040941886122654148 -0.003953326325286069 0 -0.041349891702646434 -0.0040544329834108972 0 -0.041156536587336937 -0.0040443048865969125 0 -0.040515001391279983 -0.0037255477906801226 0 -0.040460073269725151 -0.0037906467732335093 0 -0.040799560049862536 -0.0039029427833100097 0 -0.040346945688404204 -0.0035917285719520623 0 -0.040515001391279983 -0.0037255477906801226 0 -0.040460073269725151 -0.0037906467732335093 0 -0.040460073269725151 -0.0037906467732335093 0 -0.040799560049862536 -0.0039029427833100097 0 -0.040391684561154446 -0.0036953646995658649 0 -0.040941886122654148 -0.003953326325286069 0 -0.040799560049862536 -0.0039029427833100097 0 -0.041349891702646434 -0.0040544329834108972 0 -0.040799560049862536 -0.0039029427833100097 0 -0.041349891702646434 -0.0040544329834108972 0 -0.041197026721621066 -0.003804435775291807 0 -0.041349891702646434 -0.0040544329834108972 0 -0.041197026721621066 -0.003804435775291807 0 -0.042083422360021987 -0.0039230020669871702 0 -0.041197026721621066 -0.003804435775291807 0 -0.042083422360021987 -0.0039230020669871702 0 -0.041666534582622365 -0.0033210722005798088 0 -0.041197026721621066 -0.003804435775291807 0 -0.040866282224741791 -0.0034446833667294134 0 -0.041666534582622365 -0.0033210722005798088 0 -0.040799560049862536 -0.0039029427833100097 0 -0.041197026721621066 -0.003804435775291807 0 -0.040391684561154446 -0.0036953646995658649 0 -0.041197026721621066 -0.003804435775291807 0 -0.040391684561154446 -0.0036953646995658649 0 -0.040866282224741791 -0.0034446833667294134 0 -0.043810367082076529 -0.0039232321293355315 0 -0.045309092108647114 -0.004433271676136389 0 -0.045410857432173268 -0.0040840151043257701 0 -0.043810367082076529 -0.0039232321293355315 0 -0.045410857432173268 -0.0040840151043257701 0 -0.044906940148700066 -0.0036057243077326825 0 -0.043810367082076529 -0.0039232321293355315 0 -0.042083422360021987 -0.0039230020669871702 0 -0.042752648436012931 -0.0032262329917226713 0 -0.043810367082076529 -0.0039232321293355315 0 -0.042083422360021987 -0.0039230020669871702 0 -0.041798425133380314 -0.0042783816884658038 0 -0.042083422360021987 -0.0039230020669871702 0 -0.041666534582622365 -0.0033210722005798088 0 -0.042752648436012931 -0.0032262329917226713 0 -0.041349891702646434 -0.0040544329834108972 0 -0.041798425133380314 -0.0042783816884658038 0 -0.041156536587336937 -0.0040443048865969125 0 -0.041349891702646434 -0.0040544329834108972 0 -0.042083422360021987 -0.0039230020669871702 0 -0.041798425133380314 -0.0042783816884658038 0 -0.043810367082076529 -0.0039232321293355315 0 -0.044481805266432729 -0.004573466404633071 0 -0.045309092108647114 -0.004433271676136389 0 -0.04371074202671954 -0.0038057830750831945 0 -0.043177604072708424 -0.0042485990399191483 0 -0.044481805266432729 -0.004573466404633071 0 -0.045036543547778307 -0.0046886337751498933 0 -0.045309092108647114 -0.004433271676136389 0 -0.045036543547778307 -0.0046886337751498933 0 -0.044442697229900324 -0.0048978561252640759 0 -0.045352596480256753 -0.004996652864361832 0 -0.044442697229900324 -0.0048978561252640759 0 -0.045219726511573091 -0.0053545313571471661 0 -0.045352596480256753 -0.004996652864361832 0 -0.044481805266432729 -0.004573466404633071 0 -0.045036543547778307 -0.0046886337751498933 0 -0.044442697229900324 -0.0048978561252640759 0 -0.043177604072708424 -0.0042485990399191483 0 -0.042707467055773322 -0.0047026803249509662 0 -0.041798425133380314 -0.0042783816884658038 0 -0.041156536587336937 -0.0040443048865969125 0 -0.040802117194793597 -0.0038426159292004125 0 -0.044481805266432729 -0.004573466404633071 0 -0.044442697229900324 -0.0048978561252640759 0 -0.044359381587556153 -0.0051133240427773856 0 -0.040724690378595191 -0.0037653868356643853 0 -0.041156536587336937 -0.0040443048865969125 0 -0.040802117194793597 -0.0038426159292004125 0 -0.042707467055773322 -0.0047026803249509662 0 -0.040875193028052953 -0.003045281538983727 0 -0.040724690378595191 -0.0037653868356643853 0 -0.040802117194793597 -0.0038426159292004125 0 -0.040457577485269978 -0.0035080169338464642 0 -0.044359381587556153 -0.0051133240427773856 0 -0.044240815982426532 -0.0054818386510698492 0 -0.044663802043077037 -0.0053528410288897462 0 -0.044442697229900324 -0.0048978561252640759 0 -0.044359381587556153 -0.0051133240427773856 0 -0.044663802043077037 -0.0053528410288897462 0 -0.044442697229900324 -0.0048978561252640759 0 -0.045219726511573091 -0.0053545313571471661 0 -0.045135338395546724 -0.0059673201159385833 0 -0.04465861048585941 -0.0055289474557035168 0 -0.044668981022576972 -0.0041096750803926163 0 -0.045819947488471985 -0.0053167570184038766 0 -0.046294872306864486 -0.0055012772681479446 0 -0.045135338395546724 -0.0059673201159385833 0 -0.045219726511573091 -0.0053545313571471661 0 -0.045819947488471985 -0.0053167570184038766 0 -0.045135338395546724 -0.0059673201159385833 0 -0.046294872306864486 -0.0055012772681479446 0 -0.048468681798833804 -0.0048000225473152575 0 -0.04648834543211583 -0.0048626224592379199 0 -0.047046766219795602 -0.0056105746501629323 0 -0.044668981022576972 -0.0041096750803926163 0 -0.045219726511573091 -0.0053545313571471661 0 -0.045819947488471985 -0.0053167570184038766 0 -0.045352596480256753 -0.004996652864361832 0 -0.045819947488471985 -0.0053167570184038766 0 -0.046294872306864486 -0.0055012772681479446 0 -0.046158196777834712 -0.0048237529414654843 0 -0.046272044915342272 -0.0055509183957663279 0 -0.046294872306864486 -0.0055012772681479446 0 -0.04648834543211583 -0.0048626224592379199 0 -0.048116542890499096 -0.00099546088902087676 0 -0.047033360327605217 -0.00076029908884219237 0 -0.047373924443857449 0.00029479503471468641 0 -0.048116542890499096 -0.00099546088902087676 0 -0.047033360327605217 -0.00076029908884219237 0 -0.046831589564007202 -0.0021677662550123665 0 -0.046272044915342272 -0.0055509183957663279 0 -0.046294872306864486 -0.0055012772681479446 0 -0.046158196777834712 -0.0048237529414654843 0 -0.046272044915342272 -0.0055509183957663279 0 -0.046835716201941754 -0.0039600546875971912 0 -0.046158196777834712 -0.0048237529414654843 0 -0.048116542890499096 -0.00099546088902087676 0 -0.046835716201941754 -0.0039600546875971912 0 -0.046831589564007202 -0.0021677662550123665 0 -0.047089199742535719 -0.0031441891801603002 0 -0.046927196851220598 -0.0038382248859829874 0 -0.046835716201941754 -0.0039600546875971912 0 -0.045664399740552482 -0.0045975118109068489 0 -0.046158196777834712 -0.0048237529414654843 0 -0.045036543547778307 -0.0046886337751498933 0 -0.045664399740552482 -0.0045975118109068489 0 -0.045352596480256753 -0.004996652864361832 0 -0.045819947488471985 -0.0053167570184038766 0 -0.045352596480256753 -0.004996652864361832 0 -0.046158196777834712 -0.0048237529414654843 0 -0.045664399740552482 -0.0045975118109068489 0 -0.045352596480256753 -0.004996652864361832 0 -0.046158196777834712 -0.0048237529414654843 0 -0.044999470194335985 -0.0010214407465250247 0 -0.046309117518142907 -0.0014647069020854112 0 -0.046423122085381061 0.00031652270889918264 0 -0.046309117518142907 -0.0014647069020854112 0 -0.047033360327605217 -0.00076029908884219237 0 -0.046423122085381061 0.00031652270889918264 0 -0.046309117518142907 -0.0014647069020854112 0 -0.047033360327605217 -0.00076029908884219237 0 -0.046831589564007202 -0.0021677662550123665 0 -0.046835716201941754 -0.0039600546875971912 0 -0.046232919333332144 -0.0031858426146195518 0 -0.046831589564007202 -0.0021677662550123665 0 -0.046309117518142907 -0.0014647069020854112 0 -0.046232919333332144 -0.0031858426146195518 0 -0.046831589564007202 -0.0021677662550123665 0 -0.044999470194335985 -0.0010214407465250247 0 -0.046232919333332144 -0.0031858426146195518 0 -0.044999909912198398 -0.0036628882354166931 0 -0.044999470194335985 -0.0010214407465250247 0 -0.046309117518142907 -0.0014647069020854112 0 -0.046232919333332144 -0.0031858426146195518 0 -0.046232919333332144 -0.0031858426146195518 0 -0.044999909912198398 -0.0036628882354166931 0 -0.046135186840899053 -0.0047576676788168657 0 -0.046232919333332144 -0.0031858426146195518 0 -0.046135186840899053 -0.0047576676788168657 0 -0.046575685445321036 -0.0042385531622433446 0 -0.046135186840899053 -0.0047576676788168657 0 -0.046575685445321036 -0.0042385531622433446 0 -0.046528721983632011 -0.0046236309511700178 0 -0.046135186840899053 -0.0047576676788168657 0 -0.046528721983632011 -0.0046236309511700178 0 -0.04657273765059531 -0.0050716782336801105 0 -0.044999909912198398 -0.0036628882354166931 0 -0.046135186840899053 -0.0047576676788168657 0 -0.044999687511117305 -0.0063030491701056013 0 -0.045309092108647114 -0.004433271676136389 0 -0.04618893102278885 -0.0042197841542419108 0 -0.045410857432173268 -0.0040840151043257701 0 -0.046835716201941754 -0.0039600546875971912 0 -0.045309092108647114 -0.004433271676136389 0 -0.04618893102278885 -0.0042197841542419108 0 -0.046835716201941754 -0.0039600546875971912 0 -0.045664399740552482 -0.0045975118109068489 0 -0.045309092108647114 -0.004433271676136389 0 -0.045036543547778307 -0.0046886337751498933 0 -0.045664399740552482 -0.0045975118109068489 0 -0.045309092108647114 -0.004433271676136389 0 -0.046835716201941754 -0.0039600546875971912 0 -0.046232919333332144 -0.0031858426146195518 0 -0.046575685445321036 -0.0042385531622433446 0 -0.046835716201941754 -0.0039600546875971912 0 -0.046575685445321036 -0.0042385531622433446 0 -0.04618893102278885 -0.0042197841542419108 0 -0.046575685445321036 -0.0042385531622433446 0 -0.04618893102278885 -0.0042197841542419108 0 -0.046289494969719618 -0.0043242343487554192 0 -0.046575685445321036 -0.0042385531622433446 0 -0.046528721983632011 -0.0046236309511700178 0 -0.046289494969719618 -0.0043242343487554192 0 -0.046528721983632011 -0.0046236309511700178 0 -0.046289494969719618 -0.0043242343487554192 0 -0.046485913787589782 -0.0045638528121129205 0 -0.046289494969719618 -0.0043242343487554192 0 -0.045410857432173268 -0.0040840151043257701 0 -0.045854611344226789 -0.0039870058587653245 0 -0.04618893102278885 -0.0042197841542419108 0 -0.046289494969719618 -0.0043242343487554192 0 -0.045410857432173268 -0.0040840151043257701 0 -0.045410857432173268 -0.0040840151043257701 0 -0.044906940148700066 -0.0036057243077326825 0 -0.045854611344226789 -0.0039870058587653245 0 -0.045854611344226789 -0.0039870058587653245 0 -0.046151361990863275 -0.0040847446577237899 0 -0.04502187110033979 -0.0027907443633751494 0 -0.044906940148700066 -0.0036057243077326825 0 -0.045854611344226789 -0.0039870058587653245 0 -0.04502187110033979 -0.0027907443633751494 0 -0.046289494969719618 -0.0043242343487554192 0 -0.045854611344226789 -0.0039870058587653245 0 -0.046485913787589782 -0.0045638528121129205 0 -0.046485913787589782 -0.0045638528121129205 0 -0.046659114142013507 -0.0048795377389028779 0 -0.04657273765059531 -0.0050716782336801105 0 -0.046528721983632011 -0.0046236309511700178 0 -0.046485913787589782 -0.0045638528121129205 0 -0.04657273765059531 -0.0050716782336801105 0 -0.046659114142013507 -0.0048795377389028779 0 -0.046519224574193913 -0.0040777855512410819 0 -0.046804831628885726 -0.0056851191251992136 0 -0.046485913787589782 -0.0045638528121129205 0 -0.046659114142013507 -0.0048795377389028779 0 -0.046151361990863275 -0.0040847446577237899 0 -0.046659114142013507 -0.0048795377389028779 0 -0.046151361990863275 -0.0040847446577237899 0 -0.046519224574193913 -0.0040777855512410819 0 -0.045854611344226789 -0.0039870058587653245 0 -0.046485913787589782 -0.0045638528121129205 0 -0.046151361990863275 -0.0040847446577237899 0 -0.046561622996113369 -0.0052004000537932841 0 -0.046945797969354865 -0.0057280286324843449 0 -0.048167449943896219 -0.0067660579443425293 0 -0.048582689923359595 -0.0075081669285853173 0 -0.049619599433776557 -0.007773497943853516 0 -0.046561622996113369 -0.0052004000537932841 0 -0.046969695723547499 -0.0055029132355142001 0 -0.048462521384275557 -0.0066531675606661808 0 -0.047733571061108579 -0.0066467425114993912 0 -0.046804831628885726 -0.0056851191251992136 0 -0.048167449943896219 -0.0067660579443425293 0 -0.047733571061108579 -0.0066467425114993912 0 -0.047963672556095231 -0.0075023313764291779 0 -0.046561622996113369 -0.0052004000537932841 0 -0.047253217314732004 -0.0054480455152890947 0 -0.047963672556095231 -0.0075023313764291779 0 -0.048554981643525515 -0.0080006756063069756 0 -0.047803434274691296 -0.0084697918954905714 0 -0.047733571061108579 -0.0066467425114993912 0 -0.047963672556095231 -0.0075023313764291779 0 -0.047015504928930772 -0.0074380012973513489 0 -0.047963672556095231 -0.0075023313764291779 0 -0.047015504928930772 -0.0074380012973513489 0 -0.047803434274691296 -0.0084697918954905714 0 -0.048167449943896219 -0.0067660579443425293 0 -0.047963672556095231 -0.0075023313764291779 0 -0.048582689923359595 -0.0075081669285853173 0 -0.048582689923359595 -0.0075081669285853173 0 -0.048554981643525515 -0.0080006756063069756 0 -0.049619599433776557 -0.007773497943853516 0 -0.047963672556095231 -0.0075023313764291779 0 -0.048582689923359595 -0.0075081669285853173 0 -0.048554981643525515 -0.0080006756063069756 0 -0.046151361990863275 -0.0040847446577237899 0 -0.046519224574193913 -0.0040777855512410819 0 -0.04502187110033979 -0.0027907443633751494 0 -0.045029021565762085 -0.0042419799138666619 0 -0.043371201259568185 -0.0034790624371741599 0 -0.042829803712193186 -0.0042796326417693662 0 -0.046561622996113369 -0.0052004000537932841 0 -0.043692157043383979 -0.0034806622661231997 0 -0.043371201259568185 -0.0034790624371741599 0 -0.042829803712193186 -0.0042796326417693662 0 -0.042397612754508866 -0.0035223116894139025 0 -0.046135186840899053 -0.0047576676788168657 0 -0.044999687511117305 -0.0063030491701056013 0 -0.045928652450551111 -0.0066171849671222954 0 -0.046135186840899053 -0.0047576676788168657 0 -0.04657273765059531 -0.0050716782336801105 0 -0.045928652450551111 -0.0066171849671222954 0 -0.04657273765059531 -0.0050716782336801105 0 -0.046804831628885726 -0.0056851191251992136 0 -0.045928652450551111 -0.0066171849671222954 0 -0.046659114142013507 -0.0048795377389028779 0 -0.04657273765059531 -0.0050716782336801105 0 -0.046804831628885726 -0.0056851191251992136 0 -0.047015504928930772 -0.0074380012973513489 0 -0.045928652450551111 -0.0066171849671222954 0 -0.046461624846453324 -0.0086976293446706498 0 -0.047733571061108579 -0.0066467425114993912 0 -0.046804831628885726 -0.0056851191251992136 0 -0.047015504928930772 -0.0074380012973513489 0 -0.046804831628885726 -0.0056851191251992136 0 -0.047015504928930772 -0.0074380012973513489 0 -0.045928652450551111 -0.0066171849671222954 0 -0.044999687511117305 -0.0063030491701056013 0 -0.045928652450551111 -0.0066171849671222954 0 -0.044999604700790834 -0.0089458479060470792 0 -0.045928652450551111 -0.0066171849671222954 0 -0.044999604700790834 -0.0089458479060470792 0 -0.046461624846453324 -0.0086976293446706498 0 -0.044999604700790834 -0.0089458479060470792 0 -0.046461624846453324 -0.0086976293446706498 0 -0.04603399088379153 -0.010547091007375666 0 -0.047015504928930772 -0.0074380012973513489 0 -0.046461624846453324 -0.0086976293446706498 0 -0.047803434274691296 -0.0084697918954905714 0 -0.046461624846453324 -0.0086976293446706498 0 -0.047341758579009484 -0.00986298467090207 0 -0.047803434274691296 -0.0084697918954905714 0 -0.046461624846453324 -0.0086976293446706498 0 -0.047341758579009484 -0.00986298467090207 0 -0.04603399088379153 -0.010547091007375666 0 -0.045026915658297251 -0.013248249956088771 0 -0.04755207829842318 -0.0093106119038494171 0 -0.047035757162007537 -0.01161584444870906 0 -0.047341758579009484 -0.00986298467090207 0 -0.04603399088379153 -0.010547091007375666 0 -0.044999928461040763 -0.011587745576482273 0 -0.044999604700790834 -0.0089458479060470792 0 -0.04603399088379153 -0.010547091007375666 0 -0.049619599433776557 -0.007773497943853516 0 -0.049789087528966366 -0.0091716405110180456 0 -0.050998662964401066 -0.0085214554860232987 0 -0.049789087528966366 -0.0091716405110180456 0 -0.048930449767677416 -0.0088538160996190496 0 -0.048854542355982813 -0.0099817744692476014 0 -0.049619599433776557 -0.007773497943853516 0 -0.049789087528966366 -0.0091716405110180456 0 -0.048930449767677416 -0.0088538160996190496 0 -0.048554981643525515 -0.0080006756063069756 0 -0.049619599433776557 -0.007773497943853516 0 -0.048930449767677416 -0.0088538160996190496 0 -0.048554981643525515 -0.0080006756063069756 0 -0.047803434274691296 -0.0084697918954905714 0 -0.048930449767677416 -0.0088538160996190496 0 -0.047341758579009484 -0.00986298467090207 0 -0.047803434274691296 -0.0084697918954905714 0 -0.048235392134672803 -0.0092986538971196048 0 -0.048235392134672803 -0.0092986538971196048 0 -0.048930449767677416 -0.0088538160996190496 0 -0.048854542355982813 -0.0099817744692476014 0 -0.047803434274691296 -0.0084697918954905714 0 -0.048235392134672803 -0.0092986538971196048 0 -0.048930449767677416 -0.0088538160996190496 0 -0.048752345043240344 -0.011053553497034907 0 -0.047341758579009484 -0.00986298467090207 0 -0.048854542355982813 -0.0099817744692476014 0 -0.048752345043240344 -0.011053553497034907 0 -0.046989227745069688 -0.011397644149492717 0 -0.047341758579009484 -0.00986298467090207 0 -0.047341758579009484 -0.00986298467090207 0 -0.048235392134672803 -0.0092986538971196048 0 -0.048854542355982813 -0.0099817744692476014 0 -0.046142936979645749 -0.013542762565641554 0 -0.039904477347130915 -0.014275089045809921 0 -0.049789087528966366 -0.0091716405110180456 0 -0.048854542355982813 -0.0099817744692476014 0 -0.050508267989791092 -0.010715598350898383 0 -0.048752345043240344 -0.011053553497034907 0 -0.048854542355982813 -0.0099817744692476014 0 -0.050508267989791092 -0.010715598350898383 0 -0.038033318591227147 -0.010642092691648265 0 -0.037537843216277622 -0.0129883078619369 0 -0.036324340351252621 -0.010929960814147509 0 -0.039904477347130915 -0.014275089045809921 0 -0.042868622623637255 -0.0076540084106262582 0 -0.039904477347130915 -0.014275089045809921 0 -0.031661440247589288 -0.015141528198458792 0 -0.049789087528966366 -0.0091716405110180456 0 -0.050508267989791092 -0.010715598350898383 0 -0.050998662964401066 -0.0085214554860232987 0 -0.046945797969354865 -0.0057280286324843449 0 -0.042868622623637255 -0.0076540084106262582 0 -0.041840905609617549 -0.0030119065975907837 0 -0.041808943442935648 -0.0032105762076843052 0 -0.041465732850156055 -0.0032687776662063055 0 -0.042868622623637255 -0.0076540084106262582 0 -0.042984979107653157 -0.0059045233748636081 0 -0.041873564299788966 -0.0029042109366441615 0 -0.041808943442935648 -0.0032105762076843052 0 -0.042397612754508866 -0.0035223116894139025 0 -0.037537843216277622 -0.0129883078619369 0 -0.036156979394614458 -0.012385933270826408 0 -0.036324340351252621 -0.010929960814147509 0 -0.040948835667844276 -0.0027125363541416455 0 -0.040419550547362043 -0.0031767686622192854 0 -0.041025189313916251 -0.0033239340269283065 0 -0.040948835667844276 -0.0027125363541416455 0 -0.041465732850156055 -0.0032687776662063055 0 -0.041025189313916251 -0.0033239340269283065 0 -0.042868622623637255 -0.0076540084106262582 0 -0.038366250547560314 -0.0074991449491569892 0 -0.041840905609617549 -0.0030119065975907837 0 -0.040948835667844276 -0.0027125363541416455 0 -0.041465732850156055 -0.0032687776662063055 0 -0.038366250547560314 -0.0074991449491569892 0 -0.035078070095068678 -0.0088778181427696772 0 -0.031661440247589288 -0.015141528198458792 0 -0.031360352041304988 -0.015258503466869956 0 -0.028688126007772218 -0.018624043792847374 0 -0.029004208743277839 -0.019013992057007833 0 -0.028428147374274959 -0.019107446964851529 0 -0.036156979394614458 -0.012385933270826408 0 -0.036324340351252621 -0.010929960814147509 0 -0.03475779282784304 -0.0117772334055164 0 -0.036324340351252621 -0.010929960814147509 0 -0.034585585651885055 -0.011227407750774859 0 -0.03475779282784304 -0.0117772334055164 0 -0.027878970895085387 -0.017630197917057711 0 -0.027884665769450308 -0.017559957442735499 0 -0.027914460282984044 -0.017550906948767282 0 -0.027934535716957386 -0.017522052971111281 0 -0.027914460282984044 -0.017550906948767282 0 -0.027938735386141705 -0.017503222519039494 0 -0.031360352041304988 -0.015258503466869956 0 -0.029090080796986311 -0.016043918296495593 0 -0.031360352041304988 -0.015258503466869956 0 -0.035078070095068678 -0.0088778181427696772 0 -0.027914460282984044 -0.017550906948767282 0 -0.027938735386141705 -0.017503222519039494 0 -0.027879943225552394 -0.017637753338637582 0 -0.040308704843485109 -0.0030257873267461634 0 -0.0395842440592548 -0.0025695292943641377 0 -0.039879082036152605 -0.0030957975748584009 0 -0.027878970895085387 -0.017630197917057711 0 -0.027914460282984044 -0.017550906948767282 0 -0.027879943225552394 -0.017637753338637582 0 -0.035078070095068678 -0.0088778181427696772 0 -0.033612499720907844 -0.010457293633237968 0 -0.039527370253063743 -0.0030962171038931099 0 -0.0395842440592548 -0.0025695292943641377 0 -0.039879082036152605 -0.0030957975748584009 0 -0.039527370253063743 -0.0030962171038931099 0 -0.039879082036152605 -0.0030957975748584009 0 -0.039747593704895216 -0.0034290378175659878 0 -0.039747593704895216 -0.0034290378175659878 0 -0.040112795617703617 -0.0033061649398569075 0 -0.03995471165948488 -0.0035689389968181226 0 -0.039879082036152605 -0.0030957975748584009 0 -0.039747593704895216 -0.0034290378175659878 0 -0.040112795617703617 -0.0033061649398569075 0 -0.040948835667844276 -0.0027125363541416455 0 -0.0401553258470446 -0.002416533229277879 0 -0.040419550547362043 -0.0031767686622192854 0 -0.035078070095068678 -0.0088778181427696772 0 -0.039983052731236764 -0.0026964857816089982 0 -0.040308704843485109 -0.0030257873267461634 0 -0.040112795617703617 -0.0033061649398569075 0 -0.040418000580991764 -0.0033598687220254162 0 -0.040308704843485109 -0.0030257873267461634 0 -0.039879082036152605 -0.0030957975748584009 0 -0.040112795617703617 -0.0033061649398569075 0 -0.040112795617703617 -0.0033061649398569075 0 -0.040418000580991764 -0.0033598687220254162 0 -0.040294172306967566 -0.0036323843512216319 0 -0.040418000580991764 -0.0033598687220254162 0 -0.040294172306967566 -0.0036323843512216319 0 -0.040677113671401047 -0.0039075292614791993 0 -0.040590678544322058 -0.003260256864971397 0 -0.041969171111833722 -0.0032374081078138145 0 -0.040112795617703617 -0.0033061649398569075 0 -0.040294172306967566 -0.0036323843512216319 0 -0.03995471165948488 -0.0035689389968181226 0 -0.040294172306967566 -0.0036323843512216319 0 -0.040051744048019262 -0.0037753142707354641 0 -0.03995471165948488 -0.0035689389968181226 0 -0.040294172306967566 -0.0036323843512216319 0 -0.040051744048019262 -0.0037753142707354641 0 -0.040677113671401047 -0.0039075292614791993 0 -0.040023116757233045 -0.0034022892238875823 0 -0.040590678544322058 -0.003260256864971397 0 -0.039930595088568256 -0.0034494280303094438 0 -0.040051744048019262 -0.0037753142707354641 0 -0.03995471165948488 -0.0035689389968181226 0 -0.039930595088568256 -0.0034494280303094438 0 -0.039747593704895216 -0.0034290378175659878 0 -0.03995471165948488 -0.0035689389968181226 0 -0.039930595088568256 -0.0034494280303094438 0 -0.0410114618627197 -0.002710466492129381 0 -0.040866282224741791 -0.0034446833667294134 0 -0.039930595088568256 -0.0034494280303094438 0 -0.040391684561154446 -0.0036953646995658649 0 -0.040866282224741791 -0.0034446833667294134 0 -0.0410114618627197 -0.002710466492129381 0 -0.042016029180259991 -0.0028656386709018582 0 -0.042751763066426668 -0.0022799166127792248 0 -0.0410114618627197 -0.002710466492129381 0 -0.041666534582622365 -0.0033210722005798088 0 -0.042016029180259991 -0.0028656386709018582 0 -0.0410114618627197 -0.002710466492129381 0 -0.040866282224741791 -0.0034446833667294134 0 -0.041666534582622365 -0.0033210722005798088 0 -0.041666534582622365 -0.0033210722005798088 0 -0.042016029180259991 -0.0028656386709018582 0 -0.042752648436012931 -0.0032262329917226713 0 -0.042016029180259991 -0.0028656386709018582 0 -0.042752648436012931 -0.0032262329917226713 0 -0.042751763066426668 -0.0022799166127792248 0 -0.042752648436012931 -0.0032262329917226713 0 -0.043938721022770764 -0.0031659745169433065 0 -0.042751763066426668 -0.0022799166127792248 0 -0.043810367082076529 -0.0039232321293355315 0 -0.042752648436012931 -0.0032262329917226713 0 -0.043938721022770764 -0.0031659745169433065 0 -0.04502187110033979 -0.0027907443633751494 0 -0.043938721022770764 -0.0031659745169433065 0 -0.042751763066426668 -0.0022799166127792248 0 -0.043810367082076529 -0.0039232321293355315 0 -0.044906940148700066 -0.0036057243077326825 0 -0.043938721022770764 -0.0031659745169433065 0 -0.044906940148700066 -0.0036057243077326825 0 -0.04502187110033979 -0.0027907443633751494 0 -0.043938721022770764 -0.0031659745169433065 0 -0.043692157043383979 -0.0034806622661231997 0 -0.041969171111833722 -0.0032374081078138145 0 -0.042829803712193186 -0.0042796326417693662 0 -0.04211817231435807 -0.0037894267717854297 0 -0.041042255781723762 -0.0040990329514255224 0 -0.04211817231435807 -0.0037894267717854297 0 -0.041467821593981657 -0.0036933353397690886 0 -0.041042255781723762 -0.0040990329514255224 0 -0.043371201259568185 -0.0034790624371741599 0 -0.041873564299788966 -0.0029042109366441615 0 -0.042397612754508866 -0.0035223116894139025 0 -0.042829803712193186 -0.0042796326417693662 0 -0.042397612754508866 -0.0035223116894139025 0 -0.04211817231435807 -0.0037894267717854297 0 -0.041808943442935648 -0.0032105762076843052 0 -0.042397612754508866 -0.0035223116894139025 0 -0.04211817231435807 -0.0037894267717854297 0 -0.041808943442935648 -0.0032105762076843052 0 -0.04211817231435807 -0.0037894267717854297 0 -0.041705210931141087 -0.0034839565705710672 0 -0.04211817231435807 -0.0037894267717854297 0 -0.041467821593981657 -0.0036933353397690886 0 -0.041705210931141087 -0.0034839565705710672 0 -0.041467821593981657 -0.0036933353397690886 0 -0.041465732850156055 -0.0032687776662063055 0 -0.041705210931141087 -0.0034839565705710672 0 -0.041808943442935648 -0.0032105762076843052 0 -0.041465732850156055 -0.0032687776662063055 0 -0.041705210931141087 -0.0034839565705710672 0 -0.040051744048019262 -0.0037753142707354641 0 -0.040677113671401047 -0.0039075292614791993 0 -0.041042255781723762 -0.0040990329514255224 0 -0.041467821593981657 -0.0036933353397690886 0 -0.041465732850156055 -0.0032687776662063055 0 -0.041025189313916251 -0.0033239340269283065 0 -0.041467821593981657 -0.0036933353397690886 0 -0.041025189313916251 -0.0033239340269283065 0 -0.040907149021956628 -0.0036626200615448904 0 -0.040419550547362043 -0.0031767686622192854 0 -0.040907149021956628 -0.0036626200615448904 0 -0.040677113671401047 -0.0039075292614791993 0 -0.040419550547362043 -0.0031767686622192854 0 -0.041025189313916251 -0.0033239340269283065 0 -0.040907149021956628 -0.0036626200615448904 0 -0.039983052731236764 -0.0026964857816089982 0 -0.040661917203865638 -0.0040270419741899035 0 -0.040907149021956628 -0.0036626200615448904 0 -0.040677113671401047 -0.0039075292614791993 0 -0.041042255781723762 -0.0040990329514255224 0 -0.041467821593981657 -0.0036933353397690886 0 -0.040907149021956628 -0.0036626200615448904 0 -0.041042255781723762 -0.0040990329514255224 0 0.001289385844506814 -0.0059532119568966209 0 -0.0059982316219661241 -0.0047097885633300999 0 -0.003482980472633694 -0.0051726878491346762 0 -0.0021143877661311357 -0.0039051700257901182 0 -0.004737611993555226 -0.0026653428791087392 0 -0.003482980472633694 -0.0051726878491346762 0 -0.0056991452121838981 -0.0052816670353247504 0 -0.004737611993555226 -0.0026653428791087392 0 -0.003482980472633694 -0.0051726878491346762 0 -0.0021143877661311357 -0.0039051700257901182 0 -0.0012478470687856691 -0.0050528021444272318 0 0.0022372137316640272 -0.0082814104615281207 0 0.002998512438370252 -0.0060713921416388726 0 0.004687504692539402 -0.0094345361803797219 0 -0.005391908904901108 -0.0033515228332789081 0 -0.00010164006646511777 -0.0031696929579548079 0 0.001289385844506814 -0.0059532119568966209 0 0.0012627602791262307 -0.0068109280596744953 0 0.001289385844506814 -0.0059532119568966209 0 0.0070153936820983205 -0.0056564428985096888 0 0.0020994516868120291 -0.004370596746599501 0 0.0028416674569599295 -0.0053379043688837882 0 0.0034793737998091846 -0.0050070506575281854 0 0.001289385844506814 -0.0059532119568966209 0 -0.00010164006646511777 -0.0031696929579548079 0 0.0028416674569599295 -0.0053379043688837882 0 0.0033990775872790101 -0.005306654061968734 0 0.0034793737998091846 -0.0050070506575281854 0 -0.00010164006646511777 -0.0031696929579548079 0 0.0057444013496279834 -0.0034393057089293867 0 -0.0063355621770271927 -0.0014971474401484748 0 -0.0062719626461632538 -0.0014991811694743018 0 -0.0063102203862046499 -0.0015161001313969092 0 -0.0063355621770271927 -0.0014971474401484748 0 -0.0062328053369657731 -0.0014691110542249472 0 -0.0062719626461632538 -0.0014991811694743018 0 0.0032949925423916681 -0.0038829683534857993 0 0.0028405917133838563 -0.0032612289618224161 0 0.002671045149069305 -0.0039160598717544303 0 -0.00010164006646511777 -0.0031696929579548079 0 0.0028490285243355346 -0.0019705285092335833 0 -0.0062328053369657731 -0.0014691110542249472 0 -0.0062719626461632538 -0.0014991811694743018 0 -0.0062155863921194267 -0.0014894944770806932 0 -0.0062719626461632538 -0.0014991811694743018 0 -0.0062155863921194267 -0.0014894944770806932 0 -0.0062645977591802441 -0.001507491579320579 0 0.0028490285243355346 -0.0019705285092335833 0 -0.00079375818982714097 -0.00048433843827462602 0 -0.0062155863921194267 -0.0014894944770806932 0 -0.0062645977591802441 -0.001507491579320579 0 -0.0062537061814256474 -0.00151955889722599 0 -0.0062645977591802441 -0.001507491579320579 0 -0.0062736060839155656 -0.0015160747756330945 0 -0.0062901800218669347 -0.0015141728572789731 0 -0.0062719626461632538 -0.0014991811694743018 0 -0.0062645977591802441 -0.001507491579320579 0 -0.0062901800218669347 -0.0015141728572789731 0 -0.0062736060839155656 -0.0015160747756330945 0 -0.0062740775495769242 -0.0015113662698297077 0 -0.0062986202382559224 -0.0015133331400595455 0 -0.0062645977591802441 -0.001507491579320579 0 -0.0062736060839155656 -0.0015160747756330945 0 -0.0062537061814256474 -0.00151955889722599 0 -0.0016177207076857744 -0.00038194048814585207 0 -0.00079375818982714097 -0.00048433843827462602 0 -0.0063102203862046499 -0.0015161001313969092 0 -0.0063551960388493322 -0.0015345849443873978 0 -0.0062986202382559224 -0.0015133331400595455 0 -0.0062719626461632538 -0.0014991811694743018 0 -0.0063102203862046499 -0.0015161001313969092 0 -0.0062901800218669347 -0.0015141728572789731 0 -0.0062736060839155656 -0.0015160747756330945 0 -0.0062901800218669347 -0.0015141728572789731 0 -0.0062986202382559224 -0.0015133331400595455 0 -0.0063102203862046499 -0.0015161001313969092 0 -0.0062901800218669347 -0.0015141728572789731 0 -0.0062986202382559224 -0.0015133331400595455 0 -0.0063355621770271927 -0.0014971474401484748 0 -0.0064016033915637854 -0.0015627317301605604 0 -0.0064459578660315889 -0.001533115454796943 0 -0.0063355621770271927 -0.0014971474401484748 0 -0.0064016033915637854 -0.0015627317301605604 0 -0.0063551960388493322 -0.0015345849443873978 0 -0.005391908904901108 -0.0033515228332789081 0 -0.0066371433250246624 -0.0029335292849944961 0 -0.0063355621770271927 -0.0014971474401484748 0 -0.0063102203862046499 -0.0015161001313969092 0 -0.0063551960388493322 -0.0015345849443873978 0 -0.0064016033915637854 -0.0015627317301605604 0 -0.0063551960388493322 -0.0015345849443873978 0 -0.0064198470875051023 -0.0015649192666664171 0 -0.0064016033915637854 -0.0015627317301605604 0 -0.0064747441690397598 -0.0016412566692995941 0 -0.0064198470875051023 -0.0015649192666664171 0 -0.0064343714249027253 -0.0017319369669621121 0 -0.0065431760754850275 -0.0017392681985194988 0 -0.0062835681134879679 -0.0020846318119143929 0 -0.0064747441690397598 -0.0016412566692995941 0 -0.0064249138378188993 -0.0016094216037229958 0 -0.0064198470875051023 -0.0015649192666664171 0 -0.0064249138378188993 -0.0016094216037229958 0 -0.0064343714249027253 -0.0017319369669621121 0 -0.0063791753374876923 -0.0016912810549433502 0 -0.0064747441690397598 -0.0016412566692995941 0 -0.0064249138378188993 -0.0016094216037229958 0 -0.0064343714249027253 -0.0017319369669621121 0 -0.0064747441690397598 -0.0016412566692995941 0 -0.0064343714249027253 -0.0017319369669621121 0 -0.0065431760754850275 -0.0017392681985194988 0 -0.0064016033915637854 -0.0015627317301605604 0 -0.0064747441690397598 -0.0016412566692995941 0 -0.0064459578660315889 -0.001533115454796943 0 -0.0063535240885356104 -0.0017677346185682489 0 -0.0066371433250246624 -0.0029335292849944961 0 -0.0062835681134879679 -0.0020846318119143929 0 -0.0061578835539692145 -0.0023622319028647402 0 -0.0062582623304925679 -0.0014424720400959957 0 -0.025250207898781976 -0.0044415786578822962 0 -0.025281678714476785 -0.004842356754473357 0 -0.024821289603922214 -0.0057964714531956833 0 -0.0066371433250246624 -0.0029335292849944961 0 -0.0067517087535700713 -0.0019041494710451065 0 -0.0063331628608112416 -0.0016388473841810406 0 -0.0062835681134879679 -0.0020846318119143929 0 -0.0062582623304925679 -0.0014424720400959957 0 -0.016100745788871242 -0.004817739212240376 0 -0.010041118556380875 0.0001245493500036077 0 -0.0063331628608112416 -0.0016388473841810406 0 -0.0063791753374876923 -0.0016912810549433502 0 -0.0062835681134879679 -0.0020846318119143929 0 -0.0063331628608112416 -0.0016388473841810406 0 -0.0063791753374876923 -0.0016912810549433502 0 -0.0063550167395277617 -0.0015251273232962965 0 -0.0064249138378188993 -0.0016094216037229958 0 -0.0063791753374876923 -0.0016912810549433502 0 -0.0063550167395277617 -0.0015251273232962965 0 -0.0064343714249027253 -0.0017319369669621121 0 -0.0063791753374876923 -0.0016912810549433502 0 -0.0062835681134879679 -0.0020846318119143929 0 -0.0087680189652349031 -0.0020694632306677008 0 -0.0062835681134879679 -0.0020846318119143929 0 -0.0073415826029846623 -0.0028441378203160035 0 -0.0062835681134879679 -0.0020846318119143929 0 -0.0061578835539692145 -0.0023622319028647402 0 -0.0073415826029846623 -0.0028441378203160035 0 -0.0061578835539692145 -0.0023622319028647402 0 -0.0073415826029846623 -0.0028441378203160035 0 -0.0073036316345288016 -0.0042514219236220495 0 -0.0087680189652349031 -0.0020694632306677008 0 -0.0082273004088986197 -0.0036968386996491646 0 -0.0095979148152656509 -0.0043116041112525334 0 -0.0066371433250246624 -0.0029335292849944961 0 -0.0059982316219661241 -0.0047097885633300999 0 -0.0087680189652349031 -0.0020694632306677008 0 -0.0073415826029846623 -0.0028441378203160035 0 -0.0082273004088986197 -0.0036968386996491646 0 -0.0073415826029846623 -0.0028441378203160035 0 -0.0082273004088986197 -0.0036968386996491646 0 -0.0073036316345288016 -0.0042514219236220495 0 -0.0089704360783698766 -0.00415281241074969 0 -0.0059982316219661241 -0.0047097885633300999 0 -0.0082273004088986197 -0.0036968386996491646 0 -0.0085044677466763908 -0.004853033783564469 0 -0.0095979148152656509 -0.0043116041112525334 0 -0.0082273004088986197 -0.0036968386996491646 0 -0.0085044677466763908 -0.004853033783564469 0 -0.0073036316345288016 -0.0042514219236220495 0 -0.0085044677466763908 -0.004853033783564469 0 -0.0073036316345288016 -0.0042514219236220495 0 -0.0076078011077346302 -0.0058823024273338461 0 -0.0061578835539692145 -0.0023622319028647402 0 -0.0073036316345288016 -0.0042514219236220495 0 -0.0060424073203370196 -0.0057825774588775294 0 -0.016100745788871242 -0.004817739212240376 0 -0.015711460761123713 -0.0065275282049422076 0 -0.0073036316345288016 -0.0042514219236220495 0 -0.0060424073203370196 -0.0057825774588775294 0 -0.0076078011077346302 -0.0058823024273338461 0 -0.0060424073203370196 -0.0057825774588775294 0 -0.0076078011077346302 -0.0058823024273338461 0 -0.0076012034276332257 -0.0075396828956724483 0 -0.0060424073203370196 -0.0057825774588775294 0 -0.0060443168499528348 -0.0088363891616680922 0 -0.0076012034276332257 -0.0075396828956724483 0 -0.0085044677466763908 -0.004853033783564469 0 -0.0076078011077346302 -0.0058823024273338461 0 -0.0087633762320654882 -0.0066649932710802062 0 -0.0087633762320654882 -0.0066649932710802062 0 -0.0092845014839417171 -0.0079890346516980904 0 -0.0076012034276332257 -0.0075396828956724483 0 -0.0085044677466763908 -0.004853033783564469 0 -0.0087633762320654882 -0.0066649932710802062 0 -0.010285944171005234 -0.0065285501081855778 0 -0.0076078011077346302 -0.0058823024273338461 0 -0.0087633762320654882 -0.0066649932710802062 0 -0.0076012034276332257 -0.0075396828956724483 0 -0.0087633762320654882 -0.0066649932710802062 0 -0.010194808832594965 -0.0065903687470526481 0 -0.0092845014839417171 -0.0079890346516980904 0 -0.010773114690380451 -0.0064464421452125721 0 -0.0035008226095306714 -0.0065712791505692916 0 -0.0035008226095306714 -0.0065712791505692916 0 -0.0059982316219661241 -0.0047097885633300999 0 -0.00028151735648984031 -0.0023404096132513953 0 0.00053721453748004089 -0.006043058101531015 0 0.0017177751095685675 -0.00424885158371981 0 -0.0085044677466763908 -0.004853033783564469 0 -0.010285944171005234 -0.0065285501081855778 0 -0.009522520355469407 -0.004362814116946603 0 -0.00028151735648984031 -0.0023404096132513953 0 0.00053721453748004089 -0.006043058101531015 0 -0.0017416515378961999 -0.0063728048260231806 0 0.0021628019029286318 -0.0082035205566189338 0 0.00053721453748004089 -0.006043058101531015 0 -0.0017416515378961999 -0.0063728048260231806 0 0.002998512438370252 -0.0060713921416388726 0 0.0017177751095685675 -0.00424885158371981 0 0.0030823470991275842 -0.0025754481033114685 0 0.002998512438370252 -0.0060713921416388726 0 0.0030823470991275842 -0.0025754481033114685 0 0.0055651946130781315 -0.0061397104455170604 0 0.0022372137316640272 -0.0082814104615281207 0 0.00053721453748004089 -0.006043058101531015 0 0.002998512438370252 -0.0060713921416388726 0 0.00053721453748004089 -0.006043058101531015 0 0.002998512438370252 -0.0060713921416388726 0 0.0017177751095685675 -0.00424885158371981 0 0.0040530230133486982 -0.0087012044360876145 0 0.0032179620915720056 -0.0086310013693736316 0 0.0036054085214357557 -0.01016929021777027 0 -0.00028151735648984031 -0.0023404096132513953 0 0.0017177751095685675 -0.00424885158371981 0 0.0030823470991275842 -0.0025754481033114685 0 -0.0035008226095306714 -0.0065712791505692916 0 0.002745583717087525 -0.0056078077091526769 0 0.0032179620915720056 -0.0086310013693736316 0 0.0023920635684862523 -0.0085481804891763095 0 0.002745393423693311 -0.0094160592771645145 0 0.002745583717087525 -0.0056078077091526769 0 0.012297373867651406 -0.0062420063599644519 0 0.022396093663204927 -0.0066227215706877998 0 0.021509259555003175 -0.0065423856278788188 0 0.021654509874451926 -0.0072097094977650114 0 0.012297373867651406 -0.0062420063599644519 0 0.021815565836639381 -0.0054750373231700613 0 0.016885594240286132 -0.0042079596788725084 0 0.017632173764914456 -0.0050671343710264665 0 0.018971837616220958 -0.0044385849333893968 0 0.018150124130431978 -0.0057532604423219313 0 0.017632173764914456 -0.0050671343710264665 0 0.018971837616220958 -0.0044385849333893968 0 0.018150124130431978 -0.0057532604423219313 0 0.017632173764914456 -0.0050671343710264665 0 0.016526242640672002 -0.0055076270302525498 0 0.0030823470991275842 -0.0025754481033114685 0 0.0064633619447980149 -0.0028345799534888788 0 0.0055651946130781315 -0.0061397104455170604 0 0.016885594240286132 -0.0042079596788725084 0 0.017632173764914456 -0.0050671343710264665 0 0.016526242640672002 -0.0055076270302525498 0 0.012297373867651406 -0.0062420063599644519 0 0.011045818716084814 -0.0056665485070741999 0 0.020875879475079885 -0.0064474906934370432 0 0.021108799225172153 -0.0068236185179128758 0 0.020712764087527952 -0.0072663718145370218 0 0.020895051102188394 -0.0064461155632396872 0 0.021108799225172153 -0.0068236185179128758 0 0.021509259555003175 -0.0065423856278788188 0 0.020476114601017777 -0.0056694904047300005 0 0.021815565836639381 -0.0054750373231700613 0 0.020895051102188394 -0.0064461155632396872 0 0.020875879475079885 -0.0064474906934370432 0 0.021108799225172153 -0.0068236185179128758 0 0.021108799225172153 -0.0068236185179128758 0 0.021509259555003175 -0.0065423856278788188 0 0.021654509874451926 -0.0072097094977650114 0 0.018150124130431978 -0.0057532604423219313 0 0.018971837616220958 -0.0044385849333893968 0 0.020035584118511276 -0.0057560560323553301 0 0.018971837616220958 -0.0044385849333893968 0 0.020334224500040046 -0.0052127289472257126 0 0.020035584118511276 -0.0057560560323553301 0 0.020853873534311451 -0.0048938318402829018 0 0.018971837616220958 -0.0044385849333893968 0 0.020334224500040046 -0.0052127289472257126 0 0.020035584118511276 -0.0057560560323553301 0 0.02090892175508063 -0.0054425773664590511 0 0.021238727392631575 -0.0057461879725976255 0 0.020334224500040046 -0.0052127289472257126 0 0.020035584118511276 -0.0057560560323553301 0 0.02090892175508063 -0.0054425773664590511 0 0.020853873534311451 -0.0048938318402829018 0 0.020334224500040046 -0.0052127289472257126 0 0.02090892175508063 -0.0054425773664590511 0 0.01657184606385834 -0.0037164487321575631 0 0.019656000129992485 -0.003071654770970106 0 0.013453701079972036 -0.00049006568760348557 0 0.014825370513733381 -0.001507310902666012 0 0.016623503423540239 -0.00028969045712402169 0 0.020035584118511276 -0.0057560560323553301 0 0.021238727392631575 -0.0057461879725976255 0 0.021077839597714042 -0.0063835445164518714 0 0.020035584118511276 -0.0057560560323553301 0 0.019015048059571587 -0.0067926053592497308 0 0.021077839597714042 -0.0063835445164518714 0 0.018150124130431978 -0.0057532604423219313 0 0.020035584118511276 -0.0057560560323553301 0 0.019015048059571587 -0.0067926053592497308 0 0.013365844519549338 -0.0020368591453025523 0 0.014825370513733381 -0.001507310902666012 0 0.014544803381804977 -0.0025324184199666524 0 0.013453701079972036 -0.00049006568760348557 0 0.013365844519549338 -0.0020368591453025523 0 0.014825370513733381 -0.001507310902666012 0 0.014825370513733381 -0.001507310902666012 0 0.01603948683512393 -0.0020465221484505121 0 0.016623503423540239 -0.00028969045712402169 0 0.018312220990209311 -0.0020885704074165442 0 0.019656000129992485 -0.003071654770970106 0 0.014825370513733381 -0.001507310902666012 0 0.01603948683512393 -0.0020465221484505121 0 0.014544803381804977 -0.0025324184199666524 0 0.016526242640672002 -0.0055076270302525498 0 0.016551168147656298 -0.0069955855944150791 0 0.0161428557396796 -0.0068067642317351457 0 0.011045818716084814 -0.0056665485070741999 0 0.0070153936820983205 -0.0056564428985096888 0 0.002998512438370252 -0.0060713921416388726 0 0.0055651946130781315 -0.0061397104455170604 0 0.004687504692539402 -0.0094345361803797219 0 0.018150124130431978 -0.0057532604423219313 0 0.016526242640672002 -0.0055076270302525498 0 0.016551168147656298 -0.0069955855944150791 0 0.01117942656215719 -0.003488080323585939 0 0.0070153936820983205 -0.0056564428985096888 0 0.0093793113086342392 -0.0037049064675099587 0 0.0065211676742201307 -0.0038565235618785916 0 0.0068768755749890002 -0.0025100163005904595 0 0.01117942656215719 -0.003488080323585939 0 0.0057444013496279834 -0.0034393057089293867 0 0.0057444013496279834 -0.0034393057089293867 0 0.0070153936820983205 -0.0056564428985096888 0 0.018150124130431978 -0.0057532604423219313 0 0.019015048059571587 -0.0067926053592497308 0 0.016551168147656298 -0.0069955855944150791 0 0.01657184606385834 -0.0037164487321575631 0 0.01117942656215719 -0.003488080323585939 0 0.013453701079972036 -0.00049006568760348557 0 0.010618799551083693 -0.00072969753652838342 0 0.012005475886245537 -0.0013526243183279976 0 0.013453701079972036 -0.00049006568760348557 0 0.013365844519549338 -0.0020368591453025523 0 0.012005475886245537 -0.0013526243183279976 0 0.013246120015894557 -0.0019632076062972249 0 0.011336789521860293 -0.0010950312900596432 0 0.013365844519549338 -0.0020368591453025523 0 0.011377684767256637 -0.00099720628632909373 0 0.011869250055734096 -0.0022341463555194791 0 0.011377684767256637 -0.00099720628632909373 0 0.011869250055734096 -0.0022341463555194791 0 0.0097664560315230461 -0.0026080939862544528 0 0.0083603750432353387 -0.00076691907318700249 0 0.0093336081428066729 -3.5882578359809412e-05 0 0.0097664560315230461 -0.0026080939862544528 0 0.0093336081428066729 -3.5882578359809412e-05 0 0.011377684767256637 -0.00099720628632909373 0 0.0097664560315230461 -0.0026080939862544528 0 0.01117942656215719 -0.003488080323585939 0 0.011336789521860293 -0.0010950312900596432 0 0.0028490285243355346 -0.0019705285092335833 0 0.0057444013496279834 -0.0034393057089293867 0 0.0083603750432353387 -0.00076691907318700249 0 0.0093336081428066729 -3.5882578359809412e-05 0 0.0085453648174457636 -8.0738662166145088e-05 0 -0.00079375818982714097 -0.00048433843827462602 0 0.0061304673410219994 0.00075139148736943129 0 0.0029413148238425614 7.0122600589292157e-05 0 0.002790920942934583 -0.00048762966467547075 0 0.0035095303057273656 -0.00065854284694315875 0 0.0028490285243355346 -0.0019705285092335833 0 0.0061304673410219994 0.00075139148736943129 0 0.0018307915240161183 0.0022127494822537911 0 0.00095645974445468236 0.0024488049594104584 0 0.0010790034316959013 0.0036425622792531803 0 0.00095645974445468236 0.0024488049594104584 0 -0.00024227895293083462 0.0041225547839456207 0 0.0010790034316959013 0.0036425622792531803 0 0.0084689588727419 0.0029989810868132167 0 0.0083603155964362096 0.003238455804605191 0 0.0083212541909346953 0.0030728541273185809 0 0.011869250055734096 -0.0022341463555194791 0 0.0097664560315230461 -0.0026080939862544528 0 0.012916014691745369 -0.0033020179164312052 0 0.0061304673410219994 0.00075139148736943129 0 0.0034282415923260275 0.0039880034949314781 0 0.0061304673410219994 0.00075139148736943129 0 0.010781799351589808 -0.00028339812064411305 0 0.013365844519549338 -0.0020368591453025523 0 0.011869250055734096 -0.0022341463555194791 0 0.012916014691745369 -0.0033020179164312052 0 -0.00024227895293083462 0.0041225547839456207 0 0.0010790034316959013 0.0036425622792531803 0 0.00053480556166696951 0.0052845351928466917 0 0.0010790034316959013 0.0036425622792531803 0 0.00053480556166696951 0.0052845351928466917 0 0.0023082722443665744 0.0041539250583944032 0 0.01603948683512393 -0.0020465221484505121 0 0.015473187694424484 -0.0038392491349923587 0 0.014544803381804977 -0.0025324184199666524 0 0.018312220990209311 -0.0020885704074165442 0 0.014112228217634073 0.00076525234586687964 0 0.020671725078435378 -0.0019195570969780325 0 0.020559098821195766 -0.0020212486538318773 0 0.020749619127910575 -0.0019901282045215593 0 0.0081550408379089164 0.0031271061240460852 0 0.0083212541909346953 0.0030728541273185809 0 0.0082478524328905428 0.0031846438101390691 0 0.015473187694424484 -0.0038392491349923587 0 0.014544803381804977 -0.0025324184199666524 0 0.012916014691745369 -0.0033020179164312052 0 0.014112228217634073 0.00076525234586687964 0 0.010781799351589808 -0.00028339812064411305 0 0.013365844519549338 -0.0020368591453025523 0 0.014544803381804977 -0.0025324184199666524 0 0.012916014691745369 -0.0033020179164312052 0 0.0083603155964362096 0.003238455804605191 0 0.0082478524328905428 0.0031846438101390691 0 0.0081577424244127783 0.0033135596718603076 0 0.0083603155964362096 0.003238455804605191 0 0.0083212541909346953 0.0030728541273185809 0 0.0082478524328905428 0.0031846438101390691 0 0.012419901649844238 0.0059690690936028889 0 0.012345613577915478 0.0060226971969519994 0 0.01233040039756998 0.0060443848031586167 0 0.014112228217634073 0.00076525234586687964 0 0.010405221026714718 0.0051288126319045738 0 0.0081550408379089164 0.0031271061240460852 0 0.0082478524328905428 0.0031846438101390691 0 0.0081577424244127783 0.0033135596718603076 0 0.012345613577915478 0.0060226971969519994 0 0.012304707683739808 0.0060355185046585954 0 0.012304177721600511 0.0060444620992340841 0 0.012345613577915478 0.0060226971969519994 0 0.012304707683739808 0.0060355185046585954 0 0.01233040039756998 0.0060443848031586167 0 0.010405221026714718 0.0051288126319045738 0 0.0056647275070258974 0.0058029106101946592 0 0.0034282415923260275 0.0039880034949314781 0 0.0056647275070258974 0.0058029106101946592 0 -0.0014298866350612406 0.0058110141802928559 0 -0.0012421069116356565 0.0064229956713999087 0 0.00053480556166696951 0.0052845351928466917 0 0.0083603155964362096 0.003238455804605191 0 0.0081577424244127783 0.0033135596718603076 0 0.0081893524283242845 0.0035226291275109638 0 -0.0051396565003739257 0.013972185327856011 0 -0.0044050573657522987 0.014036721859630388 0 -0.0047908553372434824 0.01486736841313817 0 0.0035686659703497666 0.0097645833071974986 0 0.0036976525549526165 0.010188375194290241 0 0.0029341234159232033 0.010676199515933236 0 0.0056647275070258974 0.0058029106101946592 0 -0.0017270619000093422 0.012273455765080507 0 0.0056647275070258974 0.0058029106101946592 0 0.0046014628879186854 0.011519017255708289 0 0.012304707683739808 0.0060355185046585954 0 0.012304177721600511 0.0060444620992340841 0 0.012325669525121864 0.0060941230187185518 0 -0.0017270619000093422 0.012273455765080507 0 0.0046014628879186854 0.011519017255708289 0 0.012304707683739808 0.0060355185046585954 0 0.012265084716999277 0.0060162344993964613 0 0.012325669525121864 0.0060941230187185518 0 -0.003977031288259378 0.013337253883172714 0 -0.0034688228668624623 0.013205811153780795 0 -0.0031747457031347692 0.012967172025400252 0 -0.0040832559813552731 0.013167223244899386 0 -0.003977031288259378 0.013337253883172714 0 -0.0018090058082284241 0.011887998081061901 0 -0.0014811219240704206 0.0095396737476660075 0 -0.0031011177937089059 0.0032585109700018376 0 -0.0035714843739072795 0.014139817504019559 0 -0.0039864409984494073 0.0092515557151349147 0 -0.003977031288259378 0.013337253883172714 0 -0.0038095550854416087 0.013484656499101952 0 -0.0040576829525306325 0.013794628861015163 0 -0.003977031288259378 0.013337253883172714 0 -0.0038095550854416087 0.013484656499101952 0 -0.0036616744647260105 0.013325931871614648 0 -0.0040832559813552731 0.013167223244899386 0 -0.003977031288259378 0.013337253883172714 0 -0.0040576829525306325 0.013794628861015163 0 -0.003977031288259378 0.013337253883172714 0 -0.0036616744647260105 0.013325931871614648 0 -0.0034688228668624623 0.013205811153780795 0 -0.0038095550854416087 0.013484656499101952 0 -0.0035971473556542198 0.01348644379754617 0 -0.0036616744647260105 0.013325931871614648 0 -0.0038095550854416087 0.013484656499101952 0 -0.0035971473556542198 0.01348644379754617 0 -0.0037133794851295491 0.013691810219235368 0 -0.0036616744647260105 0.013325931871614648 0 -0.0034600824364769988 0.013296589042848181 0 -0.0035206976853514949 0.013367557270518686 0 -0.0035971473556542198 0.01348644379754617 0 -0.0036616744647260105 0.013325931871614648 0 -0.0035206976853514949 0.013367557270518686 0 -0.0036616744647260105 0.013325931871614648 0 -0.0034600824364769988 0.013296589042848181 0 -0.0034688228668624623 0.013205811153780795 0 -0.00024227895293083462 0.0041225547839456207 0 -0.0014298866350612406 0.0058110141802928559 0 0.00053480556166696951 0.0052845351928466917 0 -0.0040832559813552731 0.013167223244899386 0 -0.0044050573657522987 0.014036721859630388 0 -0.0040576829525306325 0.013794628861015163 0 -0.0051396565003739257 0.013972185327856011 0 -0.0040832559813552731 0.013167223244899386 0 -0.0044050573657522987 0.014036721859630388 0 -0.0017270619000093422 0.012273455765080507 0 -0.0014811219240704206 0.0095396737476660075 0 -0.0044050573657522987 0.014036721859630388 0 -0.0040274016372377347 0.01429066349750307 0 -0.0040576829525306325 0.013794628861015163 0 -0.0040274016372377347 0.01429066349750307 0 -0.0040576829525306325 0.013794628861015163 0 -0.0037681276696061917 0.014129849302039393 0 -0.0040576829525306325 0.013794628861015163 0 -0.0037133794851295491 0.013691810219235368 0 -0.0037681276696061917 0.014129849302039393 0 -0.0038095550854416087 0.013484656499101952 0 -0.0040576829525306325 0.013794628861015163 0 -0.0037133794851295491 0.013691810219235368 0 -0.0037133794851295491 0.013691810219235368 0 -0.0037681276696061917 0.014129849302039393 0 -0.0035778770616401809 0.013891324645953733 0 -0.0035971473556542198 0.01348644379754617 0 -0.0037133794851295491 0.013691810219235368 0 -0.0034742547506524859 0.013639377641972249 0 -0.0037133794851295491 0.013691810219235368 0 -0.0035778770616401809 0.013891324645953733 0 -0.0034742547506524859 0.013639377641972249 0 -0.0037681276696061917 0.014129849302039393 0 -0.0035778770616401809 0.013891324645953733 0 -0.0034987949331119336 0.014257598778793642 0 -0.0033529139103536279 0.013869567390659088 0 -0.0034987949331119336 0.014257598778793642 0 -0.0031411324641733903 0.014492717727716913 0 -0.0033529139103536279 0.013869567390659088 0 -0.0030225525157819813 0.013585178854154743 0 -0.0031411324641733903 0.014492717727716913 0 -0.0035778770616401809 0.013891324645953733 0 -0.0033529139103536279 0.013869567390659088 0 -0.0034987949331119336 0.014257598778793642 0 -0.0033529139103536279 0.013869567390659088 0 -0.0032787900191409594 0.013553002630115846 0 -0.0030225525157819813 0.013585178854154743 0 -0.0033529139103536279 0.013869567390659088 0 -0.0032787900191409594 0.013553002630115846 0 -0.0034742547506524859 0.013639377641972249 0 -0.0035778770616401809 0.013891324645953733 0 -0.0033529139103536279 0.013869567390659088 0 -0.0034742547506524859 0.013639377641972249 0 -0.0036091238036235792 0.014632423095530409 0 -0.0034984950978844977 0.014780354113960222 0 -0.0037311967255156402 0.015076494934096411 0 -0.0017318757332818562 0.014527962794230916 0 -0.0036262214074445766 0.014819303567643646 0 -0.0030225525157819813 0.013585178854154743 0 -0.0025079842990921287 0.013640437557189295 0 -0.0031411324641733903 0.014492717727716913 0 -0.0030225525157819813 0.013585178854154743 0 -0.0025079842990921287 0.013640437557189295 0 -0.0027265061292717639 0.012977209556790319 0 -0.0030225525157819813 0.013585178854154743 0 -0.0027265061292717639 0.012977209556790319 0 -0.0037042081594399184 0.011756941860649182 0 -0.0022663726053246394 0.012619073688449233 0 -0.0027265061292717639 0.012977209556790319 0 -0.002635006490497574 0.012333154823641701 0 -0.0025079842990921287 0.013640437557189295 0 -0.0022663726053246394 0.012619073688449233 0 -0.0027265061292717639 0.012977209556790319 0 -0.0027265061292717639 0.012977209556790319 0 -0.002635006490497574 0.012333154823641701 0 -0.0037042081594399184 0.011756941860649182 0 -0.0022663726053246394 0.012619073688449233 0 -0.002635006490497574 0.012333154823641701 0 -0.0020214380173501699 0.011723805123105403 0 -0.0030225525157819813 0.013585178854154743 0 -0.0032166360313947364 0.013316686595152671 0 -0.0031747457031347692 0.012967172025400252 0 -0.0027869774809722836 0.014746361253284499 0 -0.0039864409984494073 0.0092515557151349147 0 -0.0033942227878204583 0.013399644477190092 0 -0.0034600824364769988 0.013296589042848181 0 -0.003326155796981214 0.013240383779611981 0 -0.0033942227878204583 0.013399644477190092 0 -0.0032166360313947364 0.013316686595152671 0 -0.003326155796981214 0.013240383779611981 0 -0.0033942227878204583 0.013399644477190092 0 -0.0034600824364769988 0.013296589042848181 0 -0.0035206976853514949 0.013367557270518686 0 -0.0035971473556542198 0.01348644379754617 0 -0.0033942227878204583 0.013399644477190092 0 -0.0035206976853514949 0.013367557270518686 0 -0.0035971473556542198 0.01348644379754617 0 -0.0034742547506524859 0.013639377641972249 0 -0.0033942227878204583 0.013399644477190092 0 -0.0032787900191409594 0.013553002630115846 0 -0.0033942227878204583 0.013399644477190092 0 -0.0032166360313947364 0.013316686595152671 0 -0.0032787900191409594 0.013553002630115846 0 -0.0034742547506524859 0.013639377641972249 0 -0.0033942227878204583 0.013399644477190092 0 -0.0032787900191409594 0.013553002630115846 0 -0.0030225525157819813 0.013585178854154743 0 -0.0032166360313947364 0.013316686595152671 0 -0.0032166360313947364 0.013316686595152671 0 -0.003326155796981214 0.013240383779611981 0 -0.0031747457031347692 0.012967172025400252 0 -0.003326155796981214 0.013240383779611981 0 -0.0034688228668624623 0.013205811153780795 0 -0.0031747457031347692 0.012967172025400252 0 -0.0034600824364769988 0.013296589042848181 0 -0.003326155796981214 0.013240383779611981 0 -0.0034688228668624623 0.013205811153780795 0 -0.0040832559813552731 0.013167223244899386 0 -0.0019099300854980095 0.011497308548501171 0 -0.0018090058082284241 0.011887998081061901 0 -0.0063162858414289608 -0.0013535423955123112 0 -0.0063098928941564833 -0.0013391213846428711 0 -0.0063679305643112452 -0.0014729177281201809 0 -0.0031011177937089059 0.0032585109700018376 0 -0.0039864409984494073 0.0092515557151349147 0 -0.002635006490497574 0.012333154823641701 0 -0.0037042081594399184 0.011756941860649182 0 -0.0020214380173501699 0.011723805123105403 0 -0.0037042081594399184 0.011756941860649182 0 -0.0020734812271189025 0.010753981419010131 0 -0.0020214380173501699 0.011723805123105403 0 -0.0063098928941564833 -0.0013391213846428711 0 -0.0063679305643112452 -0.0014729177281201809 0 -0.0064008953549390913 -0.0015006303786430017 0 -0.0039864409984494073 0.0092515557151349147 0 -0.0031360447063853332 0.0044215664162488792 0 -0.0031011177937089059 0.0032585109700018376 0 -0.0063674082595873878 -0.0012649826544353351 0 -0.0063223265946190177 -0.0014824584027318321 0 -0.0063679305643112452 -0.0014729177281201809 0 -0.0063408328717340021 -0.0014922558405919102 0 -0.0063679305643112452 -0.0014729177281201809 0 -0.0063408328717340021 -0.0014922558405919102 0 -0.0063534979608464758 -0.0015062750574965191 0 -0.0063408328717340021 -0.0014922558405919102 0 -0.0063534979608464758 -0.0015062750574965191 0 -0.006319852505923566 -0.0015041333420015811 0 -0.0063679305643112452 -0.0014729177281201809 0 -0.0063855703153365218 -0.0015193051139029397 0 -0.0064008953549390913 -0.0015006303786430017 0 -0.0063679305643112452 -0.0014729177281201809 0 -0.0063534979608464758 -0.0015062750574965191 0 -0.0063855703153365218 -0.0015193051139029397 0 -0.0063855703153365218 -0.0015193051139029397 0 -0.0063551960388493322 -0.0015345849443873978 0 -0.0064198470875051023 -0.0015649192666664171 0 -0.0063534979608464758 -0.0015062750574965191 0 -0.0063855703153365218 -0.0015193051139029397 0 -0.0063551960388493322 -0.0015345849443873978 0 -0.0063534979608464758 -0.0015062750574965191 0 -0.0063551960388493322 -0.0015345849443873978 0 -0.006319852505923566 -0.0015041333420015811 0 -0.0062740775495769242 -0.0015113662698297077 0 -0.006319852505923566 -0.0015041333420015811 0 -0.0062986202382559224 -0.0015133331400595455 0 -0.0063551960388493322 -0.0015345849443873978 0 -0.006319852505923566 -0.0015041333420015811 0 -0.0062986202382559224 -0.0015133331400595455 0 0.0018307915240161183 0.0022127494822537911 0 0.0010790034316959013 0.0036425622792531803 0 0.0023082722443665744 0.0041539250583944032 0 -0.00079375818982714097 -0.00048433843827462602 0 -0.0031011177937089059 0.0032585109700018376 0 -0.0062740775495769242 -0.0015113662698297077 0 -0.0063223265946190177 -0.0014824584027318321 0 -0.006319852505923566 -0.0015041333420015811 0 -0.0063223265946190177 -0.0014824584027318321 0 -0.0063408328717340021 -0.0014922558405919102 0 -0.006319852505923566 -0.0015041333420015811 0 -0.0062582623304925679 -0.0014424720400959957 0 -0.0063550167395277617 -0.0015251273232962965 0 -0.0064008953549390913 -0.0015006303786430017 0 -0.001185339010468015 0.010642840282601443 0 -0.00060929141240837782 0.0097452825734103826 0 -0.0020734812271189025 0.010753981419010131 0 -0.025330513447655804 -0.0047752974251802048 0 -0.025368160381271914 -0.0050232212805182263 0 -0.025177810403924288 -0.0045927164827085105 0 -0.020674933966316492 -0.0036445448305143535 0 -0.018990730735112593 -0.001187356910896536 0 -0.001185339010468015 0.010642840282601443 0 -0.00061163750139675837 0.010233393403009451 0 -0.00060929141240837782 0.0097452825734103826 0 -0.018990730735112593 -0.001187356910896536 0 -0.010041118556380875 0.0001245493500036077 0 -0.0063331628608112416 -0.0016388473841810406 0 -0.0062582623304925679 -0.0014424720400959957 0 -0.0063550167395277617 -0.0015251273232962965 0 -0.010041118556380875 0.0001245493500036077 0 -0.0031360447063853332 0.0044215664162488792 0 -0.0064249138378188993 -0.0016094216037229958 0 -0.0063944530050423602 -0.0015347753388722956 0 -0.0064198470875051023 -0.0015649192666664171 0 -0.0064249138378188993 -0.0016094216037229958 0 -0.0063550167395277617 -0.0015251273232962965 0 -0.0063944530050423602 -0.0015347753388722956 0 -0.0063944530050423602 -0.0015347753388722956 0 -0.0064198470875051023 -0.0015649192666664171 0 -0.0064016559207104359 -0.0015265979127716026 0 -0.0063855703153365218 -0.0015193051139029397 0 -0.0064198470875051023 -0.0015649192666664171 0 -0.0064016559207104359 -0.0015265979127716026 0 -0.0063944530050423602 -0.0015347753388722956 0 -0.0064016559207104359 -0.0015265979127716026 0 -0.0064008953549390913 -0.0015006303786430017 0 -0.0063855703153365218 -0.0015193051139029397 0 -0.0064016559207104359 -0.0015265979127716026 0 -0.0064008953549390913 -0.0015006303786430017 0 -0.0063550167395277617 -0.0015251273232962965 0 -0.0063944530050423602 -0.0015347753388722956 0 -0.0064008953549390913 -0.0015006303786430017 0 -0.0016078242466808139 0.011196515582774786 0 -0.0010098228285417383 0.011298045491454731 0 -0.0014312720579601995 0.012401921805697462 0 -0.001185339010468015 0.010642840282601443 0 -0.0016078242466808139 0.011196515582774786 0 -0.0020734812271189025 0.010753981419010131 0 -0.0016078242466808139 0.011196515582774786 0 -0.0020214380173501699 0.011723805123105403 0 -0.0014312720579601995 0.012401921805697462 0 -0.0016078242466808139 0.011196515582774786 0 -0.0020734812271189025 0.010753981419010131 0 -0.0020214380173501699 0.011723805123105403 0 -0.014830008032784421 0.0046453842521868858 0 -0.028160119291086302 -0.0047560030605924416 0 -0.025449095742601222 -0.0044278742285725585 0 -0.025522579258681333 -0.0038557566931847961 0 -0.025177810403924288 -0.0045927164827085105 0 -0.013399265328939714 0.0032935765358016907 0 -0.014830008032784421 0.0046453842521868858 0 -0.001185339010468015 0.010642840282601443 0 -0.0016078242466808139 0.011196515582774786 0 -0.0010098228285417383 0.011298045491454731 0 -0.001185339010468015 0.010642840282601443 0 -0.00061163750139675837 0.010233393403009451 0 -0.0010098228285417383 0.011298045491454731 0 -0.018990730735112593 -0.001187356910896536 0 -0.013399265328939714 0.0032935765358016907 0 -0.025330513447655804 -0.0047752974251802048 0 -0.025341062446563742 -0.0049780431790222663 0 -0.025449095742601222 -0.0044278742285725585 0 -0.025330513447655804 -0.0047752974251802048 0 -0.025449095742601222 -0.0044278742285725585 0 -0.025177810403924288 -0.0045927164827085105 0 -0.027973866156142033 -0.0036079270963847066 0 -0.027675787203977776 -0.0035490364720189376 0 -0.028028039996213793 -0.0034857470172571475 0 -0.027973866156142033 -0.0036079270963847066 0 -0.027675787203977776 -0.0035490364720189376 0 -0.02781483935205576 -0.0037734725291167491 0 -0.0017318757332818562 0.014527962794230916 0 -0.014830008032784421 0.0046453842521868858 0 -0.0025079842990921287 0.013640437557189295 0 -0.0022663726053246394 0.012619073688449233 0 -0.0014312720579601995 0.012401921805697462 0 -0.0022663726053246394 0.012619073688449233 0 -0.0020214380173501699 0.011723805123105403 0 -0.0014312720579601995 0.012401921805697462 0 -0.014830008032784421 0.0046453842521868858 0 -0.014892281280675049 0.0064009268391337021 0 -0.0036091238036235792 0.014632423095530409 0 -0.0035169328483994062 0.014119505957000298 0 -0.0034984950978844977 0.014780354113960222 0 -0.027675787203977776 -0.0035490364720189376 0 -0.027634834960436339 -0.0037462389795163494 0 -0.027401474297689694 -0.0037816134471623255 0 -0.027675787203977776 -0.0035490364720189376 0 -0.027634834960436339 -0.0037462389795163494 0 -0.02781483935205576 -0.0037734725291167491 0 -0.027634834960436339 -0.0037462389795163494 0 -0.027401474297689694 -0.0037816134471623255 0 -0.027639730883799368 -0.0038753064893831423 0 -0.027634834960436339 -0.0037462389795163494 0 -0.02781483935205576 -0.0037734725291167491 0 -0.027639730883799368 -0.0038753064893831423 0 -0.02781483935205576 -0.0037734725291167491 0 -0.027885861180235855 -0.003918072956622257 0 -0.028178944591744221 -0.0038991913553552563 0 -0.027973866156142033 -0.0036079270963847066 0 -0.02781483935205576 -0.0037734725291167491 0 -0.028178944591744221 -0.0038991913553552563 0 -0.02781483935205576 -0.0037734725291167491 0 -0.027885861180235855 -0.003918072956622257 0 -0.027639730883799368 -0.0038753064893831423 0 -0.028178944591744221 -0.0038991913553552563 0 -0.028777061177904489 -0.0042268616994669099 0 -0.028005634581341057 -0.0040030815622939687 0 -0.027885861180235855 -0.003918072956622257 0 -0.028178944591744221 -0.0038991913553552563 0 -0.028005634581341057 -0.0040030815622939687 0 -0.027973866156142033 -0.0036079270963847066 0 -0.028178944591744221 -0.0038991913553552563 0 -0.028133212991100373 -0.0035219756507730675 0 -0.028188275673110205 -0.0039390258092907885 0 -0.028439358166375061 -0.0037282527546184871 0 -0.028768082765247425 -0.0040480542833167422 0 -0.029191093377464641 -0.0041402883094425746 0 -0.028777863707139376 -0.0039098246318819037 0 -0.028178944591744221 -0.0038991913553552563 0 -0.028768082765247425 -0.0040480542833167422 0 -0.028777863707139376 -0.0039098246318819037 0 -0.028768082765247425 -0.0040480542833167422 0 -0.028777061177904489 -0.0042268616994669099 0 -0.029191093377464641 -0.0041402883094425746 0 -0.028777061177904489 -0.0042268616994669099 0 -0.028830223805051812 -0.0042980617101803179 0 -0.028005634581341057 -0.0040030815622939687 0 -0.028777061177904489 -0.0042268616994669099 0 -0.028900543409641471 -0.0043902095877720627 0 -0.029191093377464641 -0.0041402883094425746 0 -0.028178944591744221 -0.0038991913553552563 0 -0.028768082765247425 -0.0040480542833167422 0 -0.028777061177904489 -0.0042268616994669099 0 -0.028730589498723223 -0.0043688201997072211 0 -0.028745165959049156 -0.004461833923586709 0 -0.028745165959049156 -0.004461833923586709 0 -0.030297843678790445 -0.0046811048908332121 0 -0.028900543409641471 -0.0043902095877720627 0 -0.029734582106055004 -0.0044443019427010087 0 -0.029191093377464641 -0.0041402883094425746 0 -0.029903141259375623 -0.0052115722081825496 0 -0.030458661704125096 -0.0053398920409123548 0 -0.030578911407130541 -0.0048847133767379574 0 -0.030458661704125096 -0.0053398920409123548 0 -0.030578911407130541 -0.0048847133767379574 0 -0.031087991558063136 -0.0052752456198926151 0 -0.029734582106055004 -0.0044443019427010087 0 -0.029191093377464641 -0.0041402883094425746 0 -0.029859881063438447 -0.0041216562246112294 0 -0.02951195763157137 -0.0038856292605668908 0 -0.029250670991401162 -0.0036717922121025422 0 -0.028777863707139376 -0.0039098246318819037 0 -0.029191093377464641 -0.0041402883094425746 0 -0.02951195763157137 -0.0038856292605668908 0 -0.028777863707139376 -0.0039098246318819037 0 -0.029191093377464641 -0.0041402883094425746 0 -0.02951195763157137 -0.0038856292605668908 0 -0.029859881063438447 -0.0041216562246112294 0 -0.029859881063438447 -0.0041216562246112294 0 -0.029931322328539893 -0.0037568028970940588 0 -0.030280637523668181 -0.0039913982595305604 0 -0.02951195763157137 -0.0038856292605668908 0 -0.029859881063438447 -0.0041216562246112294 0 -0.029931322328539893 -0.0037568028970940588 0 -0.02951195763157137 -0.0038856292605668908 0 -0.029931322328539893 -0.0037568028970940588 0 -0.029641636150601322 -0.0036216646962041331 0 -0.029931322328539893 -0.0037568028970940588 0 -0.029641636150601322 -0.0036216646962041331 0 -0.029855185247822182 -0.0034803949282414958 0 -0.029931322328539893 -0.0037568028970940588 0 -0.030144024711244357 -0.0034839858866952162 0 -0.029855185247822182 -0.0034803949282414958 0 -0.028558837572176261 -0.0036856562847135503 0 -0.029033083270508273 -0.0033005328395111391 0 -0.029250670991401162 -0.0036717922121025422 0 -0.029641636150601322 -0.0036216646962041331 0 -0.029693250224450761 -0.0033208457842043089 0 -0.02951195763157137 -0.0038856292605668908 0 -0.029250670991401162 -0.0036717922121025422 0 -0.029641636150601322 -0.0036216646962041331 0 -0.027990775621009805 -0.0035473305461673358 0 -0.028075231121279923 -0.0035817203850015658 0 -0.028133212991100373 -0.0035219756507730675 0 -0.027990775621009805 -0.0035473305461673358 0 -0.028075231121279923 -0.0035817203850015658 0 -0.027875102216253007 -0.0038409614419383986 0 -0.025368160381271914 -0.0050232212805182263 0 -0.024678527645856419 -0.0053707691443316934 0 -0.025177810403924288 -0.0045927164827085105 0 -0.025368160381271914 -0.0050232212805182263 0 -0.024678527645856419 -0.0053707691443316934 0 -0.025142832839036705 -0.005943141875059621 0 -0.026203091941362167 -0.0043993578180951606 0 -0.028160119291086302 -0.0047560030605924416 0 -0.028075231121279923 -0.0035817203850015658 0 -0.028028039996213793 -0.0034857470172571475 0 -0.028133212991100373 -0.0035219756507730675 0 -0.027973866156142033 -0.0036079270963847066 0 -0.028028039996213793 -0.0034857470172571475 0 -0.028133212991100373 -0.0035219756507730675 0 -0.028558837572176261 -0.0036856562847135503 0 -0.028439358166375061 -0.0037282527546184871 0 -0.032289450307762216 -0.0045898928731056346 0 -0.032795690861035565 -0.0049273879241918377 0 -0.03182174594386785 -0.0048025398070710625 0 -0.032765752170997239 -0.0046660659091154154 0 -0.032289450307762216 -0.0045898928731056346 0 -0.032795690861035565 -0.0049273879241918377 0 -0.03281353376785684 -0.0049434170369610222 0 -0.03273271305317238 -0.0049862974433148629 0 -0.032795690861035565 -0.0049273879241918377 0 -0.033046233803965167 -0.0044541285814767538 0 -0.033591514004036795 -0.0046115105324816309 0 -0.032795690861035565 -0.0049273879241918377 0 -0.03182174594386785 -0.0048025398070710625 0 -0.031885814288046758 -0.0054910821235492754 0 -0.03182174594386785 -0.0048025398070710625 0 -0.031255725292045476 -0.0045517250609205537 0 -0.031087991558063136 -0.0052752456198926151 0 -0.03182174594386785 -0.0048025398070710625 0 -0.031087991558063136 -0.0052752456198926151 0 -0.031885814288046758 -0.0054910821235492754 0 -0.029734582106055004 -0.0044443019427010087 0 -0.029859881063438447 -0.0041216562246112294 0 -0.030590639604646894 -0.0044519181767061775 0 -0.030297843678790445 -0.0046811048908332121 0 -0.030920522062804181 -0.0044890342406093114 0 -0.030578911407130541 -0.0048847133767379574 0 -0.031255725292045476 -0.0045517250609205537 0 -0.031087991558063136 -0.0052752456198926151 0 -0.029859881063438447 -0.0041216562246112294 0 -0.030590639604646894 -0.0044519181767061775 0 -0.030280637523668181 -0.0039913982595305604 0 -0.030590639604646894 -0.0044519181767061775 0 -0.030280637523668181 -0.0039913982595305604 0 -0.030757007668219101 -0.0039212339091925594 0 -0.029931322328539893 -0.0037568028970940588 0 -0.030280637523668181 -0.0039913982595305604 0 -0.030339944053606276 -0.00373652710120071 0 -0.030339944053606276 -0.00373652710120071 0 -0.030757007668219101 -0.0039212339091925594 0 -0.030618292206823761 -0.0034983006701799109 0 -0.029931322328539893 -0.0037568028970940588 0 -0.030339944053606276 -0.00373652710120071 0 -0.030144024711244357 -0.0034839858866952162 0 -0.030280637523668181 -0.0039913982595305604 0 -0.030339944053606276 -0.00373652710120071 0 -0.030757007668219101 -0.0039212339091925594 0 -0.030757007668219101 -0.0039212339091925594 0 -0.031216513768881578 -0.0037117057143444539 0 -0.030618292206823761 -0.0034983006701799109 0 -0.030590639604646894 -0.0044519181767061775 0 -0.030757007668219101 -0.0039212339091925594 0 -0.031718842926273555 -0.0042563460041318522 0 -0.030920522062804181 -0.0044890342406093114 0 -0.031697943754627277 -0.0042451590005841778 0 -0.032289450307762216 -0.0045898928731056346 0 -0.03182174594386785 -0.0048025398070710625 0 -0.031718842926273555 -0.0042563460041318522 0 -0.03182174594386785 -0.0048025398070710625 0 -0.031255725292045476 -0.0045517250609205537 0 -0.031718842926273555 -0.0042563460041318522 0 -0.030757007668219101 -0.0039212339091925594 0 -0.031718842926273555 -0.0042563460041318522 0 -0.031216513768881578 -0.0037117057143444539 0 -0.031718842926273555 -0.0042563460041318522 0 -0.031216513768881578 -0.0037117057143444539 0 -0.031748077726150126 -0.0039046020983240955 0 -0.032493843007593469 -0.0035960288660875374 0 -0.032227672597303941 -0.0042934367347130667 0 -0.031845018071288922 -0.0036207096740148502 0 -0.031718842926273555 -0.0042563460041318522 0 -0.031748077726150126 -0.0039046020983240955 0 -0.032227672597303941 -0.0042934367347130667 0 -0.031748077726150126 -0.0039046020983240955 0 -0.032227672597303941 -0.0042934367347130667 0 -0.031845018071288922 -0.0036207096740148502 0 -0.032765752170997239 -0.0046660659091154154 0 -0.032289450307762216 -0.0045898928731056346 0 -0.032227672597303941 -0.0042934367347130667 0 -0.032289450307762216 -0.0045898928731056346 0 -0.031718842926273555 -0.0042563460041318522 0 -0.032227672597303941 -0.0042934367347130667 0 -0.031938695417981909 -0.0033885821563954996 0 -0.031507840868060369 -0.003221662587753769 0 -0.031845018071288922 -0.0036207096740148502 0 -0.031938695417981909 -0.0033885821563954996 0 -0.031507840868060369 -0.003221662587753769 0 -0.03161870751604183 -0.0029827811168244216 0 -0.031507840868060369 -0.003221662587753769 0 -0.031845018071288922 -0.0036207096740148502 0 -0.031405206839224847 -0.0034318715388690899 0 -0.031748077726150126 -0.0039046020983240955 0 -0.031845018071288922 -0.0036207096740148502 0 -0.031405206839224847 -0.0034318715388690899 0 -0.031216513768881578 -0.0037117057143444539 0 -0.031748077726150126 -0.0039046020983240955 0 -0.031405206839224847 -0.0034318715388690899 0 -0.031216513768881578 -0.0037117057143444539 0 -0.031405206839224847 -0.0034318715388690899 0 -0.030976532667062111 -0.0033737240447591654 0 -0.031507840868060369 -0.003221662587753769 0 -0.031405206839224847 -0.0034318715388690899 0 -0.031088830667709063 -0.0031391367168388685 0 -0.031405206839224847 -0.0034318715388690899 0 -0.031088830667709063 -0.0031391367168388685 0 -0.030976532667062111 -0.0033737240447591654 0 -0.031088830667709063 -0.0031391367168388685 0 -0.030976532667062111 -0.0033737240447591654 0 -0.030584230476846025 -0.003124457533148045 0 -0.031216513768881578 -0.0037117057143444539 0 -0.030618292206823761 -0.0034983006701799109 0 -0.030976532667062111 -0.0033737240447591654 0 -0.030618292206823761 -0.0034983006701799109 0 -0.030976532667062111 -0.0033737240447591654 0 -0.030584230476846025 -0.003124457533148045 0 -0.030618292206823761 -0.0034983006701799109 0 -0.030307323405159334 -0.0032543192206822545 0 -0.030144024711244357 -0.0034839858866952162 0 -0.030618292206823761 -0.0034983006701799109 0 -0.030584230476846025 -0.003124457533148045 0 -0.030307323405159334 -0.0032543192206822545 0 -0.030339944053606276 -0.00373652710120071 0 -0.030618292206823761 -0.0034983006701799109 0 -0.030144024711244357 -0.0034839858866952162 0 -0.030584230476846025 -0.003124457533148045 0 -0.030307323405159334 -0.0032543192206822545 0 -0.030100788359686069 -0.0029506648601756317 0 -0.024013264321946514 -0.0067678053665816374 0 -0.026871429443767626 -0.0044773449518912397 0 -0.027737308166940623 -0.0039903436014922496 0 -0.026871429443767626 -0.0044773449518912397 0 -0.024201455900176097 -0.0057246485051610065 0 -0.024716455183301775 -0.0059787862097299598 0 -0.025848404607602307 -0.0042272770042519519 0 -0.030584230476846025 -0.003124457533148045 0 -0.030617804731906839 -0.0026829304572397812 0 -0.030100788359686069 -0.0029506648601756317 0 -0.024201455900176097 -0.0057246485051610065 0 -0.024716455183301775 -0.0059787862097299598 0 -0.023605513366351822 -0.0075481966186206426 0 -0.023963312155284487 -0.0070065120208799604 0 -0.024262405212529585 -0.0068669565247047037 0 -0.024184192075144273 -0.0071571766498328641 0 -0.023963312155284487 -0.0070065120208799604 0 -0.024184192075144273 -0.0071571766498328641 0 -0.023969754733748856 -0.0073353122644051272 0 -0.027737308166940623 -0.0039903436014922496 0 -0.026271865194092452 -0.0047194550136823001 0 -0.030617804731906839 -0.0026829304572397812 0 -0.031124997313565252 -0.0028008251056566335 0 -0.030908975262133161 -0.0025168353170549962 0 -0.031088830667709063 -0.0031391367168388685 0 -0.030617804731906839 -0.0026829304572397812 0 -0.031124997313565252 -0.0028008251056566335 0 -0.031088830667709063 -0.0031391367168388685 0 -0.030584230476846025 -0.003124457533148045 0 -0.030617804731906839 -0.0026829304572397812 0 -0.031507840868060369 -0.003221662587753769 0 -0.031088830667709063 -0.0031391367168388685 0 -0.031124997313565252 -0.0028008251056566335 0 -0.031124997313565252 -0.0028008251056566335 0 -0.031416810056752446 -0.0026580029381262451 0 -0.030908975262133161 -0.0025168353170549962 0 -0.031462809987615609 -0.0022806604413118489 0 -0.031818394109920246 -0.0026270555341540822 0 -0.031416810056752446 -0.0026580029381262451 0 -0.031818394109920246 -0.0026270555341540822 0 -0.031416810056752446 -0.0026580029381262451 0 -0.03161870751604183 -0.0029827811168244216 0 -0.031124997313565252 -0.0028008251056566335 0 -0.031416810056752446 -0.0026580029381262451 0 -0.03161870751604183 -0.0029827811168244216 0 -0.031507840868060369 -0.003221662587753769 0 -0.031124997313565252 -0.0028008251056566335 0 -0.03161870751604183 -0.0029827811168244216 0 -0.025679512917676423 -0.0063109146640993284 0 -0.024325500733089561 -0.0068470517314557708 0 -0.024656848754440939 -0.0062842395521809039 0 -0.025142832839036705 -0.005943141875059621 0 -0.024442874769929197 -0.0070467853385644107 0 -0.024821289603922214 -0.0057964714531956833 0 -0.024442874769929197 -0.0070467853385644107 0 -0.024962420432719051 -0.0068324186922022762 0 -0.025358699508648063 -0.0060793148768372302 0 -0.024821289603922214 -0.0057964714531956833 0 -0.024962420432719051 -0.0068324186922022762 0 -0.018990730735112593 -0.001187356910896536 0 -0.025679512917676423 -0.0063109146640993284 0 -0.025358699508648063 -0.0060793148768372302 0 -0.025281678714476785 -0.004842356754473357 0 -0.024821289603922214 -0.0057964714531956833 0 -0.024678527645856419 -0.0053707691443316934 0 -0.025142832839036705 -0.005943141875059621 0 -0.024678361539212774 -0.0058995879420128223 0 -0.026203091941362167 -0.0043993578180951606 0 -0.025939907421019565 -0.0051452254363634287 0 -0.024678527645856419 -0.0053707691443316934 0 -0.024678361539212774 -0.0058995879420128223 0 -0.024359150175218378 -0.0061105885012731351 0 -0.024656848754440939 -0.0062842395521809039 0 -0.024678361539212774 -0.0058995879420128223 0 -0.024359150175218378 -0.0061105885012731351 0 -0.024656848754440939 -0.0062842395521809039 0 -0.025142832839036705 -0.005943141875059621 0 -0.024678361539212774 -0.0058995879420128223 0 -0.027990775621009805 -0.0035473305461673358 0 -0.027875102216253007 -0.0038409614419383986 0 -0.027780092172269184 -0.0037919872415041115 0 -0.029641636150601322 -0.0036216646962041331 0 -0.029693250224450761 -0.0033208457842043089 0 -0.029855185247822182 -0.0034803949282414958 0 -0.030144024711244357 -0.0034839858866952162 0 -0.029855185247822182 -0.0034803949282414958 0 -0.030018680474150926 -0.0032964391197300934 0 -0.029693250224450761 -0.0033208457842043089 0 -0.029855185247822182 -0.0034803949282414958 0 -0.030018680474150926 -0.0032964391197300934 0 -0.030307323405159334 -0.0032543192206822545 0 -0.030144024711244357 -0.0034839858866952162 0 -0.030018680474150926 -0.0032964391197300934 0 -0.029693250224450761 -0.0033208457842043089 0 -0.030018680474150926 -0.0032964391197300934 0 -0.030100788359686069 -0.0029506648601756317 0 -0.029033083270508273 -0.0033005328395111391 0 -0.026871429443767626 -0.0044773449518912397 0 -0.025939907421019565 -0.0051452254363634287 0 -0.026871429443767626 -0.0044773449518912397 0 -0.030307323405159334 -0.0032543192206822545 0 -0.030018680474150926 -0.0032964391197300934 0 -0.030100788359686069 -0.0029506648601756317 0 -0.024359150175218378 -0.0061105885012731351 0 -0.024191136311148335 -0.0065072207376956131 0 -0.024508120267631599 -0.0065283437172380223 0 -0.027875102216253007 -0.0038409614419383986 0 -0.027780092172269184 -0.0037919872415041115 0 -0.027533165062007807 -0.0041804028774094755 0 -0.024656848754440939 -0.0062842395521809039 0 -0.024359150175218378 -0.0061105885012731351 0 -0.024508120267631599 -0.0065283437172380223 0 -0.024508120267631599 -0.0065283437172380223 0 -0.024464068186811124 -0.0068010739118475596 0 -0.024813809642929306 -0.0069179466807538902 0 -0.024191136311148335 -0.0065072207376956131 0 -0.024508120267631599 -0.0065283437172380223 0 -0.024464068186811124 -0.0068010739118475596 0 -0.023963312155284487 -0.0070065120208799604 0 -0.024191136311148335 -0.0065072207376956131 0 -0.024262405212529585 -0.0068669565247047037 0 -0.024191136311148335 -0.0065072207376956131 0 -0.024464068186811124 -0.0068010739118475596 0 -0.024262405212529585 -0.0068669565247047037 0 -0.024464068186811124 -0.0068010739118475596 0 -0.024262405212529585 -0.0068669565247047037 0 -0.024446687247144237 -0.0071447320310335308 0 -0.024262405212529585 -0.0068669565247047037 0 -0.024446687247144237 -0.0071447320310335308 0 -0.024184192075144273 -0.0071571766498328641 0 -0.024464068186811124 -0.0068010739118475596 0 -0.024446687247144237 -0.0071447320310335308 0 -0.024813809642929306 -0.0069179466807538902 0 -0.023938468550651473 -0.007779388310272836 0 -0.024690209107955718 -0.0075532662277486414 0 -0.024617836255593387 -0.0086993310699658363 0 -0.024656848754440939 -0.0062842395521809039 0 -0.024508120267631599 -0.0065283437172380223 0 -0.024813809642929306 -0.0069179466807538902 0 -0.024656848754440939 -0.0062842395521809039 0 -0.023938468550651473 -0.007779388310272836 0 -0.024442874769929197 -0.0070467853385644107 0 -0.024629865697334209 -0.006346024037650686 0 -0.02438858446280125 -0.0073966834860054731 0 -0.023938468550651473 -0.007779388310272836 0 -0.024442874769929197 -0.0070467853385644107 0 -0.024690209107955718 -0.0075532662277486414 0 -0.025358699508648063 -0.0060793148768372302 0 -0.025456809269193952 -0.0076142158959409184 0 -0.024962420432719051 -0.0068324186922022762 0 -0.024442874769929197 -0.0070467853385644107 0 -0.024962420432719051 -0.0068324186922022762 0 -0.024690209107955718 -0.0075532662277486414 0 -0.025456809269193952 -0.0076142158959409184 0 -0.024962420432719051 -0.0068324186922022762 0 -0.024690209107955718 -0.0075532662277486414 0 -0.025456809269193952 -0.0076142158959409184 0 -0.024690209107955718 -0.0075532662277486414 0 -0.024617836255593387 -0.0086993310699658363 0 -0.025456809269193952 -0.0076142158959409184 0 -0.025468169427567484 -0.0094934264901076586 0 -0.024617836255593387 -0.0086993310699658363 0 -0.015711460761123713 -0.0065275282049422076 0 -0.01573828499300331 -0.0093695948287015156 0 -0.025468169427567484 -0.0094934264901076586 0 -0.024617836255593387 -0.0086993310699658363 0 -0.024606179944853104 -0.010243057646532307 0 -0.025468169427567484 -0.0094934264901076586 0 -0.024606179944853104 -0.010243057646532307 0 -0.025302608258316383 -0.011456774219140051 0 -0.01573828499300331 -0.0093695948287015156 0 -0.01571634412659351 -0.010797065875702222 0 -0.024606179944853104 -0.010243057646532307 0 -0.02348714286403656 -0.0097399074283021393 0 -0.024037823539428287 -0.010897868303390955 0 -0.023938468550651473 -0.007779388310272836 0 -0.024617836255593387 -0.0086993310699658363 0 -0.02348714286403656 -0.0097399074283021393 0 -0.02438858446280125 -0.0073966834860054731 0 -0.024080806796729699 -0.0085293257333731338 0 -0.024617836255593387 -0.0086993310699658363 0 -0.024606179944853104 -0.010243057646532307 0 -0.02348714286403656 -0.0097399074283021393 0 -0.024446687247144237 -0.0071447320310335308 0 -0.024362554010085573 -0.0077259635580719799 0 -0.024799697608140339 -0.0076131300264560501 0 -0.024446687247144237 -0.0071447320310335308 0 -0.024813809642929306 -0.0069179466807538902 0 -0.024799697608140339 -0.0076131300264560501 0 -0.024472857729712996 -0.0073395173578469815 0 -0.024565020251699096 -0.0075934835566978916 0 -0.024446687247144237 -0.0071447320310335308 0 -0.024772763311063553 -0.0080402904611270431 0 -0.024218948533632857 -0.0075281705293847746 0 -0.024446687247144237 -0.0071447320310335308 0 -0.024184192075144273 -0.0071571766498328641 0 -0.024218948533632857 -0.0075281705293847746 0 -0.024772763311063553 -0.0080402904611270431 0 -0.024405394858047255 -0.0085384653153794503 0 -0.024000328575661926 -0.0081413907478949284 0 -0.024772763311063553 -0.0080402904611270431 0 -0.024218948533632857 -0.0075281705293847746 0 -0.024000328575661926 -0.0081413907478949284 0 -0.024080806796729699 -0.0085293257333731338 0 -0.024386446088886772 -0.01080937338072682 0 -0.024362554010085573 -0.0077259635580719799 0 -0.024799697608140339 -0.0076131300264560501 0 -0.024540822124919079 -0.0080653354342644108 0 -0.02348714286403656 -0.0097399074283021393 0 -0.023111785791533664 -0.011714153281272047 0 -0.024037823539428287 -0.010897868303390955 0 -0.024799697608140339 -0.0076131300264560501 0 -0.024540822124919079 -0.0080653354342644108 0 -0.024668711319446451 -0.0084957408778982418 0 -0.024386446088886772 -0.01080937338072682 0 -0.024473971619223007 -0.010061821699643789 0 -0.024540822124919079 -0.0080653354342644108 0 -0.024668711319446451 -0.0084957408778982418 0 -0.024320254702055521 -0.0084432222900950663 0 -0.024772763311063553 -0.0080402904611270431 0 -0.024405394858047255 -0.0085384653153794503 0 -0.024835516382700637 -0.0089971946344708596 0 -0.024362554010085573 -0.0077259635580719799 0 -0.024540822124919079 -0.0080653354342644108 0 -0.024320254702055521 -0.0084432222900950663 0 -0.024565020251699096 -0.0075934835566978916 0 -0.024473971619223007 -0.010061821699643789 0 -0.024405394858047255 -0.0085384653153794503 0 -0.024835516382700637 -0.0089971946344708596 0 -0.023893981301205385 -0.008977780511043679 0 -0.024473971619223007 -0.010061821699643789 0 -0.024450031944069892 -0.012846208818287356 0 -0.0247118092905056 -0.010636671365784374 0 -0.023925092760977592 -0.011467349829067722 0 -0.024414307869915053 -0.012349221640520488 0 -0.024378802595702957 -0.012030641232587741 0 -0.024478644241775035 -0.012117315438964693 0 -0.024513440833242164 -0.012209311519110658 0 -0.024378802595702957 -0.012030641232587741 0 -0.024513440833242164 -0.012209311519110658 0 -0.024414307869915053 -0.012349221640520488 0 -0.024478644241775035 -0.012117315438964693 0 -0.024476721223482364 -0.012149221559270489 0 -0.024446758724638154 -0.012102369026959582 0 -0.02446116107022743 -0.012147399563987362 0 -0.024478644241775035 -0.012117315438964693 0 -0.024446758724638154 -0.012102369026959582 0 -0.024386446088886772 -0.01080937338072682 0 -0.024295917552396403 -0.011698098583527595 0 -0.024493312413706631 -0.012051768025146485 0 -0.024378802595702957 -0.012030641232587741 0 -0.024478644241775035 -0.012117315438964693 0 -0.024513440833242164 -0.012209311519110658 0 -0.024484572497314182 -0.012182683369699588 0 -0.024552590448439646 -0.012277259919063971 0 -0.024478644241775035 -0.012117315438964693 0 -0.024513440833242164 -0.012209311519110658 0 -0.024476721223482364 -0.012149221559270489 0 -0.024513440833242164 -0.012209311519110658 0 -0.024476721223482364 -0.012149221559270489 0 -0.024484572497314182 -0.012182683369699588 0 -0.024476721223482364 -0.012149221559270489 0 -0.024484572497314182 -0.012182683369699588 0 -0.024446758724638154 -0.012102369026959582 0 -0.024495823795813707 -0.012251898571877445 0 -0.024484572497314182 -0.012182683369699588 0 -0.024552590448439646 -0.012277259919063971 0 -0.02446116107022743 -0.012147399563987362 0 -0.024446758724638154 -0.012102369026959582 0 -0.024418058058716358 -0.011900164412679127 0 -0.024386446088886772 -0.01080937338072682 0 -0.02421859046558527 -0.011946522181910897 0 -0.024495823795813707 -0.012251898571877445 0 -0.024448054252298974 -0.012132884598137978 0 -0.024484572497314182 -0.012182683369699588 0 -0.024448054252298974 -0.012132884598137978 0 -0.024484572497314182 -0.012182683369699588 0 -0.024446758724638154 -0.012102369026959582 0 -0.024448054252298974 -0.012132884598137978 0 -0.024446758724638154 -0.012102369026959582 0 -0.024418058058716358 -0.011900164412679127 0 -0.024448054252298974 -0.012132884598137978 0 -0.024418058058716358 -0.011900164412679127 0 -0.024507061503165242 -0.012321759432483155 0 -0.024495823795813707 -0.012251898571877445 0 -0.024448054252298974 -0.012132884598137978 0 -0.024507061503165242 -0.012321759432483155 0 -0.024495823795813707 -0.012251898571877445 0 -0.024507061503165242 -0.012321759432483155 0 -0.024511363845688659 -0.012278029143004875 0 -0.024418058058716358 -0.011900164412679127 0 -0.024507061503165242 -0.012321759432483155 0 -0.025302608258316383 -0.011456774219140051 0 -0.01571634412659351 -0.010797065875702222 0 -0.015133080622081336 -0.01715839000896147 0 -0.024507061503165242 -0.012321759432483155 0 -0.025302608258316383 -0.011456774219140051 0 -0.025113744253831043 -0.012830557495342471 0 -0.024606179944853104 -0.010243057646532307 0 -0.025302608258316383 -0.011456774219140051 0 -0.024597520938939549 -0.01113107636881836 0 -0.024418058058716358 -0.011900164412679127 0 -0.025302608258316383 -0.011456774219140051 0 -0.024597520938939549 -0.01113107636881836 0 -0.024606179944853104 -0.010243057646532307 0 -0.024597520938939549 -0.01113107636881836 0 -0.024037823539428287 -0.010897868303390955 0 -0.023111785791533664 -0.011714153281272047 0 -0.024418058058716358 -0.011900164412679127 0 -0.024037823539428287 -0.010897868303390955 0 -0.024418058058716358 -0.011900164412679127 0 -0.024597520938939549 -0.01113107636881836 0 -0.024037823539428287 -0.010897868303390955 0 -0.021537496179240039 -0.0081233122626687398 0 -0.022249667608278335 -0.0086628132646447142 0 -0.021926383367332259 -0.0099584419229598632 0 -0.031462809987615609 -0.0022806604413118489 0 -0.031143709532861767 -0.0023416749019811384 0 -0.030908975262133161 -0.0025168353170549962 0 -0.030829333179155888 -0.001230976173369053 0 -0.029821566316900073 -0.0067596426472858514 0 -0.031462809987615609 -0.0022806604413118489 0 -0.031416810056752446 -0.0026580029381262451 0 -0.030908975262133161 -0.0025168353170549962 0 -0.021537496179240039 -0.0081233122626687398 0 -0.022839082646922752 -0.0070114713528088091 0 -0.022780951033731147 -0.0080347418061062666 0 -0.029821566316900073 -0.0067596426472858514 0 -0.026271865194092452 -0.0047194550136823001 0 -0.021537496179240039 -0.0081233122626687398 0 -0.022780951033731147 -0.0080347418061062666 0 -0.022249667608278335 -0.0086628132646447142 0 -0.022780951033731147 -0.0080347418061062666 0 -0.022249667608278335 -0.0086628132646447142 0 -0.022991419372092856 -0.008700385582163685 0 -0.022991419372092856 -0.008700385582163685 0 -0.023463858370774766 -0.0082526793239985612 0 -0.023893981301205385 -0.008977780511043679 0 -0.022780951033731147 -0.0080347418061062666 0 -0.022991419372092856 -0.008700385582163685 0 -0.023463858370774766 -0.0082526793239985612 0 -0.023463858370774766 -0.0082526793239985612 0 -0.023605513366351822 -0.0075481966186206426 0 -0.024000328575661926 -0.0081413907478949284 0 -0.022780951033731147 -0.0080347418061062666 0 -0.023463858370774766 -0.0082526793239985612 0 -0.023605513366351822 -0.0075481966186206426 0 -0.024201455900176097 -0.0057246485051610065 0 -0.022839082646922752 -0.0070114713528088091 0 -0.023605513366351822 -0.0075481966186206426 0 -0.022839082646922752 -0.0070114713528088091 0 -0.022780951033731147 -0.0080347418061062666 0 -0.023605513366351822 -0.0075481966186206426 0 -0.024013264321946514 -0.0067678053665816374 0 -0.023770228602127068 -0.0073600157500314347 0 -0.023963312155284487 -0.0070065120208799604 0 -0.023605513366351822 -0.0075481966186206426 0 -0.023969754733748856 -0.0073353122644051272 0 -0.023605513366351822 -0.0075481966186206426 0 -0.023946303275225862 -0.0076281751776543175 0 -0.024000328575661926 -0.0081413907478949284 0 -0.023605513366351822 -0.0075481966186206426 0 -0.023946303275225862 -0.0076281751776543175 0 -0.023969754733748856 -0.0073353122644051272 0 -0.023946303275225862 -0.0076281751776543175 0 -0.023969754733748856 -0.0073353122644051272 0 -0.024218948533632857 -0.0075281705293847746 0 -0.024184192075144273 -0.0071571766498328641 0 -0.023969754733748856 -0.0073353122644051272 0 -0.024218948533632857 -0.0075281705293847746 0 -0.023946303275225862 -0.0076281751776543175 0 -0.024218948533632857 -0.0075281705293847746 0 -0.024000328575661926 -0.0081413907478949284 0 -0.023463858370774766 -0.0082526793239985612 0 -0.024000328575661926 -0.0081413907478949284 0 -0.023893981301205385 -0.008977780511043679 0 -0.024405394858047255 -0.0085384653153794503 0 -0.024000328575661926 -0.0081413907478949284 0 -0.023893981301205385 -0.008977780511043679 0 -0.024473971619223007 -0.010061821699643789 0 -0.023706393949160288 -0.0095962629942115425 0 -0.0247118092905056 -0.010636671365784374 0 -0.023509385973700381 -0.01029202830136596 0 -0.023925092760977592 -0.011467349829067722 0 -0.023509385973700381 -0.01029202830136596 0 -0.023925092760977592 -0.011467349829067722 0 -0.023221222028639247 -0.011513989785933947 0 -0.023509385973700381 -0.01029202830136596 0 -0.022694476742238803 -0.010501466176799881 0 -0.023221222028639247 -0.011513989785933947 0 -0.022694476742238803 -0.010501466176799881 0 -0.022417884427084853 -0.01148428740833759 0 -0.023221222028639247 -0.011513989785933947 0 -0.023706393949160288 -0.0095962629942115425 0 -0.022368689562444432 -0.009400045494618715 0 -0.023509385973700381 -0.01029202830136596 0 -0.022394504399714698 -0.0093849714356128138 0 -0.022694476742238803 -0.010501466176799881 0 -0.022991419372092856 -0.008700385582163685 0 -0.023893981301205385 -0.008977780511043679 0 -0.022394504399714698 -0.0093849714356128138 0 -0.022249667608278335 -0.0086628132646447142 0 -0.022991419372092856 -0.008700385582163685 0 -0.022394504399714698 -0.0093849714356128138 0 -0.022249667608278335 -0.0086628132646447142 0 -0.022394504399714698 -0.0093849714356128138 0 -0.021926383367332259 -0.0099584419229598632 0 -0.022394504399714698 -0.0093849714356128138 0 -0.021926383367332259 -0.0099584419229598632 0 -0.022694476742238803 -0.010501466176799881 0 -0.033392189067611697 -0.01541484569622297 0 -0.032996049263457068 -0.016479896492217594 0 -0.033827650390506989 -0.016695625524559696 0 -0.027602326290152024 -0.01334118810611366 0 -0.028277645518581709 -0.013948244424642351 0 -0.021926383367332259 -0.0099584419229598632 0 -0.022694476742238803 -0.010501466176799881 0 -0.022417884427084853 -0.01148428740833759 0 -0.033392189067611697 -0.01541484569622297 0 -0.032996049263457068 -0.016479896492217594 0 -0.032480507856000505 -0.015738514515413568 0 -0.032996049263457068 -0.016479896492217594 0 -0.032439707357219238 -0.01642026702802226 0 -0.03252374771510743 -0.016947527245210946 0 -0.032996049263457068 -0.016479896492217594 0 -0.032439707357219238 -0.01642026702802226 0 -0.032480507856000505 -0.015738514515413568 0 -0.029821566316900073 -0.0067596426472858514 0 -0.027602326290152024 -0.01334118810611366 0 -0.032813474389436943 -0.014098869898585961 0 -0.033392189067611697 -0.01541484569622297 0 -0.032480507856000505 -0.015738514515413568 0 -0.026297976027197283 -0.020931304084770425 0 -0.026333152034571702 -0.020914007172071977 0 -0.026320021089258926 -0.020951887168692205 0 -0.029110276239236458 -0.019657137604212224 0 -0.026972322116152546 -0.019835004441142542 0 -0.032844069370448509 -0.018377012479523357 0 -0.032794329111374476 -0.017846901175579442 0 -0.033492313566756693 -0.017619748376627577 0 -0.032794329111374476 -0.017846901175579442 0 -0.033030694951381098 -0.017476747721062693 0 -0.033492313566756693 -0.017619748376627577 0 -0.029110276239236458 -0.019657137604212224 0 -0.031200594229855244 -0.018893486409036458 0 -0.026297976027197283 -0.020931304084770425 0 -0.026353531561076528 -0.020862974343087134 0 -0.026333152034571702 -0.020914007172071977 0 -0.032309412442202819 -0.01781225678410547 0 -0.032794329111374476 -0.017846901175579442 0 -0.032611585085084681 -0.0174138127907606 0 -0.032309412442202819 -0.01781225678410547 0 -0.032844069370448509 -0.018377012479523357 0 -0.032794329111374476 -0.017846901175579442 0 -0.031933640422823137 -0.017334044941993681 0 -0.032611585085084681 -0.0174138127907606 0 -0.03252374771510743 -0.016947527245210946 0 -0.032611585085084681 -0.0174138127907606 0 -0.03252374771510743 -0.016947527245210946 0 -0.032930855608418887 -0.017093704049477024 0 -0.032996049263457068 -0.016479896492217594 0 -0.032930855608418887 -0.017093704049477024 0 -0.033277091821170598 -0.016948274055424185 0 -0.032996049263457068 -0.016479896492217594 0 -0.03252374771510743 -0.016947527245210946 0 -0.032930855608418887 -0.017093704049477024 0 -0.032930855608418887 -0.017093704049477024 0 -0.033283342840084627 -0.017285866269332914 0 -0.033277091821170598 -0.016948274055424185 0 -0.032930855608418887 -0.017093704049477024 0 -0.033030694951381098 -0.017476747721062693 0 -0.033283342840084627 -0.017285866269332914 0 -0.032611585085084681 -0.0174138127907606 0 -0.032930855608418887 -0.017093704049477024 0 -0.033030694951381098 -0.017476747721062693 0 -0.032794329111374476 -0.017846901175579442 0 -0.032611585085084681 -0.0174138127907606 0 -0.033030694951381098 -0.017476747721062693 0 -0.033030694951381098 -0.017476747721062693 0 -0.033283342840084627 -0.017285866269332914 0 -0.03342127586658758 -0.017484569071898794 0 -0.033827650390506989 -0.016695625524559696 0 -0.033624086083282961 -0.017056448446651568 0 -0.034108324047389456 -0.017620074258521388 0 -0.033510306523921507 -0.017348893500481181 0 -0.033283342840084627 -0.017285866269332914 0 -0.03342127586658758 -0.017484569071898794 0 -0.033510306523921507 -0.017348893500481181 0 -0.033624086083282961 -0.017056448446651568 0 -0.034108324047389456 -0.017620074258521388 0 -0.032801458315841497 -0.018470831663162643 0 -0.031200594229855244 -0.018893486409036458 0 -0.032996049263457068 -0.016479896492217594 0 -0.033277091821170598 -0.016948274055424185 0 -0.033827650390506989 -0.016695625524559696 0 -0.031740983052851772 -0.01836051064549124 0 -0.031200594229855244 -0.018893486409036458 0 -0.033510306523921507 -0.017348893500481181 0 -0.033283342840084627 -0.017285866269332914 0 -0.033624086083282961 -0.017056448446651568 0 -0.033283342840084627 -0.017285866269332914 0 -0.033277091821170598 -0.016948274055424185 0 -0.033624086083282961 -0.017056448446651568 0 -0.033277091821170598 -0.016948274055424185 0 -0.033827650390506989 -0.016695625524559696 0 -0.033624086083282961 -0.017056448446651568 0 -0.026353531561076528 -0.020862974343087134 0 -0.026361057721787585 -0.020911821940325388 0 -0.026401741629742456 -0.020873948394445428 0 -0.033510306523921507 -0.017348893500481181 0 -0.033430089483783447 -0.017438370556359679 0 -0.034108324047389456 -0.017620074258521388 0 -0.031200594229855244 -0.018893486409036458 0 -0.026465966030810112 -0.015730653455208465 0 -0.026361057721787585 -0.020911821940325388 0 -0.026401741629742456 -0.020873948394445428 0 -0.026350315584713228 -0.020976149990615377 0 -0.026353531561076528 -0.020862974343087134 0 -0.026333152034571702 -0.020914007172071977 0 -0.026361057721787585 -0.020911821940325388 0 -0.026333152034571702 -0.020914007172071977 0 -0.026320021089258926 -0.020951887168692205 0 -0.026361057721787585 -0.020911821940325388 0 -0.026320021089258926 -0.020951887168692205 0 -0.026361057721787585 -0.020911821940325388 0 -0.026350315584713228 -0.020976149990615377 0 -0.022901028343244069 -0.012578945161777771 0 -0.023221222028639247 -0.011513989785933947 0 -0.023707671620963471 -0.012227127362442797 0 -0.022417884427084853 -0.01148428740833759 0 -0.022901028343244069 -0.012578945161777771 0 -0.023221222028639247 -0.011513989785933947 0 -0.028277645518581709 -0.013948244424642351 0 -0.026465966030810112 -0.015730653455208465 0 -0.023925092760977592 -0.011467349829067722 0 -0.023221222028639247 -0.011513989785933947 0 -0.023707671620963471 -0.012227127362442797 0 -0.026465966030810112 -0.015730653455208465 0 -0.023223265408643171 -0.012947914637797214 0 -0.022901028343244069 -0.012578945161777771 0 -0.023707671620963471 -0.012227127362442797 0 -0.02399745435218106 -0.013009204075882005 0 -0.023509202728003255 -0.013676919350844021 0 -0.023735648563060048 -0.014223762839362082 0 -0.02405251926539376 -0.013756045238757118 0 -0.024546102217271829 -0.021418898379350713 0 -0.024871730676969763 -0.020851687706296151 0 -0.024237052035864719 -0.020768942269374143 0 -0.023050163981483188 -0.018543054025262677 0 -0.021520724988272486 -0.020040849892698432 0 -0.023050163981483188 -0.018543054025262677 0 -0.026307267950287087 -0.021424862252398872 0 -0.024546102217271829 -0.021418898379350713 0 -0.025299386524452721 -0.021314693653582645 0 -0.024871730676969763 -0.020851687706296151 0 -0.026465966030810112 -0.015730653455208465 0 -0.023050163981483188 -0.018543054025262677 0 -0.026401741629742456 -0.020873948394445428 0 -0.026418954243897293 -0.020988162463066454 0 -0.026350315584713228 -0.020976149990615377 0 -0.026418954243897293 -0.020988162463066454 0 -0.026350315584713228 -0.020976149990615377 0 -0.026340847068701063 -0.021059344399765676 0 -0.026320021089258926 -0.020951887168692205 0 -0.026350315584713228 -0.020976149990615377 0 -0.02628600036606784 -0.021020995637663454 0 -0.026350315584713228 -0.020976149990615377 0 -0.026340847068701063 -0.021059344399765676 0 -0.026267444755658752 -0.021055890713219668 0 -0.026350315584713228 -0.020976149990615377 0 -0.026267444755658752 -0.021055890713219668 0 -0.02628600036606784 -0.021020995637663454 0 -0.025299386524452721 -0.021314693653582645 0 -0.026189857131571438 -0.021089023235995059 0 -0.025647190098351477 -0.020794743270923208 0 -0.026307267950287087 -0.021424862252398872 0 -0.025976209013560438 -0.02106492678505243 0 -0.026288434649039776 -0.021171219181162812 0 -0.026189857131571438 -0.021089023235995059 0 -0.026267444755658752 -0.021055890713219668 0 -0.026340847068701063 -0.021059344399765676 0 -0.026189857131571438 -0.021089023235995059 0 -0.026267444755658752 -0.021055890713219668 0 -0.027418181568119933 -0.020192849147623381 0 -0.029110276239236458 -0.019657137604212224 0 -0.026288434649039776 -0.021171219181162812 0 -0.026276079110829711 -0.020955295665663256 0 -0.02628600036606784 -0.021020995637663454 0 -0.026288434649039776 -0.021171219181162812 0 -0.026267444755658752 -0.021055890713219668 0 -0.02628600036606784 -0.021020995637663454 0 -0.026276079110829711 -0.020955295665663256 0 -0.026320021089258926 -0.020951887168692205 0 -0.02628600036606784 -0.021020995637663454 0 -0.025650182973772077 -0.013148955544175967 0 -0.025062881312983724 -0.01303054373531832 0 -0.025385038785312033 -0.012346986558386321 0 -0.025062881312983724 -0.01303054373531832 0 -0.025291772719794277 -0.013632127673505386 0 -0.024951376531218369 -0.013911801293140335 0 -0.025650182973772077 -0.013148955544175967 0 -0.025062881312983724 -0.01303054373531832 0 -0.025291772719794277 -0.013632127673505386 0 -0.025650182973772077 -0.013148955544175967 0 -0.025291772719794277 -0.013632127673505386 0 -0.025596267836136211 -0.014256511054612082 0 -0.022904994608879944 -0.016179598370557928 0 -0.020872071040786332 -0.021124154396378325 0 -0.021460000852820949 -0.019856040244850961 0 -0.02231098544780457 -0.020261804277281224 0 -0.021277812321040143 -0.021798137361449373 0 -0.020548285865452182 -0.019616165342716745 0 -0.021460000852820949 -0.019856040244850961 0 -0.021277812321040143 -0.021798137361449373 0 -0.021460000852820949 -0.019856040244850961 0 -0.022353545673001653 -0.01957249162837383 0 -0.021218352277839952 -0.01741045755576966 0 -0.020548285865452182 -0.019616165342716745 0 -0.021460000852820949 -0.019856040244850961 0 -0.021218352277839952 -0.01741045755576966 0 -0.018357761933834271 -0.025659711623571804 0 -0.018149876546665049 -0.024660597279971372 0 -0.021460000852820949 -0.019856040244850961 0 -0.02231098544780457 -0.020261804277281224 0 -0.022353545673001653 -0.01957249162837383 0 -0.018303137854109829 -0.026171018255402446 0 -0.018439606297509355 -0.025964246820018553 0 -0.018323400834058774 -0.025751563020546847 0 -0.018357761933834271 -0.025659711623571804 0 -0.017647858030941738 -0.026725366541259617 0 -0.016362929874579209 -0.027865421869842356 0 -0.016467107521760851 -0.028059621135377452 0 -0.015601107645644307 -0.029108964918488169 0 -0.017647858030941738 -0.026725366541259617 0 -0.018149876546665049 -0.024660597279971372 0 -0.018149876546665049 -0.024660597279971372 0 -0.021854049812605518 -0.015443278102113166 0 -0.018149876546665049 -0.024660597279971372 0 -0.015133080622081336 -0.01715839000896147 0 -0.016467107521760851 -0.028059621135377452 0 -0.016356516981304837 -0.029201639492691486 0 -0.015601107645644307 -0.029108964918488169 0 -0.019214416429317205 -0.022061443969911224 0 -0.019495450704207197 -0.017350441870350772 0 -0.016720949606309245 -0.01738955359558552 0 -0.023451872781655374 -0.012711466837307613 0 -0.021854049812605518 -0.015443278102113166 0 -0.024507061503165242 -0.012321759432483155 0 -0.025113744253831043 -0.012830557495342471 0 -0.024726723843726518 -0.012828386600584425 0 -0.015133080622081336 -0.01715839000896147 0 -0.021854049812605518 -0.015443278102113166 0 -0.024507061503165242 -0.012321759432483155 0 -0.024457807614686501 -0.012282522532242546 0 -0.024511363845688659 -0.012278029143004875 0 -0.024457807614686501 -0.012282522532242546 0 -0.024511363845688659 -0.012278029143004875 0 -0.024502565551125274 -0.012271052407714238 0 -0.021854049812605518 -0.015443278102113166 0 -0.023284127268975212 -0.01449211037765538 0 -0.023284892349452552 -0.013798696312543648 0 -0.023284127268975212 -0.01449211037765538 0 -0.022904994608879944 -0.016179598370557928 0 -0.023284127268975212 -0.01449211037765538 0 -0.020548285865452182 -0.019616165342716745 0 -0.021218352277839952 -0.01741045755576966 0 -0.019828656382108411 -0.017421717629253018 0 -0.025062881312983724 -0.01303054373531832 0 -0.025385038785312033 -0.012346986558386321 0 -0.024634688637621679 -0.012337317563063539 0 -0.023284127268975212 -0.01449211037765538 0 -0.025102458929783307 -0.012683592915496523 0 -0.024506607751897544 -0.012261061392056603 0 -0.024552590448439646 -0.012277259919063971 0 -0.024634688637621679 -0.012337317563063539 0 -0.024511363845688659 -0.012278029143004875 0 -0.024506607751897544 -0.012261061392056603 0 -0.024552590448439646 -0.012277259919063971 0 -0.024495823795813707 -0.012251898571877445 0 -0.024511363845688659 -0.012278029143004875 0 -0.024552590448439646 -0.012277259919063971 0 -0.024513440833242164 -0.012209311519110658 0 -0.024552590448439646 -0.012277259919063971 0 -0.024634688637621679 -0.012337317563063539 0 -0.024513440833242164 -0.012209311519110658 0 -0.024634688637621679 -0.012337317563063539 0 -0.024414307869915053 -0.012349221640520488 0 -0.024634688637621679 -0.012337317563063539 0 -0.024414307869915053 -0.012349221640520488 0 -0.024597066873744605 -0.012859524850467013 0 -0.023925092760977592 -0.011467349829067722 0 -0.023707671620963471 -0.012227127362442797 0 -0.024414307869915053 -0.012349221640520488 0 -0.024414307869915053 -0.012349221640520488 0 -0.02399745435218106 -0.013009204075882005 0 -0.024597066873744605 -0.012859524850467013 0 -0.023707671620963471 -0.012227127362442797 0 -0.024414307869915053 -0.012349221640520488 0 -0.02399745435218106 -0.013009204075882005 0 -0.02399745435218106 -0.013009204075882005 0 -0.024597066873744605 -0.012859524850467013 0 -0.024951376531218369 -0.013911801293140335 0 -0.025062881312983724 -0.01303054373531832 0 -0.024634688637621679 -0.012337317563063539 0 -0.024597066873744605 -0.012859524850467013 0 -0.025062881312983724 -0.01303054373531832 0 -0.024597066873744605 -0.012859524850467013 0 -0.024951376531218369 -0.013911801293140335 0 -0.02405251926539376 -0.013756045238757118 0 -0.024423437863905904 -0.014071997214372252 0 -0.024951376531218369 -0.013911801293140335 0 -0.023223265408643171 -0.012947914637797214 0 -0.025321127316831161 -0.014027412003073945 0 -0.023735648563060048 -0.014223762839362082 0 -0.02405251926539376 -0.013756045238757118 0 -0.024423437863905904 -0.014071997214372252 0 -0.023050163981483188 -0.018543054025262677 0 -0.022443362932650278 -0.014290897434151975 0 -0.01753899534048798 -0.016270474938516067 0 -0.02138757280081837 -0.015408739666396257 0 -0.021033062843362975 -0.017931487182899681 0 -0.01753899534048798 -0.016270474938516067 0 -0.021033062843362975 -0.017931487182899681 0 -0.019086447221666532 -0.019432422864151533 0 -0.02138757280081837 -0.015408739666396257 0 -0.021033062843362975 -0.017931487182899681 0 -0.024200324095094351 -0.017439306746404596 0 -0.024200324095094351 -0.017439306746404596 0 -0.025596267836136211 -0.014256511054612082 0 -0.026042687133199943 -0.014367845665683953 0 -0.024423437863905904 -0.014071997214372252 0 -0.025596267836136211 -0.014256511054612082 0 -0.024951376531218369 -0.013911801293140335 0 -0.022443362932650278 -0.014290897434151975 0 -0.02571489491665498 -0.014378693870013649 0 -0.021491873355328046 -0.019861650091628075 0 -0.020872071040786332 -0.021124154396378325 0 -0.02138757280081837 -0.015408739666396257 0 -0.024200324095094351 -0.017439306746404596 0 -0.025596267836136211 -0.014256511054612082 0 -0.025291772719794277 -0.013632127673505386 0 -0.025596267836136211 -0.014256511054612082 0 -0.024951376531218369 -0.013911801293140335 0 -0.01771630774699532 -0.027970028040383489 0 -0.017829595232243662 -0.026230352304091147 0 -0.016564453151959549 -0.026370215538238383 0 -0.018357761933834271 -0.025659711623571804 0 -0.017715193427067177 -0.027171325734858962 0 -0.01777200220670104 -0.027598676913045808 0 -0.0182159212774686 -0.026942928772741029 0 -0.017829595232243662 -0.026230352304091147 0 -0.01771630774699532 -0.027970028040383489 0 -0.017595396061257516 -0.02815005768674668 0 -0.016564453151959549 -0.026370215538238383 0 -0.020872071040786332 -0.021124154396378325 0 -0.017782789356199716 -0.025074208721536661 0 -0.018357761933834271 -0.025659711623571804 0 -0.020872071040786332 -0.021124154396378325 0 -0.025650182973772077 -0.013148955544175967 0 -0.025596267836136211 -0.014256511054612082 0 -0.026042687133199943 -0.014367845665683953 0 -0.018115624984384068 -0.023370680607911119 0 -0.017944093140216815 -0.023449009225965982 0 -0.017941118283942289 -0.023339982089759147 0 -0.0182159212774686 -0.026942928772741029 0 -0.017829595232243662 -0.026230352304091147 0 -0.017779729094124983 -0.025579498965827924 0 -0.017829595232243662 -0.026230352304091147 0 -0.017779729094124983 -0.025579498965827924 0 -0.017080404397567445 -0.025746771374205668 0 -0.018115624984384068 -0.023370680607911119 0 -0.018165727060575496 -0.023147360545635508 0 -0.017944093140216815 -0.023449009225965982 0 -0.016564453151959549 -0.026370215538238383 0 -0.016565085834143078 -0.024927902442485859 0 -0.015109089767150719 -0.024576129685603743 0 -0.017779729094124983 -0.025579498965827924 0 -0.017080404397567445 -0.025746771374205668 0 -0.016565085834143078 -0.024927902442485859 0 -0.017080404397567445 -0.025746771374205668 0 -0.016564453151959549 -0.026370215538238383 0 -0.016565085834143078 -0.024927902442485859 0 -0.016017513333927862 -0.026752773029652371 0 -0.015114871701822422 -0.024555601541885203 0 -0.017829595232243662 -0.026230352304091147 0 -0.017080404397567445 -0.025746771374205668 0 -0.016564453151959549 -0.026370215538238383 0 -0.013965132291088559 -0.025585363240242513 0 -0.014631311666062914 -0.026160782568941821 0 -0.015109089767150719 -0.024576129685603743 0 -0.014631311666062914 -0.026160782568941821 0 -0.015583218809866479 -0.026738907172271759 0 -0.015109089767150719 -0.024576129685603743 0 -0.014631311666062914 -0.026160782568941821 0 -0.014578554469286343 -0.027077723373771196 0 -0.013728798183863519 -0.026594827463599997 0 -0.013965132291088559 -0.025585363240242513 0 -0.014631311666062914 -0.026160782568941821 0 -0.013728798183863519 -0.026594827463599997 0 -0.014631311666062914 -0.026160782568941821 0 -0.014578554469286343 -0.027077723373771196 0 -0.015583218809866479 -0.026738907172271759 0 -0.014578554469286343 -0.027077723373771196 0 -0.013653955992162218 -0.027543647299136192 0 -0.014962782014846146 -0.027951845861069101 0 -0.014578554469286343 -0.027077723373771196 0 -0.013728798183863519 -0.026594827463599997 0 -0.013653955992162218 -0.027543647299136192 0 -0.017647858030941738 -0.026725366541259617 0 -0.016017513333927862 -0.026752773029652371 0 -0.016245807044982952 -0.028215180450412252 0 -0.015583218809866479 -0.026738907172271759 0 -0.014962782014846146 -0.027951845861069101 0 -0.014578554469286343 -0.027077723373771196 0 -0.015583218809866479 -0.026738907172271759 0 -0.014962782014846146 -0.027951845861069101 0 -0.012488835824149613 -0.026975754498482107 0 -0.011324789235424199 -0.02697694629984073 0 -0.011691150542524903 -0.026127483968396613 0 -0.012788422492692207 -0.026027598152111822 0 -0.012488835824149613 -0.026975754498482107 0 -0.011691150542524903 -0.026127483968396613 0 -0.012788422492692207 -0.026027598152111822 0 -0.013728798183863519 -0.026594827463599997 0 -0.012488835824149613 -0.026975754498482107 0 -0.013965132291088559 -0.025585363240242513 0 -0.012788422492692207 -0.026027598152111822 0 -0.013728798183863519 -0.026594827463599997 0 -0.013653955992162218 -0.027543647299136192 0 -0.012488835824149613 -0.026975754498482107 0 -0.012285645514649488 -0.028018067336963604 0 -0.013728798183863519 -0.026594827463599997 0 -0.013653955992162218 -0.027543647299136192 0 -0.012488835824149613 -0.026975754498482107 0 -0.012488835824149613 -0.026975754498482107 0 -0.012285645514649488 -0.028018067336963604 0 -0.011324789235424199 -0.02697694629984073 0 -0.012285645514649488 -0.028018067336963604 0 -0.01284281230515452 -0.029415988805301465 0 -0.013912978707962301 -0.02855360386657833 0 -0.013653955992162218 -0.027543647299136192 0 -0.012285645514649488 -0.028018067336963604 0 -0.013912978707962301 -0.02855360386657833 0 -0.012558958561646055 -0.022132435554247858 0 -0.010403994431518364 -0.022418700869457735 0 -0.01284281230515452 -0.029415988805301465 0 -0.013912978707962301 -0.02855360386657833 0 -0.014581598606722677 -0.029368499384573754 0 -0.010578797545887884 -0.014550079674669923 0 -0.0082340182678162042 -0.01456572472584923 0 -0.0093965129133950203 -0.013242563244665152 0 -0.012285645514649488 -0.028018067336963604 0 -0.01284281230515452 -0.029415988805301465 0 -0.011183564170815419 -0.029391064605772982 0 -0.012558958561646055 -0.022132435554247858 0 -0.0089338507070190875 -0.019871691056414963 0 -0.016245807044982952 -0.028215180450412252 0 -0.015483572728293336 -0.028498187722362261 0 -0.014962782014846146 -0.027951845861069101 0 -0.015483572728293336 -0.028498187722362261 0 -0.014962782014846146 -0.027951845861069101 0 -0.014916524563269697 -0.028696646900114389 0 -0.017647858030941738 -0.026725366541259617 0 -0.015330099916564147 -0.02949728572891424 0 -0.016245807044982952 -0.028215180450412252 0 -0.015483572728293336 -0.028498187722362261 0 -0.015601107645644307 -0.029108964918488169 0 -0.013653955992162218 -0.027543647299136192 0 -0.014962782014846146 -0.027951845861069101 0 -0.013912978707962301 -0.02855360386657833 0 -0.014962782014846146 -0.027951845861069101 0 -0.013912978707962301 -0.02855360386657833 0 -0.014916524563269697 -0.028696646900114389 0 -0.013912978707962301 -0.02855360386657833 0 -0.014916524563269697 -0.028696646900114389 0 -0.014581598606722677 -0.029368499384573754 0 -0.015133080622081336 -0.01715839000896147 0 -0.010403994431518364 -0.022418700869457735 0 -0.016356516981304837 -0.029201639492691486 0 -0.014581598606722677 -0.029368499384573754 0 -0.015601107645644307 -0.029108964918488169 0 -0.0059273438817302763 -0.01460464228437533 0 -0.0082340182678162042 -0.01456572472584923 0 -0.0073683129909984518 -0.013199015792820512 0 -0.014916524563269697 -0.028696646900114389 0 -0.014581598606722677 -0.029368499384573754 0 -0.015601107645644307 -0.029108964918488169 0 -0.015483572728293336 -0.028498187722362261 0 -0.014916524563269697 -0.028696646900114389 0 -0.015601107645644307 -0.029108964918488169 0 -0.0059890258557505861 -0.011759027648142626 0 -0.0059273438817302763 -0.01460464228437533 0 -0.0073683129909984518 -0.013199015792820512 0 -0.0059890258557505861 -0.011759027648142626 0 -0.0089899827255996868 -0.011457378523688231 0 -0.0082596451059697568 -0.0094382219838767198 0 -0.0059890258557505861 -0.011759027648142626 0 -0.0073683129909984518 -0.013199015792820512 0 -0.0089899827255996868 -0.011457378523688231 0 -0.0073683129909984518 -0.013199015792820512 0 -0.0089899827255996868 -0.011457378523688231 0 -0.0093965129133950203 -0.013242563244665152 0 -0.0082340182678162042 -0.01456572472584923 0 -0.0073683129909984518 -0.013199015792820512 0 -0.0093965129133950203 -0.013242563244665152 0 -0.010578797545887884 -0.014550079674669923 0 -0.0093965129133950203 -0.013242563244665152 0 -0.012035482054266357 -0.011918212136431097 0 -0.010578797545887884 -0.014550079674669923 0 -0.012035482054266357 -0.011918212136431097 0 -0.012938370563131124 -0.014537062851527225 0 -0.0089899827255996868 -0.011457378523688231 0 -0.0093965129133950203 -0.013242563244665152 0 -0.012035482054266357 -0.011918212136431097 0 -0.0089899827255996868 -0.011457378523688231 0 -0.012035482054266357 -0.011918212136431097 0 -0.011130458173448862 -0.0092805961557407765 0 -0.0089899827255996868 -0.011457378523688231 0 -0.011130458173448862 -0.0092805961557407765 0 -0.0082596451059697568 -0.0094382219838767198 0 -0.0037816766318566836 -0.010435839179854715 0 -0.0038715726341412276 -0.010241454573721267 0 0.0032179620915720056 -0.0086310013693736316 0 0.0036054085214357557 -0.01016929021777027 0 0.002745393423693311 -0.0094160592771645145 0 -0.011130458173448862 -0.0092805961557407765 0 -0.0092845014839417171 -0.0079890346516980904 0 -0.0082596451059697568 -0.0094382219838767198 0 -0.010194808832594965 -0.0065903687470526481 0 -0.011130458173448862 -0.0092805961557407765 0 -0.0092845014839417171 -0.0079890346516980904 0 -0.0035008226095306714 -0.0065712791505692916 0 -0.0038715726341412276 -0.010241454573721267 0 -0.0092845014839417171 -0.0079890346516980904 0 -0.0076012034276332257 -0.0075396828956724483 0 -0.0082596451059697568 -0.0094382219838767198 0 -0.0060443168499528348 -0.0088363891616680922 0 -0.0076012034276332257 -0.0075396828956724483 0 -0.0082596451059697568 -0.0094382219838767198 0 -0.0060443168499528348 -0.0088363891616680922 0 -0.0059890258557505861 -0.011759027648142626 0 -0.0082596451059697568 -0.0094382219838767198 0 0.021464050085853146 -0.0082567579184703761 0 0.020538550403892179 -0.0080500146898144359 0 0.021150133534210153 -0.0075438653182560329 0 0.020538550403892179 -0.0080500146898144359 0 0.020494823106428084 -0.0089284471215607258 0 0.019701300562985288 -0.008714455105503012 0 0.021464050085853146 -0.0082567579184703761 0 0.020538550403892179 -0.0080500146898144359 0 0.020494823106428084 -0.0089284471215607258 0 0.020538550403892179 -0.0080500146898144359 0 0.020712764087527952 -0.0072663718145370218 0 0.019607991018157685 -0.0075233332197154369 0 0.020538550403892179 -0.0080500146898144359 0 0.020712764087527952 -0.0072663718145370218 0 0.021150133534210153 -0.0075438653182560329 0 0.021108799225172153 -0.0068236185179128758 0 0.020712764087527952 -0.0072663718145370218 0 0.021150133534210153 -0.0075438653182560329 0 0.021108799225172153 -0.0068236185179128758 0 0.021654509874451926 -0.0072097094977650114 0 0.021150133534210153 -0.0075438653182560329 0 0.021464050085853146 -0.0082567579184703761 0 0.021654509874451926 -0.0072097094977650114 0 0.021150133534210153 -0.0075438653182560329 0 0.021464050085853146 -0.0082567579184703761 0 0.021654509874451926 -0.0072097094977650114 0 0.022262726231313493 -0.0077231214243189588 0 0.022396093663204927 -0.0066227215706877998 0 0.021654509874451926 -0.0072097094977650114 0 0.022262726231313493 -0.0077231214243189588 0 0.012297373867651406 -0.0062420063599644519 0 0.011943274268758479 -0.0095198790216124169 0 0.0036054085214357557 -0.01016929021777027 0 0.0019282038317752837 -0.010060448064670685 0 0.002745393423693311 -0.0094160592771645145 0 0.0023920635684862523 -0.0085481804891763095 0 0.0019282038317752837 -0.010060448064670685 0 0.002745393423693311 -0.0094160592771645145 0 0.0030779712742705222 -0.011776966293238518 0 0.0036054085214357557 -0.01016929021777027 0 0.0019282038317752837 -0.010060448064670685 0 0.011943274268758479 -0.0095198790216124169 0 0.012503534886285908 -0.0089034229583656171 0 0.021464050085853146 -0.0082567579184703761 0 0.022262726231313493 -0.0077231214243189588 0 0.022048407365211586 -0.0091207278807264834 0 0.0030779712742705222 -0.011776966293238518 0 0.0019282038317752837 -0.010060448064670685 0 0.0014540615195859175 -0.011718508160337532 0 -0.0037816766318566836 -0.010435839179854715 0 -0.0089338507070190875 -0.019871691056414963 0 0.0030779712742705222 -0.011776966293238518 0 0.0014540615195859175 -0.011718508160337532 0 0.0024795672952479452 -0.013463375285528417 0 0.012503534886285908 -0.0089034229583656171 0 0.0068521317458540495 -0.018361072099594065 0 0.0014540615195859175 -0.011718508160337532 0 0.0024795672952479452 -0.013463375285528417 0 0.0010008744366449972 -0.013442868830161945 0 0.022048407365211586 -0.0091207278807264834 0 0.020959906064878752 -0.010199843514136105 0 0.021699814998169684 -0.010831366169160027 0 0.020959906064878752 -0.010199843514136105 0 0.021169709454448574 -0.0092263608885364678 0 0.020466251878064529 -0.0097015868220987032 0 0.022048407365211586 -0.0091207278807264834 0 0.020959906064878752 -0.010199843514136105 0 0.021169709454448574 -0.0092263608885364678 0 0.021464050085853146 -0.0082567579184703761 0 0.022048407365211586 -0.0091207278807264834 0 0.021169709454448574 -0.0092263608885364678 0 0.021464050085853146 -0.0082567579184703761 0 0.021169709454448574 -0.0092263608885364678 0 0.020494823106428084 -0.0089284471215607258 0 0.021169709454448574 -0.0092263608885364678 0 0.020494823106428084 -0.0089284471215607258 0 0.020466251878064529 -0.0097015868220987032 0 0.020494823106428084 -0.0089284471215607258 0 0.020466251878064529 -0.0097015868220987032 0 0.019861204711310067 -0.0095423503127428783 0 0.020959906064878752 -0.010199843514136105 0 0.020466251878064529 -0.0097015868220987032 0 0.020015332337647428 -0.010312402415120218 0 0.02070246891810611 -0.010277947172988591 0 0.020003986991616513 -0.010195799980401966 0 0.020466251878064529 -0.0097015868220987032 0 0.019861204711310067 -0.0095423503127428783 0 0.020015332337647428 -0.010312402415120218 0 0.020959906064878752 -0.010199843514136105 0 0.019664651864981838 -0.010966351676120601 0 0.019164735369847776 -0.010613632868841819 0 0.011711330394425533 -0.022512946065366603 0 0.011829092373331088 -0.022292499771437262 0 0.011881058249465877 -0.022527857800840198 0 0.011711330394425533 -0.022512946065366603 0 0.011881058249465877 -0.022527857800840198 0 0.012074676777784461 -0.022336122315819881 0 0.01760936565893308 -0.016906484051840375 0 0.0068521317458540495 -0.018361072099594065 0 0.020959906064878752 -0.010199843514136105 0 0.019664651864981838 -0.010966351676120601 0 0.021699814998169684 -0.010831366169160027 0 0.011881058249465877 -0.022527857800840198 0 0.011821612723818868 -0.022645339164602086 0 0.012089053023603075 -0.022846415982636512 0 0.011881058249465877 -0.022527857800840198 0 0.012074676777784461 -0.022336122315819881 0 0.012089053023603075 -0.022846415982636512 0 0.0068521317458540495 -0.018361072099594065 0 0.00027772567992249498 -0.02639133472369367 0 0.011829092373331088 -0.022292499771437262 0 0.011881058249465877 -0.022527857800840198 0 0.011821612723818868 -0.022645339164602086 0 0.011821612723818868 -0.022645339164602086 0 0.011719107985566492 -0.022968838682658383 0 0.012089053023603075 -0.022846415982636512 0 0.011821612723818868 -0.022645339164602086 0 0.011719107985566492 -0.022968838682658383 0 0.011642441121086361 -0.022725461528800058 0 0.011829092373331088 -0.022292499771437262 0 0.011821612723818868 -0.022645339164602086 0 0.011642441121086361 -0.022725461528800058 0 -0.0089338507070190875 -0.019871691056414963 0 0.0068521317458540495 -0.018361072099594065 0 -0.009760381778731354 -0.026814932056218439 0 -0.0097638251340428032 -0.026845978966132181 0 -0.009899313182968961 -0.026960439635561655 0 -0.0097638251340428032 -0.026845978966132181 0 -0.009899313182968961 -0.026960439635561655 0 -0.0097986510275910165 -0.027026455513992607 0 -0.0089338507070190875 -0.019871691056414963 0 -0.010824033338726266 -0.029147817168532819 0 -0.012285645514649488 -0.028018067336963604 0 -0.011183564170815419 -0.029391064605772982 0 -0.010724746005250479 -0.028155480550560028 0 -0.010724746005250479 -0.028155480550560028 0 -0.011324789235424199 -0.02697694629984073 0 -0.010239129647154543 -0.026903878153854064 0 -0.012285645514649488 -0.028018067336963604 0 -0.010724746005250479 -0.028155480550560028 0 -0.011324789235424199 -0.02697694629984073 0 -0.009899313182968961 -0.026960439635561655 0 -0.010239129647154543 -0.026903878153854064 0 -0.0097986510275910165 -0.027026455513992607 0 -0.010824033338726266 -0.029147817168532819 0 -0.0099983268250836716 -0.026336444961863655 0 -0.010239129647154543 -0.026903878153854064 0 -0.0093771227407547248 -0.026501963506079928 0 -0.010641150615444487 -0.026189077199068898 0 -0.011324789235424199 -0.02697694629984073 0 -0.010239129647154543 -0.026903878153854064 0 -0.010641150615444487 -0.026189077199068898 0 -0.011324789235424199 -0.02697694629984073 0 -0.010641150615444487 -0.026189077199068898 0 -0.011691150542524903 -0.026127483968396613 0 0.011719107985566492 -0.022968838682658383 0 0.011909297939244981 -0.023457558205986655 0 0.011493750416240065 -0.02324730531792385 0 0.011719107985566492 -0.022968838682658383 0 0.012089053023603075 -0.022846415982636512 0 0.011909297939244981 -0.023457558205986655 0 0.012089053023603075 -0.022846415982636512 0 0.011909297939244981 -0.023457558205986655 0 0.011970511406402064 -0.023702958047637248 0 -0.010239129647154543 -0.026903878153854064 0 -0.0097986510275910165 -0.027026455513992607 0 -0.0093771227407547248 -0.026501963506079928 0 0.00027772567992249498 -0.02639133472369367 0 0.0014786701094444807 -0.024907759815849403 0 0.011909297939244981 -0.023457558205986655 0 0.01167627148802786 -0.023834030797380279 0 0.011559627000278889 -0.023744659787716386 0 0.011909297939244981 -0.023457558205986655 0 0.011970511406402064 -0.023702958047637248 0 0.01167627148802786 -0.023834030797380279 0 0.011872398413063147 -0.02346811018150639 0 0.01165141581880964 -0.023477528985309668 0 0.011970511406402064 -0.023702958047637248 0 0.011724365383547791 -0.02414182760847541 0 0.011736496602166656 -0.024242488947863749 0 0.011970511406402064 -0.023702958047637248 0 0.01167627148802786 -0.023834030797380279 0 0.011724365383547791 -0.02414182760847541 0 0.0014786701094444807 -0.024907759815849403 0 0.00090884943653203902 -0.024061217410290405 0 -0.0093771227407547248 -0.026501963506079928 0 -0.0088939490855660698 -0.025476260396456285 0 -0.0099964167310601041 -0.025677662877353447 0 -0.0096659968988447881 -0.025079504548538824 0 -0.0088939490855660698 -0.025476260396456285 0 -0.0099964167310601041 -0.025677662877353447 0 -0.0096659968988447881 -0.025079504548538824 0 -0.0088939490855660698 -0.025476260396456285 0 -0.0090954144568933457 -0.024608218556633477 0 0.011736496602166656 -0.024242488947863749 0 0.011724630270711463 -0.023957135050173488 0 0.011861509642738133 -0.024195108633049241 0 0.011724365383547791 -0.02414182760847541 0 0.011736496602166656 -0.024242488947863749 0 0.011861509642738133 -0.024195108633049241 0 0.00090884943653203902 -0.024061217410290405 0 0.0065325597447372374 -0.02861035842205947 0 -0.0088939490855660698 -0.025476260396456285 0 -0.0083204007139754711 -0.024312362111234432 0 -0.0090954144568933457 -0.024608218556633477 0 0.0065325597447372374 -0.02861035842205947 0 0.0044847194898634639 -0.027590875846795749 0 -0.0090954144568933457 -0.024608218556633477 0 -0.0089651795099073422 -0.024171807689549071 0 -0.0084104145942576047 -0.024259294778719215 0 -0.0083204007139754711 -0.024312362111234432 0 -0.0090954144568933457 -0.024608218556633477 0 -0.0084104145942576047 -0.024259294778719215 0 -0.0096659968988447881 -0.025079504548538824 0 -0.0090954144568933457 -0.024608218556633477 0 -0.0099359075719454969 -0.024505412695127439 0 -0.0090954144568933457 -0.024608218556633477 0 -0.0094330519674811555 -0.024217377336300805 0 -0.0099359075719454969 -0.024505412695127439 0 -0.0090954144568933457 -0.024608218556633477 0 -0.0089651795099073422 -0.024171807689549071 0 -0.0094330519674811555 -0.024217377336300805 0 -0.0089651795099073422 -0.024171807689549071 0 -0.0092530993943241227 -0.023800458636653234 0 -0.0086439517654400833 -0.023888017391661184 0 -0.0089651795099073422 -0.024171807689549071 0 -0.0094330519674811555 -0.024217377336300805 0 -0.0092530993943241227 -0.023800458636653234 0 -0.0092530993943241227 -0.023800458636653234 0 -0.0085567343254438159 -0.023462794281115248 0 -0.0097576164982737142 -0.023034406209238318 0 -0.0094330519674811555 -0.024217377336300805 0 -0.0099711976517912696 -0.023832532400722986 0 -0.0099359075719454969 -0.024505412695127439 0 -0.0094330519674811555 -0.024217377336300805 0 -0.0092530993943241227 -0.023800458636653234 0 -0.0099711976517912696 -0.023832532400722986 0 -0.0092530993943241227 -0.023800458636653234 0 -0.0099711976517912696 -0.023832532400722986 0 -0.0097576164982737142 -0.023034406209238318 0 -0.0083028289989323569 -0.02431856322883574 0 -0.0085567343254438159 -0.023462794281115248 0 -0.0086439517654400833 -0.023888017391661184 0 -0.0083028289989323569 -0.02431856322883574 0 -0.0085567343254438159 -0.023462794281115248 0 -0.0078238072526521305 -0.022977529911254575 0 -0.0092530993943241227 -0.023800458636653234 0 -0.0085567343254438159 -0.023462794281115248 0 -0.0086439517654400833 -0.023888017391661184 0 0.0065325597447372374 -0.02861035842205947 0 0.0034794496177216563 -0.029711167030809869 0 -0.0083028289989323569 -0.02431856322883574 0 -0.0084104145942576047 -0.024259294778719215 0 -0.0086439517654400833 -0.023888017391661184 0 -0.0089651795099073422 -0.024171807689549071 0 -0.0084104145942576047 -0.024259294778719215 0 -0.0086439517654400833 -0.023888017391661184 0 -0.011471896616188502 -0.023866049568770815 0 -0.010658240443340265 -0.023417488119552129 0 -0.010690361141783261 -0.024232462503678651 0 -0.011471896616188502 -0.023866049568770815 0 -0.010690361141783261 -0.024232462503678651 0 -0.011320998069012782 -0.024428302956758859 0 -0.011471896616188502 -0.023866049568770815 0 -0.010658240443340265 -0.023417488119552129 0 -0.011411706653034986 -0.023221584372861783 0 -0.010658240443340265 -0.023417488119552129 0 -0.0099711976517912696 -0.023832532400722986 0 -0.0097576164982737142 -0.023034406209238318 0 -0.0099711976517912696 -0.023832532400722986 0 -0.010690361141783261 -0.024232462503678651 0 -0.0099359075719454969 -0.024505412695127439 0 -0.010658240443340265 -0.023417488119552129 0 -0.0099711976517912696 -0.023832532400722986 0 -0.010690361141783261 -0.024232462503678651 0 -0.010690361141783261 -0.024232462503678651 0 -0.0099359075719454969 -0.024505412695127439 0 -0.010390328348962748 -0.025019056505737974 0 -0.0096659968988447881 -0.025079504548538824 0 -0.0099359075719454969 -0.024505412695127439 0 -0.010390328348962748 -0.025019056505737974 0 -0.010690361141783261 -0.024232462503678651 0 -0.01113141299618035 -0.024973193454860321 0 -0.010390328348962748 -0.025019056505737974 0 -0.010690361141783261 -0.024232462503678651 0 -0.01113141299618035 -0.024973193454860321 0 -0.011320998069012782 -0.024428302956758859 0 -0.011471896616188502 -0.023866049568770815 0 -0.011320998069012782 -0.024428302956758859 0 -0.011968076429682954 -0.024456587123555293 0 -0.01113141299618035 -0.024973193454860321 0 -0.011320998069012782 -0.024428302956758859 0 -0.011769369589176921 -0.024985483345982263 0 -0.01113141299618035 -0.024973193454860321 0 -0.011718965405035286 -0.025514644466922441 0 -0.011769369589176921 -0.024985483345982263 0 -0.01113141299618035 -0.024973193454860321 0 -0.010930060476373045 -0.025617744124377114 0 -0.010390328348962748 -0.025019056505737974 0 -0.01113141299618035 -0.024973193454860321 0 -0.010930060476373045 -0.025617744124377114 0 -0.011718965405035286 -0.025514644466922441 0 -0.010930060476373045 -0.025617744124377114 0 -0.010390328348962748 -0.025019056505737974 0 -0.0099964167310601041 -0.025677662877353447 0 -0.0096659968988447881 -0.025079504548538824 0 -0.010390328348962748 -0.025019056505737974 0 -0.0099964167310601041 -0.025677662877353447 0 -0.010930060476373045 -0.025617744124377114 0 -0.0099964167310601041 -0.025677662877353447 0 -0.010641150615444487 -0.026189077199068898 0 -0.0093771227407547248 -0.026501963506079928 0 -0.0099964167310601041 -0.025677662877353447 0 -0.010641150615444487 -0.026189077199068898 0 -0.010930060476373045 -0.025617744124377114 0 -0.011691150542524903 -0.026127483968396613 0 -0.011718965405035286 -0.025514644466922441 0 -0.010930060476373045 -0.025617744124377114 0 -0.010641150615444487 -0.026189077199068898 0 -0.011691150542524903 -0.026127483968396613 0 -0.011691150542524903 -0.026127483968396613 0 -0.011718965405035286 -0.025514644466922441 0 -0.012396130503527905 -0.025812869066554989 0 -0.011856407339981631 -0.026059394853157482 0 -0.013426261646976346 -0.025505551821784007 0 -0.011691150542524903 -0.026127483968396613 0 -0.013227256291730974 -0.026437723119213288 0 -0.012396130503527905 -0.025812869066554989 0 -0.012788422492692207 -0.026027598152111822 0 -0.011691150542524903 -0.026127483968396613 0 -0.01349219981095893 -0.024591657250360291 0 -0.013965132291088559 -0.025585363240242513 0 -0.012788422492692207 -0.026027598152111822 0 -0.01349219981095893 -0.024591657250360291 0 -0.01310180461059123 -0.025633146818371574 0 -0.012416326649199659 -0.025183193035131553 0 -0.012396130503527905 -0.025812869066554989 0 -0.013227256291730974 -0.026437723119213288 0 -0.01310180461059123 -0.025633146818371574 0 -0.012396130503527905 -0.025812869066554989 0 -0.013227256291730974 -0.026437723119213288 0 -0.01310180461059123 -0.025633146818371574 0 -0.014004836874084619 -0.025876709599869287 0 -0.01310180461059123 -0.025633146818371574 0 -0.01364910210874201 -0.025378790229019371 0 -0.013343172947914655 -0.02488725620456848 0 -0.01310180461059123 -0.025633146818371574 0 -0.012416326649199659 -0.025183193035131553 0 -0.013343172947914655 -0.02488725620456848 0 -0.012416326649199659 -0.025183193035131553 0 -0.011718965405035286 -0.025514644466922441 0 -0.011769369589176921 -0.024985483345982263 0 -0.012416326649199659 -0.025183193035131553 0 -0.011718965405035286 -0.025514644466922441 0 -0.012396130503527905 -0.025812869066554989 0 -0.017779729094124983 -0.025579498965827924 0 -0.017187329994105313 -0.023413018361007273 0 -0.016565085834143078 -0.024927902442485859 0 -0.017187329994105313 -0.023413018361007273 0 -0.016565085834143078 -0.024927902442485859 0 -0.016519425440841715 -0.02404290217053829 0 -0.017187329994105313 -0.023413018361007273 0 -0.016519425440841715 -0.02404290217053829 0 -0.016488430193430798 -0.023217880218121479 0 -0.016565085834143078 -0.024927902442485859 0 -0.016519425440841715 -0.02404290217053829 0 -0.015109089767150719 -0.024576129685603743 0 -0.016519425440841715 -0.02404290217053829 0 -0.015109089767150719 -0.024576129685603743 0 -0.016488430193430798 -0.023217880218121479 0 -0.013426261646976346 -0.025505551821784007 0 -0.015812423873917316 -0.024781750179879772 0 -0.01349219981095893 -0.024591657250360291 0 -0.015109089767150719 -0.024576129685603743 0 -0.016488430193430798 -0.023217880218121479 0 -0.013227256291730974 -0.026437723119213288 0 -0.014004836874084619 -0.025876709599869287 0 -0.015110776023783879 -0.026342797998864395 0 -0.013965132291088559 -0.025585363240242513 0 -0.01349219981095893 -0.024591657250360291 0 -0.015109089767150719 -0.024576129685603743 0 -0.014004836874084619 -0.025876709599869287 0 -0.01364910210874201 -0.025378790229019371 0 -0.014301601025070765 -0.025253290939298702 0 -0.01310180461059123 -0.025633146818371574 0 -0.014004836874084619 -0.025876709599869287 0 -0.01364910210874201 -0.025378790229019371 0 -0.014627879177442515 -0.025725360179268617 0 -0.015118044815217252 -0.025446579436612885 0 -0.014301601025070765 -0.025253290939298702 0 -0.014004836874084619 -0.025876709599869287 0 -0.014627879177442515 -0.025725360179268617 0 -0.014301601025070765 -0.025253290939298702 0 -0.014004836874084619 -0.025876709599869287 0 -0.014627879177442515 -0.025725360179268617 0 -0.015110776023783879 -0.026342797998864395 0 -0.014627879177442515 -0.025725360179268617 0 -0.015110776023783879 -0.026342797998864395 0 -0.015118044815217252 -0.025446579436612885 0 -0.015110776023783879 -0.026342797998864395 0 -0.015118044815217252 -0.025446579436612885 0 -0.016065841086134687 -0.025451682176652887 0 -0.015626580203940373 -0.024876801757251741 0 -0.01532999471074065 -0.024437106269852227 0 -0.015965391431161907 -0.024372381408526881 0 -0.015118044815217252 -0.025446579436612885 0 -0.015626580203940373 -0.024876801757251741 0 -0.016065841086134687 -0.025451682176652887 0 -0.015118044815217252 -0.025446579436612885 0 -0.015626580203940373 -0.024876801757251741 0 -0.014874993667851328 -0.024808880728860248 0 -0.015118044815217252 -0.025446579436612885 0 -0.014874993667851328 -0.024808880728860248 0 -0.014301601025070765 -0.025253290939298702 0 -0.015626580203940373 -0.024876801757251741 0 -0.01532999471074065 -0.024437106269852227 0 -0.014874993667851328 -0.024808880728860248 0 -0.01532999471074065 -0.024437106269852227 0 -0.014874993667851328 -0.024808880728860248 0 -0.014740958180143274 -0.024247515798304566 0 -0.014049611224797542 -0.024711158166750662 0 -0.013900242153575042 -0.024123052024717668 0 -0.014740958180143274 -0.024247515798304566 0 -0.014874993667851328 -0.024808880728860248 0 -0.014049611224797542 -0.024711158166750662 0 -0.014740958180143274 -0.024247515798304566 0 -0.014874993667851328 -0.024808880728860248 0 -0.014301601025070765 -0.025253290939298702 0 -0.014049611224797542 -0.024711158166750662 0 -0.01364910210874201 -0.025378790229019371 0 -0.014049611224797542 -0.024711158166750662 0 -0.013343172947914655 -0.02488725620456848 0 -0.01364910210874201 -0.025378790229019371 0 -0.014301601025070765 -0.025253290939298702 0 -0.014049611224797542 -0.024711158166750662 0 -0.014049611224797542 -0.024711158166750662 0 -0.013900242153575042 -0.024123052024717668 0 -0.013267314177402675 -0.024321864498105816 0 -0.013900242153575042 -0.024123052024717668 0 -0.014459417592745809 -0.023737535250673757 0 -0.013715007749393774 -0.023294707452920071 0 -0.014459417592745809 -0.023737535250673757 0 -0.014740958180143274 -0.024247515798304566 0 -0.014994086012438386 -0.023597749882209185 0 -0.014459417592745809 -0.023737535250673757 0 -0.014994086012438386 -0.023597749882209185 0 -0.014802013530384064 -0.023150763759604009 0 -0.013900242153575042 -0.024123052024717668 0 -0.014459417592745809 -0.023737535250673757 0 -0.014740958180143274 -0.024247515798304566 0 -0.01532999471074065 -0.024437106269852227 0 -0.014740958180143274 -0.024247515798304566 0 -0.01545495667402591 -0.02387963964399312 0 -0.014740958180143274 -0.024247515798304566 0 -0.014994086012438386 -0.023597749882209185 0 -0.01545495667402591 -0.02387963964399312 0 -0.014994086012438386 -0.023597749882209185 0 -0.01545495667402591 -0.02387963964399312 0 -0.015588816464268554 -0.023435418939947102 0 -0.01545495667402591 -0.02387963964399312 0 -0.015588816464268554 -0.023435418939947102 0 -0.016220532013556221 -0.023849932454822337 0 -0.01545495667402591 -0.02387963964399312 0 -0.016220532013556221 -0.023849932454822337 0 -0.015965391431161907 -0.024372381408526881 0 -0.01532999471074065 -0.024437106269852227 0 -0.01545495667402591 -0.02387963964399312 0 -0.015965391431161907 -0.024372381408526881 0 -0.011968076429682954 -0.024456587123555293 0 -0.012717970348299783 -0.024568752077191353 0 -0.012631034046194613 -0.023979223295991028 0 -0.011320998069012782 -0.024428302956758859 0 -0.011968076429682954 -0.024456587123555293 0 -0.011769369589176921 -0.024985483345982263 0 -0.012416326649199659 -0.025183193035131553 0 -0.011968076429682954 -0.024456587123555293 0 -0.011769369589176921 -0.024985483345982263 0 -0.012416326649199659 -0.025183193035131553 0 -0.011968076429682954 -0.024456587123555293 0 -0.012717970348299783 -0.024568752077191353 0 -0.012416326649199659 -0.025183193035131553 0 -0.013343172947914655 -0.02488725620456848 0 -0.012717970348299783 -0.024568752077191353 0 -0.013343172947914655 -0.02488725620456848 0 -0.013267314177402675 -0.024321864498105816 0 -0.012717970348299783 -0.024568752077191353 0 -0.014049611224797542 -0.024711158166750662 0 -0.013343172947914655 -0.02488725620456848 0 -0.013267314177402675 -0.024321864498105816 0 -0.013267314177402675 -0.024321864498105816 0 -0.012717970348299783 -0.024568752077191353 0 -0.012631034046194613 -0.023979223295991028 0 -0.013267314177402675 -0.024321864498105816 0 -0.012631034046194613 -0.023979223295991028 0 -0.013299178427365039 -0.02378927073759261 0 -0.013900242153575042 -0.024123052024717668 0 -0.013267314177402675 -0.024321864498105816 0 -0.013299178427365039 -0.02378927073759261 0 -0.013299178427365039 -0.02378927073759261 0 -0.012894517006649243 -0.023455562705294336 0 -0.013715007749393774 -0.023294707452920071 0 -0.013900242153575042 -0.024123052024717668 0 -0.013299178427365039 -0.02378927073759261 0 -0.013715007749393774 -0.023294707452920071 0 -0.012631034046194613 -0.023979223295991028 0 -0.013299178427365039 -0.02378927073759261 0 -0.012894517006649243 -0.023455562705294336 0 -0.012631034046194613 -0.023979223295991028 0 -0.012894517006649243 -0.023455562705294336 0 -0.012106553162776845 -0.023378559985592781 0 -0.012631034046194613 -0.023979223295991028 0 -0.012042110001823172 -0.02392233633777887 0 -0.012106553162776845 -0.023378559985592781 0 -0.011968076429682954 -0.024456587123555293 0 -0.012631034046194613 -0.023979223295991028 0 -0.012042110001823172 -0.02392233633777887 0 -0.011471896616188502 -0.023866049568770815 0 -0.011968076429682954 -0.024456587123555293 0 -0.012042110001823172 -0.02392233633777887 0 -0.011471896616188502 -0.023866049568770815 0 -0.012042110001823172 -0.02392233633777887 0 -0.012106553162776845 -0.023378559985592781 0 -0.011471896616188502 -0.023866049568770815 0 -0.012106553162776845 -0.023378559985592781 0 -0.011411706653034986 -0.023221584372861783 0 -0.012106553162776845 -0.023378559985592781 0 -0.011968566102829601 -0.02280328340334033 0 -0.011411706653034986 -0.023221584372861783 0 -0.011968566102829601 -0.02280328340334033 0 -0.012211221569212781 -0.02218401609468626 0 -0.011377323359944567 -0.022555935264021307 0 -0.011968566102829601 -0.02280328340334033 0 -0.012754914797306284 -0.022824565775217215 0 -0.012211221569212781 -0.02218401609468626 0 -0.012894517006649243 -0.023455562705294336 0 -0.012106553162776845 -0.023378559985592781 0 -0.012754914797306284 -0.022824565775217215 0 -0.012106553162776845 -0.023378559985592781 0 -0.011968566102829601 -0.02280328340334033 0 -0.012754914797306284 -0.022824565775217215 0 -0.012894517006649243 -0.023455562705294336 0 -0.012754914797306284 -0.022824565775217215 0 -0.013715007749393774 -0.023294707452920071 0 -0.013565784503826389 -0.022457496633499104 0 -0.012754914797306284 -0.022824565775217215 0 -0.013715007749393774 -0.023294707452920071 0 -0.013565784503826389 -0.022457496633499104 0 -0.012754914797306284 -0.022824565775217215 0 -0.012957879964703035 -0.022109993811540402 0 -0.013565784503826389 -0.022457496633499104 0 -0.012957879964703035 -0.022109993811540402 0 -0.013529390018406291 -0.021591124056453817 0 -0.012957879964703035 -0.022109993811540402 0 -0.013529390018406291 -0.021591124056453817 0 -0.012751498482125923 -0.021479880039601423 0 -0.012211221569212781 -0.02218401609468626 0 -0.012056457375708093 -0.021327499132445707 0 -0.012751498482125923 -0.021479880039601423 0 -0.012957879964703035 -0.022109993811540402 0 -0.012211221569212781 -0.02218401609468626 0 -0.012751498482125923 -0.021479880039601423 0 -0.012211221569212781 -0.02218401609468626 0 -0.012056457375708093 -0.021327499132445707 0 -0.011569653222751348 -0.021861820440744521 0 -0.012211221569212781 -0.02218401609468626 0 -0.011377323359944567 -0.022555935264021307 0 -0.011569653222751348 -0.021861820440744521 0 -0.012754914797306284 -0.022824565775217215 0 -0.012957879964703035 -0.022109993811540402 0 -0.012211221569212781 -0.02218401609468626 0 -0.015686829238034748 -0.022844221282091227 0 -0.015793113837965674 -0.022141343869068839 0 -0.016525379889047474 -0.022547435990667341 0 -0.015686829238034748 -0.022844221282091227 0 -0.014995562433961423 -0.022387486138073467 0 -0.015793113837965674 -0.022141343869068839 0 -0.015686829238034748 -0.022844221282091227 0 -0.015588816464268554 -0.023435418939947102 0 -0.016402057370239958 -0.023292980029562704 0 -0.015686829238034748 -0.022844221282091227 0 -0.015588816464268554 -0.023435418939947102 0 -0.014802013530384064 -0.023150763759604009 0 -0.014994086012438386 -0.023597749882209185 0 -0.015588816464268554 -0.023435418939947102 0 -0.014802013530384064 -0.023150763759604009 0 -0.015686829238034748 -0.022844221282091227 0 -0.014802013530384064 -0.023150763759604009 0 -0.014995562433961423 -0.022387486138073467 0 -0.01427359667253565 -0.022638816958663485 0 -0.014802013530384064 -0.023150763759604009 0 -0.014995562433961423 -0.022387486138073467 0 -0.014459417592745809 -0.023737535250673757 0 -0.014802013530384064 -0.023150763759604009 0 -0.013715007749393774 -0.023294707452920071 0 -0.01427359667253565 -0.022638816958663485 0 -0.014802013530384064 -0.023150763759604009 0 -0.013715007749393774 -0.023294707452920071 0 -0.013565784503826389 -0.022457496633499104 0 -0.01427359667253565 -0.022638816958663485 0 -0.013715007749393774 -0.023294707452920071 0 -0.013565784503826389 -0.022457496633499104 0 -0.013529390018406291 -0.021591124056453817 0 -0.014309628116129838 -0.021886432908011677 0 -0.013565784503826389 -0.022457496633499104 0 -0.01427359667253565 -0.022638816958663485 0 -0.014309628116129838 -0.021886432908011677 0 -0.013529390018406291 -0.021591124056453817 0 -0.014309628116129838 -0.021886432908011677 0 -0.014443186595022287 -0.021203642615846344 0 -0.014309628116129838 -0.021886432908011677 0 -0.015341658376165626 -0.021440413618717482 0 -0.014443186595022287 -0.021203642615846344 0 -0.01427359667253565 -0.022638816958663485 0 -0.014309628116129838 -0.021886432908011677 0 -0.014995562433961423 -0.022387486138073467 0 -0.015341658376165626 -0.021440413618717482 0 -0.015793113837965674 -0.022141343869068839 0 -0.016594175572971711 -0.021609357967522377 0 -0.014995562433961423 -0.022387486138073467 0 -0.015341658376165626 -0.021440413618717482 0 -0.015793113837965674 -0.022141343869068839 0 -0.014309628116129838 -0.021886432908011677 0 -0.014995562433961423 -0.022387486138073467 0 -0.015341658376165626 -0.021440413618717482 0 -0.015341658376165626 -0.021440413618717482 0 -0.014443186595022287 -0.021203642615846344 0 -0.015187762408518298 -0.020141679677750379 0 -0.015341658376165626 -0.021440413618717482 0 -0.016594175572971711 -0.021609357967522377 0 -0.016113073915943864 -0.020711572027940345 0 -0.015341658376165626 -0.021440413618717482 0 -0.015187762408518298 -0.020141679677750379 0 -0.016113073915943864 -0.020711572027940345 0 -0.014443186595022287 -0.021203642615846344 0 -0.013776466572981422 -0.020744124421610308 0 -0.014235696322268267 -0.019964194006041762 0 -0.014443186595022287 -0.021203642615846344 0 -0.014235696322268267 -0.019964194006041762 0 -0.015187762408518298 -0.020141679677750379 0 -0.013529390018406291 -0.021591124056453817 0 -0.014443186595022287 -0.021203642615846344 0 -0.013776466572981422 -0.020744124421610308 0 -0.013776466572981422 -0.020744124421610308 0 -0.014235696322268267 -0.019964194006041762 0 -0.013378325349364974 -0.019709441584854045 0 -0.014235696322268267 -0.019964194006041762 0 -0.013378325349364974 -0.019709441584854045 0 -0.014638726816177073 -0.01879875971892938 0 -0.014235696322268267 -0.019964194006041762 0 -0.015187762408518298 -0.020141679677750379 0 -0.014638726816177073 -0.01879875971892938 0 -0.015187762408518298 -0.020141679677750379 0 -0.016113073915943864 -0.020711572027940345 0 -0.016424600363499124 -0.019034349329087999 0 -0.015187762408518298 -0.020141679677750379 0 -0.016424600363499124 -0.019034349329087999 0 -0.014638726816177073 -0.01879875971892938 0 -0.012232835432085877 -0.020635551577187775 0 -0.012751498482125923 -0.021479880039601423 0 -0.013022469137625158 -0.020679873440176858 0 -0.012232835432085877 -0.020635551577187775 0 -0.011411444808530872 -0.020503414735462879 0 -0.011345056071395535 -0.021203627615102708 0 -0.012232835432085877 -0.020635551577187775 0 -0.012056457375708093 -0.021327499132445707 0 -0.011345056071395535 -0.021203627615102708 0 -0.012056457375708093 -0.021327499132445707 0 -0.011345056071395535 -0.021203627615102708 0 -0.011569653222751348 -0.021861820440744521 0 -0.012232835432085877 -0.020635551577187775 0 -0.012056457375708093 -0.021327499132445707 0 -0.012751498482125923 -0.021479880039601423 0 -0.013529390018406291 -0.021591124056453817 0 -0.012751498482125923 -0.021479880039601423 0 -0.013022469137625158 -0.020679873440176858 0 -0.013529390018406291 -0.021591124056453817 0 -0.013776466572981422 -0.020744124421610308 0 -0.013022469137625158 -0.020679873440176858 0 -0.013022469137625158 -0.020679873440176858 0 -0.013378325349364974 -0.019709441584854045 0 -0.012492751840982873 -0.019910965349351582 0 -0.013776466572981422 -0.020744124421610308 0 -0.013022469137625158 -0.020679873440176858 0 -0.013378325349364974 -0.019709441584854045 0 -0.013378325349364974 -0.019709441584854045 0 -0.012492751840982873 -0.019910965349351582 0 -0.012539014118263863 -0.0189791373372326 0 -0.012232835432085877 -0.020635551577187775 0 -0.011649861054941214 -0.019712580837636249 0 -0.011411444808530872 -0.020503414735462879 0 -0.012232835432085877 -0.020635551577187775 0 -0.012492751840982873 -0.019910965349351582 0 -0.011649861054941214 -0.019712580837636249 0 -0.012232835432085877 -0.020635551577187775 0 -0.013022469137625158 -0.020679873440176858 0 -0.012492751840982873 -0.019910965349351582 0 -0.011649861054941214 -0.019712580837636249 0 -0.011411444808530872 -0.020503414735462879 0 -0.010597542146664028 -0.020157660702411172 0 -0.011411444808530872 -0.020503414735462879 0 -0.010554317971223665 -0.020970079538500656 0 -0.010597542146664028 -0.020157660702411172 0 -0.011345056071395535 -0.021203627615102708 0 -0.010554317971223665 -0.020970079538500656 0 -0.010622383836152979 -0.021884379553388827 0 -0.011411444808530872 -0.020503414735462879 0 -0.011345056071395535 -0.021203627615102708 0 -0.010554317971223665 -0.020970079538500656 0 -0.010554317971223665 -0.020970079538500656 0 -0.0097756403451051532 -0.02064031393734711 0 -0.0096012673344171018 -0.02148331289271008 0 -0.010554317971223665 -0.020970079538500656 0 -0.0096012673344171018 -0.02148331289271008 0 -0.010622383836152979 -0.021884379553388827 0 -0.0097756403451051532 -0.02064031393734711 0 -0.010597542146664028 -0.020157660702411172 0 -0.0095422410383798929 -0.019795496879527103 0 -0.010554317971223665 -0.020970079538500656 0 -0.0097756403451051532 -0.02064031393734711 0 -0.010597542146664028 -0.020157660702411172 0 -0.0085988523627197524 -0.020798008120106133 0 -0.0082117476923834355 -0.019478538226081876 0 -0.0095422410383798929 -0.019795496879527103 0 -0.0097756403451051532 -0.02064031393734711 0 -0.0085988523627197524 -0.020798008120106133 0 -0.0095422410383798929 -0.019795496879527103 0 -0.0085988523627197524 -0.020798008120106133 0 -0.0082117476923834355 -0.019478538226081876 0 -0.0069755517543157869 -0.020336743574826392 0 -0.0085988523627197524 -0.020798008120106133 0 -0.0088144536274676975 -0.022322079539284622 0 -0.00738660518740843 -0.021614211142458935 0 -0.0097756403451051532 -0.02064031393734711 0 -0.0085988523627197524 -0.020798008120106133 0 -0.0096012673344171018 -0.02148331289271008 0 -0.0085988523627197524 -0.020798008120106133 0 -0.0096012673344171018 -0.02148331289271008 0 -0.0088144536274676975 -0.022322079539284622 0 -0.0096012673344171018 -0.02148331289271008 0 -0.0097520198273726953 -0.022243926183040108 0 -0.0088144536274676975 -0.022322079539284622 0 -0.0088144536274676975 -0.022322079539284622 0 -0.0078238072526521305 -0.022977529911254575 0 -0.00738660518740843 -0.021614211142458935 0 -0.0085567343254438159 -0.023462794281115248 0 -0.0088144536274676975 -0.022322079539284622 0 -0.0078238072526521305 -0.022977529911254575 0 -0.0097520198273726953 -0.022243926183040108 0 -0.0088144536274676975 -0.022322079539284622 0 -0.0097576164982737142 -0.023034406209238318 0 -0.0085567343254438159 -0.023462794281115248 0 -0.0088144536274676975 -0.022322079539284622 0 -0.0097576164982737142 -0.023034406209238318 0 -0.0097520198273726953 -0.022243926183040108 0 -0.0097576164982737142 -0.023034406209238318 0 -0.010603825356601341 -0.022690845050138561 0 -0.010658240443340265 -0.023417488119552129 0 -0.0097576164982737142 -0.023034406209238318 0 -0.010603825356601341 -0.022690845050138561 0 -0.010658240443340265 -0.023417488119552129 0 -0.010603825356601341 -0.022690845050138561 0 -0.011411706653034986 -0.023221584372861783 0 -0.011968566102829601 -0.02280328340334033 0 -0.011411706653034986 -0.023221584372861783 0 -0.011377323359944567 -0.022555935264021307 0 -0.010603825356601341 -0.022690845050138561 0 -0.011411706653034986 -0.023221584372861783 0 -0.011377323359944567 -0.022555935264021307 0 -0.010603825356601341 -0.022690845050138561 0 -0.011377323359944567 -0.022555935264021307 0 -0.010622383836152979 -0.021884379553388827 0 -0.011377323359944567 -0.022555935264021307 0 -0.011569653222751348 -0.021861820440744521 0 -0.010622383836152979 -0.021884379553388827 0 -0.011345056071395535 -0.021203627615102708 0 -0.011569653222751348 -0.021861820440744521 0 -0.010622383836152979 -0.021884379553388827 0 -0.0096012673344171018 -0.02148331289271008 0 -0.0097520198273726953 -0.022243926183040108 0 -0.010622383836152979 -0.021884379553388827 0 -0.0097520198273726953 -0.022243926183040108 0 -0.010603825356601341 -0.022690845050138561 0 -0.010622383836152979 -0.021884379553388827 0 -0.026284185183285371 -0.019697622491738342 0 -0.02567768477688584 -0.019604832616335655 0 -0.025863391968854486 -0.019880075586517176 0 -0.02567768477688584 -0.019604832616335655 0 -0.025239745648713553 -0.019837089051940652 0 -0.025863391968854486 -0.019880075586517176 0 -0.02567768477688584 -0.019604832616335655 0 -0.025130087913837425 -0.019610877510899283 0 -0.025359073971752029 -0.019408981491788067 0 -0.02567768477688584 -0.019604832616335655 0 -0.025130087913837425 -0.019610877510899283 0 -0.025239745648713553 -0.019837089051940652 0 -0.025130087913837425 -0.019610877510899283 0 -0.025239745648713553 -0.019837089051940652 0 -0.024733026752596789 -0.019688436463284695 0 -0.025239745648713553 -0.019837089051940652 0 -0.025548067267267591 -0.020122761510202182 0 -0.024959482409848462 -0.020094079112047546 0 -0.025239745648713553 -0.019837089051940652 0 -0.025548067267267591 -0.020122761510202182 0 -0.025863391968854486 -0.019880075586517176 0 -0.025548067267267591 -0.020122761510202182 0 -0.025863391968854486 -0.019880075586517176 0 -0.026110926986327155 -0.020099841334455193 0 -0.025548067267267591 -0.020122761510202182 0 -0.026110926986327155 -0.020099841334455193 0 -0.026005737457625227 -0.020419241847485746 0 -0.026366513741595547 -0.020708229936815994 0 -0.026005737457625227 -0.020419241847485746 0 -0.025647190098351477 -0.020794743270923208 0 -0.026366513741595547 -0.020708229936815994 0 -0.026189857131571438 -0.021089023235995059 0 -0.025647190098351477 -0.020794743270923208 0 -0.025299386524452721 -0.021314693653582645 0 -0.025647190098351477 -0.020794743270923208 0 -0.024871730676969763 -0.020851687706296151 0 -0.026005737457625227 -0.020419241847485746 0 -0.025647190098351477 -0.020794743270923208 0 -0.025216856231470713 -0.020429902319588706 0 -0.025647190098351477 -0.020794743270923208 0 -0.025216856231470713 -0.020429902319588706 0 -0.024871730676969763 -0.020851687706296151 0 -0.025548067267267591 -0.020122761510202182 0 -0.026005737457625227 -0.020419241847485746 0 -0.025216856231470713 -0.020429902319588706 0 -0.025548067267267591 -0.020122761510202182 0 -0.025216856231470713 -0.020429902319588706 0 -0.024959482409848462 -0.020094079112047546 0 -0.025216856231470713 -0.020429902319588706 0 -0.02467333188175001 -0.020364088042411268 0 -0.024959482409848462 -0.020094079112047546 0 -0.025216856231470713 -0.020429902319588706 0 -0.02467333188175001 -0.020364088042411268 0 -0.024871730676969763 -0.020851687706296151 0 -0.02467333188175001 -0.020364088042411268 0 -0.024871730676969763 -0.020851687706296151 0 -0.024237052035864719 -0.020768942269374143 0 -0.02467333188175001 -0.020364088042411268 0 -0.024322031969694714 -0.020240043923570955 0 -0.024237052035864719 -0.020768942269374143 0 -0.02467333188175001 -0.020364088042411268 0 -0.024322031969694714 -0.020240043923570955 0 -0.024604951958861115 -0.019883858682411683 0 -0.024844288589470655 -0.019758627121700848 0 -0.023480855744099433 -0.020531268621497394 0 -0.024322031969694714 -0.020240043923570955 0 -0.024604951958861115 -0.019883858682411683 0 -0.024100253918888974 -0.02003075205521029 0 -0.024604951958861115 -0.019883858682411683 0 -0.02437502046094173 -0.019722617417007243 0 -0.024139130924120136 -0.020064004298407455 0 -0.02467333188175001 -0.020364088042411268 0 -0.024604951958861115 -0.019883858682411683 0 -0.024959482409848462 -0.020094079112047546 0 -0.025239745648713553 -0.019837089051940652 0 -0.024959482409848462 -0.020094079112047546 0 -0.024869839460710599 -0.019877026475324716 0 -0.024604951958861115 -0.019883858682411683 0 -0.024959482409848462 -0.020094079112047546 0 -0.024869839460710599 -0.019877026475324716 0 -0.024604951958861115 -0.019883858682411683 0 -0.024869839460710599 -0.019877026475324716 0 -0.024733026752596789 -0.019688436463284695 0 -0.025239745648713553 -0.019837089051940652 0 -0.024869839460710599 -0.019877026475324716 0 -0.024733026752596789 -0.019688436463284695 0 -0.024733026752596789 -0.019688436463284695 0 -0.02437502046094173 -0.019722617417007243 0 -0.024337092790297801 -0.019545898121510464 0 -0.024604951958861115 -0.019883858682411683 0 -0.024733026752596789 -0.019688436463284695 0 -0.02437502046094173 -0.019722617417007243 0 -0.023813301976064603 -0.020405857490347984 0 -0.023232615721992481 -0.020676638622331617 0 -0.02328118199745657 -0.021182827644666787 0 -0.024102640613409061 -0.020048986387818872 0 -0.023480855744099433 -0.020531268621497394 0 -0.023232615721992481 -0.020676638622331617 0 -0.022692123238841466 -0.020815370829917922 0 -0.023392782734005125 -0.020030088238078197 0 -0.022692123238841466 -0.020815370829917922 0 -0.023057241040270425 -0.019612384064283887 0 -0.023392782734005125 -0.020030088238078197 0 -0.023813301976064603 -0.020405857490347984 0 -0.023232615721992481 -0.020676638622331617 0 -0.023392782734005125 -0.020030088238078197 0 -0.018963682697614465 -0.02416989837038841 0 -0.019141710958822538 -0.024591992972513552 0 -0.019902469113924882 -0.022864638245836809 0 -0.020182360889826865 -0.022992645337883002 0 -0.021597953763918085 -0.021150996882210383 0 -0.018481346951787572 -0.023790987122721381 0 -0.018963682697614465 -0.02416989837038841 0 -0.018814039910062953 -0.023235005428699926 0 -0.018481346951787572 -0.023790987122721381 0 -0.018963682697614465 -0.02416989837038841 0 -0.018224746642064926 -0.024146116277881179 0 -0.018574674423678755 -0.024480217783191097 0 -0.018963682697614465 -0.02416989837038841 0 -0.018224746642064926 -0.024146116277881179 0 -0.018574674423678755 -0.024480217783191097 0 -0.018963682697614465 -0.02416989837038841 0 -0.019139844397462115 -0.024569738690844861 0 -0.019868025724949844 -0.023799905170996533 0 -0.020182360889826865 -0.022992645337883002 0 -0.020182360889826865 -0.022992645337883002 0 -0.018788415925994138 -0.023640902154199395 0 -0.019139844397462115 -0.024569738690844861 0 -0.018671404207276247 -0.024826539197537942 0 -0.01890257498293323 -0.025487352196079872 0 -0.020182360889826865 -0.022992645337883002 0 -0.020962748255771362 -0.0220399747345838 0 -0.018574674423678755 -0.024480217783191097 0 -0.018671404207276247 -0.024826539197537942 0 -0.018056630000040493 -0.024784879435171367 0 -0.018671404207276247 -0.024826539197537942 0 -0.01890257498293323 -0.025487352196079872 0 -0.018056630000040493 -0.024784879435171367 0 -0.018574674423678755 -0.024480217783191097 0 -0.019139844397462115 -0.024569738690844861 0 -0.018671404207276247 -0.024826539197537942 0 -0.019958736857179277 -0.022664647520536447 0 -0.019887490276773358 -0.022934724833764426 0 -0.020063902102578326 -0.022874635048649082 0 -0.018547298288176615 -0.022646821257299738 0 -0.018846951471918602 -0.022703542004491151 0 -0.018782786990833539 -0.022568792010818114 0 -0.018788415925994138 -0.023640902154199395 0 -0.020962748255771362 -0.0220399747345838 0 -0.021349189091130975 -0.021825723685447555 0 -0.020962748255771362 -0.0220399747345838 0 -0.021349189091130975 -0.021825723685447555 0 -0.023480855744099433 -0.020531268621497394 0 -0.020962748255771362 -0.0220399747345838 0 -0.023480855744099433 -0.020531268621497394 0 -0.021832246665895321 -0.022091392642187218 0 -0.021506146706820238 -0.021437947042193022 0 -0.02250121995678999 -0.0211037945116429 0 -0.023232615721992481 -0.020676638622331617 0 -0.022692123238841466 -0.020815370829917922 0 -0.023016984694718537 -0.020967075678318917 0 -0.022692123238841466 -0.020815370829917922 0 -0.022926217480180738 -0.021302626429825163 0 -0.023016984694718537 -0.020967075678318917 0 -0.023232615721992481 -0.020676638622331617 0 -0.023016984694718537 -0.020967075678318917 0 -0.02328118199745657 -0.021182827644666787 0 -0.022926217480180738 -0.021302626429825163 0 -0.023016984694718537 -0.020967075678318917 0 -0.02328118199745657 -0.021182827644666787 0 -0.024322031969694714 -0.020240043923570955 0 -0.023967218450058499 -0.020208031926281681 0 -0.024100253918888974 -0.02003075205521029 0 -0.024322031969694714 -0.020240043923570955 0 -0.023967218450058499 -0.020208031926281681 0 -0.024237052035864719 -0.020768942269374143 0 -0.021349189091130975 -0.021825723685447555 0 -0.021520724988272486 -0.020040849892698432 0 -0.020667144661235981 -0.022605427115935387 0 -0.019086447221666532 -0.019432422864151533 0 -0.022393503523276688 -0.02003805164921902 0 -0.021033062843362975 -0.017931487182899681 0 -0.019086447221666532 -0.019432422864151533 0 -0.022393503523276688 -0.02003805164921902 0 -0.021491873355328046 -0.019861650091628075 0 -0.0201322247117139 -0.021915965976222702 0 -0.021033062843362975 -0.017931487182899681 0 -0.024200324095094351 -0.017439306746404596 0 -0.022393503523276688 -0.02003805164921902 0 -0.018470573720552056 -0.023167492086810171 0 -0.018506373676146451 -0.022796301140305831 0 -0.018266840682453239 -0.022959700338604044 0 -0.021349189091130975 -0.021825723685447555 0 -0.0201322247117139 -0.021915965976222702 0 -0.018846951471918602 -0.022703542004491151 0 -0.018470573720552056 -0.023167492086810171 0 -0.018506373676146451 -0.022796301140305831 0 -0.018547298288176615 -0.022646821257299738 0 -0.018846951471918602 -0.022703542004491151 0 -0.018506373676146451 -0.022796301140305831 0 -0.018536573172867603 -0.022679834475062097 0 -0.018506373676146451 -0.022796301140305831 0 -0.018266840682453239 -0.022959700338604044 0 -0.018788415925994138 -0.023640902154199395 0 -0.01879689534688209 -0.023059480187128795 0 -0.018536573172867603 -0.022679834475062097 0 -0.018266840682453239 -0.022959700338604044 0 -0.018012008161584402 -0.022819151571593404 0 -0.018788415925994138 -0.023640902154199395 0 -0.017491110220259457 -0.024456904871835963 0 -0.018266840682453239 -0.022959700338604044 0 -0.017941118283942289 -0.023339982089759147 0 -0.018012008161584402 -0.022819151571593404 0 -0.018470573720552056 -0.023167492086810171 0 -0.018266840682453239 -0.022959700338604044 0 -0.018202159573569281 -0.023238736991554022 0 -0.018115624984384068 -0.023370680607911119 0 -0.018470573720552056 -0.023167492086810171 0 -0.018202159573569281 -0.023238736991554022 0 -0.018266840682453239 -0.022959700338604044 0 -0.018202159573569281 -0.023238736991554022 0 -0.017941118283942289 -0.023339982089759147 0 -0.018115624984384068 -0.023370680607911119 0 -0.018202159573569281 -0.023238736991554022 0 -0.017941118283942289 -0.023339982089759147 0 -0.017944093140216815 -0.023449009225965982 0 -0.017187329994105313 -0.023413018361007273 0 -0.017941118283942289 -0.023339982089759147 0 -0.017782789356199716 -0.025074208721536661 0 -0.017232359455755155 -0.023224443826290318 0 -0.015812423873917316 -0.024781750179879772 0 -0.017491110220259457 -0.024456904871835963 0 -0.015110776023783879 -0.026342797998864395 0 -0.017045593422913258 -0.02599871704909501 0 -0.016065841086134687 -0.025451682176652887 0 -0.017187329994105313 -0.023413018361007273 0 -0.016488430193430798 -0.023217880218121479 0 -0.018012008161584402 -0.022819151571593404 0 -0.017187329994105313 -0.023413018361007273 0 -0.017941118283942289 -0.023339982089759147 0 -0.018012008161584402 -0.022819151571593404 0 -0.015626580203940373 -0.024876801757251741 0 -0.016065841086134687 -0.025451682176652887 0 -0.016327151444236743 -0.024841271847417377 0 -0.015626580203940373 -0.024876801757251741 0 -0.016327151444236743 -0.024841271847417377 0 -0.015965391431161907 -0.024372381408526881 0 -0.016327151444236743 -0.024841271847417377 0 -0.015965391431161907 -0.024372381408526881 0 -0.016740056562624457 -0.02437641306745094 0 -0.016327151444236743 -0.024841271847417377 0 -0.017242952516667479 -0.025134231277018252 0 -0.016740056562624457 -0.02437641306745094 0 -0.016065841086134687 -0.025451682176652887 0 -0.016327151444236743 -0.024841271847417377 0 -0.017242952516667479 -0.025134231277018252 0 -0.017045593422913258 -0.02599871704909501 0 -0.016065841086134687 -0.025451682176652887 0 -0.017242952516667479 -0.025134231277018252 0 -0.01890257498293323 -0.025487352196079872 0 -0.017242952516667479 -0.025134231277018252 0 -0.018056630000040493 -0.024784879435171367 0 -0.01890257498293323 -0.025487352196079872 0 -0.017045593422913258 -0.02599871704909501 0 -0.017242952516667479 -0.025134231277018252 0 -0.017242952516667479 -0.025134231277018252 0 -0.017534088671322678 -0.024303340170482284 0 -0.016740056562624457 -0.02437641306745094 0 -0.017242952516667479 -0.025134231277018252 0 -0.018056630000040493 -0.024784879435171367 0 -0.017534088671322678 -0.024303340170482284 0 -0.018574674423678755 -0.024480217783191097 0 -0.018056630000040493 -0.024784879435171367 0 -0.018224746642064926 -0.024146116277881179 0 -0.018056630000040493 -0.024784879435171367 0 -0.017534088671322678 -0.024303340170482284 0 -0.018224746642064926 -0.024146116277881179 0 -0.018481346951787572 -0.023790987122721381 0 -0.018224746642064926 -0.024146116277881179 0 -0.0179127461749767 -0.023603844482778052 0 -0.017534088671322678 -0.024303340170482284 0 -0.018224746642064926 -0.024146116277881179 0 -0.0179127461749767 -0.023603844482778052 0 -0.017534088671322678 -0.024303340170482284 0 -0.0179127461749767 -0.023603844482778052 0 -0.017021072172028716 -0.023749876756948521 0 -0.017021072172028716 -0.023749876756948521 0 -0.016220532013556221 -0.023849932454822337 0 -0.016740056562624457 -0.02437641306745094 0 -0.017021072172028716 -0.023749876756948521 0 -0.016220532013556221 -0.023849932454822337 0 -0.016402057370239958 -0.023292980029562704 0 -0.015588816464268554 -0.023435418939947102 0 -0.016220532013556221 -0.023849932454822337 0 -0.016402057370239958 -0.023292980029562704 0 -0.016220532013556221 -0.023849932454822337 0 -0.015965391431161907 -0.024372381408526881 0 -0.016740056562624457 -0.02437641306745094 0 -0.017534088671322678 -0.024303340170482284 0 -0.017021072172028716 -0.023749876756948521 0 -0.016740056562624457 -0.02437641306745094 0 -0.016525379889047474 -0.022547435990667341 0 -0.017205042111269282 -0.023098670724514308 0 -0.017405914087811346 -0.022333235954528755 0 -0.016525379889047474 -0.022547435990667341 0 -0.016402057370239958 -0.023292980029562704 0 -0.017205042111269282 -0.023098670724514308 0 -0.015686829238034748 -0.022844221282091227 0 -0.016525379889047474 -0.022547435990667341 0 -0.016402057370239958 -0.023292980029562704 0 -0.017021072172028716 -0.023749876756948521 0 -0.016402057370239958 -0.023292980029562704 0 -0.017205042111269282 -0.023098670724514308 0 -0.0179127461749767 -0.023603844482778052 0 -0.017021072172028716 -0.023749876756948521 0 -0.017205042111269282 -0.023098670724514308 0 -0.0179127461749767 -0.023603844482778052 0 -0.017205042111269282 -0.023098670724514308 0 -0.018033871114104136 -0.022946031268345178 0 -0.0179127461749767 -0.023603844482778052 0 -0.018033871114104136 -0.022946031268345178 0 -0.018814039910062953 -0.023235005428699926 0 -0.018033871114104136 -0.022946031268345178 0 -0.017405914087811346 -0.022333235954528755 0 -0.018479986200578957 -0.022353389325715785 0 -0.018033871114104136 -0.022946031268345178 0 -0.018479986200578957 -0.022353389325715785 0 -0.018814039910062953 -0.023235005428699926 0 -0.017205042111269282 -0.023098670724514308 0 -0.018033871114104136 -0.022946031268345178 0 -0.017405914087811346 -0.022333235954528755 0 -0.017405914087811346 -0.022333235954528755 0 -0.018479986200578957 -0.022353389325715785 0 -0.017736928356452044 -0.021624686775250819 0 -0.018479986200578957 -0.022353389325715785 0 -0.017736928356452044 -0.021624686775250819 0 -0.018910386566492798 -0.021213579075357078 0 -0.017405914087811346 -0.022333235954528755 0 -0.017736928356452044 -0.021624686775250819 0 -0.016594175572971711 -0.021609357967522377 0 -0.016525379889047474 -0.022547435990667341 0 -0.017405914087811346 -0.022333235954528755 0 -0.016594175572971711 -0.021609357967522377 0 -0.015793113837965674 -0.022141343869068839 0 -0.016525379889047474 -0.022547435990667341 0 -0.016594175572971711 -0.021609357967522377 0 -0.017736928356452044 -0.021624686775250819 0 -0.016594175572971711 -0.021609357967522377 0 -0.017309426803502108 -0.020549105789981814 0 -0.016594175572971711 -0.021609357967522377 0 -0.016113073915943864 -0.020711572027940345 0 -0.017309426803502108 -0.020549105789981814 0 -0.016113073915943864 -0.020711572027940345 0 -0.017309426803502108 -0.020549105789981814 0 -0.016424600363499124 -0.019034349329087999 0 -0.017915342808189474 -0.019330065301793545 0 -0.017309426803502108 -0.020549105789981814 0 -0.016424600363499124 -0.019034349329087999 0 -0.017915342808189474 -0.019330065301793545 0 -0.017309426803502108 -0.020549105789981814 0 -0.018910386566492798 -0.021213579075357078 0 -0.017736928356452044 -0.021624686775250819 0 -0.017309426803502108 -0.020549105789981814 0 -0.018910386566492798 -0.021213579075357078 0 -0.018910386566492798 -0.021213579075357078 0 -0.019571397543843926 -0.01932420735509973 0 -0.020976606573243156 -0.020964438764394022 0 -0.017915342808189474 -0.019330065301793545 0 -0.018910386566492798 -0.021213579075357078 0 -0.019571397543843926 -0.01932420735509973 0 -0.022070075378600645 -0.019812548762348187 0 -0.022530554006012067 -0.018138078111417585 0 -0.019571397543843926 -0.01932420735509973 0 -0.020976606573243156 -0.020964438764394022 0 -0.022522956781085717 -0.01813517656299489 0 -0.022070075378600645 -0.019812548762348187 0 -0.021597953763918085 -0.021150996882210383 0 -0.02320315835904652 -0.018785893025036433 0 -0.023057241040270425 -0.019612384064283887 0 -0.023627476575448638 -0.019312030455949026 0 -0.018910386566492798 -0.021213579075357078 0 -0.020976606573243156 -0.020964438764394022 0 -0.019902469113924882 -0.022864638245836809 0 -0.018479986200578957 -0.022353389325715785 0 -0.018910386566492798 -0.021213579075357078 0 -0.019902469113924882 -0.022864638245836809 0 -0.018963682697614465 -0.02416989837038841 0 -0.018814039910062953 -0.023235005428699926 0 -0.019902469113924882 -0.022864638245836809 0 -0.018479986200578957 -0.022353389325715785 0 -0.018814039910062953 -0.023235005428699926 0 -0.019902469113924882 -0.022864638245836809 0 -0.018481346951787572 -0.023790987122721381 0 -0.0179127461749767 -0.023603844482778052 0 -0.018814039910062953 -0.023235005428699926 0 -0.023057241040270425 -0.019612384064283887 0 -0.023392782734005125 -0.020030088238078197 0 -0.023627476575448638 -0.019312030455949026 0 -0.023392782734005125 -0.020030088238078197 0 -0.024337092790297801 -0.019545898121510464 0 -0.023627476575448638 -0.019312030455949026 0 -0.024102640613409061 -0.020048986387818872 0 -0.024330724401805993 -0.019597485295911168 0 -0.023813301976064603 -0.020405857490347984 0 -0.023392782734005125 -0.020030088238078197 0 -0.024337092790297801 -0.019545898121510464 0 -0.024733026752596789 -0.019688436463284695 0 -0.024337092790297801 -0.019545898121510464 0 -0.024827883973286537 -0.019387526513927902 0 -0.024337092790297801 -0.019545898121510464 0 -0.024109622932073783 -0.019034298273607843 0 -0.024827883973286537 -0.019387526513927902 0 -0.024109622932073783 -0.019034298273607843 0 -0.024804596549294108 -0.018985092960895355 0 -0.024827883973286537 -0.019387526513927902 0 -0.02320315835904652 -0.018785893025036433 0 -0.024109622932073783 -0.019034298273607843 0 -0.023627476575448638 -0.019312030455949026 0 -0.024337092790297801 -0.019545898121510464 0 -0.024109622932073783 -0.019034298273607843 0 -0.023627476575448638 -0.019312030455949026 0 -0.02320315835904652 -0.018785893025036433 0 -0.024109622932073783 -0.019034298273607843 0 -0.023664972101734159 -0.018591207086367696 0 -0.02320315835904652 -0.018785893025036433 0 -0.023664972101734159 -0.018591207086367696 0 -0.022522956781085717 -0.01813517656299489 0 -0.023664972101734159 -0.018591207086367696 0 -0.024265917700433921 -0.017960306600147132 0 -0.022522956781085717 -0.01813517656299489 0 -0.024494526535986039 -0.018669348635700706 0 -0.024916832763407188 -0.018450857933781172 0 -0.024265917700433921 -0.017960306600147132 0 -0.023664972101734159 -0.018591207086367696 0 -0.024494526535986039 -0.018669348635700706 0 -0.024265917700433921 -0.017960306600147132 0 -0.024109622932073783 -0.019034298273607843 0 -0.023664972101734159 -0.018591207086367696 0 -0.024494526535986039 -0.018669348635700706 0 -0.024109622932073783 -0.019034298273607843 0 -0.024494526535986039 -0.018669348635700706 0 -0.024804596549294108 -0.018985092960895355 0 -0.024494526535986039 -0.018669348635700706 0 -0.025131812216809764 -0.018771194970604345 0 -0.024804596549294108 -0.018985092960895355 0 -0.025131812216809764 -0.018771194970604345 0 -0.024916832763407188 -0.018450857933781172 0 -0.025327206348818507 -0.0185263209207314 0 -0.024494526535986039 -0.018669348635700706 0 -0.025131812216809764 -0.018771194970604345 0 -0.024916832763407188 -0.018450857933781172 0 -0.024916832763407188 -0.018450857933781172 0 -0.025310253283604048 -0.018242552419652364 0 -0.024265917700433921 -0.017960306600147132 0 -0.022650841165783812 -0.032771133235091225 0 -0.02213380052375415 -0.028515968979540725 0 -0.024916832763407188 -0.018450857933781172 0 -0.025310253283604048 -0.018242552419652364 0 -0.025327206348818507 -0.0185263209207314 0 -0.022650841165783812 -0.032771133235091225 0 -0.02146646371271416 -0.041487513042559737 0 -0.022847672990885623 -0.040093964992022876 0 -0.022497495084662675 -0.040937718667977033 0 -0.02153269257289708 -0.040609367807358195 0 -0.022847672990885623 -0.040093964992022876 0 -0.02153269257289708 -0.040609367807358195 0 -0.021570122431374555 -0.039705714524116018 0 -0.022650841165783812 -0.032771133235091225 0 -0.025012238126266215 -0.022972930766099794 0 -0.025310253283604048 -0.018242552419652364 0 -0.02558891840054647 -0.018559837517788964 0 -0.025327206348818507 -0.0185263209207314 0 -0.024028396160098445 -0.030868576264367287 0 -0.02341073421720483 -0.0306678656601862 0 -0.023789655634374306 -0.031063651663904613 0 -0.023536197505956622 -0.0357355148006104 0 -0.022650841165783812 -0.032771133235091225 0 -0.025621584900043636 -0.018502061486684283 0 -0.025327206348818507 -0.0185263209207314 0 -0.025620057520030395 -0.018767625831758172 0 -0.025012238126266215 -0.022972930766099794 0 -0.025395357610298756 -0.020726462274292871 0 -0.025131812216809764 -0.018771194970604345 0 -0.025327206348818507 -0.0185263209207314 0 -0.025620057520030395 -0.018767625831758172 0 -0.025620057520030395 -0.018767625831758172 0 -0.025772371857768792 -0.019135582647143694 0 -0.025285245904366455 -0.0190952130589696 0 -0.025131812216809764 -0.018771194970604345 0 -0.025620057520030395 -0.018767625831758172 0 -0.025285245904366455 -0.0190952130589696 0 -0.024804596549294108 -0.018985092960895355 0 -0.025285245904366455 -0.0190952130589696 0 -0.024827883973286537 -0.019387526513927902 0 -0.025131812216809764 -0.018771194970604345 0 -0.024804596549294108 -0.018985092960895355 0 -0.025285245904366455 -0.0190952130589696 0 -0.025285245904366455 -0.0190952130589696 0 -0.024827883973286537 -0.019387526513927902 0 -0.025359073971752029 -0.019408981491788067 0 -0.025130087913837425 -0.019610877510899283 0 -0.024733026752596789 -0.019688436463284695 0 -0.024827883973286537 -0.019387526513927902 0 -0.025130087913837425 -0.019610877510899283 0 -0.024827883973286537 -0.019387526513927902 0 -0.025359073971752029 -0.019408981491788067 0 -0.02567768477688584 -0.019604832616335655 0 -0.025359073971752029 -0.019408981491788067 0 -0.025745955838858064 -0.01938670764615251 0 -0.026144562009180368 -0.019414983428884643 0 -0.025772371857768792 -0.019135582647143694 0 -0.025745955838858064 -0.01938670764615251 0 -0.026144562009180368 -0.019414983428884643 0 -0.02567768477688584 -0.019604832616335655 0 -0.025745955838858064 -0.01938670764615251 0 -0.025772371857768792 -0.019135582647143694 0 -0.025285245904366455 -0.0190952130589696 0 -0.025359073971752029 -0.019408981491788067 0 -0.025772371857768792 -0.019135582647143694 0 -0.025359073971752029 -0.019408981491788067 0 -0.025745955838858064 -0.01938670764615251 0 -0.021707585892127314 -0.036454310296919173 0 -0.021088246880136712 -0.037632915917239981 0 -0.022164583544807034 -0.037341518825868357 0 -0.021707585892127314 -0.036454310296919173 0 -0.020775638758637756 -0.036475420606205275 0 -0.021088246880136712 -0.037632915917239981 0 -0.020775638758637756 -0.036475420606205275 0 -0.020008959498631108 -0.03692357717340411 0 -0.020302231648101875 -0.035719886409665183 0 -0.020775638758637756 -0.036475420606205275 0 -0.021088246880136712 -0.037632915917239981 0 -0.020008959498631108 -0.03692357717340411 0 -0.021088246880136712 -0.037632915917239981 0 -0.021160240620428906 -0.038691705509475781 0 -0.020650514000637506 -0.038247781640230571 0 -0.021088246880136712 -0.037632915917239981 0 -0.020079215984310349 -0.037943030962081584 0 -0.020008959498631108 -0.03692357717340411 0 -0.021088246880136712 -0.037632915917239981 0 -0.020650514000637506 -0.038247781640230571 0 -0.020079215984310349 -0.037943030962081584 0 -0.021088246880136712 -0.037632915917239981 0 -0.022164583544807034 -0.037341518825868357 0 -0.022113349530363091 -0.03823009661404754 0 -0.021088246880136712 -0.037632915917239981 0 -0.022113349530363091 -0.03823009661404754 0 -0.021160240620428906 -0.038691705509475781 0 -0.022113349530363091 -0.03823009661404754 0 -0.022158889216505509 -0.039112458406456767 0 -0.021160240620428906 -0.038691705509475781 0 -0.022847672990885623 -0.040093964992022876 0 -0.022158889216505509 -0.039112458406456767 0 -0.021570122431374555 -0.039705714524116018 0 -0.022158889216505509 -0.039112458406456767 0 -0.021570122431374555 -0.039705714524116018 0 -0.021160240620428906 -0.038691705509475781 0 -0.021330123566565513 -0.040262568536785545 0 -0.020620260108626699 -0.039618257038860016 0 -0.019971359319000636 -0.039955265148651373 0 -0.021570122431374555 -0.039705714524116018 0 -0.020620260108626699 -0.039618257038860016 0 -0.021160240620428906 -0.038691705509475781 0 -0.02153269257289708 -0.040609367807358195 0 -0.021570122431374555 -0.039705714524116018 0 -0.020620260108626699 -0.039618257038860016 0 -0.020620260108626699 -0.039618257038860016 0 -0.021160240620428906 -0.038691705509475781 0 -0.020275836945651934 -0.038721599242075126 0 -0.020650514000637506 -0.038247781640230571 0 -0.020275836945651934 -0.038721599242075126 0 -0.020079215984310349 -0.037943030962081584 0 -0.021160240620428906 -0.038691705509475781 0 -0.020650514000637506 -0.038247781640230571 0 -0.020275836945651934 -0.038721599242075126 0 -0.019342493219087858 -0.038555789264514279 0 -0.020275836945651934 -0.038721599242075126 0 -0.020079215984310349 -0.037943030962081584 0 -0.019342493219087858 -0.038555789264514279 0 -0.020275836945651934 -0.038721599242075126 0 -0.019726374874403187 -0.039266382566408638 0 -0.020620260108626699 -0.039618257038860016 0 -0.020275836945651934 -0.038721599242075126 0 -0.019726374874403187 -0.039266382566408638 0 -0.020620260108626699 -0.039618257038860016 0 -0.019726374874403187 -0.039266382566408638 0 -0.019971359319000636 -0.039955265148651373 0 -0.024265917700433921 -0.017960306600147132 0 -0.022522956781085717 -0.01813517656299489 0 -0.022403994955680486 -0.017602844047778142 0 -0.019726374874403187 -0.039266382566408638 0 -0.019971359319000636 -0.039955265148651373 0 -0.018343406970030517 -0.039477215746321161 0 -0.02213380052375415 -0.028515968979540725 0 -0.020381437132804849 -0.028609704075130495 0 -0.019342493219087858 -0.038555789264514279 0 -0.019726374874403187 -0.039266382566408638 0 -0.018343406970030517 -0.039477215746321161 0 -0.019342493219087858 -0.038555789264514279 0 -0.018258903925791586 -0.03840373233919115 0 -0.018343406970030517 -0.039477215746321161 0 -0.019342493219087858 -0.038555789264514279 0 -0.01898527110077294 -0.037449216542358901 0 -0.018258903925791586 -0.03840373233919115 0 -0.01898527110077294 -0.037449216542358901 0 -0.020079215984310349 -0.037943030962081584 0 -0.020008959498631108 -0.03692357717340411 0 -0.019342493219087858 -0.038555789264514279 0 -0.01898527110077294 -0.037449216542358901 0 -0.020079215984310349 -0.037943030962081584 0 -0.01898527110077294 -0.037449216542358901 0 -0.020008959498631108 -0.03692357717340411 0 -0.019285264488099002 -0.036312430637556535 0 -0.01898527110077294 -0.037449216542358901 0 -0.017941361415591623 -0.036355368837721266 0 -0.019285264488099002 -0.036312430637556535 0 -0.01898527110077294 -0.037449216542358901 0 -0.017438161069793415 -0.037659618458676117 0 -0.017941361415591623 -0.036355368837721266 0 -0.016315211011418647 -0.036892981256400406 0 -0.017438161069793415 -0.037659618458676117 0 -0.017941361415591623 -0.036355368837721266 0 -0.016315211011418647 -0.036892981256400406 0 -0.017438161069793415 -0.037659618458676117 0 -0.016188385186398816 -0.037939986999297175 0 -0.017438161069793415 -0.037659618458676117 0 -0.016711564968822274 -0.038963647521504129 0 -0.016188385186398816 -0.037939986999297175 0 -0.01898527110077294 -0.037449216542358901 0 -0.017438161069793415 -0.037659618458676117 0 -0.018258903925791586 -0.03840373233919115 0 -0.018258903925791586 -0.03840373233919115 0 -0.018343406970030517 -0.039477215746321161 0 -0.016711564968822274 -0.038963647521504129 0 -0.017438161069793415 -0.037659618458676117 0 -0.018258903925791586 -0.03840373233919115 0 -0.016711564968822274 -0.038963647521504129 0 -0.019571397543843926 -0.01932420735509973 0 -0.022522956781085717 -0.01813517656299489 0 -0.020814613031547247 -0.01816527821592516 0 -0.022403994955680486 -0.017602844047778142 0 -0.020814613031547247 -0.01816527821592516 0 -0.019321933325922077 -0.017147439111450315 0 -0.020381437132804849 -0.028609704075130495 0 -0.018050776708591287 -0.028063165768928058 0 -0.022522956781085717 -0.01813517656299489 0 -0.022403994955680486 -0.017602844047778142 0 -0.020814613031547247 -0.01816527821592516 0 -0.019571397543843926 -0.01932420735509973 0 -0.019321933325922077 -0.017147439111450315 0 -0.017830471539709319 -0.0180550510263086 0 -0.019571397543843926 -0.01932420735509973 0 -0.020814613031547247 -0.01816527821592516 0 -0.019321933325922077 -0.017147439111450315 0 -0.019321933325922077 -0.017147439111450315 0 -0.017830471539709319 -0.0180550510263086 0 -0.017011708882102763 -0.017018648436464855 0 -0.016711564968822274 -0.038963647521504129 0 -0.015092489668667003 -0.038419307051136012 0 -0.016188385186398816 -0.037939986999297175 0 -0.018050776708591287 -0.028063165768928058 0 -0.016097334984011787 -0.027712238141460711 0 -0.017915342808189474 -0.019330065301793545 0 -0.017830471539709319 -0.0180550510263086 0 -0.016424600363499124 -0.019034349329087999 0 -0.017915342808189474 -0.019330065301793545 0 -0.019571397543843926 -0.01932420735509973 0 -0.017830471539709319 -0.0180550510263086 0 -0.017830471539709319 -0.0180550510263086 0 -0.016424600363499124 -0.019034349329087999 0 -0.017011708882102763 -0.017018648436464855 0 -0.016424600363499124 -0.019034349329087999 0 -0.017011708882102763 -0.017018648436464855 0 -0.015777180188921842 -0.017906086805672867 0 -0.015092489668667003 -0.038419307051136012 0 -0.014512936263559598 -0.037225365073886546 0 -0.013631566703776746 -0.037820090007741253 0 -0.015092489668667003 -0.038419307051136012 0 -0.016188385186398816 -0.037939986999297175 0 -0.014512936263559598 -0.037225365073886546 0 -0.016315211011418647 -0.036892981256400406 0 -0.016188385186398816 -0.037939986999297175 0 -0.014512936263559598 -0.037225365073886546 0 -0.016315211011418647 -0.036892981256400406 0 -0.014512936263559598 -0.037225365073886546 0 -0.015257590754523705 -0.036066122956560136 0 -0.014512936263559598 -0.037225365073886546 0 -0.015257590754523705 -0.036066122956560136 0 -0.01358983654716236 -0.036573882570487486 0 -0.015257590754523705 -0.036066122956560136 0 -0.014373940999303822 -0.03486256702007285 0 -0.01358983654716236 -0.036573882570487486 0 -0.015257590754523705 -0.036066122956560136 0 -0.015989356555395243 -0.034944824597035046 0 -0.016721471841424911 -0.035804503535232075 0 -0.016315211011418647 -0.036892981256400406 0 -0.015257590754523705 -0.036066122956560136 0 -0.016721471841424911 -0.035804503535232075 0 -0.015119838698273318 -0.047226985011602093 0 -0.014477976164906304 -0.046785638423896887 0 -0.015218350225270466 -0.046695732892751814 0 -0.015257590754523705 -0.036066122956560136 0 -0.015989356555395243 -0.034944824597035046 0 -0.014373940999303822 -0.03486256702007285 0 -0.015119838698273318 -0.047226985011602093 0 -0.014477976164906304 -0.046785638423896887 0 -0.013434121688085001 -0.04697180231653432 0 -0.015451058136867606 -0.041312769423328927 0 -0.014524705161820523 -0.038847138883605838 0 -0.014477976164906304 -0.046785638423896887 0 -0.013434121688085001 -0.04697180231653432 0 -0.013980014763786981 -0.046582509471191941 0 -0.014524705161820523 -0.038847138883605838 0 -0.012223917970831258 -0.044903070903250998 0 -0.013327360619284226 -0.036495499015828943 0 -0.013292077946479875 -0.036638010785352289 0 -0.013366200134859205 -0.036482059982806708 0 -0.013434121688085001 -0.04697180231653432 0 -0.013980014763786981 -0.046582509471191941 0 -0.013873438432925128 -0.046117378432429662 0 -0.014477976164906304 -0.046785638423896887 0 -0.013980014763786981 -0.046582509471191941 0 -0.014008543141108047 -0.046167631948465189 0 -0.013980014763786981 -0.046582509471191941 0 -0.014008543141108047 -0.046167631948465189 0 -0.013873438432925128 -0.046117378432429662 0 -0.012176902105442294 -0.047000177380763473 0 -0.012002110620363254 -0.046933751109290475 0 -0.01289128073109694 -0.046355261962081395 0 -0.013225729530479305 -0.045849626715677466 0 -0.012223917970831258 -0.044903070903250998 0 -0.012223917970831258 -0.044903070903250998 0 -0.012936750307695035 -0.045003017808494195 0 -0.012002110620363254 -0.046933751109290475 0 -0.012938005716814884 -0.044999980251550727 0 -0.01289128073109694 -0.046355261962081395 0 -0.011952657633700512 -0.046965923968960516 0 -0.012937899746591286 -0.044999983554275404 0 -0.010850155568806018 -0.044999993562757412 0 -0.012938005716814884 -0.044999980251550727 0 -0.01289128073109694 -0.046355261962081395 0 -0.014452380384788641 -0.046487333518894232 0 -0.012176902105442294 -0.047000177380763473 0 -0.01289128073109694 -0.046355261962081395 0 -0.014452380384788641 -0.046487333518894232 0 -0.014074456989167181 -0.046559722895353005 0 -0.015250686785835611 -0.047006670474139353 0 -0.015754099326968401 -0.046178957244008681 0 -0.014477976164906304 -0.046785638423896887 0 -0.014008543141108047 -0.046167631948465189 0 -0.015218350225270466 -0.046695732892751814 0 -0.013225729530479305 -0.045849626715677466 0 -0.015409948856984807 -0.046934573608593134 0 -0.013225729530479305 -0.045849626715677466 0 -0.015054559964797893 -0.046453778741859651 0 -0.015250686785835611 -0.047006670474139353 0 -0.015961260198261929 -0.046864886684956288 0 -0.015754099326968401 -0.046178957244008681 0 -0.015250686785835611 -0.047006670474139353 0 -0.015961260198261929 -0.046864886684956288 0 -0.016402859699274082 -0.047395552652080487 0 -0.016448261682405228 -0.04692833241587889 0 -0.015754099326968401 -0.046178957244008681 0 -0.017041313279350632 -0.046717722938919841 0 -0.015961260198261929 -0.046864886684956288 0 -0.016448261682405228 -0.04692833241587889 0 -0.015754099326968401 -0.046178957244008681 0 -0.015961260198261929 -0.046864886684956288 0 -0.016448261682405228 -0.04692833241587889 0 -0.016402859699274082 -0.047395552652080487 0 -0.014452380384788641 -0.046487333518894232 0 -0.015106894488103687 -0.04499999690990765 0 -0.016766836642402819 -0.045955368806037351 0 -0.012938005716814884 -0.044999980251550727 0 -0.014452380384788641 -0.046487333518894232 0 -0.015106894488103687 -0.04499999690990765 0 -0.015106894488103687 -0.04499999690990765 0 -0.016766836642402819 -0.045955368806037351 0 -0.017275916564370615 -0.044999988779127427 0 -0.015054559964797893 -0.046453778741859651 0 -0.017134501733075388 -0.045859074371767415 0 -0.015754099326968401 -0.046178957244008681 0 -0.017425760037268642 -0.045816005830586731 0 -0.017041313279350632 -0.046717722938919841 0 -0.017425760037268642 -0.045816005830586731 0 -0.017041313279350632 -0.046717722938919841 0 -0.017990888190067444 -0.046603033203712799 0 -0.016448261682405228 -0.04692833241587889 0 -0.017041313279350632 -0.046717722938919841 0 -0.01677545130886517 -0.047648619460387905 0 -0.017041313279350632 -0.046717722938919841 0 -0.01677545130886517 -0.047648619460387905 0 -0.018464858196940239 -0.047942802059981852 0 -0.016448261682405228 -0.04692833241587889 0 -0.01677545130886517 -0.047648619460387905 0 -0.016402859699274082 -0.047395552652080487 0 -0.015989356555395243 -0.034944824597035046 0 -0.0175911489143879 -0.03501140442588397 0 -0.016721471841424911 -0.035804503535232075 0 -0.015451058136867606 -0.041312769423328927 0 -0.017222774062165706 -0.041312016030510282 0 -0.015119838698273318 -0.047226985011602093 0 -0.015218350225270466 -0.046695732892751814 0 -0.016402859699274082 -0.047395552652080487 0 -0.015119838698273318 -0.047226985011602093 0 -0.01677545130886517 -0.047648619460387905 0 -0.016402859699274082 -0.047395552652080487 0 -0.015409948856984807 -0.046934573608593134 0 -0.016212938614816375 -0.047292655362412624 0 -0.016315211011418647 -0.036892981256400406 0 -0.016721471841424911 -0.035804503535232075 0 -0.017941361415591623 -0.036355368837721266 0 -0.0175911489143879 -0.03501140442588397 0 -0.017941361415591623 -0.036355368837721266 0 -0.019202752100042207 -0.035097397162165721 0 -0.0175911489143879 -0.03501140442588397 0 -0.016721471841424911 -0.035804503535232075 0 -0.017941361415591623 -0.036355368837721266 0 -0.017941361415591623 -0.036355368837721266 0 -0.019285264488099002 -0.036312430637556535 0 -0.019202752100042207 -0.035097397162165721 0 -0.020008959498631108 -0.03692357717340411 0 -0.019285264488099002 -0.036312430637556535 0 -0.020302231648101875 -0.035719886409665183 0 -0.019285264488099002 -0.036312430637556535 0 -0.019202752100042207 -0.035097397162165721 0 -0.020302231648101875 -0.035719886409665183 0 -0.019202752100042207 -0.035097397162165721 0 -0.020758088040851067 -0.035235490368598736 0 -0.020302231648101875 -0.035719886409665183 0 -0.019371180911426138 -0.047333067012969625 0 -0.018464858196940239 -0.047942802059981852 0 -0.020346853940849164 -0.048240999096051798 0 -0.019371180911426138 -0.047333067012969625 0 -0.018464858196940239 -0.047942802059981852 0 -0.018748922095730019 -0.046820828837165755 0 -0.018839353294703754 -0.041433383782050609 0 -0.020520051336726842 -0.04259674556501495 0 -0.017222774062165706 -0.041312016030510282 0 -0.018839353294703754 -0.041433383782050609 0 -0.018464858196940239 -0.047942802059981852 0 -0.017990888190067444 -0.046603033203712799 0 -0.018748922095730019 -0.046820828837165755 0 -0.017425760037268642 -0.045816005830586731 0 -0.018531303225175405 -0.046182465194549702 0 -0.017990888190067444 -0.046603033203712799 0 -0.017041313279350632 -0.046717722938919841 0 -0.018464858196940239 -0.047942802059981852 0 -0.017990888190067444 -0.046603033203712799 0 -0.018531303225175405 -0.046182465194549702 0 -0.017990888190067444 -0.046603033203712799 0 -0.018748922095730019 -0.046820828837165755 0 -0.016766836642402819 -0.045955368806037351 0 -0.017275916564370615 -0.044999988779127427 0 -0.019124051276001426 -0.045386214926825132 0 -0.017425760037268642 -0.045816005830586731 0 -0.018531303225175405 -0.046182465194549702 0 -0.019124051276001426 -0.045386214926825132 0 -0.017134501733075388 -0.045859074371767415 0 -0.019005636826545758 -0.045421330556891203 0 -0.017275916564370615 -0.044999988779127427 0 -0.019445161163012065 -0.044999951727187799 0 -0.019124051276001426 -0.045386214926825132 0 -0.019445161163012065 -0.044999951727187799 0 -0.019124051276001426 -0.045386214926825132 0 -0.019882756089993382 -0.045664876093979817 0 -0.018531303225175405 -0.046182465194549702 0 -0.019124051276001426 -0.045386214926825132 0 -0.019453177073401953 -0.046324553868943227 0 -0.019124051276001426 -0.045386214926825132 0 -0.019453177073401953 -0.046324553868943227 0 -0.019882756089993382 -0.045664876093979817 0 -0.018531303225175405 -0.046182465194549702 0 -0.019453177073401953 -0.046324553868943227 0 -0.018748922095730019 -0.046820828837165755 0 -0.019371180911426138 -0.047333067012969625 0 -0.019453177073401953 -0.046324553868943227 0 -0.020333518464302466 -0.046966596267739399 0 -0.019371180911426138 -0.047333067012969625 0 -0.019453177073401953 -0.046324553868943227 0 -0.018748922095730019 -0.046820828837165755 0 -0.020333518464302466 -0.046966596267739399 0 -0.021963830998934075 -0.046751862629139794 0 -0.020346853940849164 -0.048240999096051798 0 -0.020333518464302466 -0.046966596267739399 0 -0.020588040363274596 -0.046158650711553749 0 -0.021963830998934075 -0.046751862629139794 0 -0.019453177073401953 -0.046324553868943227 0 -0.020333518464302466 -0.046966596267739399 0 -0.020588040363274596 -0.046158650711553749 0 -0.019445161163012065 -0.044999951727187799 0 -0.019882756089993382 -0.045664876093979817 0 -0.021613756215940697 -0.044999855632835262 0 -0.019453177073401953 -0.046324553868943227 0 -0.019882756089993382 -0.045664876093979817 0 -0.020588040363274596 -0.046158650711553749 0 -0.019882756089993382 -0.045664876093979817 0 -0.020588040363274596 -0.046158650711553749 0 -0.021613756215940697 -0.044999855632835262 0 -0.020588040363274596 -0.046158650711553749 0 -0.021613756215940697 -0.044999855632835262 0 -0.021963830998934075 -0.046751862629139794 0 -0.023782820537765894 -0.04500003711189017 0 -0.021613756215940697 -0.044999855632835262 0 -0.021963830998934075 -0.046751862629139794 0 -0.022059578724181048 -0.047644026401394472 0 -0.020520051336726842 -0.04259674556501495 0 -0.022946925770823825 -0.041653187294825707 0 -0.020520051336726842 -0.04259674556501495 0 -0.023107412585898816 -0.048290056630183355 0 -0.022514895120644616 -0.04657199716189997 0 -0.021159925304106618 -0.048069448608259062 0 -0.019371180911426138 -0.047333067012969625 0 -0.020333518464302466 -0.046966596267739399 0 -0.020346853940849164 -0.048240999096051798 0 -0.020801617572527218 -0.035152282319867056 0 -0.021231074577194239 -0.035810964986145936 0 -0.020302231648101875 -0.035719886409665183 0 -0.020520051336726842 -0.04259674556501495 0 -0.022091339898820731 -0.03576110150156904 0 -0.020775638758637756 -0.036475420606205275 0 -0.021231074577194239 -0.035810964986145936 0 -0.020302231648101875 -0.035719886409665183 0 -0.021707585892127314 -0.036454310296919173 0 -0.020775638758637756 -0.036475420606205275 0 -0.021231074577194239 -0.035810964986145936 0 -0.022565043111122236 -0.035249319684156649 0 -0.020801617572527218 -0.035152282319867056 0 -0.021231074577194239 -0.035810964986145936 0 -0.022565043111122236 -0.035249319684156649 0 -0.021707585892127314 -0.036454310296919173 0 -0.021231074577194239 -0.035810964986145936 0 -0.0098151990496228303 -0.01746879044366402 0 -0.011339352095545553 -0.017757559799675273 0 -0.010595034928005009 -0.018262320476968161 0 -0.0098151990496228303 -0.01746879044366402 0 -0.011339352095545553 -0.017757559799675273 0 -0.011215966978632565 -0.017028997956477783 0 -0.011436015796202844 -0.014886340782884901 0 -0.0091090558740289703 -0.031393680199667165 0 -0.011339352095545553 -0.017757559799675273 0 -0.01128504231684325 -0.0170557300426942 0 -0.011215966978632565 -0.017028997956477783 0 -0.0087848134260392497 -0.031975275262435293 0 -0.0035831121555602143 -0.040728575784079589 0 -0.0076682471507891351 -0.024812535701654745 0 -0.0087848134260392497 -0.031975275262435293 0 -0.0026999478475597141 -0.047223347345459722 0 -0.0026587867371589097 -0.047219809661913081 0 -0.0024489969095879446 -0.046921118265990602 0 -0.0091090558740289703 -0.031393680199667165 0 -0.0087848134260392497 -0.031975275262435293 0 -0.0057057570099285785 -0.033980817179736583 0 -0.0072831244538028653 -0.033347191916073202 0 -0.0060483327991002669 -0.032936669106568443 0 -0.0057057570099285785 -0.033980817179736583 0 -0.005252688347412683 -0.033262874647151629 0 -0.0060483327991002669 -0.032936669106568443 0 -0.005252688347412683 -0.033262874647151629 0 -0.0044966282002191415 -0.033609946450627114 0 -0.0047545049526262354 -0.032524060757399408 0 -0.0057057570099285785 -0.033980817179736583 0 -0.005252688347412683 -0.033262874647151629 0 -0.0044966282002191415 -0.033609946450627114 0 -0.0044966282002191415 -0.033609946450627114 0 -0.0038772674962364948 -0.032658174023669585 0 -0.0035429108388206295 -0.03347416035837044 0 -0.0044966282002191415 -0.033609946450627114 0 -0.0040462867410213429 -0.034641530329605673 0 -0.0035429108388206295 -0.03347416035837044 0 -0.0076682471507891351 -0.024812535701654745 0 -0.0077955385684415415 -0.025874107475466229 0 -0.0057057570099285785 -0.033980817179736583 0 -0.0044966282002191415 -0.033609946450627114 0 -0.0040462867410213429 -0.034641530329605673 0 -0.0098151990496228303 -0.01746879044366402 0 -0.008139892944562372 -0.018176288759424664 0 -0.0095294897824917367 -0.018691325991734176 0 -0.008139892944562372 -0.018176288759424664 0 -0.0095294897824917367 -0.018691325991734176 0 -0.0082117476923834355 -0.019478538226081876 0 -0.0095294897824917367 -0.018691325991734176 0 -0.0082117476923834355 -0.019478538226081876 0 -0.0095422410383798929 -0.019795496879527103 0 -0.010597542146664028 -0.020157660702411172 0 -0.0095422410383798929 -0.019795496879527103 0 -0.010664012728901393 -0.019144243416641681 0 -0.0095294897824917367 -0.018691325991734176 0 -0.0095422410383798929 -0.019795496879527103 0 -0.010664012728901393 -0.019144243416641681 0 -0.0098151990496228303 -0.01746879044366402 0 -0.0095294897824917367 -0.018691325991734176 0 -0.010595034928005009 -0.018262320476968161 0 -0.0095294897824917367 -0.018691325991734176 0 -0.010595034928005009 -0.018262320476968161 0 -0.010664012728901393 -0.019144243416641681 0 -0.011436015796202844 -0.014886340782884901 0 -0.01149060943191637 -0.019106538244838808 0 -0.010595034928005009 -0.018262320476968161 0 -0.011504633712396406 -0.0183702035619802 0 -0.010664012728901393 -0.019144243416641681 0 -0.011339352095545553 -0.017757559799675273 0 -0.010595034928005009 -0.018262320476968161 0 -0.011504633712396406 -0.0183702035619802 0 -0.011649861054941214 -0.019712580837636249 0 -0.010597542146664028 -0.020157660702411172 0 -0.010664012728901393 -0.019144243416641681 0 -0.011649861054941214 -0.019712580837636249 0 -0.011504633712396406 -0.0183702035619802 0 -0.010664012728901393 -0.019144243416641681 0 -0.011649861054941214 -0.019712580837636249 0 -0.011504633712396406 -0.0183702035619802 0 -0.012539014118263863 -0.0189791373372326 0 -0.012492751840982873 -0.019910965349351582 0 -0.011649861054941214 -0.019712580837636249 0 -0.012539014118263863 -0.0189791373372326 0 -0.013378325349364974 -0.019709441584854045 0 -0.012539014118263863 -0.0189791373372326 0 -0.013519436410143797 -0.01807821053734103 0 -0.012539014118263863 -0.0189791373372326 0 -0.013519436410143797 -0.01807821053734103 0 -0.012506862891031515 -0.017735751386251972 0 -0.011504633712396406 -0.0183702035619802 0 -0.012539014118263863 -0.0189791373372326 0 -0.012506862891031515 -0.017735751386251972 0 -0.011572888630810832 -0.017062485981880527 0 -0.011504633712396406 -0.0183702035619802 0 -0.012506862891031515 -0.017735751386251972 0 -0.016424600363499124 -0.019034349329087999 0 -0.014638726816177073 -0.01879875971892938 0 -0.015777180188921842 -0.017906086805672867 0 -0.013378325349364974 -0.019709441584854045 0 -0.013519436410143797 -0.01807821053734103 0 -0.014638726816177073 -0.01879875971892938 0 -0.013519436410143797 -0.01807821053734103 0 -0.014638726816177073 -0.01879875971892938 0 -0.015096179668974431 -0.016807030126343742 0 -0.014638726816177073 -0.01879875971892938 0 -0.015777180188921842 -0.017906086805672867 0 -0.015096179668974431 -0.016807030126343742 0 -0.017011708882102763 -0.017018648436464855 0 -0.015777180188921842 -0.017906086805672867 0 -0.015096179668974431 -0.016807030126343742 0 -0.016097334984011787 -0.027712238141460711 0 -0.014325268506916058 -0.027373673202795368 0 -0.013519436410143797 -0.01807821053734103 0 -0.015096179668974431 -0.016807030126343742 0 -0.013311506598254048 -0.016468401286999633 0 -0.014325268506916058 -0.027373673202795368 0 -0.013432887519904424 -0.026374720826972224 0 -0.013631566703776746 -0.037820090007741253 0 -0.013393346133351934 -0.037075915557433239 0 -0.012704777282494402 -0.037351463996676333 0 -0.013393346133351934 -0.037075915557433239 0 -0.012704777282494402 -0.037351463996676333 0 -0.013042545972233253 -0.036651831414329483 0 -0.014512936263559598 -0.037225365073886546 0 -0.013631566703776746 -0.037820090007741253 0 -0.013393346133351934 -0.037075915557433239 0 -0.014512936263559598 -0.037225365073886546 0 -0.013393346133351934 -0.037075915557433239 0 -0.01358983654716236 -0.036573882570487486 0 -0.011572888630810832 -0.017062485981880527 0 -0.01158240174504889 -0.016035375709263781 0 -0.013311506598254048 -0.016468401286999633 0 -0.011572888630810832 -0.017062485981880527 0 -0.012506862891031515 -0.017735751386251972 0 -0.013311506598254048 -0.016468401286999633 0 -0.013519436410143797 -0.01807821053734103 0 -0.012506862891031515 -0.017735751386251972 0 -0.013311506598254048 -0.016468401286999633 0 -0.012704777282494402 -0.037351463996676333 0 -0.012379451817881353 -0.036799999500325246 0 -0.013042545972233253 -0.036651831414329483 0 -0.0091090558740289703 -0.031393680199667165 0 -0.013432887519904424 -0.026374720826972224 0 -0.012010826443495336 -0.037167134099326406 0 -0.012704777282494402 -0.037351463996676333 0 -0.012379451817881353 -0.036799999500325246 0 -0.012010826443495336 -0.037167134099326406 0 -0.012379451817881353 -0.036799999500325246 0 -0.011987647380904352 -0.036472664820896269 0 -0.012379451817881353 -0.036799999500325246 0 -0.012196970367784297 -0.036386403209876378 0 -0.013042545972233253 -0.036651831414329483 0 -0.0098016323605628428 -0.041127299538627808 0 -0.013738184539094778 -0.035294066667869564 0 -0.010401807808198469 -0.042055251502129673 0 -0.0098016323605628428 -0.041127299538627808 0 -0.013015335925216967 -0.036409409814905369 0 -0.012703559406199742 -0.036513888994108457 0 -0.013042545972233253 -0.036651831414329483 0 -0.0079955505748934494 -0.047467787029023017 0 -0.006408364234509448 -0.047825051075089713 0 -0.006596572370574952 -0.046808686576694236 0 -0.012379451817881353 -0.036799999500325246 0 -0.012196970367784297 -0.036386403209876378 0 -0.011987647380904352 -0.036472664820896269 0 -0.0076041987103599475 -0.043684574491914138 0 -0.0070444971673185907 -0.043339542123298762 0 -0.0070463479942368974 -0.043823663435071117 0 -0.0098016323605628428 -0.041127299538627808 0 -0.0059652266146147485 -0.04582329173811224 0 -0.006408364234509448 -0.047825051075089713 0 -0.006596572370574952 -0.046808686576694236 0 -0.0058095045721519066 -0.047447457424446983 0 -0.0098016323605628428 -0.041127299538627808 0 -0.0059908230539254259 -0.044894418817402575 0 -0.014524705161820523 -0.038847138883605838 0 -0.013624799129059272 -0.035335193272472185 0 -0.01358983654716236 -0.036573882570487486 0 -0.013042545972233253 -0.036651831414329483 0 -0.013323693018183341 -0.036498335312320496 0 -0.013393346133351934 -0.037075915557433239 0 -0.01358983654716236 -0.036573882570487486 0 -0.013042545972233253 -0.036651831414329483 0 -0.013015335925216967 -0.036409409814905369 0 -0.013323693018183341 -0.036498335312320496 0 -0.013340378528296394 -0.03647954962439353 0 -0.013015335925216967 -0.036409409814905369 0 -0.013340378528296394 -0.03647954962439353 0 -0.013349717234075513 -0.036450528236283732 0 -0.013015335925216967 -0.036409409814905369 0 -0.013042545972233253 -0.036651831414329483 0 -0.013323693018183341 -0.036498335312320496 0 -0.01358983654716236 -0.036573882570487486 0 -0.013323693018183341 -0.036498335312320496 0 -0.013366200134859205 -0.036482059982806708 0 -0.013367962915058665 -0.036483903172872451 0 -0.01358983654716236 -0.036573882570487486 0 -0.013366200134859205 -0.036482059982806708 0 -0.013323693018183341 -0.036498335312320496 0 -0.013340378528296394 -0.03647954962439353 0 -0.013366200134859205 -0.036482059982806708 0 -0.013340378528296394 -0.03647954962439353 0 -0.013366200134859205 -0.036482059982806708 0 -0.013349717234075513 -0.036450528236283732 0 -0.014524705161820523 -0.038847138883605838 0 -0.013659782598846348 -0.038193421762957508 0 -0.012223917970831258 -0.044903070903250998 0 -0.011592043901816729 -0.041408171298115998 0 -0.012223917970831258 -0.044903070903250998 0 -0.0099770332245818771 -0.046275677002134585 0 -0.013292077946479875 -0.036638010785352289 0 -0.013366200134859205 -0.036482059982806708 0 -0.013349717234075513 -0.036450528236283732 0 -0.0113797765177774 -0.046559458432643475 0 -0.0096427773430884708 -0.047085872934856575 0 -0.0097831595495838815 -0.045998926427721534 0 -0.0079955505748934494 -0.047467787029023017 0 -0.0096427773430884708 -0.047085872934856575 0 -0.0087273967996636254 -0.046437263483868917 0 -0.010401807808198469 -0.042055251502129673 0 -0.011592043901816729 -0.041408171298115998 0 -0.0096427773430884708 -0.047085872934856575 0 -0.0087273967996636254 -0.046437263483868917 0 -0.0097831595495838815 -0.045998926427721534 0 -0.0087273967996636254 -0.046437263483868917 0 -0.0097831595495838815 -0.045998926427721534 0 -0.0082088718621414168 -0.045481287229028326 0 -0.0087623716729302858 -0.044999995179945455 0 -0.010196727825999374 -0.046316241039505997 0 -0.008435139883907131 -0.045660947582903316 0 -0.0099770332245818771 -0.046275677002134585 0 -0.0083254074491363218 -0.045566200280719713 0 -0.011952657633700512 -0.046965923968960516 0 -0.010850155568806018 -0.044999993562757412 0 -0.010196727825999374 -0.046316241039505997 0 -0.0087623716729302858 -0.044999995179945455 0 -0.010850155568806018 -0.044999993562757412 0 -0.010196727825999374 -0.046316241039505997 0 -0.006596572370574952 -0.046808686576694236 0 -0.005765310731382688 -0.046244126576072381 0 -0.0058095045721519066 -0.047447457424446983 0 -0.006596572370574952 -0.046808686576694236 0 -0.0072553678504065043 -0.046000094645608738 0 -0.0063893737189688925 -0.045825039820686302 0 -0.006596572370574952 -0.046808686576694236 0 -0.0063893737189688925 -0.045825039820686302 0 -0.005765310731382688 -0.046244126576072381 0 -0.0079955505748934494 -0.047467787029023017 0 -0.0087273967996636254 -0.046437263483868917 0 -0.0072553678504065043 -0.046000094645608738 0 -0.0079955505748934494 -0.047467787029023017 0 -0.006596572370574952 -0.046808686576694236 0 -0.0072553678504065043 -0.046000094645608738 0 -0.0087623716729302858 -0.044999995179945455 0 -0.008435139883907131 -0.045660947582903316 0 -0.0066745953437119532 -0.044999998748284677 0 -0.0087273967996636254 -0.046437263483868917 0 -0.0082088718621414168 -0.045481287229028326 0 -0.0072553678504065043 -0.046000094645608738 0 -0.0082088718621414168 -0.045481287229028326 0 -0.0072553678504065043 -0.046000094645608738 0 -0.0066743028975216074 -0.044999803742869667 0 -0.0083254074491363218 -0.045566200280719713 0 -0.0066750087068764737 -0.045000133932817932 0 -0.0063893737189688925 -0.045825039820686302 0 -0.0055909657492480931 -0.045000024643976823 0 -0.005765310731382688 -0.046244126576072381 0 -0.0072553678504065043 -0.046000094645608738 0 -0.0066743028975216074 -0.044999803742869667 0 -0.0063893737189688925 -0.045825039820686302 0 -0.0066743028975216074 -0.044999803742869667 0 -0.0063893737189688925 -0.045825039820686302 0 -0.0055909657492480931 -0.045000024643976823 0 -0.0055904575391348584 -0.044999991554201799 0 -0.0042083636377113764 -0.045882942020488433 0 -0.0032847748457587485 -0.044999983103629966 0 -0.0055905676266708214 -0.045000131031066655 0 -0.0056621809362188335 -0.046635836656578375 0 -0.0055904575391348584 -0.044999991554201799 0 -0.0042083636377113764 -0.045882942020488433 0 -0.0055688211015107476 -0.046463703805390562 0 -0.0042083636377113764 -0.045882942020488433 0 -0.0040608518468101557 -0.04695205813021338 0 -0.0025226831461863646 -0.045986709371245472 0 -0.0042083636377113764 -0.045882942020488433 0 -0.0032847748457587485 -0.044999983103629966 0 -0.0025226831461863646 -0.045986709371245472 0 -0.0022488536546563091 -0.04606208322324909 0 -0.0018035817940572124 -0.046433914114363005 0 -0.0016389617933033241 -0.045593980896350937 0 -0.002981482353139559 -0.046515904536911547 0 -0.0020984335325025002 -0.045788278988709082 0 -0.0022488536546563091 -0.04606208322324909 0 -0.0018035817940572124 -0.046433914114363005 0 -0.0023380128643830868 -0.046580456073171975 0 -0.0056621809362188335 -0.046635836656578375 0 -0.0059652266146147485 -0.04582329173811224 0 -0.0042083636377113764 -0.045882942020488433 0 -0.0040608518468101557 -0.04695205813021338 0 -0.0055688211015107476 -0.046463703805390562 0 -0.002981482353139559 -0.046515904536911547 0 -0.0059652266146147485 -0.04582329173811224 0 -0.0040608518468101557 -0.04695205813021338 0 -0.0055688211015107476 -0.046463703805390562 0 -0.0055672656494193239 -0.047898413961714237 0 -0.0022488536546563091 -0.04606208322324909 0 -0.002908273538099145 -0.046470413908430999 0 -0.0023380128643830868 -0.046580456073171975 0 -0.002908273538099145 -0.046470413908430999 0 -0.0029080472753309902 -0.046744404239444121 0 -0.0023380128643830868 -0.046580456073171975 0 -0.0029080472753309902 -0.046744404239444121 0 -0.0023380128643830868 -0.046580456073171975 0 -0.0018577374649478534 -0.046932667704405982 0 -0.0059908230539254259 -0.044894418817402575 0 -0.00051659412617516699 -0.047472708290643616 0 -0.0059652266146147485 -0.04582329173811224 0 -0.0059908230539254259 -0.044894418817402575 0 -0.0018035817940572124 -0.046433914114363005 0 -0.0023380128643830868 -0.046580456073171975 0 -0.0018577374649478534 -0.046932667704405982 0 -0.0018577374649478534 -0.046932667704405982 0 -0.0020068526355442708 -0.047267907550277564 0 -0.0024489969095879446 -0.046921118265990602 0 -0.0091090558740289703 -0.031393680199667165 0 -0.0059908230539254259 -0.044894418817402575 0 -0.0026587867371589097 -0.047219809661913081 0 -0.0020068526355442708 -0.047267907550277564 0 -0.0024489969095879446 -0.046921118265990602 0 -0.0026999478475597141 -0.047223347345459722 0 -0.0026987130063776646 -0.046465947003947787 0 -0.0024489969095879446 -0.046921118265990602 0 -0.0026987130063776646 -0.046465947003947787 0 -0.0018577374649478534 -0.046932667704405982 0 -0.0024489969095879446 -0.046921118265990602 0 -0.0030671630359046798 -0.039968266625847494 0 -0.0013170091697046144 -0.039184734973090322 0 -0.0044966282002191415 -0.033609946450627114 0 -0.0038772674962364948 -0.032658174023669585 0 -0.0047545049526262354 -0.032524060757399408 0 -0.0038772674962364948 -0.032658174023669585 0 -0.0047545049526262354 -0.032524060757399408 0 -0.0034637160773659868 -0.032156070313110421 0 -0.0019717450444647921 -0.03283125205891696 0 -0.0013170091697046144 -0.039184734973090322 0 -0.0018577374649478534 -0.046932667704405982 0 -0.0020068526355442708 -0.047267907550277564 0 -0.0011223758682342236 -0.047380357531349893 0 -0.005252688347412683 -0.033262874647151629 0 -0.0060483327991002669 -0.032936669106568443 0 -0.0047545049526262354 -0.032524060757399408 0 -0.0035831121555602143 -0.040728575784079589 0 -0.0030671630359046798 -0.039968266625847494 0 -0.0018577374649478534 -0.046932667704405982 0 -0.0011223758682342236 -0.047380357531349893 0 -0.0010992177084569695 -0.046544796171074772 0 -0.0018035817940572124 -0.046433914114363005 0 -0.0018577374649478534 -0.046932667704405982 0 -0.0010992177084569695 -0.046544796171074772 0 -0.0010992177084569695 -0.046544796171074772 0 -0.0001898308531066051 -0.046094417030259176 0 1.6249422470695173e-05 -0.047343144018732332 0 -0.0011223758682342236 -0.047380357531349893 0 -0.0010992177084569695 -0.046544796171074772 0 1.6249422470695173e-05 -0.047343144018732332 0 -0.0018035817940572124 -0.046433914114363005 0 -0.0010992177084569695 -0.046544796171074772 0 -0.0016389617933033241 -0.045593980896350937 0 -0.0010992177084569695 -0.046544796171074772 0 -0.0001898308531066051 -0.046094417030259176 0 -0.0016389617933033241 -0.045593980896350937 0 -0.0032847748457587485 -0.044999983103629966 0 -0.0025226831461863646 -0.045986709371245472 0 -0.00097897691349918808 -0.045000000479457625 0 -0.0020984335325025002 -0.045788278988709082 0 -0.00097919171957949638 -0.045000179417225346 0 -0.0001898308531066051 -0.046094417030259176 0 -0.00097743031179192545 -0.044999984709320401 0 0.0011018905592226091 -0.044999547789763839 0 -0.0001898308531066051 -0.046094417030259176 0 -0.0016389617933033241 -0.045593980896350937 0 -0.00097743031179192545 -0.044999984709320401 0 -0.0001898308531066051 -0.046094417030259176 0 0.0011018905592226091 -0.044999547789763839 0 0.0013610968586337665 -0.046457114420023628 0 0.0011018905592226091 -0.044999547789763839 0 0.0013610968586337665 -0.046457114420023628 0 0.0032226022902543338 -0.044978318813239854 0 0.0020123047516066618 -0.04477234295989712 0 0.0030558186355598596 -0.042843777316331849 0 0.0023365210750087746 -0.041279854413149512 0 0.0027974330191900881 -0.040734102661727549 0 0.0027704278773940196 -0.041108220297923909 0 -0.0001898308531066051 -0.046094417030259176 0 0.0013610968586337665 -0.046457114420023628 0 1.6249422470695173e-05 -0.047343144018732332 0 0.0054985457751010099 -0.045579841620432 0 0.0042846539749412001 -0.045590046742736853 0 0.0061480795958254071 -0.046573863756530956 0 0.0054985457751010099 -0.045579841620432 0 0.0044237826358238018 -0.044999973366327134 0 0.0067222061314465113 -0.044999923081729461 0 0.006811479921233583 -0.043010168445964767 0 0.0093486824577976128 -0.044328393387025676 0 0.0054985457751010099 -0.045579841620432 0 0.0044237826358238018 -0.044999973366327134 0 0.0042846539749412001 -0.045590046742736853 0 0.0044258738308972471 -0.045000205836232765 0 0.006811479921233583 -0.043010168445964767 0 0.003087754956160219 -0.040889054603066258 0 0.0027974330191900881 -0.040734102661727549 0 0.0027704278773940196 -0.041108220297923909 0 0.0044236972656924514 -0.044999918999051765 0 0.0042697225536913628 -0.045587366792266534 0 0.0032229155209150119 -0.044978273505772444 0 0.006811479921233583 -0.043010168445964767 0 0.0030558186355598596 -0.042843777316331849 0 0.003087754956160219 -0.040889054603066258 0 0.0027704278773940196 -0.041108220297923909 0 0.0029008346735827748 -0.041519491884995284 0 0.006811479921233583 -0.043010168445964767 0 0.0064099183750908192 -0.038442509135099869 0 0.0023365210750087746 -0.041279854413149512 0 0.0027704278773940196 -0.041108220297923909 0 0.0029008346735827748 -0.041519491884995284 0 0.014281270460370331 -0.040666554939302858 0 0.0064099183750908192 -0.038442509135099869 0 0.012649973133020832 -0.042086109954201298 0 0.012276172473772719 -0.041191967674317487 0 0.012913585052953808 -0.040938365125783992 0 0.012649973133020832 -0.042086109954201298 0 0.012276172473772719 -0.041191967674317487 0 0.01172102284351402 -0.041649745193893348 0 0.012276172473772719 -0.041191967674317487 0 0.012643087813800984 -0.040254667750874384 0 0.013527402798529561 -0.040804645723775769 0 0.012276172473772719 -0.041191967674317487 0 0.012643087813800984 -0.040254667750874384 0 0.011700950247083987 -0.040826917179749449 0 0.0064099183750908192 -0.038442509135099869 0 0.0063091346966311895 -0.035284905527286643 0 -0.0011438361005350814 -0.031447216122259758 0 -0.001566272693843206 -0.032722611988976434 0 -0.0022918026352225108 -0.031776489280507428 0 0.012643087813800984 -0.040254667750874384 0 0.013527402798529561 -0.040804645723775769 0 0.014058326852085943 -0.039211132327510646 0 0.014058326852085943 -0.039211132327510646 0 0.012526385346483338 -0.039270470884068744 0 0.01348698327345497 -0.038334306262458664 0 0.012643087813800984 -0.040254667750874384 0 0.012526385346483338 -0.039270470884068744 0 0.01145173066859758 -0.039922212144376946 0 0.012643087813800984 -0.040254667750874384 0 0.014058326852085943 -0.039211132327510646 0 0.012526385346483338 -0.039270470884068744 0 -0.0013170091697046144 -0.039184734973090322 0 -0.0006214426296401891 -0.036718251661213341 0 0.0023365210750087746 -0.041279854413149512 0 0.0018244330434265558 -0.041852401705791679 0 0.0023764387172679445 -0.041696033195953629 0 0.0020123047516066618 -0.04477234295989712 0 -0.0013170091697046144 -0.039184734973090322 0 0.0023365210750087746 -0.041279854413149512 0 0.0029008346735827748 -0.041519491884995284 0 0.0023764387172679445 -0.041696033195953629 0 0.0064099183750908192 -0.038442509135099869 0 -0.0006214426296401891 -0.036718251661213341 0 -0.0022918026352225108 -0.031776489280507428 0 -0.0031472359066656375 -0.032639002426321645 0 -0.0025936628080162772 -0.033163550560269692 0 -0.001566272693843206 -0.032722611988976434 0 -0.0022918026352225108 -0.031776489280507428 0 -0.0025936628080162772 -0.033163550560269692 0 -0.0034396343629863333 -0.032121616988383034 0 -0.0022918026352225108 -0.031776489280507428 0 -0.0031472359066656375 -0.032639002426321645 0 -0.0038772674962364948 -0.032658174023669585 0 -0.0034396343629863333 -0.032121616988383034 0 -0.0031472359066656375 -0.032639002426321645 0 -0.0038772674962364948 -0.032658174023669585 0 -0.0031472359066656375 -0.032639002426321645 0 -0.0035429108388206295 -0.03347416035837044 0 -0.0035429108388206295 -0.03347416035837044 0 -0.0029144435167764555 -0.034171433138020735 0 -0.0025936628080162772 -0.033163550560269692 0 -0.0031472359066656375 -0.032639002426321645 0 -0.0035429108388206295 -0.03347416035837044 0 -0.0025936628080162772 -0.033163550560269692 0 -0.0040462867410213429 -0.034641530329605673 0 -0.0029144435167764555 -0.034171433138020735 0 -0.002314332408475546 -0.035293767034576755 0 -0.0040462867410213429 -0.034641530329605673 0 -0.0035429108388206295 -0.03347416035837044 0 -0.0029144435167764555 -0.034171433138020735 0 0.0064868167277449072 -0.036838435452387512 0 0.0033331459884588118 -0.030194488873612049 0 -0.0029144435167764555 -0.034171433138020735 0 -0.0019612031556845381 -0.033993348945142207 0 -0.002314332408475546 -0.035293767034576755 0 -0.001566272693843206 -0.032722611988976434 0 -0.0019612031556845381 -0.033993348945142207 0 -0.0025936628080162772 -0.033163550560269692 0 0.0063091346966311895 -0.035284905527286643 0 0.0064868167277449072 -0.036838435452387512 0 -0.0029144435167764555 -0.034171433138020735 0 -0.0019612031556845381 -0.033993348945142207 0 -0.0025936628080162772 -0.033163550560269692 0 0.014058326852085943 -0.039211132327510646 0 0.014668190226554089 -0.037468866238258076 0 0.01348698327345497 -0.038334306262458664 0 0.01348698327345497 -0.038334306262458664 0 0.013169823031064341 -0.03792445809235348 0 0.013711710752326267 -0.037564907801464709 0 0.014668190226554089 -0.037468866238258076 0 0.01348698327345497 -0.038334306262458664 0 0.013711710752326267 -0.037564907801464709 0 0.012526385346483338 -0.039270470884068744 0 0.01268325100762365 -0.038500635913966325 0 0.011319865647592948 -0.038487644621882491 0 0.01268325100762365 -0.038500635913966325 0 0.012611532676860803 -0.03771499538872948 0 0.011319865647592948 -0.038487644621882491 0 0.012611532676860803 -0.03771499538872948 0 0.012512971957037962 -0.037470049030547826 0 0.011319865647592948 -0.038487644621882491 0 0.012526385346483338 -0.039270470884068744 0 0.01348698327345497 -0.038334306262458664 0 0.01268325100762365 -0.038500635913966325 0 0.01348698327345497 -0.038334306262458664 0 0.01268325100762365 -0.038500635913966325 0 0.013169823031064341 -0.03792445809235348 0 0.01268325100762365 -0.038500635913966325 0 0.013169823031064341 -0.03792445809235348 0 0.012611532676860803 -0.03771499538872948 0 0.013169823031064341 -0.03792445809235348 0 0.012611532676860803 -0.03771499538872948 0 0.013174749020124178 -0.037438044415076817 0 0.01491360033788942 -0.039149434338502341 0 0.017297006339481478 -0.03889120867419802 0 0.01435473348517677 -0.038342112486849274 0 0.01491360033788942 -0.039149434338502341 0 0.012611532676860803 -0.03771499538872948 0 0.012496981384299563 -0.037429516535267521 0 0.013174749020124178 -0.037438044415076817 0 0.012496981384299563 -0.037429516535267521 0 0.013174749020124178 -0.037438044415076817 0 0.013664625890176548 -0.036575203013793682 0 0.01491360033788942 -0.039149434338502341 0 0.014534179225376335 -0.035978819083978784 0 0.015397481818908399 -0.035522721280442406 0 0.015193766400961876 -0.035639837316077283 0 0.015363687322611147 -0.03569632159531979 0 0.014668190226554089 -0.037468866238258076 0 0.013664625890176548 -0.036575203013793682 0 0.014953807071281263 -0.035806820699618942 0 0.014668190226554089 -0.037468866238258076 0 0.013711710752326267 -0.037564907801464709 0 0.013664625890176548 -0.036575203013793682 0 0.013174749020124178 -0.037438044415076817 0 0.013711710752326267 -0.037564907801464709 0 0.013664625890176548 -0.036575203013793682 0 0.013169823031064341 -0.03792445809235348 0 0.013174749020124178 -0.037438044415076817 0 0.013711710752326267 -0.037564907801464709 0 0.014534179225376335 -0.035978819083978784 0 0.014833431236863689 -0.035869676836373515 0 0.015193766400961876 -0.035639837316077283 0 0.015311402837767928 -0.035818801671070856 0 0.015109010472671644 -0.035826178030800584 0 0.015193766400961876 -0.035639837316077283 0 0.015109010472671644 -0.035826178030800584 0 0.014953807071281263 -0.035806820699618942 0 0.015397481818908399 -0.035522721280442406 0 0.015363687322611147 -0.03569632159531979 0 0.015551182612732308 -0.035806239577194823 0 0.015363687322611147 -0.03569632159531979 0 0.015311402837767928 -0.035818801671070856 0 0.015551182612732308 -0.035806239577194823 0 0.015193766400961876 -0.035639837316077283 0 0.015363687322611147 -0.03569632159531979 0 0.015311402837767928 -0.035818801671070856 0 0.015311402837767928 -0.035818801671070856 0 0.015388533136851091 -0.035989834566515708 0 0.015551182612732308 -0.035806239577194823 0 0.015388533136851091 -0.035989834566515708 0 0.015248765660006785 -0.03596866346187811 0 0.015363351779748648 -0.036187392928926677 0 0.015311402837767928 -0.035818801671070856 0 0.015388533136851091 -0.035989834566515708 0 0.015248765660006785 -0.03596866346187811 0 0.015109010472671644 -0.035826178030800584 0 0.015248765660006785 -0.03596866346187811 0 0.015215861659273246 -0.035983631076289629 0 0.015311402837767928 -0.035818801671070856 0 0.015109010472671644 -0.035826178030800584 0 0.015248765660006785 -0.03596866346187811 0 0.015109010472671644 -0.035826178030800584 0 0.015010555892898647 -0.035639462157685653 0 0.015215861659273246 -0.035983631076289629 0 0.015010555892898647 -0.035639462157685653 0 0.015124783178647547 -0.03590152460223256 0 0.015215861659273246 -0.035983631076289629 0 0.0033331459884588118 -0.030194488873612049 0 0.00426100936586682 -0.027484394925694999 0 -0.0082117476923834355 -0.019478538226081876 0 -0.0065274051563471002 -0.019037231394811491 0 -0.0069755517543157869 -0.020336743574826392 0 -0.008139892944562372 -0.018176288759424664 0 -0.0082117476923834355 -0.019478538226081876 0 -0.0065274051563471002 -0.019037231394811491 0 -0.0077955385684415415 -0.025874107475466229 0 0.0033331459884588118 -0.030194488873612049 0 0.019009947802270378 -0.037376391556559731 0 0.0033331459884588118 -0.030194488873612049 0 0.015109010472671644 -0.035826178030800584 0 0.015017819460224147 -0.035804080699448994 0 0.014953807071281263 -0.035806820699618942 0 0.014668190226554089 -0.037468866238258076 0 0.015017819460224147 -0.035804080699448994 0 0.014953807071281263 -0.035806820699618942 0 0.016006478623203521 -0.042694217274320552 0 0.015864942366902626 -0.041135916561973691 0 0.016983610361609541 -0.042208908136197376 0 0.016006478623203521 -0.042694217274320552 0 0.014703967328561907 -0.042312994696849543 0 0.015864942366902626 -0.041135916561973691 0 0.014703967328561907 -0.042312994696849543 0 0.014337536354538716 -0.041061608452265481 0 0.015864942366902626 -0.041135916561973691 0 0.014337536354538716 -0.041061608452265481 0 0.015864942366902626 -0.041135916561973691 0 0.014617091017642679 -0.039667727333170255 0 0.014820470620936062 -0.039926650959694769 0 0.016983610361609541 -0.042208908136197376 0 0.017280041608825406 -0.039076449467480054 0 0.015388533136851091 -0.035989834566515708 0 0.015551182612732308 -0.035806239577194823 0 0.015699852023429349 -0.036166887048482449 0 0.017297006339481478 -0.03889120867419802 0 0.016417112543548131 -0.037600260541094437 0 0.018481290525248693 -0.041626585784454384 0 0.016983610361609541 -0.042208908136197376 0 0.017280041608825406 -0.039076449467480054 0 0.018481290525248693 -0.041626585784454384 0 0.016983610361609541 -0.042208908136197376 0 0.018091587261014539 -0.042984045688921863 0 0.01540143853982281 -0.040552421580560896 0 0.01689742754389132 -0.042112855202489932 0 0.016006478623203521 -0.042694217274320552 0 0.016983610361609541 -0.042208908136197376 0 0.017084784940219998 -0.043241810178066449 0 0.016006478623203521 -0.042694217274320552 0 0.01641324828419834 -0.043859204429221865 0 0.017084784940219998 -0.043241810178066449 0 0.019176322703586619 -0.04362114661756579 0 0.018091587261014539 -0.042984045688921863 0 0.017753439376721442 -0.044696955615788014 0 0.019176322703586619 -0.04362114661756579 0 0.018481290525248693 -0.041626585784454384 0 0.018091587261014539 -0.042984045688921863 0 0.017084784940219998 -0.043241810178066449 0 0.018091587261014539 -0.042984045688921863 0 0.017753439376721442 -0.044696955615788014 0 0.016983610361609541 -0.042208908136197376 0 0.017084784940219998 -0.043241810178066449 0 0.018091587261014539 -0.042984045688921863 0 0.01491360033788942 -0.039149434338502341 0 0.014571417437631597 -0.041730526925952985 0 0.01641324828419834 -0.043859204429221865 0 0.017084784940219998 -0.043241810178066449 0 0.017753439376721442 -0.044696955615788014 0 0.01641324828419834 -0.043859204429221865 0 0.017753439376721442 -0.044696955615788014 0 0.016494277236149008 -0.045761224604633013 0 0.01641324828419834 -0.043859204429221865 0 0.015563400293937614 -0.044662370126338946 0 0.015024127378482032 -0.043682728334884915 0 0.01641324828419834 -0.043859204429221865 0 0.015563400293937614 -0.044662370126338946 0 0.016494277236149008 -0.045761224604633013 0 0.016006478623203521 -0.042694217274320552 0 0.01641324828419834 -0.043859204429221865 0 0.015024127378482032 -0.043682728334884915 0 0.015024127378482032 -0.043682728334884915 0 0.014234301386377962 -0.044952996538692051 0 0.013352219774540987 -0.043455508174822591 0 0.016006478623203521 -0.042694217274320552 0 0.014703967328561907 -0.042312994696849543 0 0.015024127378482032 -0.043682728334884915 0 0.014703967328561907 -0.042312994696849543 0 0.015024127378482032 -0.043682728334884915 0 0.013352219774540987 -0.043455508174822591 0 0.015563400293937614 -0.044662370126338946 0 0.014234301386377962 -0.044952996538692051 0 0.015240146313160469 -0.045642994771737298 0 0.015563400293937614 -0.044662370126338946 0 0.015024127378482032 -0.043682728334884915 0 0.014234301386377962 -0.044952996538692051 0 0.014261044772755558 -0.046341087511654812 0 0.015240146313160469 -0.045642994771737298 0 0.015230524434510577 -0.046811538711943664 0 0.014234301386377962 -0.044952996538692051 0 0.014261044772755558 -0.046341087511654812 0 0.015240146313160469 -0.045642994771737298 0 0.011900077964007083 -0.044953684707950914 0 0.01349600890271972 -0.042400278326975738 0 0.015563400293937614 -0.044662370126338946 0 0.015240146313160469 -0.045642994771737298 0 0.016494277236149008 -0.045761224604633013 0 0.015240146313160469 -0.045642994771737298 0 0.015230524434510577 -0.046811538711943664 0 0.016494277236149008 -0.045761224604633013 0 0.0091798626725384368 -0.040314013144633704 0 0.010234748517976837 -0.03943702258123246 0 0.0104421420280291 -0.041009964322644046 0 0.011900077964007083 -0.044953684707950914 0 0.0087467953858093132 -0.044083965612744518 0 0.011900077964007083 -0.044953684707950914 0 0.011914141253027876 -0.047741582304227086 0 0.013029397305285711 -0.046533478028507665 0 0.013241199182445278 -0.046703053319257774 0 0.012298132483098629 -0.046986867800118848 0 0.014029754641955296 -0.046600159844246473 0 0.011900077964007083 -0.044953684707950914 0 0.012526385346483338 -0.039270470884068744 0 0.011319865647592948 -0.038487644621882491 0 0.01145173066859758 -0.039922212144376946 0 0.014571417437631597 -0.041730526925952985 0 0.01349600890271972 -0.042400278326975738 0 0.011319865647592948 -0.038487644621882491 0 0.010234748517976837 -0.03943702258123246 0 0.01145173066859758 -0.039922212144376946 0 0.010234748517976837 -0.03943702258123246 0 0.01145173066859758 -0.039922212144376946 0 0.0104421420280291 -0.041009964322644046 0 0.01145173066859758 -0.039922212144376946 0 0.011700950247083987 -0.040826917179749449 0 0.0104421420280291 -0.041009964322644046 0 0.012643087813800984 -0.040254667750874384 0 0.01145173066859758 -0.039922212144376946 0 0.011700950247083987 -0.040826917179749449 0 0.011700950247083987 -0.040826917179749449 0 0.01172102284351402 -0.041649745193893348 0 0.0104421420280291 -0.041009964322644046 0 0.012276172473772719 -0.041191967674317487 0 0.011700950247083987 -0.040826917179749449 0 0.01172102284351402 -0.041649745193893348 0 0.0093486824577976128 -0.044328393387025676 0 0.0087467953858093132 -0.044083965612744518 0 0.0061480795958254071 -0.046573863756530956 0 0.0080423320737616037 -0.047571517067530725 0 0.0078406932114818712 -0.046113401524307616 0 0.0080423320737616037 -0.047571517067530725 0 0.0078406932114818712 -0.046113401524307616 0 0.0098036831546408059 -0.046475443414078894 0 0.0078406932114818712 -0.046113401524307616 0 0.0067222061314465113 -0.044999923081729461 0 0.0090207674565486451 -0.044999824587181533 0 0.0054985457751010099 -0.045579841620432 0 0.0061480795958254071 -0.046573863756530956 0 0.0067222061314465113 -0.044999923081729461 0 0.0061480795958254071 -0.046573863756530956 0 0.0078406932114818712 -0.046113401524307616 0 0.0067222061314465113 -0.044999923081729461 0 0.0098036831546408059 -0.046475443414078894 0 0.011319855490436785 -0.044999731211073646 0 0.012298132483098629 -0.046986867800118848 0 0.010180598283528871 -0.048716119203543712 0 0.0098036831546408059 -0.046475443414078894 0 0.012298132483098629 -0.046986867800118848 0 0.010180598283528871 -0.048716119203543712 0 0.0080423320737616037 -0.047571517067530725 0 0.0098036831546408059 -0.046475443414078894 0 0.0078406932114818712 -0.046113401524307616 0 0.0098036831546408059 -0.046475443414078894 0 0.0090207674565486451 -0.044999824587181533 0 0.0098036831546408059 -0.046475443414078894 0 0.0090207674565486451 -0.044999824587181533 0 0.011319855490436785 -0.044999731211073646 0 0.011319855490436785 -0.044999731211073646 0 0.013158328980205376 -0.046154378732628773 0 0.013617871373071499 -0.044999689046842081 0 0.011319855490436785 -0.044999731211073646 0 0.012298132483098629 -0.046986867800118848 0 0.013158328980205376 -0.046154378732628773 0 0.012298132483098629 -0.046986867800118848 0 0.013158328980205376 -0.046154378732628773 0 0.013483553316047217 -0.047024509545814608 0 0.013158328980205376 -0.046154378732628773 0 0.015205671961125255 -0.046368932361807794 0 0.013483553316047217 -0.047024509545814608 0 0.013158328980205376 -0.046154378732628773 0 0.013617871373071499 -0.044999689046842081 0 0.015205671961125255 -0.046368932361807794 0 0.013617871373071499 -0.044999689046842081 0 0.015916161553560043 -0.044999831980527316 0 0.015205671961125255 -0.046368932361807794 0 0.015916161553560043 -0.044999831980527316 0 0.015205671961125255 -0.046368932361807794 0 0.017240424923281619 -0.046324657805045362 0 0.015205671961125255 -0.046368932361807794 0 0.01670995037511664 -0.047306621029695538 0 0.017240424923281619 -0.046324657805045362 0 0.015205671961125255 -0.046368932361807794 0 0.015835499057268755 -0.047388756724553602 0 0.01670995037511664 -0.047306621029695538 0 0.015205671961125255 -0.046368932361807794 0 0.015835499057268755 -0.047388756724553602 0 0.013483553316047217 -0.047024509545814608 0 0.017830475938544695 -0.046980424297496902 0 0.017122909755842956 -0.047799076101744026 0 0.018427020422874522 -0.0476378779281895 0 0.017274820047264546 -0.047171371405571927 0 0.017084769820362146 -0.047795769622678244 0 0.015835499057268755 -0.047388756724553602 0 0.01670995037511664 -0.047306621029695538 0 0.017122909755842956 -0.047799076101744026 0 0.015835499057268755 -0.047388756724553602 0 0.017122909755842956 -0.047799076101744026 0 0.016102664334948009 -0.048039934025649725 0 0.012020758144818882 -0.04555629082680282 0 0.013207272227210748 -0.046002914934366389 0 0.013483553316047217 -0.047024509545814608 0 0.014024297960337336 -0.046685780534297991 0 0.013524508627450759 -0.046868959053430498 0 0.014234301386377962 -0.044952996538692051 0 0.014261044772755558 -0.046341087511654812 0 0.013207272227210748 -0.046002914934366389 0 0.014029754641955296 -0.046600159844246473 0 0.013069257935269326 -0.045993065369364532 0 0.013029397305285711 -0.046533478028507665 0 0.013207272227210748 -0.046002914934366389 0 0.0130099188889128 -0.04673740372671855 0 0.013207272227210748 -0.046002914934366389 0 0.0130099188889128 -0.04673740372671855 0 0.013483553316047217 -0.047024509545814608 0 0.013029397305285711 -0.046533478028507665 0 0.012298132483098629 -0.046986867800118848 0 0.0130099188889128 -0.04673740372671855 0 0.012298132483098629 -0.046986867800118848 0 0.0130099188889128 -0.04673740372671855 0 0.013483553316047217 -0.047024509545814608 0 0.015835499057268755 -0.047388756724553602 0 0.016102664334948009 -0.048039934025649725 0 0.013483553316047217 -0.047024509545814608 0 0.019844519460585772 -0.046480006234400774 0 0.021573550977628798 -0.047496946786517821 0 0.022159902092508676 -0.046284178841987184 0 0.020747366823046544 -0.044999717015393931 0 0.023280730190569372 -0.044999879669657586 0 0.022159902092508676 -0.046284178841987184 0 0.020747366823046544 -0.044999717015393931 0 0.019844519460585772 -0.046480006234400774 0 0.022159902092508676 -0.046284178841987184 0 0.019844519460585772 -0.046480006234400774 0 0.018062244895978897 -0.046158826928564892 0 0.018720936354933094 -0.047089863850901886 0 0.020747366823046544 -0.044999717015393931 0 0.019844519460585772 -0.046480006234400774 0 0.018215940682005681 -0.044999894360567456 0 0.019844519460585772 -0.046480006234400774 0 0.018215940682005681 -0.044999894360567456 0 0.018062244895978897 -0.046158826928564892 0 0.018214278042609673 -0.045000192764072217 0 0.017675855300017675 -0.046192858325776152 0 0.015916161553560043 -0.044999831980527316 0 0.018213701203583205 -0.044999806077232599 0 0.017240424923281619 -0.046324657805045362 0 0.017274820047264546 -0.047171371405571927 0 0.017675855300017675 -0.046192858325776152 0 0.017830475938544695 -0.046980424297496902 0 0.018062244895978897 -0.046158826928564892 0 0.018720936354933094 -0.047089863850901886 0 0.017830475938544695 -0.046980424297496902 0 0.018720936354933094 -0.047089863850901886 0 0.018427020422874522 -0.0476378779281895 0 0.018554176247431286 -0.047634876111538174 0 0.01972034645443389 -0.047409674221169165 0 0.018720936354933094 -0.047089863850901886 0 0.018427020422874522 -0.0476378779281895 0 0.019716184659868068 -0.047810687505906876 0 0.018427020422874522 -0.0476378779281895 0 0.019713651968493142 -0.046983428698773741 0 0.019055030586433621 -0.047751270316726241 0 0.019844519460585772 -0.046480006234400774 0 0.018720936354933094 -0.047089863850901886 0 0.019716184659868068 -0.047810687505906876 0 0.01972034645443389 -0.047409674221169165 0 0.021243790952654312 -0.047276868799591573 0 0.019844519460585772 -0.046480006234400774 0 0.019716184659868068 -0.047810687505906876 0 0.021573550977628798 -0.047496946786517821 0 0.019713651968493142 -0.046983428698773741 0 0.020623198433878897 -0.04738869793068181 0 0.019831156308639117 -0.047606517134748873 0 0.020623198433878897 -0.04738869793068181 0 0.020903734439312292 -0.047068424714285108 0 0.021467359887408881 -0.047663503366767758 0 0.019713651968493142 -0.046983428698773741 0 0.020623198433878897 -0.04738869793068181 0 0.020903734439312292 -0.047068424714285108 0 0.021076942365780636 -0.047351450377510838 0 0.019831156308639117 -0.047606517134748873 0 0.019586787410939523 -0.047871307758889932 0 0.020623198433878897 -0.04738869793068181 0 0.021076942365780636 -0.047351450377510838 0 0.021467359887408881 -0.047663503366767758 0 0.020623198433878897 -0.04738869793068181 0 0.021076942365780636 -0.047351450377510838 0 0.019831156308639117 -0.047606517134748873 0 0.019713651968493142 -0.046983428698773741 0 0.019831156308639117 -0.047606517134748873 0 0.019055030586433621 -0.047751270316726241 0 0.019831156308639117 -0.047606517134748873 0 0.019586787410939523 -0.047871307758889932 0 0.019112309951172132 -0.047965536956174636 0 0.019112309951172132 -0.047965536956174636 0 0.019055030586433621 -0.047751270316726241 0 0.01846805468643585 -0.048109984997954415 0 0.019831156308639117 -0.047606517134748873 0 0.019112309951172132 -0.047965536956174636 0 0.019055030586433621 -0.047751270316726241 0 0.018427020422874522 -0.0476378779281895 0 0.019055030586433621 -0.047751270316726241 0 0.01846805468643585 -0.048109984997954415 0 0.01846805468643585 -0.048109984997954415 0 0.019012521812818983 -0.047765370122381134 0 0.019134989793389668 -0.047755855985134675 0 0.019112309951172132 -0.047965536956174636 0 0.01846805468643585 -0.048109984997954415 0 0.019012521812818983 -0.047765370122381134 0 0.019012521812818983 -0.047765370122381134 0 0.019134989793389668 -0.047755855985134675 0 0.019262902498975797 -0.047109874613929896 0 0.019012521812818983 -0.047765370122381134 0 0.018978150110811789 -0.047086256279552693 0 0.019262902498975797 -0.047109874613929896 0 0.019012521812818983 -0.047765370122381134 0 0.018970079477859954 -0.047703716662912239 0 0.018978150110811789 -0.047086256279552693 0 0.019112309951172132 -0.047965536956174636 0 0.019012521812818983 -0.047765370122381134 0 0.018970079477859954 -0.047703716662912239 0 0.019586787410939523 -0.047871307758889932 0 0.019112309951172132 -0.047965536956174636 0 0.018970079477859954 -0.047703716662912239 0 0.02097857436804474 -0.046241555136316788 0 0.020661156546858728 -0.0446187843853217 0 0.018970079477859954 -0.047703716662912239 0 0.019237961222500762 -0.047905308368491904 0 0.018032041314932253 -0.047111123188423816 0 0.022669956895326974 -0.045003754123988216 0 0.023606698523872933 -0.041818071200997106 0 0.022091514892036316 -0.043186828527995366 0 0.019586787410939523 -0.047871307758889932 0 0.018970079477859954 -0.047703716662912239 0 0.019237961222500762 -0.047905308368491904 0 0.021076942365780636 -0.047351450377510838 0 0.019586787410939523 -0.047871307758889932 0 0.019237961222500762 -0.047905308368491904 0 0.021051552905752592 -0.047149240655372231 0 0.02097857436804474 -0.046241555136316788 0 0.013352219774540987 -0.043455508174822591 0 0.012815239294654963 -0.044667162763418734 0 0.011210045263423238 -0.043268468229290785 0 0.014234301386377962 -0.044952996538692051 0 0.013352219774540987 -0.043455508174822591 0 0.012815239294654963 -0.044667162763418734 0 0.014234301386377962 -0.044952996538692051 0 0.013207272227210748 -0.046002914934366389 0 0.012815239294654963 -0.044667162763418734 0 0.012020758144818882 -0.04555629082680282 0 0.012815239294654963 -0.044667162763418734 0 0.011210045263423238 -0.043268468229290785 0 0.012020758144818882 -0.04555629082680282 0 0.013207272227210748 -0.046002914934366389 0 0.012815239294654963 -0.044667162763418734 0 0.017122909755842956 -0.047799076101744026 0 0.016102664334948009 -0.048039934025649725 0 0.017878562169815652 -0.048208335514503819 0 0.014024297960337336 -0.046685780534297991 0 0.014519873615821325 -0.045696141374500787 0 0.017122909755842956 -0.047799076101744026 0 0.018427020422874522 -0.0476378779281895 0 0.01846805468643585 -0.048109984997954415 0 0.017122909755842956 -0.047799076101744026 0 0.01846805468643585 -0.048109984997954415 0 0.017878562169815652 -0.048208335514503819 0 0.01846805468643585 -0.048109984997954415 0 0.017878562169815652 -0.048208335514503819 0 0.019134989793389668 -0.047755855985134675 0 0.014519873615821325 -0.045696141374500787 0 0.014895634720057192 -0.044327484490103757 0 0.011210045263423238 -0.043268468229290785 0 0.010635175150058077 -0.041062276287043273 0 0.01205341352429609 -0.041800677203655164 0 0.010635175150058077 -0.041062276287043273 0 0.01205341352429609 -0.041800677203655164 0 0.012682920347009461 -0.040263430499611945 0 0.01205341352429609 -0.041800677203655164 0 0.013399055775173935 -0.041950048988484055 0 0.012682920347009461 -0.040263430499611945 0 0.013352219774540987 -0.043455508174822591 0 0.01205341352429609 -0.041800677203655164 0 0.013399055775173935 -0.041950048988484055 0 0.013352219774540987 -0.043455508174822591 0 0.011210045263423238 -0.043268468229290785 0 0.01205341352429609 -0.041800677203655164 0 0.014703967328561907 -0.042312994696849543 0 0.013352219774540987 -0.043455508174822591 0 0.013399055775173935 -0.041950048988484055 0 0.014703967328561907 -0.042312994696849543 0 0.014337536354538716 -0.041061608452265481 0 0.013399055775173935 -0.041950048988484055 0 0.014337536354538716 -0.041061608452265481 0 0.013399055775173935 -0.041950048988484055 0 0.012682920347009461 -0.040263430499611945 0 0.014337536354538716 -0.041061608452265481 0 0.012682920347009461 -0.040263430499611945 0 0.014617091017642679 -0.039667727333170255 0 0.013171263014134503 -0.03799736585819391 0 0.012682920347009461 -0.040263430499611945 0 0.014617091017642679 -0.039667727333170255 0 0.013211691659241217 -0.038024932121610143 0 0.014180587370532434 -0.038997729290547123 0 0.013171263014134503 -0.03799736585819391 0 0.012682920347009461 -0.040263430499611945 0 0.011617494394937158 -0.038832065050239256 0 0.010635175150058077 -0.041062276287043273 0 0.012682920347009461 -0.040263430499611945 0 0.011617494394937158 -0.038832065050239256 0 0.010635175150058077 -0.041062276287043273 0 0.01019890742312754 -0.039082691183411351 0 0.011617494394937158 -0.038832065050239256 0 0.014895634720057192 -0.044327484490103757 0 0.014755681111474019 -0.042764085162494997 0 0.019134989793389668 -0.047755855985134675 0 0.01982056141742166 -0.046162444815260217 0 0.019262902498975797 -0.047109874613929896 0 0.01019890742312754 -0.039082691183411351 0 0.011617494394937158 -0.038832065050239256 0 0.010914665482316519 -0.0377204648401923 0 0.011617494394937158 -0.038832065050239256 0 0.010914665482316519 -0.0377204648401923 0 0.012385108150133344 -0.03711185452154827 0 0.01019890742312754 -0.039082691183411351 0 0.010914665482316519 -0.0377204648401923 0 0.0097190455871878426 -0.037342477077533368 0 0.013613760629398328 -0.034378370888447744 0 0.016210204615354315 -0.040046526657514216 0 0.018103533557653664 -0.032831188503938208 0 0.012548643071222491 -0.036047481783375336 0 0.014262293148244799 -0.029695358484580686 0 0.010914665482316519 -0.0377204648401923 0 0.011215709765589407 -0.036321051781982812 0 0.0097190455871878426 -0.037342477077533368 0 0.010914665482316519 -0.0377204648401923 0 0.011215709765589407 -0.036321051781982812 0 0.012385108150133344 -0.03711185452154827 0 0.011215709765589407 -0.036321051781982812 0 0.01252743955180048 -0.036278589905415826 0 0.012385108150133344 -0.03711185452154827 0 0.01252743955180048 -0.036278589905415826 0 0.013401403499577099 -0.036176735035496316 0 0.012385108150133344 -0.03711185452154827 0 0.013401403499577099 -0.036176735035496316 0 0.013832221250478727 -0.036929725852144303 0 0.014006982812020419 -0.036145865911508507 0 0.013401403499577099 -0.036176735035496316 0 0.013832221250478727 -0.036929725852144303 0 0.012385108150133344 -0.03711185452154827 0 0.013171263014134503 -0.03799736585819391 0 0.013832221250478727 -0.036929725852144303 0 0.014379180645696739 -0.037261764261743491 0 0.013171263014134503 -0.03799736585819391 0 0.011617494394937158 -0.038832065050239256 0 0.012385108150133344 -0.03711185452154827 0 0.013171263014134503 -0.03799736585819391 0 0.013832221250478727 -0.036929725852144303 0 0.012385108150133344 -0.03711185452154827 0 0.01700426989336273 -0.045586396566671884 0 0.018032041314932253 -0.047111123188423816 0 0.018395474947321216 -0.04650961505834994 0 0.023971004480147769 -0.038651045640064427 0 0.023606698523872933 -0.041818071200997106 0 0.022837641025500302 -0.040052559677645483 0 0.02184805652810283 -0.040999056568174215 0 0.020661156546858728 -0.0446187843853217 0 0.02184805652810283 -0.040999056568174215 0 0.023542561397219115 -0.039135209007973473 0 0.018970079477859954 -0.047703716662912239 0 0.018032041314932253 -0.047111123188423816 0 0.018395474947321216 -0.04650961505834994 0 0.018970079477859954 -0.047703716662912239 0 0.018395474947321216 -0.04650961505834994 0 0.018978150110811789 -0.047086256279552693 0 0.01700426989336273 -0.045586396566671884 0 0.018395474947321216 -0.04650961505834994 0 0.018647219396342812 -0.044928253331302681 0 0.018395474947321216 -0.04650961505834994 0 0.019195722195264379 -0.045974840242380965 0 0.018647219396342812 -0.044928253331302681 0 0.018395474947321216 -0.04650961505834994 0 0.019195722195264379 -0.045974840242380965 0 0.018978150110811789 -0.047086256279552693 0 0.019195722195264379 -0.045974840242380965 0 0.018978150110811789 -0.047086256279552693 0 0.019262902498975797 -0.047109874613929896 0 0.01982056141742166 -0.046162444815260217 0 0.019195722195264379 -0.045974840242380965 0 0.019262902498975797 -0.047109874613929896 0 0.01982056141742166 -0.046162444815260217 0 0.019195722195264379 -0.045974840242380965 0 0.01958274880405006 -0.044521405278721622 0 0.014755681111474019 -0.042764085162494997 0 0.016210204615354315 -0.040046526657514216 0 0.016210204615354315 -0.040046526657514216 0 0.018643612656905138 -0.030917014807835531 0 0.023607632978917898 -0.042136642415514597 0 0.018228218076376607 -0.041641423282636723 0 0.021613813166692031 -0.036278937243142177 0 0.016210204615354315 -0.040046526657514216 0 0.020757598206892425 -0.045578949557456651 0 0.019195722195264379 -0.045974840242380965 0 0.01958274880405006 -0.044521405278721622 0 0.018647219396342812 -0.044928253331302681 0 0.023607632978917898 -0.042136642415514597 0 0.018647219396342812 -0.044928253331302681 0 0.018228218076376607 -0.041641423282636723 0 0.01700426989336273 -0.045586396566671884 0 0.018647219396342812 -0.044928253331302681 0 0.018228218076376607 -0.041641423282636723 0 0.02184805652810283 -0.040999056568174215 0 0.023325893019148336 -0.038953387830094145 0 0.026702642306475868 -0.035209703108593032 0 0.024086272201693626 -0.034376968478531396 0 0.025275297279924759 -0.033079147043646777 0 0.024086272201693626 -0.034376968478531396 0 0.024242886370674895 -0.036799151217253474 0 0.022599265131045813 -0.035691587980635597 0 0.026702642306475868 -0.035209703108593032 0 0.024086272201693626 -0.034376968478531396 0 0.024242886370674895 -0.036799151217253474 0 0.024107297195481388 -0.038520361679500528 0 0.026702642306475868 -0.035209703108593032 0 0.024242886370674895 -0.036799151217253474 0 0.024242886370674895 -0.036799151217253474 0 0.022902034327859099 -0.037337423139230504 0 0.022599265131045813 -0.035691587980635597 0 0.02184805652810283 -0.040999056568174215 0 0.023713691332711527 -0.036600422779404826 0 0.024120551592531007 -0.038482613233039704 0 0.024242886370674895 -0.036799151217253474 0 0.022902034327859099 -0.037337423139230504 0 0.025096240533558072 -0.031053601994717354 0 0.023545714657471864 -0.028911706880460335 0 0.022249389089792911 -0.0307277215098135 0 0.025096240533558072 -0.031053601994717354 0 0.025896384871985308 -0.028797659625237081 0 0.023545714657471864 -0.028911706880460335 0 0.025096240533558072 -0.031053601994717354 0 0.023583426146009563 -0.032299028104482617 0 0.022249389089792911 -0.0307277215098135 0 0.024086272201693626 -0.034376968478531396 0 0.023583426146009563 -0.032299028104482617 0 0.022176988343220714 -0.033513342943300377 0 0.024086272201693626 -0.034376968478531396 0 0.023583426146009563 -0.032299028104482617 0 0.025275297279924759 -0.033079147043646777 0 0.025096240533558072 -0.031053601994717354 0 0.023583426146009563 -0.032299028104482617 0 0.025275297279924759 -0.033079147043646777 0 0.026702642306475868 -0.035209703108593032 0 0.025275297279924759 -0.033079147043646777 0 0.026914063221928759 -0.032456946672220974 0 0.025096240533558072 -0.031053601994717354 0 0.025275297279924759 -0.033079147043646777 0 0.026914063221928759 -0.032456946672220974 0 0.025096240533558072 -0.031053601994717354 0 0.026914063221928759 -0.032456946672220974 0 0.027054767991501465 -0.030408528784511103 0 0.025096240533558072 -0.031053601994717354 0 0.027054767991501465 -0.030408528784511103 0 0.025896384871985308 -0.028797659625237081 0 0.018643612656905138 -0.030917014807835531 0 0.019629938027262185 -0.025464724763652625 0 0.027054767991501465 -0.030408528784511103 0 0.029283942209793249 -0.0318426925444424 0 0.027946633075566451 -0.027769983244659732 0 0.011613813999551224 -0.02729125848624215 0 0.012772680485201736 -0.025689041791687718 0 0.010642573845379982 -0.023618169119614608 0 0.026914063221928759 -0.032456946672220974 0 0.027054767991501465 -0.030408528784511103 0 0.029283942209793249 -0.0318426925444424 0 0.026702642306475868 -0.035209703108593032 0 0.026914063221928759 -0.032456946672220974 0 0.029283942209793249 -0.0318426925444424 0 0.023325893019148336 -0.038953387830094145 0 0.018643612656905138 -0.030917014807835531 0 0.012548643071222491 -0.036047481783375336 0 0.01011661433097015 -0.029210834864463266 0 0.014262293148244799 -0.029695358484580686 0 0.01011661433097015 -0.029210834864463266 0 0.014262293148244799 -0.029695358484580686 0 0.012772680485201736 -0.025689041791687718 0 0.014262293148244799 -0.029695358484580686 0 0.012772680485201736 -0.025689041791687718 0 0.014958013605427242 -0.02644032416665042 0 0.018643612656905138 -0.030917014807835531 0 0.012102552466394261 -0.026784299765571583 0 0.012772680485201736 -0.025689041791687718 0 0.014958013605427242 -0.02644032416665042 0 0.014000950306074018 -0.024095659889507643 0 0.012394244312656703 -0.023664424939901139 0 0.01306549377418452 -0.022250644718582069 0 0.014000950306074018 -0.024095659889507643 0 0.012497919989835914 -0.020412331285240781 0 0.013820768299900262 -0.023780890513105099 0 0.012772680485201736 -0.025689041791687718 0 0.012394244312656703 -0.023664424939901139 0 0.014000950306074018 -0.024095659889507643 0 0.01306549377418452 -0.022250644718582069 0 0.011878933663280996 -0.021655289319571724 0 0.012413595895753048 -0.020137518789562298 0 0.012394244312656703 -0.023664424939901139 0 0.01306549377418452 -0.022250644718582069 0 0.011779578994685538 -0.022731668783708279 0 0.01306549377418452 -0.022250644718582069 0 0.011779578994685538 -0.022731668783708279 0 0.011878933663280996 -0.021655289319571724 0 0.011779578994685538 -0.022731668783708279 0 0.011878933663280996 -0.021655289319571724 0 0.010868391175567635 -0.022397989177565063 0 0.011878933663280996 -0.021655289319571724 0 0.010868391175567635 -0.022397989177565063 0 0.011276393787438013 -0.020710075132860332 0 0.011779578994685538 -0.022731668783708279 0 0.010868391175567635 -0.022397989177565063 0 0.010642573845379982 -0.023618169119614608 0 0.012394244312656703 -0.023664424939901139 0 0.011779578994685538 -0.022731668783708279 0 0.010642573845379982 -0.023618169119614608 0 0.012772680485201736 -0.025689041791687718 0 0.012394244312656703 -0.023664424939901139 0 0.010642573845379982 -0.023618169119614608 0 0.027054767991501465 -0.030408528784511103 0 0.027946633075566451 -0.027769983244659732 0 0.025896384871985308 -0.028797659625237081 0 0.025896384871985308 -0.028797659625237081 0 0.026403448321420529 -0.027398393744480044 0 0.024523740060671425 -0.0273538589582661 0 0.027946633075566451 -0.027769983244659732 0 0.026403448321420529 -0.027398393744480044 0 0.026428899289295767 -0.025894046230357591 0 0.027946633075566451 -0.027769983244659732 0 0.025896384871985308 -0.028797659625237081 0 0.026403448321420529 -0.027398393744480044 0 0.019629938027262185 -0.025464724763652625 0 0.017975801332872757 -0.02237719562702202 0 0.010868391175567635 -0.022397989177565063 0 0.010642573845379982 -0.023618169119614608 0 0.010332790893329112 -0.020997367589783253 0 0.027946633075566451 -0.027769983244659732 0 0.026428899289295767 -0.025894046230357591 0 0.026644086250422531 -0.023524421918635904 0 0.025584680077777266 -0.024568884277591917 0 0.026428899289295767 -0.025894046230357591 0 0.026644086250422531 -0.023524421918635904 0 0.025584680077777266 -0.024568884277591917 0 0.026428899289295767 -0.025894046230357591 0 0.025110514360878525 -0.025856496920397924 0 0.026403448321420529 -0.027398393744480044 0 0.026428899289295767 -0.025894046230357591 0 0.025110514360878525 -0.025856496920397924 0 0.025110514360878525 -0.025856496920397924 0 0.023366608872015762 -0.025573522406747384 0 0.024523740060671425 -0.0273538589582661 0 0.026403448321420529 -0.027398393744480044 0 0.025110514360878525 -0.025856496920397924 0 0.024523740060671425 -0.0273538589582661 0 0.025584680077777266 -0.024568884277591917 0 0.025110514360878525 -0.025856496920397924 0 0.024307643987445154 -0.024295323412592218 0 0.025110514360878525 -0.025856496920397924 0 0.023366608872015762 -0.025573522406747384 0 0.024307643987445154 -0.024295323412592218 0 0.023366608872015762 -0.025573522406747384 0 0.024523740060671425 -0.0273538589582661 0 0.022777840005138984 -0.027139017537800646 0 0.025896384871985308 -0.028797659625237081 0 0.024523740060671425 -0.0273538589582661 0 0.023545714657471864 -0.028911706880460335 0 0.024523740060671425 -0.0273538589582661 0 0.023545714657471864 -0.028911706880460335 0 0.022777840005138984 -0.027139017537800646 0 0.022764236759289326 -0.026986993605665487 0 0.024429977698869728 -0.026214240969724342 0 0.023443020393190531 -0.029804840100279877 0 0.024429977698869728 -0.026214240969724342 0 0.026130293690195604 -0.02607399083415304 0 0.023443020393190531 -0.029804840100279877 0 0.022764236759289326 -0.026986993605665487 0 0.023443020393190531 -0.029804840100279877 0 0.020195779209095571 -0.027094822803986746 0 0.022764236759289326 -0.026986993605665487 0 0.022942885231621076 -0.024820969199362074 0 0.020195779209095571 -0.027094822803986746 0 0.022764236759289326 -0.026986993605665487 0 0.022942885231621076 -0.024820969199362074 0 0.024429977698869728 -0.026214240969724342 0 0.022942885231621076 -0.024820969199362074 0 0.024429977698869728 -0.026214240969724342 0 0.025587113245413611 -0.02407988671429551 0 0.024429977698869728 -0.026214240969724342 0 0.026130293690195604 -0.02607399083415304 0 0.025587113245413611 -0.02407988671429551 0 0.026130293690195604 -0.02607399083415304 0 0.026371577240631692 -0.027138550447430403 0 0.023443020393190531 -0.029804840100279877 0 0.026371577240631692 -0.027138550447430403 0 0.023443020393190531 -0.029804840100279877 0 0.028205673912569014 -0.027060076314969064 0 0.026130293690195604 -0.02607399083415304 0 0.027664371257476811 -0.025712713973874184 0 0.026371577240631692 -0.027138550447430403 0 0.026130293690195604 -0.02607399083415304 0 0.027664371257476811 -0.025712713973874184 0 0.027566519979519387 -0.024337720551343537 0 0.027664371257476811 -0.025712713973874184 0 0.026371577240631692 -0.027138550447430403 0 0.028205673912569014 -0.027060076314969064 0 0.013401403499577099 -0.036176735035496316 0 0.012806537728546664 -0.035368553518666725 0 0.014835722904591942 -0.034338515954832026 0 0.018853878745256823 -0.032236298196494512 0 0.019073926402844811 -0.032621428110029466 0 0.013401403499577099 -0.036176735035496316 0 0.014159865738285968 -0.03539676796113897 0 0.014006982812020419 -0.036145865911508507 0 0.011862551250778767 -0.037340650610385752 0 0.019073926402844811 -0.032621428110029466 0 0.01252743955180048 -0.036278589905415826 0 0.013401403499577099 -0.036176735035496316 0 0.012806537728546664 -0.035368553518666725 0 0.018103533557653664 -0.032831188503938208 0 0.023443020393190531 -0.029804840100279877 0 0.020195779209095571 -0.027094822803986746 0 0.018103533557653664 -0.032831188503938208 0 0.016927229623661746 -0.028039323585478476 0 0.020195779209095571 -0.027094822803986746 0 0.011215709765589407 -0.036321051781982812 0 0.01252743955180048 -0.036278589905415826 0 0.012806537728546664 -0.035368553518666725 0 0.013613760629398328 -0.034378370888447744 0 0.018853878745256823 -0.032236298196494512 0 0.018103533557653664 -0.032831188503938208 0 0.014262293148244799 -0.029695358484580686 0 0.016927229623661746 -0.028039323585478476 0 0.014262293148244799 -0.029695358484580686 0 0.016927229623661746 -0.028039323585478476 0 0.014958013605427242 -0.02644032416665042 0 0.016927229623661746 -0.028039323585478476 0 0.017018917276020066 -0.024961632374736243 0 0.014958013605427242 -0.02644032416665042 0 0.017018917276020066 -0.024961632374736243 0 0.014958013605427242 -0.02644032416665042 0 0.014000950306074018 -0.024095659889507643 0 0.022942885231621076 -0.024820969199362074 0 0.020195779209095571 -0.027094822803986746 0 0.019681771094155896 -0.022146715349896085 0 0.017018917276020066 -0.024961632374736243 0 0.020195779209095571 -0.027094822803986746 0 0.019681771094155896 -0.022146715349896085 0 0.016927229623661746 -0.028039323585478476 0 0.017018917276020066 -0.024961632374736243 0 0.020195779209095571 -0.027094822803986746 0 0.011753746888277725 -0.018478837320791829 0 0.014000950306074018 -0.024095659889507643 0 0.016427714340292089 -0.021705275194740258 0 0.017018917276020066 -0.024961632374736243 0 0.014000950306074018 -0.024095659889507643 0 0.016427714340292089 -0.021705275194740258 0 0.017018917276020066 -0.024961632374736243 0 0.019681771094155896 -0.022146715349896085 0 0.016427714340292089 -0.021705275194740258 0 0.019681771094155896 -0.022146715349896085 0 0.016427714340292089 -0.021705275194740258 0 0.016752721395548537 -0.017766695008911548 0 0.011753746888277725 -0.018478837320791829 0 0.016427714340292089 -0.021705275194740258 0 0.016752721395548537 -0.017766695008911548 0 0.011753746888277725 -0.018478837320791829 0 0.016752721395548537 -0.017766695008911548 0 0.013928832264152089 -0.014681982219652227 0 0.019681771094155896 -0.022146715349896085 0 0.016752721395548537 -0.017766695008911548 0 0.020838882864935189 -0.017695430838834444 0 0.016752721395548537 -0.017766695008911548 0 0.020838882864935189 -0.017695430838834444 0 0.01767655864370225 -0.012806769825064131 0 0.019681771094155896 -0.022146715349896085 0 0.020838882864935189 -0.017695430838834444 0 0.02481230318876905 -0.020537721443774738 0 0.020838882864935189 -0.017695430838834444 0 0.02481230318876905 -0.020537721443774738 0 0.024402026514401282 -0.014820807716229354 0 0.022942885231621076 -0.024820969199362074 0 0.019681771094155896 -0.022146715349896085 0 0.024240044102868192 -0.022108265282043533 0 0.020122003470436384 -0.022059211088193201 0 0.024020369913893301 -0.021424009087295352 0 0.022942885231621076 -0.024820969199362074 0 0.024240044102868192 -0.022108265282043533 0 0.025587113245413611 -0.02407988671429551 0 0.024020369913893301 -0.021424009087295352 0 0.029953752323137 -0.019914213120717759 0 0.024240044102868192 -0.022108265282043533 0 0.025587113245413611 -0.02407988671429551 0 0.028303037102417959 -0.021836743104276982 0 0.026130293690195604 -0.02607399083415304 0 0.027566519979519387 -0.024337720551343537 0 0.025587113245413611 -0.02407988671429551 0 0.027566519979519387 -0.024337720551343537 0 0.025587113245413611 -0.02407988671429551 0 0.028303037102417959 -0.021836743104276982 0 0.02481230318876905 -0.020537721443774738 0 0.026880711617107093 -0.017726051109935869 0 0.028704989002523974 -0.019298091986948609 0 0.02481230318876905 -0.020537721443774738 0 0.026880711617107093 -0.017726051109935869 0 0.024402026514401282 -0.014820807716229354 0 0.030320960072556753 -0.017891496042276696 0 0.028704989002523974 -0.019298091986948609 0 0.029176753936038764 -0.016307059825300448 0 0.030320960072556753 -0.017891496042276696 0 0.028704989002523974 -0.019298091986948609 0 0.031603265141169824 -0.018613024896531442 0 0.026880711617107093 -0.017726051109935869 0 0.028704989002523974 -0.019298091986948609 0 0.029176753936038764 -0.016307059825300448 0 0.029953752323137 -0.019914213120717759 0 0.025016188755099464 -0.027524441011586305 0 0.030320960072556753 -0.017891496042276696 0 0.032635899783120946 -0.017125273339305833 0 0.029176753936038764 -0.016307059825300448 0 0.030320960072556753 -0.017891496042276696 0 0.031603265141169824 -0.018613024896531442 0 0.032635899783120946 -0.017125273339305833 0 0.025016188755099464 -0.027524441011586305 0 0.022409167164219861 -0.021854979986560445 0 0.017219974581826652 -0.035266933591425617 0 0.016748824073785078 -0.035406380808347557 0 0.016859197483767106 -0.035666826376663893 0 0.025016188755099464 -0.027524441011586305 0 0.015083655528057341 -0.033649568615181646 0 0.017007016511170776 -0.035384660134763102 0 0.016808023858873273 -0.03527153513231325 0 0.016748824073785078 -0.035406380808347557 0 0.017007016511170776 -0.035384660134763102 0 0.016981152315334282 -0.035155060305577114 0 0.016808023858873273 -0.03527153513231325 0 0.016981152315334282 -0.035155060305577114 0 0.016743209321886075 -0.03508799597073782 0 0.016808023858873273 -0.03527153513231325 0 0.025016188755099464 -0.027524441011586305 0 0.024019745938316756 -0.029221477317773706 0 0.017007016511170776 -0.035384660134763102 0 0.016981152315334282 -0.035155060305577114 0 0.017300780778035096 -0.035056594176589448 0 0.016981152315334282 -0.035155060305577114 0 0.017300780778035096 -0.035056594176589448 0 0.017030581598529923 -0.034959028467517826 0 0.016981152315334282 -0.035155060305577114 0 0.017030581598529923 -0.034959028467517826 0 0.016743209321886075 -0.03508799597073782 0 0.028303037102417959 -0.021836743104276982 0 0.031881441962499819 -0.021415112995736348 0 0.030083750262687094 -0.024045257811742052 0 0.028303037102417959 -0.021836743104276982 0 0.030083750262687094 -0.024045257811742052 0 0.028616622415336784 -0.02460016316588327 0 0.027566519979519387 -0.024337720551343537 0 0.028303037102417959 -0.021836743104276982 0 0.028616622415336784 -0.02460016316588327 0 0.027664371257476811 -0.025712713973874184 0 0.027566519979519387 -0.024337720551343537 0 0.028616622415336784 -0.02460016316588327 0 0.024019745938316756 -0.029221477317773706 0 0.019073926402844811 -0.032621428110029466 0 0.030083750262687094 -0.024045257811742052 0 0.028616622415336784 -0.02460016316588327 0 0.028205673912569014 -0.027060076314969064 0 0.027664371257476811 -0.025712713973874184 0 0.028616622415336784 -0.02460016316588327 0 0.028205673912569014 -0.027060076314969064 0 0.017300780778035096 -0.035056594176589448 0 0.017638683162704182 -0.034630001829457115 0 0.017589974835489231 -0.03465131778540164 0 0.014159865738285968 -0.03539676796113897 0 0.014220559216530966 -0.035377857344700711 0 0.014322130269497368 -0.035829699937299508 0 0.019073926402844811 -0.032621428110029466 0 0.017085995948873337 -0.033851005693076384 0 0.017085995948873337 -0.033851005693076384 0 0.017210924600103678 -0.034244931066214887 0 0.017300780778035096 -0.035056594176589448 0 0.017589974835489231 -0.03465131778540164 0 0.0173679655878511 -0.034753218127528372 0 0.0173679655878511 -0.034753218127528372 0 0.017030581598529923 -0.034959028467517826 0 0.016717445138682622 -0.034712458861942116 0 0.017566825216695618 -0.034630884585943628 0 0.0173679655878511 -0.034753218127528372 0 0.016717445138682622 -0.034712458861942116 0 0.017085995948873337 -0.033851005693076384 0 0.015658795129962686 -0.035349419837359786 0 0.017300780778035096 -0.035056594176589448 0 0.0173679655878511 -0.034753218127528372 0 0.017030581598529923 -0.034959028467517826 0 0.014220559216530966 -0.035377857344700711 0 0.014855998871685551 -0.035900158522442015 0 0.015153301228773983 -0.035655657872202144 0 0.017030581598529923 -0.034959028467517826 0 0.016717445138682622 -0.034712458861942116 0 0.016743209321886075 -0.03508799597073782 0 0.014220559216530966 -0.035377857344700711 0 0.014855998871685551 -0.035900158522442015 0 0.014322130269497368 -0.035829699937299508 0 0.014159865738285968 -0.03539676796113897 0 0.014322130269497368 -0.035829699937299508 0 0.014006982812020419 -0.036145865911508507 0 0.014855998871685551 -0.035900158522442015 0 0.014322130269497368 -0.035829699937299508 0 0.01445945531426983 -0.036358186109191427 0 0.014322130269497368 -0.035829699937299508 0 0.01445945531426983 -0.036358186109191427 0 0.014006982812020419 -0.036145865911508507 0 0.015486201680888542 -0.035822707868031739 0 0.015338067267008071 -0.03609858666486724 0 0.015502593238411565 -0.036213764825243633 0 0.015153301228773983 -0.035655657872202144 0 0.015486201680888542 -0.035822707868031739 0 0.015338067267008071 -0.03609858666486724 0 0.014855998871685551 -0.035900158522442015 0 0.015153301228773983 -0.035655657872202144 0 0.015338067267008071 -0.03609858666486724 0 0.016717445138682622 -0.034712458861942116 0 0.016322486998225146 -0.035165219760503803 0 0.016743209321886075 -0.03508799597073782 0 0.015658795129962686 -0.035349419837359786 0 0.015814788332221573 -0.035376708245322963 0 0.016717445138682622 -0.034712458861942116 0 0.016322486998225146 -0.035165219760503803 0 0.015969047776544901 -0.034974707807540681 0 0.016322486998225146 -0.035165219760503803 0 0.01599636005849182 -0.035384691042509429 0 0.015969047776544901 -0.034974707807540681 0 0.016322486998225146 -0.035165219760503803 0 0.016561538774943565 -0.035298222125236589 0 0.016271671159982043 -0.035374960305827083 0 0.016322486998225146 -0.035165219760503803 0 0.016271671159982043 -0.035374960305827083 0 0.01599636005849182 -0.035384691042509429 0 0.016322486998225146 -0.035165219760503803 0 0.016743209321886075 -0.03508799597073782 0 0.016561538774943565 -0.035298222125236589 0 0.016743209321886075 -0.03508799597073782 0 0.016561538774943565 -0.035298222125236589 0 0.016808023858873273 -0.03527153513231325 0 0.015711028340942172 -0.025172820846371541 0 0.022409167164219861 -0.021854979986560445 0 0.016455080669515176 -0.035481925091332286 0 0.016155143450080088 -0.035584012405359321 0 0.016859197483767106 -0.035666826376663893 0 0.016561538774943565 -0.035298222125236589 0 0.016808023858873273 -0.03527153513231325 0 0.016748824073785078 -0.035406380808347557 0 0.016561538774943565 -0.035298222125236589 0 0.016455080669515176 -0.035481925091332286 0 0.016271671159982043 -0.035374960305827083 0 0.016561538774943565 -0.035298222125236589 0 0.016748824073785078 -0.035406380808347557 0 0.016455080669515176 -0.035481925091332286 0 0.016748824073785078 -0.035406380808347557 0 0.016455080669515176 -0.035481925091332286 0 0.016859197483767106 -0.035666826376663893 0 0.016271671159982043 -0.035374960305827083 0 0.016155143450080088 -0.035584012405359321 0 0.01599636005849182 -0.035384691042509429 0 0.016455080669515176 -0.035481925091332286 0 0.016271671159982043 -0.035374960305827083 0 0.016155143450080088 -0.035584012405359321 0 0.012287852922488173 -0.023739832372978956 0 0.011766561310324984 -0.023705874031285851 0 0.011854574711683595 -0.023833551293947638 0 0.015711028340942172 -0.025172820846371541 0 0.01177751052834416 -0.024126395865021549 0 0.016155143450080088 -0.035584012405359321 0 0.015716062107592944 -0.035405162621573526 0 0.01599636005849182 -0.035384691042509429 0 0.013903294477717688 -0.024948108236143466 0 0.012923374891490633 -0.024797204758676486 0 0.012951248317212453 -0.024426579752503525 0 0.015711028340942172 -0.025172820846371541 0 0.014092135137558415 -0.030569233232557811 0 0.012923374891490633 -0.024797204758676486 0 0.012951248317212453 -0.024426579752503525 0 0.012142070569902462 -0.024558829179112923 0 0.011766561310324984 -0.023705874031285851 0 0.011723081837569021 -0.023847073587462846 0 0.011854574711683595 -0.023833551293947638 0 0.011766561310324984 -0.023705874031285851 0 0.011583370332006741 -0.023836940030663372 0 0.011723081837569021 -0.023847073587462846 0 0.015716062107592944 -0.035405162621573526 0 0.01555458744960001 -0.035431696978123699 0 0.015703678910732738 -0.035310239425496923 0 0.014092135137558415 -0.030569233232557811 0 0.015335408704601398 -0.030104227586419986 0 0.015716062107592944 -0.035405162621573526 0 0.01599636005849182 -0.035384691042509429 0 0.015703678910732738 -0.035310239425496923 0 0.011724365383547791 -0.02414182760847541 0 0.012142070569902462 -0.024558829179112923 0 0.011861509642738133 -0.024195108633049241 0 0.01167627148802786 -0.023834030797380279 0 0.011724365383547791 -0.02414182760847541 0 0.01151737672269927 -0.023857552563249868 0 0.011701893638212824 -0.02414945380442832 0 0.011997520170091947 -0.024227334718638811 0 0.011766561310324984 -0.023705874031285851 0 0.01151737672269927 -0.023857552563249868 0 0.011583370332006741 -0.023836940030663372 0 0.01177751052834416 -0.024126395865021549 0 0.011997520170091947 -0.024227334718638811 0 0.012951248317212453 -0.024426579752503525 0 0.012142070569902462 -0.024558829179112923 0 0.012199594600139923 -0.024068481885843464 0 0.012142070569902462 -0.024558829179112923 0 0.011861509642738133 -0.024195108633049241 0 0.012199594600139923 -0.024068481885843464 0 0.011724630270711463 -0.023957135050173488 0 0.011861509642738133 -0.024195108633049241 0 0.012199594600139923 -0.024068481885843464 0 0.0065325597447372374 -0.02861035842205947 0 0.015335408704601398 -0.030104227586419986 0 0.015620408068777557 -0.035534706827446132 0 0.01555458744960001 -0.035431696978123699 0 0.015559886045220387 -0.035639585519409392 0 0.01555458744960001 -0.035431696978123699 0 0.015559886045220387 -0.035639585519409392 0 0.015553734210177342 -0.035559559919413487 0 0.015559886045220387 -0.035639585519409392 0 0.015553734210177342 -0.035559559919413487 0 0.01548178435674433 -0.035937418889662044 0 0.015620408068777557 -0.035534706827446132 0 0.015559886045220387 -0.035639585519409392 0 0.015553875399618892 -0.035813446655636308 0 0.01599636005849182 -0.035384691042509429 0 0.015969047776544901 -0.034974707807540681 0 0.015703678910732738 -0.035310239425496923 0 0.01555458744960001 -0.035431696978123699 0 0.015703678910732738 -0.035310239425496923 0 0.015553734210177342 -0.035559559919413487 0 0.015814788332221573 -0.035376708245322963 0 0.015576525834086851 -0.035544293391468591 0 0.015969047776544901 -0.034974707807540681 0 0.015703678910732738 -0.035310239425496923 0 0.015553734210177342 -0.035559559919413487 0 0.015486201680888542 -0.035822707868031739 0 0.015553734210177342 -0.035559559919413487 0 0.015491352526671297 -0.035946218655730937 0 0.015553734210177342 -0.035559559919413487 0 0.015491352526671297 -0.035946218655730937 0 0.01548178435674433 -0.035937418889662044 0 0.015486201680888542 -0.035822707868031739 0 0.015491352526671297 -0.035946218655730937 0 0.015502593238411565 -0.036213764825243633 0 0.015491352526671297 -0.035946218655730937 0 0.015465552758193758 -0.036203537863783504 0 0.015502593238411565 -0.036213764825243633 0 0.015491352526671297 -0.035946218655730937 0 0.015465552758193758 -0.036203537863783504 0 0.01548178435674433 -0.035937418889662044 0 0.015465552758193758 -0.036203537863783504 0 0.01548178435674433 -0.035937418889662044 0 0.015340043056544255 -0.036102398945442073 0 0.015465552758193758 -0.036203537863783504 0 0.015529144624648245 -0.03650894330669896 0 0.015502593238411565 -0.036213764825243633 0 0.015559886045220387 -0.035639585519409392 0 0.015553875399618892 -0.035813446655636308 0 0.01548178435674433 -0.035937418889662044 0 0.01548178435674433 -0.035937418889662044 0 0.015348683304366775 -0.036011048491328398 0 0.015340043056544255 -0.036102398945442073 0 0.0034794496177216563 -0.029711167030809869 0 0.0039985872967825175 -0.028851718201543811 0 0.015553875399618892 -0.035813446655636308 0 0.01548178435674433 -0.035937418889662044 0 0.015348683304366775 -0.036011048491328398 0 0.0039985872967825175 -0.028851718201543811 0 0.00426100936586682 -0.027484394925694999 0 -0.0085988523627197524 -0.020798008120106133 0 -0.00738660518740843 -0.021614211142458935 0 -0.0069755517543157869 -0.020336743574826392 0 0.015348683304366775 -0.036011048491328398 0 0.015340043056544255 -0.036102398945442073 0 0.015124783178647547 -0.03590152460223256 0 0.015340043056544255 -0.036102398945442073 0 0.015124783178647547 -0.03590152460223256 0 0.015215861659273246 -0.035983631076289629 0 0.015465552758193758 -0.036203537863783504 0 0.015363351779748648 -0.036187392928926677 0 0.015529144624648245 -0.03650894330669896 0 0.015465552758193758 -0.036203537863783504 0 0.015340043056544255 -0.036102398945442073 0 0.015363351779748648 -0.036187392928926677 0 0.015248765660006785 -0.03596866346187811 0 0.015215861659273246 -0.035983631076289629 0 0.015363351779748648 -0.036187392928926677 0 0.015340043056544255 -0.036102398945442073 0 0.015215861659273246 -0.035983631076289629 0 0.015363351779748648 -0.036187392928926677 0 0.015388533136851091 -0.035989834566515708 0 0.015363351779748648 -0.036187392928926677 0 0.015491034255827315 -0.036202638098549948 0 0.015363351779748648 -0.036187392928926677 0 0.015491034255827315 -0.036202638098549948 0 0.015529144624648245 -0.03650894330669896 0 0.015491034255827315 -0.036202638098549948 0 0.015699852023429349 -0.036166887048482449 0 0.015529144624648245 -0.03650894330669896 0 0.015388533136851091 -0.035989834566515708 0 0.015491034255827315 -0.036202638098549948 0 0.015699852023429349 -0.036166887048482449 0 0.015699852023429349 -0.036166887048482449 0 0.015529144624648245 -0.03650894330669896 0 0.015805234270079987 -0.036958303907330965 0 0.015529144624648245 -0.03650894330669896 0 0.015805234270079987 -0.036958303907330965 0 0.015533215348847114 -0.036505850794962262 0 0.017280041608825406 -0.039076449467480054 0 0.015805234270079987 -0.036958303907330965 0 0.01484934668472178 -0.037981844995703735 0 0.016417112543548131 -0.037600260541094437 0 0.015923485159715596 -0.037013921842938904 0 0.014820470620936062 -0.039926650959694769 0 0.017280041608825406 -0.039076449467480054 0 0.01484934668472178 -0.037981844995703735 0 0.014820470620936062 -0.039926650959694769 0 0.01484934668472178 -0.037981844995703735 0 0.013815793642617633 -0.038301520217086091 0 0.01540143853982281 -0.040552421580560896 0 0.014180587370532434 -0.038997729290547123 0 0.01484934668472178 -0.037981844995703735 0 0.013815793642617633 -0.038301520217086091 0 0.014379180645696739 -0.037261764261743491 0 0.013171263014134503 -0.03799736585819391 0 0.013815793642617633 -0.038301520217086091 0 0.014379180645696739 -0.037261764261743491 0 0.015805234270079987 -0.036958303907330965 0 0.01484934668472178 -0.037981844995703735 0 0.014379180645696739 -0.037261764261743491 0 0.014379180645696739 -0.037261764261743491 0 0.01445945531426983 -0.036358186109191427 0 0.015130190886061799 -0.036495425912575812 0 0.015805234270079987 -0.036958303907330965 0 0.014379180645696739 -0.037261764261743491 0 0.015130190886061799 -0.036495425912575812 0 0.013832221250478727 -0.036929725852144303 0 0.014379180645696739 -0.037261764261743491 0 0.01445945531426983 -0.036358186109191427 0 0.013832221250478727 -0.036929725852144303 0 0.01445945531426983 -0.036358186109191427 0 0.014006982812020419 -0.036145865911508507 0 0.014855998871685551 -0.035900158522442015 0 0.01445945531426983 -0.036358186109191427 0 0.015130190886061799 -0.036495425912575812 0 0.015130190886061799 -0.036495425912575812 0 0.015338067267008071 -0.03609858666486724 0 0.015533215348847114 -0.036505850794962262 0 0.014855998871685551 -0.035900158522442015 0 0.015130190886061799 -0.036495425912575812 0 0.015338067267008071 -0.03609858666486724 0 0.015338067267008071 -0.03609858666486724 0 0.015502593238411565 -0.036213764825243633 0 0.015533215348847114 -0.036505850794962262 0 0.015529144624648245 -0.03650894330669896 0 0.015502593238411565 -0.036213764825243633 0 0.015533215348847114 -0.036505850794962262 0 0.015805234270079987 -0.036958303907330965 0 0.015130190886061799 -0.036495425912575812 0 0.015533215348847114 -0.036505850794962262 0 0.045593727637547474 -0.037343831199631479 0 0.04499946787604435 -0.038715932651116287 0 0.044998832585498631 -0.031049612056481098 0 0.046536932560484946 -0.034173836015899392 0 0.045593727637547474 -0.037343831199631479 0 0.044998832585498631 -0.031049612056481098 0 0.046968557826932558 -0.035795064250780162 0 0.046536932560484946 -0.034173836015899392 0 0.045593727637547474 -0.037343831199631479 0 0.046968557826932558 -0.035795064250780162 0 0.047192652717957473 -0.03721609086957569 0 0.045593727637547474 -0.037343831199631479 0 0.046968557826932558 -0.035795064250780162 0 0.046536932560484946 -0.034173836015899392 0 0.047847666222302569 -0.034567419702542866 0 0.042738596521702352 -0.036015357903088331 0 0.042637692459293913 -0.036667866440743851 0 0.047847666222302569 -0.034567419702542866 0 0.048956367211070904 -0.035825774766094824 0 0.048649052767273895 -0.033627444467520168 0 0.036369507681956438 -0.037835102895835013 0 0.035979079750386646 -0.03815861038053623 0 0.036381970896040471 -0.038430083445869442 0 0.048956367211070904 -0.035825774766094824 0 0.047742230239913599 -0.035822502664186719 0 0.047192652717957473 -0.03721609086957569 0 0.046968557826932558 -0.035795064250780162 0 0.047847666222302569 -0.034567419702542866 0 0.047742230239913599 -0.035822502664186719 0 0.047847666222302569 -0.034567419702542866 0 0.048956367211070904 -0.035825774766094824 0 0.047742230239913599 -0.035822502664186719 0 0.046968557826932558 -0.035795064250780162 0 0.047742230239913599 -0.035822502664186719 0 0.047192652717957473 -0.03721609086957569 0 0.047192652717957473 -0.03721609086957569 0 0.049255404786332543 -0.039040237248701662 0 0.045171103506169735 -0.039617335765678351 0 0.048956367211070904 -0.035825774766094824 0 0.047192652717957473 -0.03721609086957569 0 0.049255404786332543 -0.039040237248701662 0 0.036369507681956438 -0.037835102895835013 0 0.03639299643074885 -0.037227804236487493 0 0.035841407306340535 -0.037748153718143905 0 0.042738596521702352 -0.036015357903088331 0 0.042073479509546506 -0.041417658565041829 0 0.039067331969137711 -0.049757566444487894 0 0.039825780532391962 -0.05049779760927859 0 0.039781907436078491 -0.048809627275059268 0 0.039067331969137711 -0.049757566444487894 0 0.039825780532391962 -0.05049779760927859 0 0.038391596636752547 -0.050423283501516106 0 0.042073479509546506 -0.041417658565041829 0 0.042358041876265691 -0.046257904746750185 0 0.045270546058651343 -0.040562163118712767 0 0.044920669741791069 -0.04134755422478685 0 0.044997115301650972 -0.040820778389684648 0 0.042073479509546506 -0.041417658565041829 0 0.047492049739739958 -0.039127522508696472 0 0.045270546058651343 -0.040562163118712767 0 0.045171103506169735 -0.039617335765678351 0 0.044997115301650972 -0.040820778389684648 0 0.045171103506169735 -0.039617335765678351 0 0.045593727637547474 -0.037343831199631479 0 0.043382454414824093 -0.04123238693864538 0 0.047192652717957473 -0.03721609086957569 0 0.045171103506169735 -0.039617335765678351 0 0.045593727637547474 -0.037343831199631479 0 0.045462027687896624 -0.03761368225478752 0 0.044781923857669666 -0.040536248675583433 0 0.045593727637547474 -0.037343831199631479 0 0.04499946787604435 -0.038715932651116287 0 0.046090357877777849 -0.039744538401693848 0 0.04499946787604435 -0.038715932651116287 0 0.045837979850749715 -0.042517322522881706 0 0.044996110469930184 -0.045000742810202957 0 0.04499946787604435 -0.038715932651116287 0 0.046090357877777849 -0.039744538401693848 0 0.045837979850749715 -0.042517322522881706 0 0.045171103506169735 -0.039617335765678351 0 0.043382454414824093 -0.04123238693864538 0 0.0441307346647924 -0.041970060845723065 0 0.045171103506169735 -0.039617335765678351 0 0.0441307346647924 -0.041970060845723065 0 0.044997115301650972 -0.040820778389684648 0 0.0441307346647924 -0.041970060845723065 0 0.04429704471581182 -0.042600464667074553 0 0.044644813352002051 -0.041858718458161644 0 0.043382454414824093 -0.04123238693864538 0 0.0441307346647924 -0.041970060845723065 0 0.042802621208416949 -0.043895569828835093 0 0.0441307346647924 -0.041970060845723065 0 0.043792820984440553 -0.043378944073734764 0 0.042802621208416949 -0.043895569828835093 0 0.0441307346647924 -0.041970060845723065 0 0.043792820984440553 -0.043378944073734764 0 0.04429704471581182 -0.042600464667074553 0 0.044781923857669666 -0.040536248675583433 0 0.04432562006072624 -0.043096403000703276 0 0.043792820984440553 -0.043378944073734764 0 0.042802621208416949 -0.043895569828835093 0 0.043237034888447913 -0.044688740402888109 0 0.043792820984440553 -0.043378944073734764 0 0.043237034888447913 -0.044688740402888109 0 0.04460438764265795 -0.043768262909564558 0 0.043237034888447913 -0.044688740402888109 0 0.042230752620907017 -0.044999520761552898 0 0.04460438764265795 -0.043768262909564558 0 0.043237034888447913 -0.044688740402888109 0 0.042230752620907017 -0.044999520761552898 0 0.044030088700024686 -0.044999542918954909 0 0.045837979850749715 -0.042517322522881706 0 0.044996110469930184 -0.045000742810202957 0 0.044042529720227618 -0.044998062162099541 0 0.04432562006072624 -0.043096403000703276 0 0.044035698649274466 -0.044999145328687082 0 0.042802621208416949 -0.043895569828835093 0 0.043237034888447913 -0.044688740402888109 0 0.044030088700024686 -0.044999542918954909 0 0.040199350016193153 -0.044999972424879769 0 0.039932368971669935 -0.047015081105912772 0 0.038362037745283538 -0.046590883161150932 0 0.040200375659151279 -0.045000090860725546 0 0.041350020500101822 -0.045623806953341374 0 0.040204590172742763 -0.044999367464084797 0 0.041687813663658813 -0.045176452349708338 0 0.042794004730342769 -0.045062042040736279 0 0.042221292076666632 -0.045000197189982716 0 0.040204590172742763 -0.044999367464084797 0 0.041687813663658813 -0.045176452349708338 0 0.042224665470287942 -0.044999527309154026 0 0.043239328914528322 -0.044191606924314619 0 0.042221292076666632 -0.045000197189982716 0 0.041687813663658813 -0.045176452349708338 0 0.041746444516026139 -0.04483710037647258 0 0.041687813663658813 -0.045176452349708338 0 0.041746444516026139 -0.04483710037647258 0 0.042794004730342769 -0.045062042040736279 0 0.041746444516026139 -0.04483710037647258 0 0.042794004730342769 -0.045062042040736279 0 0.044984401327427211 -0.041965090529762057 0 0.039932368971669935 -0.047015081105912772 0 0.039781907436078491 -0.048809627275059268 0 0.038063438954305077 -0.048033476758191244 0 0.041350020500101822 -0.045623806953341374 0 0.042358041876265691 -0.046257904746750185 0 0.041746444516026139 -0.04483710037647258 0 0.044920669741791069 -0.04134755422478685 0 0.044984401327427211 -0.041965090529762057 0 0.04460438764265795 -0.043768262909564558 0 0.04429704471581182 -0.042600464667074553 0 0.044644813352002051 -0.041858718458161644 0 0.04460438764265795 -0.043768262909564558 0 0.044644813352002051 -0.041858718458161644 0 0.044920669741791069 -0.04134755422478685 0 0.043239328914528322 -0.044191606924314619 0 0.044693872681510961 -0.041639835126559464 0 0.043792820984440553 -0.043378944073734764 0 0.04460438764265795 -0.043768262909564558 0 0.04429704471581182 -0.042600464667074553 0 0.0441307346647924 -0.041970060845723065 0 0.044644813352002051 -0.041858718458161644 0 0.044997115301650972 -0.040820778389684648 0 0.044644813352002051 -0.041858718458161644 0 0.044920669741791069 -0.04134755422478685 0 0.044997115301650972 -0.040820778389684648 0 0.039067331969137711 -0.049757566444487894 0 0.039781907436078491 -0.048809627275059268 0 0.038301067537140868 -0.049311454101583836 0 0.045270546058651343 -0.040562163118712767 0 0.044920669741791069 -0.04134755422478685 0 0.044984401327427211 -0.041965090529762057 0 0.039781907436078491 -0.048809627275059268 0 0.038301067537140868 -0.049311454101583836 0 0.038063438954305077 -0.048033476758191244 0 0.038301067537140868 -0.049311454101583836 0 0.037364599557190896 -0.04895536424566934 0 0.038063438954305077 -0.048033476758191244 0 0.038301067537140868 -0.049311454101583836 0 0.037040788878630819 -0.049773618791410304 0 0.037364599557190896 -0.04895536424566934 0 0.037040788878630819 -0.049773618791410304 0 0.037364599557190896 -0.04895536424566934 0 0.03640340165091225 -0.049173019113693504 0 0.037364599557190896 -0.04895536424566934 0 0.03638432765124458 -0.048278645077504519 0 0.03640340165091225 -0.049173019113693504 0 0.038063438954305077 -0.048033476758191244 0 0.036458734767926181 -0.046904890531525016 0 0.03638432765124458 -0.048278645077504519 0 0.037364599557190896 -0.04895536424566934 0 0.038063438954305077 -0.048033476758191244 0 0.03638432765124458 -0.048278645077504519 0 0.039932368971669935 -0.047015081105912772 0 0.038063438954305077 -0.048033476758191244 0 0.038362037745283538 -0.046590883161150932 0 0.038063438954305077 -0.048033476758191244 0 0.038362037745283538 -0.046590883161150932 0 0.036458734767926181 -0.046904890531525016 0 0.038362037745283538 -0.046590883161150932 0 0.037684241806565717 -0.044999895499649056 0 0.036458734767926181 -0.046904890531525016 0 0.040199350016193153 -0.044999972424879769 0 0.038362037745283538 -0.046590883161150932 0 0.037684241806565717 -0.044999895499649056 0 0.035168514872398894 -0.044999918580929693 0 0.034615601849072114 -0.046852605119869085 0 0.032944473970931309 -0.046397364054529176 0 0.035168514872398894 -0.044999918580929693 0 0.036458734767926181 -0.046904890531525016 0 0.034615601849072114 -0.046852605119869085 0 0.037684241806565717 -0.044999895499649056 0 0.035168514872398894 -0.044999918580929693 0 0.036458734767926181 -0.046904890531525016 0 0.036458734767926181 -0.046904890531525016 0 0.034615601849072114 -0.046852605119869085 0 0.035212364257469243 -0.047766275792417941 0 0.034615601849072114 -0.046852605119869085 0 0.035212364257469243 -0.047766275792417941 0 0.033183963087106992 -0.04778150315054272 0 0.034379984578654953 -0.048574062728382779 0 0.032293630384612838 -0.048001810788845189 0 0.032197665276459397 -0.047166200973643442 0 0.035212364257469243 -0.047766275792417941 0 0.03540330295525896 -0.049024113438273453 0 0.033183963087106992 -0.04778150315054272 0 0.034826570032393311 -0.048392147261595547 0 0.032595988769554524 -0.047752604432998447 0 0.034826570032393311 -0.048392147261595547 0 0.031118338199823618 -0.047763836008789258 0 0.035212364257469243 -0.047766275792417941 0 0.03638432765124458 -0.048278645077504519 0 0.03540330295525896 -0.049024113438273453 0 0.036458734767926181 -0.046904890531525016 0 0.035212364257469243 -0.047766275792417941 0 0.03638432765124458 -0.048278645077504519 0 0.036691777365479503 -0.049253390173691874 0 0.034826570032393311 -0.048392147261595547 0 0.03639879496635913 -0.048779176753942284 0 0.034117741134614771 -0.047230979680438955 0 0.034550485086240521 -0.049061841812762817 0 0.037040788878630819 -0.049773618791410304 0 0.03640340165091225 -0.049173019113693504 0 0.035501771952684655 -0.048996077997489548 0 0.03638432765124458 -0.048278645077504519 0 0.03640340165091225 -0.049173019113693504 0 0.03540330295525896 -0.049024113438273453 0 0.036354055210571438 -0.049088825882020841 0 0.034826570032393311 -0.048392147261595547 0 0.034117741134614771 -0.047230979680438955 0 0.032694160029107744 -0.047982215819139612 0 0.031311879217073811 -0.04703417487264925 0 0.034117741134614771 -0.047230979680438955 0 0.031311879217073811 -0.04703417487264925 0 0.031241720910719979 -0.04642977418378947 0 0.034117741134614771 -0.047230979680438955 0 0.032694160029107744 -0.047982215819139612 0 0.034550485086240521 -0.049061841812762817 0 0.033080407496569153 -0.049628238650684615 0 0.031795281926748568 -0.051115456737290364 0 0.031559520492683735 -0.049091864193216324 0 0.033080407496569153 -0.049628238650684615 0 0.034811070617563229 -0.050875136708332644 0 0.031795281926748568 -0.051115456737290364 0 0.032694160029107744 -0.047982215819139612 0 0.033080407496569153 -0.049628238650684615 0 0.031559520492683735 -0.049091864193216324 0 0.032694160029107744 -0.047982215819139612 0 0.033080407496569153 -0.049628238650684615 0 0.034550485086240521 -0.049061841812762817 0 0.03505122167752258 -0.037345081143697549 0 0.034810067470916556 -0.037693259819662137 0 0.034381853067107615 -0.037447840275056141 0 0.035966472423012916 -0.044111461709784236 0 0.029176252062405095 -0.043496922574846539 0 0.03505122167752258 -0.037345081143697549 0 0.034810067470916556 -0.037693259819662137 0 0.035279183094975908 -0.037707490672633112 0 0.03639879496635913 -0.048779176753942284 0 0.034811070617563229 -0.050875136708332644 0 0.034550485086240521 -0.049061841812762817 0 0.033080407496569153 -0.049628238650684615 0 0.034811070617563229 -0.050875136708332644 0 0.034550485086240521 -0.049061841812762817 0 0.03639879496635913 -0.048779176753942284 0 0.038391596636752547 -0.050423283501516106 0 0.037771168407744846 -0.050666966705925118 0 0.03639879496635913 -0.048779176753942284 0 0.034811070617563229 -0.050875136708332644 0 0.037771168407744846 -0.050666966705925118 0 0.036691777365479503 -0.049253390173691874 0 0.038262322615043011 -0.050326781253382857 0 0.039067331969137711 -0.049757566444487894 0 0.038301067537140868 -0.049311454101583836 0 0.038391596636752547 -0.050423283501516106 0 0.038301067537140868 -0.049311454101583836 0 0.037040788878630819 -0.049773618791410304 0 0.038391596636752547 -0.050423283501516106 0 0.042073479509546506 -0.041417658565041829 0 0.035679263165911579 -0.044286969136252151 0 0.039825780532391962 -0.05049779760927859 0 0.038391596636752547 -0.050423283501516106 0 0.037771168407744846 -0.050666966705925118 0 0.03639299643074885 -0.037227804236487493 0 0.035729007811464035 -0.037273671109472301 0 0.035841407306340535 -0.037748153718143905 0 0.03505122167752258 -0.037345081143697549 0 0.035729007811464035 -0.037273671109472301 0 0.035279183094975908 -0.037707490672633112 0 0.035966472423012916 -0.044111461709784236 0 0.035679263165911579 -0.044286969136252151 0 0.035729007811464035 -0.037273671109472301 0 0.035841407306340535 -0.037748153718143905 0 0.035279183094975908 -0.037707490672633112 0 0.035841407306340535 -0.037748153718143905 0 0.035426181805809656 -0.038182725999459113 0 0.035279183094975908 -0.037707490672633112 0 0.036369507681956438 -0.037835102895835013 0 0.035841407306340535 -0.037748153718143905 0 0.035979079750386646 -0.03815861038053623 0 0.035841407306340535 -0.037748153718143905 0 0.035979079750386646 -0.03815861038053623 0 0.035426181805809656 -0.038182725999459113 0 0.035979079750386646 -0.03815861038053623 0 0.035426181805809656 -0.038182725999459113 0 0.035857744766642732 -0.038602169906080855 0 0.035426181805809656 -0.038182725999459113 0 0.03488209030796928 -0.038041920388601824 0 0.034914440857812902 -0.038416270950521976 0 0.03488209030796928 -0.038041920388601824 0 0.034467081083091218 -0.03790714448161573 0 0.034521184566436235 -0.038353783526333632 0 0.03488209030796928 -0.038041920388601824 0 0.034521184566436235 -0.038353783526333632 0 0.034914440857812902 -0.038416270950521976 0 0.028206001447736776 -0.039620277978910066 0 0.028688556505393776 -0.040283797816592769 0 0.03488209030796928 -0.038041920388601824 0 0.034810067470916556 -0.037693259819662137 0 0.034467081083091218 -0.03790714448161573 0 0.034810067470916556 -0.037693259819662137 0 0.034467081083091218 -0.03790714448161573 0 0.034381853067107615 -0.037447840275056141 0 0.035426181805809656 -0.038182725999459113 0 0.03488209030796928 -0.038041920388601824 0 0.035279183094975908 -0.037707490672633112 0 0.03488209030796928 -0.038041920388601824 0 0.034810067470916556 -0.037693259819662137 0 0.035279183094975908 -0.037707490672633112 0 0.016880872652020918 -0.043285714632536158 0 0.018046141779056217 -0.044990665229989138 0 0.023287207171729017 -0.042388384204312922 0 0.023857490782074945 -0.043334406438192363 0 0.023113491607453907 -0.043628284873200668 0 0.022676022342659492 -0.043040079343511096 0 0.023287207171729017 -0.042388384204312922 0 0.023113491607453907 -0.043628284873200668 0 0.022676022342659492 -0.043040079343511096 0 0.022199849427537711 -0.042628208474517294 0 0.022374234287032221 -0.043704228743677208 0 0.022676022342659492 -0.043040079343511096 0 0.022467488910702028 -0.0420340731587725 0 0.023287207171729017 -0.042388384204312922 0 0.022676022342659492 -0.043040079343511096 0 0.022199849427537711 -0.042628208474517294 0 0.022467488910702028 -0.0420340731587725 0 0.022467488910702028 -0.0420340731587725 0 0.023287207171729017 -0.042388384204312922 0 0.022610390977047121 -0.0413443302586749 0 0.016880872652020918 -0.043285714632536158 0 0.014676067914183345 -0.041153760400001516 0 0.022199849427537711 -0.042628208474517294 0 0.022467488910702028 -0.0420340731587725 0 0.022006529710900193 -0.04149359435236042 0 0.022467488910702028 -0.0420340731587725 0 0.022610390977047121 -0.0413443302586749 0 0.022006529710900193 -0.04149359435236042 0 0.010259523873060068 -0.04402180836358488 0 0.010680776234367601 -0.041450880960007729 0 0.0084841013042303119 -0.041557700937888353 0 0.010259523873060068 -0.04402180836358488 0 0.012934257210799847 -0.042511075766211021 0 0.010680776234367601 -0.041450880960007729 0 0.010259523873060068 -0.04402180836358488 0 0.012934257210799847 -0.042511075766211021 0 0.012547910214195827 -0.044583628369578215 0 0.012934257210799847 -0.042511075766211021 0 0.014683548164772872 -0.045379882570544934 0 0.015995496355315168 -0.0431070547109716 0 0.012934257210799847 -0.042511075766211021 0 0.015995496355315168 -0.0431070547109716 0 0.01470384646438175 -0.041185916672184734 0 0.010259523873060068 -0.04402180836358488 0 0.012547910214195827 -0.044583628369578215 0 0.012093642005075953 -0.046549468479348544 0 0.012934257210799847 -0.042511075766211021 0 0.014683548164772872 -0.045379882570544934 0 0.012547910214195827 -0.044583628369578215 0 0.014683548164772872 -0.045379882570544934 0 0.012547910214195827 -0.044583628369578215 0 0.012093642005075953 -0.046549468479348544 0 0.018046141779056217 -0.044990665229989138 0 0.018537673188792975 -0.046385617659126591 0 0.012093642005075953 -0.046549468479348544 0 0.014304486618911573 -0.047267001036163797 0 0.014027103465296635 -0.049168686212919831 0 0.023857490782074945 -0.043334406438192363 0 0.024312189367317404 -0.044102183219338037 0 0.023571495779662305 -0.043961538874596903 0 0.014683548164772872 -0.045379882570544934 0 0.014304486618911573 -0.047267001036163797 0 0.016156617786129927 -0.047972409845957999 0 0.014683548164772872 -0.045379882570544934 0 0.016156617786129927 -0.047972409845957999 0 0.016828424584639196 -0.045339457791193992 0 0.014683548164772872 -0.045379882570544934 0 0.012093642005075953 -0.046549468479348544 0 0.014304486618911573 -0.047267001036163797 0 0.014304486618911573 -0.047267001036163797 0 0.014027103465296635 -0.049168686212919831 0 0.016156617786129927 -0.047972409845957999 0 0.018485051819373904 -0.047205371396275703 0 0.019150250023514469 -0.047325720379283863 0 0.018897860161123509 -0.046848196682489338 0 0.018485051819373904 -0.047205371396275703 0 0.018840329847587652 -0.047623534156168483 0 0.019150250023514469 -0.047325720379283863 0 0.018537673188792975 -0.046385617659126591 0 0.017126733627337718 -0.047613584637047443 0 0.018537673188792975 -0.046385617659126591 0 0.019025708863447378 -0.047729208562440797 0 0.018849030733238376 -0.047849113979424977 0 0.018840329847587652 -0.047623534156168483 0 0.018896918108767737 -0.047726343896910467 0 0.018537673188792975 -0.046385617659126591 0 0.024367437713305476 -0.046426140803390491 0 0.024312189367317404 -0.044102183219338037 0 0.023571495779662305 -0.043961538874596903 0 0.023420713833301292 -0.044632263933645534 0 0.018849030733238376 -0.047849113979424977 0 0.018896918108767737 -0.047726343896910467 0 0.019273365925760452 -0.047658698584567442 0 0.023138464706473461 -0.04405184205685464 0 0.023571495779662305 -0.043961538874596903 0 0.023420713833301292 -0.044632263933645534 0 0.023138464706473461 -0.04405184205685464 0 0.022950955661339367 -0.044257098229235764 0 0.023420713833301292 -0.044632263933645534 0 0.023857490782074945 -0.043334406438192363 0 0.023571495779662305 -0.043961538874596903 0 0.023113491607453907 -0.043628284873200668 0 0.023138464706473461 -0.04405184205685464 0 0.023571495779662305 -0.043961538874596903 0 0.023113491607453907 -0.043628284873200668 0 0.028206001447736776 -0.039620277978910066 0 0.029176252062405095 -0.043496922574846539 0 0.022676022342659492 -0.043040079343511096 0 0.023113491607453907 -0.043628284873200668 0 0.022374234287032221 -0.043704228743677208 0 0.021123306142729881 -0.043885871484524455 0 0.029176252062405095 -0.043496922574846539 0 0.023138464706473461 -0.04405184205685464 0 0.023113491607453907 -0.043628284873200668 0 0.022627920516100037 -0.043708115821051184 0 0.029176252062405095 -0.043496922574846539 0 0.027172393850357378 -0.047286579397210177 0 0.022627920516100037 -0.043708115821051184 0 0.022950955661339367 -0.044257098229235764 0 0.022687688158502115 -0.044366865835433401 0 0.022950955661339367 -0.044257098229235764 0 0.022866957876287689 -0.044548078959662694 0 0.023420713833301292 -0.044632263933645534 0 0.023138464706473461 -0.04405184205685464 0 0.022627920516100037 -0.043708115821051184 0 0.022950955661339367 -0.044257098229235764 0 0.022950955661339367 -0.044257098229235764 0 0.022687688158502115 -0.044366865835433401 0 0.022866957876287689 -0.044548078959662694 0 0.022687688158502115 -0.044366865835433401 0 0.022866957876287689 -0.044548078959662694 0 0.022787022505990066 -0.045291436836124938 0 0.032694160029107744 -0.047982215819139612 0 0.031559520492683735 -0.049091864193216324 0 0.031311879217073811 -0.04703417487264925 0 0.027172393850357378 -0.047286579397210177 0 0.027961381439165787 -0.046451499837831096 0 0.022866957876287689 -0.044548078959662694 0 0.022787022505990066 -0.045291436836124938 0 0.02379149881339563 -0.044734960685009019 0 0.022606702135807205 -0.0445444555651347 0 0.024367437713305476 -0.046426140803390491 0 0.030471282045618085 -0.04869730886829713 0 0.029583534423986497 -0.04922659877860084 0 0.029826111622676524 -0.048648027411908941 0 0.027961381439165787 -0.046451499837831096 0 0.024367437713305476 -0.046426140803390491 0 0.029583534423986497 -0.04922659877860084 0 0.029826111622676524 -0.048648027411908941 0 0.029077148503511469 -0.048689631484053773 0 0.031118338199823618 -0.047763836008789258 0 0.029587163866340985 -0.048031108127181796 0 0.029826111622676524 -0.048648027411908941 0 0.030447210364866216 -0.04846164577554788 0 0.029082287362977053 -0.048019097098286251 0 0.029826111622676524 -0.048648027411908941 0 0.029082287362977053 -0.048019097098286251 0 0.029077148503511469 -0.048689631484053773 0 0.032354001093754158 -0.048504277376890247 0 0.032267183611252866 -0.047712321596851626 0 0.029988824016642244 -0.047865822773662046 0 0.027961381439165787 -0.046451499837831096 0 0.031118338199823618 -0.047763836008789258 0 0.030471282045618085 -0.04869730886829713 0 0.029826111622676524 -0.048648027411908941 0 0.030447210364866216 -0.04846164577554788 0 0.031118338199823618 -0.047763836008789258 0 0.032595988769554524 -0.047752604432998447 0 0.032975817373934922 -0.047991394376721133 0 0.032810011502020599 -0.046502743544560979 0 0.031448918619996442 -0.04700181591308715 0 0.032595988769554524 -0.047752604432998447 0 0.032872557095293548 -0.046469177017765935 0 0.034615601849072114 -0.046852605119869085 0 0.033183963087106992 -0.04778150315054272 0 0.032944473970931309 -0.046397364054529176 0 0.032267183611252866 -0.047712321596851626 0 0.030854881001709012 -0.046783495475588348 0 0.029988824016642244 -0.047865822773662046 0 0.032595988769554524 -0.047752604432998447 0 0.031159717633292377 -0.046900889394051327 0 0.032810011502020599 -0.046502743544560979 0 0.031448918619996442 -0.04700181591308715 0 0.031464491261808003 -0.045903554578127941 0 0.031464491261808003 -0.045903554578127941 0 0.032652709733762816 -0.044999998986269447 0 0.03050070631481519 -0.044999993053157682 0 0.031448918619996442 -0.04700181591308715 0 0.031464491261808003 -0.045903554578127941 0 0.029901321523356315 -0.046005360613429892 0 0.032810011502020599 -0.046502743544560979 0 0.031464491261808003 -0.045903554578127941 0 0.032652709733762816 -0.044999998986269447 0 0.032872557095293548 -0.046469177017765935 0 0.032652822088407057 -0.045000373264961743 0 0.035168514872398894 -0.044999918580929693 0 0.032944473970931309 -0.046397364054529176 0 0.03265308459854712 -0.044999904246958877 0 0.028348935897359175 -0.045000216622138156 0 0.029666865071073929 -0.045906216906993209 0 0.028347191243078683 -0.04499963314059504 0 0.029428995902407419 -0.045815264213237547 0 0.027412525613018872 -0.04712486878820913 0 0.028348645024135061 -0.044999998799403536 0 0.03050070631481519 -0.044999993053157682 0 0.029901321523356315 -0.046005360613429892 0 0.031464491261808003 -0.045903554578127941 0 0.03050070631481519 -0.044999993053157682 0 0.029901321523356315 -0.046005360613429892 0 0.031159717633292377 -0.046900889394051327 0 0.029666865071073929 -0.045906216906993209 0 0.030854881001709012 -0.046783495475588348 0 0.029428995902407419 -0.045815264213237547 0 0.029988824016642244 -0.047865822773662046 0 0.029428995902407419 -0.045815264213237547 0 0.029988824016642244 -0.047865822773662046 0 0.027412525613018872 -0.04712486878820913 0 0.028303126863177756 -0.048336317748864953 0 0.029082287362977053 -0.048019097098286251 0 0.027412525613018872 -0.04712486878820913 0 0.028303126863177756 -0.048336317748864953 0 0.027515033952650342 -0.048505319407169782 0 0.027412525613018872 -0.04712486878820913 0 0.029587163866340985 -0.048031108127181796 0 0.027444008551838203 -0.047145356995934543 0 0.028303126863177756 -0.048336317748864953 0 0.027515033952650342 -0.048505319407169782 0 0.028283607136379355 -0.04914202573467364 0 0.028303126863177756 -0.048336317748864953 0 0.029082287362977053 -0.048019097098286251 0 0.029077148503511469 -0.048689631484053773 0 0.018896918108767737 -0.047726343896910467 0 0.019273365925760452 -0.047658698584567442 0 0.018800826318616713 -0.047733702361372261 0 0.029583534423986497 -0.04922659877860084 0 0.029077148503511469 -0.048689631484053773 0 0.028283607136379355 -0.04914202573467364 0 0.024367437713305476 -0.046426140803390491 0 0.023601125597861268 -0.048702403206365832 0 0.028303126863177756 -0.048336317748864953 0 0.029077148503511469 -0.048689631484053773 0 0.028283607136379355 -0.04914202573467364 0 0.027515033952650342 -0.048505319407169782 0 0.028283607136379355 -0.04914202573467364 0 0.026234781003932211 -0.049159420600251059 0 0.023601125597861268 -0.048702403206365832 0 0.02287841204518256 -0.048591619841462645 0 0.018840329847587652 -0.047623534156168483 0 0.018800826318616713 -0.047733702361372261 0 0.019568474613194383 -0.04824843119980083 0 0.018840329847587652 -0.047623534156168483 0 0.018896918108767737 -0.047726343896910467 0 0.018800826318616713 -0.047733702361372261 0 0.018840329847587652 -0.047623534156168483 0 0.019568474613194383 -0.04824843119980083 0 0.019150250023514469 -0.047325720379283863 0 0.019568474613194383 -0.04824843119980083 0 0.020930137992004879 -0.0476764375306079 0 0.022337352469678801 -0.04823477307959826 0 0.02287841204518256 -0.048591619841462645 0 0.022348645440013869 -0.048328134867427472 0 0.019568474613194383 -0.04824843119980083 0 0.020930137992004879 -0.0476764375306079 0 0.019665195082029137 -0.047131849379440052 0 0.026234781003932211 -0.049159420600251059 0 0.025049771194115198 -0.047053026807832285 0 0.022337352469678801 -0.04823477307959826 0 0.027515033952650342 -0.048505319407169782 0 0.026234781003932211 -0.049159420600251059 0 0.027412525613018872 -0.04712486878820913 0 0.026234781003932211 -0.049159420600251059 0 0.027412525613018872 -0.04712486878820913 0 0.025049771194115198 -0.047053026807832285 0 0.027412525613018872 -0.04712486878820913 0 0.025049771194115198 -0.047053026807832285 0 0.026762157710836763 -0.045828716165401705 0 0.025049771194115198 -0.047053026807832285 0 0.026762157710836763 -0.045828716165401705 0 0.024216641345874815 -0.046016742187536513 0 0.025814145800796294 -0.044999636893910913 0 0.026762157710836763 -0.045828716165401705 0 0.024216641345874815 -0.046016742187536513 0 0.028347191243078683 -0.04499963314059504 0 0.025814145800796294 -0.044999636893910913 0 0.026762157710836763 -0.045828716165401705 0 0.028347191243078683 -0.04499963314059504 0 0.027412525613018872 -0.04712486878820913 0 0.026762157710836763 -0.045828716165401705 0 0.023280730190569372 -0.044999879669657586 0 0.024216641345874815 -0.046016742187536513 0 0.022159902092508676 -0.046284178841987184 0 0.025814145800796294 -0.044999636893910913 0 0.023280730190569372 -0.044999879669657586 0 0.024216641345874815 -0.046016742187536513 0 0.025049771194115198 -0.047053026807832285 0 0.024216641345874815 -0.046016742187536513 0 0.022898419328355953 -0.046996656725904022 0 0.024216641345874815 -0.046016742187536513 0 0.022898419328355953 -0.046996656725904022 0 0.022159902092508676 -0.046284178841987184 0 0.021573550977628798 -0.047496946786517821 0 0.022898419328355953 -0.046996656725904022 0 0.022159902092508676 -0.046284178841987184 0 0.020903734439312292 -0.047068424714285108 0 0.022898419328355953 -0.046996656725904022 0 0.021836355510822962 -0.047566244089029486 0 0.021243790952654312 -0.047276868799591573 0 0.022750110734925083 -0.046986060206517438 0 0.025049771194115198 -0.047053026807832285 0 0.022898419328355953 -0.046996656725904022 0 0.022337352469678801 -0.04823477307959826 0 0.022898419328355953 -0.046996656725904022 0 0.021836355510822962 -0.047566244089029486 0 0.022337352469678801 -0.04823477307959826 0 0.020930137992004879 -0.0476764375306079 0 0.022337352469678801 -0.04823477307959826 0 0.021467359887408881 -0.047663503366767758 0 0.021836355510822962 -0.047566244089029486 0 0.022337352469678801 -0.04823477307959826 0 0.021467359887408881 -0.047663503366767758 0 0.020903734439312292 -0.047068424714285108 0 0.021836355510822962 -0.047566244089029486 0 0.021467359887408881 -0.047663503366767758 0 0.021076942365780636 -0.047351450377510838 0 0.021467359887408881 -0.047663503366767758 0 0.020881392720130544 -0.046984715516524465 0 0.021076942365780636 -0.047351450377510838 0 0.022669956895326974 -0.045003754123988216 0 0.020881392720130544 -0.046984715516524465 0 0.020881392720130544 -0.046984715516524465 0 0.019967829101778703 -0.04662563741640012 0 0.020477609615048659 -0.045548231762689413 0 0.020881392720130544 -0.046984715516524465 0 0.020730541767391687 -0.047285129966645641 0 0.019967829101778703 -0.04662563741640012 0 0.021467359887408881 -0.047663503366767758 0 0.020881392720130544 -0.046984715516524465 0 0.020730541767391687 -0.047285129966645641 0 0.020930137992004879 -0.0476764375306079 0 0.021467359887408881 -0.047663503366767758 0 0.020730541767391687 -0.047285129966645641 0 0.020730541767391687 -0.047285129966645641 0 0.019665195082029137 -0.047131849379440052 0 0.019967829101778703 -0.04662563741640012 0 0.020930137992004879 -0.0476764375306079 0 0.020730541767391687 -0.047285129966645641 0 0.019665195082029137 -0.047131849379440052 0 0.019665195082029137 -0.047131849379440052 0 0.019150250023514469 -0.047325720379283863 0 0.018897860161123509 -0.046848196682489338 0 0.019568474613194383 -0.04824843119980083 0 0.019665195082029137 -0.047131849379440052 0 0.019150250023514469 -0.047325720379283863 0 0.016156617786129927 -0.047972409845957999 0 0.018714315227468185 -0.046523653465018917 0 0.016828424584639196 -0.045339457791193992 0 0.019665195082029137 -0.047131849379440052 0 0.018897860161123509 -0.046848196682489338 0 0.018714315227468185 -0.046523653465018917 0 0.017126733627337718 -0.047613584637047443 0 0.018758210133802643 -0.046564655128113475 0 0.019665195082029137 -0.047131849379440052 0 0.018714315227468185 -0.046523653465018917 0 0.019967829101778703 -0.04662563741640012 0 0.018714315227468185 -0.046523653465018917 0 0.019967829101778703 -0.04662563741640012 0 0.019481031085639641 -0.045536608391488154 0 0.018714315227468185 -0.046523653465018917 0 0.019481031085639641 -0.045536608391488154 0 0.018294578188560045 -0.044268941541206419 0 0.019481031085639641 -0.045536608391488154 0 0.018294578188560045 -0.044268941541206419 0 0.01970857592230196 -0.044426113105439549 0 0.018714315227468185 -0.046523653465018917 0 0.018294578188560045 -0.044268941541206419 0 0.016828424584639196 -0.045339457791193992 0 0.018294578188560045 -0.044268941541206419 0 0.016828424584639196 -0.045339457791193992 0 0.015995496355315168 -0.0431070547109716 0 0.014683548164772872 -0.045379882570544934 0 0.016828424584639196 -0.045339457791193992 0 0.015995496355315168 -0.0431070547109716 0 0.018294578188560045 -0.044268941541206419 0 0.015995496355315168 -0.0431070547109716 0 0.01767715718669953 -0.042421412051885717 0 0.015995496355315168 -0.0431070547109716 0 0.01767715718669953 -0.042421412051885717 0 0.016446566244038039 -0.041336122351207864 0 0.018294578188560045 -0.044268941541206419 0 0.019354485520941152 -0.042665507164124795 0 0.01970857592230196 -0.044426113105439549 0 0.018294578188560045 -0.044268941541206419 0 0.01767715718669953 -0.042421412051885717 0 0.019354485520941152 -0.042665507164124795 0 0.019354485520941152 -0.042665507164124795 0 0.020882008293253797 -0.043888559239898095 0 0.021275931733993364 -0.041865583724747524 0 0.019354485520941152 -0.042665507164124795 0 0.020882008293253797 -0.043888559239898095 0 0.01970857592230196 -0.044426113105439549 0 0.020882008293253797 -0.043888559239898095 0 0.022091514892036316 -0.043186828527995366 0 0.021275931733993364 -0.041865583724747524 0 0.022669956895326974 -0.045003754123988216 0 0.020882008293253797 -0.043888559239898095 0 0.022091514892036316 -0.043186828527995366 0 0.022669956895326974 -0.045003754123988216 0 0.020882008293253797 -0.043888559239898095 0 0.020477609615048659 -0.045548231762689413 0 0.022669956895326974 -0.045003754123988216 0 0.020881392720130544 -0.046984715516524465 0 0.020477609615048659 -0.045548231762689413 0 0.019967829101778703 -0.04662563741640012 0 0.019481031085639641 -0.045536608391488154 0 0.020477609615048659 -0.045548231762689413 0 0.019481031085639641 -0.045536608391488154 0 0.020477609615048659 -0.045548231762689413 0 0.01970857592230196 -0.044426113105439549 0 0.020882008293253797 -0.043888559239898095 0 0.020477609615048659 -0.045548231762689413 0 0.01970857592230196 -0.044426113105439549 0 0.020922174754459844 -0.039914839880105982 0 0.019212621199168989 -0.038922728964497819 0 0.019719351562352768 -0.040836742656564999 0 0.020922174754459844 -0.039914839880105982 0 0.019212621199168989 -0.038922728964497819 0 0.020621888658773867 -0.038284411665226115 0 0.020922174754459844 -0.039914839880105982 0 0.020621888658773867 -0.038284411665226115 0 0.022126184579076502 -0.038652863091786477 0 0.024120551592531007 -0.038482613233039704 0 0.022126184579076502 -0.038652863091786477 0 0.022837641025500302 -0.040052559677645483 0 0.020922174754459844 -0.039914839880105982 0 0.022126184579076502 -0.038652863091786477 0 0.022837641025500302 -0.040052559677645483 0 0.023606698523872933 -0.041818071200997106 0 0.022091514892036316 -0.043186828527995366 0 0.021275931733993364 -0.041865583724747524 0 0.023606698523872933 -0.041818071200997106 0 0.022837641025500302 -0.040052559677645483 0 0.021275931733993364 -0.041865583724747524 0 0.020922174754459844 -0.039914839880105982 0 0.022837641025500302 -0.040052559677645483 0 0.021275931733993364 -0.041865583724747524 0 0.019354485520941152 -0.042665507164124795 0 0.021275931733993364 -0.041865583724747524 0 0.019719351562352768 -0.040836742656564999 0 0.020922174754459844 -0.039914839880105982 0 0.021275931733993364 -0.041865583724747524 0 0.019719351562352768 -0.040836742656564999 0 0.019354485520941152 -0.042665507164124795 0 0.019719351562352768 -0.040836742656564999 0 0.017991932379186178 -0.040573958711433912 0 0.01767715718669953 -0.042421412051885717 0 0.019354485520941152 -0.042665507164124795 0 0.017991932379186178 -0.040573958711433912 0 0.017991932379186178 -0.040573958711433912 0 0.016446566244038039 -0.041336122351207864 0 0.015829390302826561 -0.039378436235031816 0 0.015995496355315168 -0.0431070547109716 0 0.016446566244038039 -0.041336122351207864 0 0.01470384646438175 -0.041185916672184734 0 0.01767715718669953 -0.042421412051885717 0 0.017991932379186178 -0.040573958711433912 0 0.016446566244038039 -0.041336122351207864 0 0.016446566244038039 -0.041336122351207864 0 0.015829390302826561 -0.039378436235031816 0 0.01470384646438175 -0.041185916672184734 0 0.017991932379186178 -0.040573958711433912 0 0.015829390302826561 -0.039378436235031816 0 0.017372915815769947 -0.038382854818811374 0 0.015829390302826561 -0.039378436235031816 0 0.017372915815769947 -0.038382854818811374 0 0.015377453271640485 -0.037415694250969793 0 0.019212621199168989 -0.038922728964497819 0 0.017991932379186178 -0.040573958711433912 0 0.017372915815769947 -0.038382854818811374 0 0.019212621199168989 -0.038922728964497819 0 0.019719351562352768 -0.040836742656564999 0 0.017991932379186178 -0.040573958711433912 0 0.019212621199168989 -0.038922728964497819 0 0.017372915815769947 -0.038382854818811374 0 0.018371842620721435 -0.037601243632296937 0 0.018371842620721435 -0.037601243632296937 0 0.01744211651171599 -0.036531865754481328 0 0.019479155906762666 -0.036551275543876258 0 0.019212621199168989 -0.038922728964497819 0 0.018371842620721435 -0.037601243632296937 0 0.019479155906762666 -0.036551275543876258 0 0.017372915815769947 -0.038382854818811374 0 0.018371842620721435 -0.037601243632296937 0 0.01744211651171599 -0.036531865754481328 0 0.017372915815769947 -0.038382854818811374 0 0.01744211651171599 -0.036531865754481328 0 0.015377453271640485 -0.037415694250969793 0 0.01744211651171599 -0.036531865754481328 0 0.015377453271640485 -0.037415694250969793 0 0.015897896085671933 -0.035075252765788371 0 0.015377453271640485 -0.037415694250969793 0 0.015897896085671933 -0.035075252765788371 0 0.013858732989513216 -0.034789041261939012 0 0.015897896085671933 -0.035075252765788371 0 0.018305341786402776 -0.034269892057014723 0 0.015855327898599607 -0.032861227198670559 0 0.015897896085671933 -0.035075252765788371 0 0.015855327898599607 -0.032861227198670559 0 0.013858732989513216 -0.034789041261939012 0 0.01744211651171599 -0.036531865754481328 0 0.018305341786402776 -0.034269892057014723 0 0.019479155906762666 -0.036551275543876258 0 0.01744211651171599 -0.036531865754481328 0 0.015897896085671933 -0.035075252765788371 0 0.018305341786402776 -0.034269892057014723 0 0.018305341786402776 -0.034269892057014723 0 0.020726544845399195 -0.034940349720814189 0 0.019479155906762666 -0.036551275543876258 0 0.018305341786402776 -0.034269892057014723 0 0.020726544845399195 -0.034940349720814189 0 0.020133439595650199 -0.032615601519158682 0 0.019212621199168989 -0.038922728964497819 0 0.020621888658773867 -0.038284411665226115 0 0.019479155906762666 -0.036551275543876258 0 0.020726544845399195 -0.034940349720814189 0 0.019479155906762666 -0.036551275543876258 0 0.021415753539295781 -0.036963362925596301 0 0.020621888658773867 -0.038284411665226115 0 0.019479155906762666 -0.036551275543876258 0 0.021415753539295781 -0.036963362925596301 0 0.024120551592531007 -0.038482613233039704 0 0.022126184579076502 -0.038652863091786477 0 0.022902034327859099 -0.037337423139230504 0 0.022126184579076502 -0.038652863091786477 0 0.022902034327859099 -0.037337423139230504 0 0.021415753539295781 -0.036963362925596301 0 0.020621888658773867 -0.038284411665226115 0 0.022126184579076502 -0.038652863091786477 0 0.021415753539295781 -0.036963362925596301 0 0.022902034327859099 -0.037337423139230504 0 0.021415753539295781 -0.036963362925596301 0 0.022599265131045813 -0.035691587980635597 0 0.020726544845399195 -0.034940349720814189 0 0.021415753539295781 -0.036963362925596301 0 0.022599265131045813 -0.035691587980635597 0 0.020726544845399195 -0.034940349720814189 0 0.022599265131045813 -0.035691587980635597 0 0.022176988343220714 -0.033513342943300377 0 0.024086272201693626 -0.034376968478531396 0 0.022599265131045813 -0.035691587980635597 0 0.022176988343220714 -0.033513342943300377 0 0.022176988343220714 -0.033513342943300377 0 0.020133439595650199 -0.032615601519158682 0 0.022249389089792911 -0.0307277215098135 0 0.020726544845399195 -0.034940349720814189 0 0.022176988343220714 -0.033513342943300377 0 0.020133439595650199 -0.032615601519158682 0 0.023583426146009563 -0.032299028104482617 0 0.022176988343220714 -0.033513342943300377 0 0.022249389089792911 -0.0307277215098135 0 0.020133439595650199 -0.032615601519158682 0 0.019408686388736118 -0.029986540977632748 0 0.018031706556261351 -0.032261957662672411 0 0.020133439595650199 -0.032615601519158682 0 0.019408686388736118 -0.029986540977632748 0 0.022249389089792911 -0.0307277215098135 0 0.019408686388736118 -0.029986540977632748 0 0.022249389089792911 -0.0307277215098135 0 0.020914991785837625 -0.028116687100796883 0 0.023545714657471864 -0.028911706880460335 0 0.020914991785837625 -0.028116687100796883 0 0.022777840005138984 -0.027139017537800646 0 0.020914991785837625 -0.028116687100796883 0 0.022777840005138984 -0.027139017537800646 0 0.021530382256886766 -0.025694437780997701 0 0.023545714657471864 -0.028911706880460335 0 0.022249389089792911 -0.0307277215098135 0 0.020914991785837625 -0.028116687100796883 0 0.019408686388736118 -0.029986540977632748 0 0.020914991785837625 -0.028116687100796883 0 0.01810424466455611 -0.027445480592869938 0 0.020914991785837625 -0.028116687100796883 0 0.019815571554944941 -0.026035631085330253 0 0.01810424466455611 -0.027445480592869938 0 0.020914991785837625 -0.028116687100796883 0 0.019815571554944941 -0.026035631085330253 0 0.021530382256886766 -0.025694437780997701 0 0.019815571554944941 -0.026035631085330253 0 0.01810424466455611 -0.027445480592869938 0 0.018183093177966774 -0.024024384409770061 0 0.019815571554944941 -0.026035631085330253 0 0.018183093177966774 -0.024024384409770061 0 0.020172664442852137 -0.024013320014031305 0 0.019815571554944941 -0.026035631085330253 0 0.021530382256886766 -0.025694437780997701 0 0.020172664442852137 -0.024013320014031305 0 0.023366608872015762 -0.025573522406747384 0 0.021530382256886766 -0.025694437780997701 0 0.022213002899331327 -0.022809489569342773 0 0.023366608872015762 -0.025573522406747384 0 0.022777840005138984 -0.027139017537800646 0 0.021530382256886766 -0.025694437780997701 0 0.015635712568096073 -0.028081740335283219 0 0.013767794687526268 -0.025768242334861462 0 0.015756862380567747 -0.024312633457734156 0 0.01810424466455611 -0.027445480592869938 0 0.018183093177966774 -0.024024384409770061 0 0.015756862380567747 -0.024312633457734156 0 0.01810424466455611 -0.027445480592869938 0 0.015635712568096073 -0.028081740335283219 0 0.015756862380567747 -0.024312633457734156 0 0.01810424466455611 -0.027445480592869938 0 0.015635712568096073 -0.028081740335283219 0 0.017195331236162448 -0.030333251062647375 0 0.019408686388736118 -0.029986540977632748 0 0.01810424466455611 -0.027445480592869938 0 0.017195331236162448 -0.030333251062647375 0 0.015635712568096073 -0.028081740335283219 0 0.013737050655891057 -0.029420217020763587 0 0.013767794687526268 -0.025768242334861462 0 0.015635712568096073 -0.028081740335283219 0 0.015219443386624711 -0.030624742598671619 0 0.013737050655891057 -0.029420217020763587 0 0.015219443386624711 -0.030624742598671619 0 0.017195331236162448 -0.030333251062647375 0 0.015855327898599607 -0.032861227198670559 0 0.015635712568096073 -0.028081740335283219 0 0.015219443386624711 -0.030624742598671619 0 0.017195331236162448 -0.030333251062647375 0 0.019408686388736118 -0.029986540977632748 0 0.017195331236162448 -0.030333251062647375 0 0.018031706556261351 -0.032261957662672411 0 0.017195331236162448 -0.030333251062647375 0 0.018031706556261351 -0.032261957662672411 0 0.015855327898599607 -0.032861227198670559 0 0.018305341786402776 -0.034269892057014723 0 0.018031706556261351 -0.032261957662672411 0 0.015855327898599607 -0.032861227198670559 0 0.018305341786402776 -0.034269892057014723 0 0.020133439595650199 -0.032615601519158682 0 0.018031706556261351 -0.032261957662672411 0 0.015219443386624711 -0.030624742598671619 0 0.015855327898599607 -0.032861227198670559 0 0.013289570554445296 -0.031775502073680933 0 0.015855327898599607 -0.032861227198670559 0 0.013289570554445296 -0.031775502073680933 0 0.013858732989513216 -0.034789041261939012 0 0.013289570554445296 -0.031775502073680933 0 0.011616074093360521 -0.033499578328324869 0 0.010538115881695752 -0.031580263399686011 0 0.013289570554445296 -0.031775502073680933 0 0.011616074093360521 -0.033499578328324869 0 0.013858732989513216 -0.034789041261939012 0 0.013289570554445296 -0.031775502073680933 0 0.011704738661857714 -0.029545103433130677 0 0.010538115881695752 -0.031580263399686011 0 0.013289570554445296 -0.031775502073680933 0 0.013737050655891057 -0.029420217020763587 0 0.011704738661857714 -0.029545103433130677 0 0.015219443386624711 -0.030624742598671619 0 0.013289570554445296 -0.031775502073680933 0 0.013737050655891057 -0.029420217020763587 0 0.013737050655891057 -0.029420217020763587 0 0.012694463078534035 -0.027840715918301204 0 0.014459030057949109 -0.026839516509969748 0 0.013720157936798738 -0.029170882345047836 0 0.01413754933451968 -0.026253072983849851 0 0.011704738661857714 -0.029545103433130677 0 0.012694463078534035 -0.027840715918301204 0 0.010716504944880977 -0.027493508674201295 0 0.013737050655891057 -0.029420217020763587 0 0.011704738661857714 -0.029545103433130677 0 0.012694463078534035 -0.027840715918301204 0 0.010716504944880977 -0.027493508674201295 0 0.0099000559923971606 -0.025618328032503197 0 0.012368349816409083 -0.025452466635128033 0 0.012694463078534035 -0.027840715918301204 0 0.010716504944880977 -0.027493508674201295 0 0.012368349816409083 -0.025452466635128033 0 0.012694463078534035 -0.027840715918301204 0 0.014459030057949109 -0.026839516509969748 0 0.012368349816409083 -0.025452466635128033 0 0.0079247552212789851 -0.027275398966328475 0 0.010716504944880977 -0.027493508674201295 0 0.0099000559923971606 -0.025618328032503197 0 0.011704738661857714 -0.029545103433130677 0 0.010716504944880977 -0.027493508674201295 0 0.0091544851703915606 -0.029332075426037451 0 0.0079247552212789851 -0.027275398966328475 0 0.010716504944880977 -0.027493508674201295 0 0.0091544851703915606 -0.029332075426037451 0 0.0079247552212789851 -0.027275398966328475 0 0.0091544851703915606 -0.029332075426037451 0 0.0058289103770028808 -0.029425744758576844 0 0.0091544851703915606 -0.029332075426037451 0 0.0079573150896678022 -0.031378921269232689 0 0.0058289103770028808 -0.029425744758576844 0 0.011704738661857714 -0.029545103433130677 0 0.0091544851703915606 -0.029332075426037451 0 0.010538115881695752 -0.031580263399686011 0 0.0091544851703915606 -0.029332075426037451 0 0.0079573150896678022 -0.031378921269232689 0 0.010538115881695752 -0.031580263399686011 0 0.0079573150896678022 -0.031378921269232689 0 0.010538115881695752 -0.031580263399686011 0 0.0091574001186841298 -0.0337856452264087 0 0.011616074093360521 -0.033499578328324869 0 0.010538115881695752 -0.031580263399686011 0 0.0091574001186841298 -0.0337856452264087 0 0.0079573150896678022 -0.031378921269232689 0 0.0091574001186841298 -0.0337856452264087 0 0.0061372355037217401 -0.033045585205435622 0 0.0076932293116794368 -0.035057949578720896 0 0.0091574001186841298 -0.0337856452264087 0 0.0089852219707840415 -0.036669731530588917 0 0.0076932293116794368 -0.035057949578720896 0 0.0091574001186841298 -0.0337856452264087 0 0.0061372355037217401 -0.033045585205435622 0 0.0076932293116794368 -0.035057949578720896 0 0.0089852219707840415 -0.036669731530588917 0 0.0065307312588086704 -0.036762262149145672 0 0.0089852219707840415 -0.036669731530588917 0 0.0078644849477584964 -0.037936148125699697 0 0.0065713015879056468 -0.036909268563655187 0 0.005760716140904799 -0.036988660918189468 0 0.014668368633151943 -0.035194871277526539 0 0.0089852219707840415 -0.036669731530588917 0 0.010873630622474418 -0.037708356027257632 0 0.011268363739098376 -0.035638507234215473 0 0.011616074093360521 -0.033499578328324869 0 0.0091574001186841298 -0.0337856452264087 0 0.011268363739098376 -0.035638507234215473 0 0.0091574001186841298 -0.0337856452264087 0 0.0089852219707840415 -0.036669731530588917 0 0.011268363739098376 -0.035638507234215473 0 0.011616074093360521 -0.033499578328324869 0 0.011268363739098376 -0.035638507234215473 0 0.013858732989513216 -0.034789041261939012 0 0.015377453271640485 -0.037415694250969793 0 0.013858732989513216 -0.034789041261939012 0 0.012928718051550421 -0.037438841253723744 0 0.010873630622474418 -0.037708356027257632 0 0.011268363739098376 -0.035638507234215473 0 0.012928718051550421 -0.037438841253723744 0 0.011268363739098376 -0.035638507234215473 0 0.013858732989513216 -0.034789041261939012 0 0.012928718051550421 -0.037438841253723744 0 0.012928718051550421 -0.037438841253723744 0 0.012159862265422577 -0.039738416462702777 0 0.014140071778227837 -0.039126294504787482 0 0.010873630622474418 -0.037708356027257632 0 0.012928718051550421 -0.037438841253723744 0 0.012159862265422577 -0.039738416462702777 0 0.015377453271640485 -0.037415694250969793 0 0.012928718051550421 -0.037438841253723744 0 0.014140071778227837 -0.039126294504787482 0 0.015829390302826561 -0.039378436235031816 0 0.015377453271640485 -0.037415694250969793 0 0.014140071778227837 -0.039126294504787482 0 0.015829390302826561 -0.039378436235031816 0 0.014140071778227837 -0.039126294504787482 0 0.01470384646438175 -0.041185916672184734 0 0.012159862265422577 -0.039738416462702777 0 0.014140071778227837 -0.039126294504787482 0 0.01470384646438175 -0.041185916672184734 0 0.012934257210799847 -0.042511075766211021 0 0.012159862265422577 -0.039738416462702777 0 0.01470384646438175 -0.041185916672184734 0 0.012934257210799847 -0.042511075766211021 0 0.012159862265422577 -0.039738416462702777 0 0.010680776234367601 -0.041450880960007729 0 0.010680776234367601 -0.041450880960007729 0 0.0084841013042303119 -0.041557700937888353 0 0.0091597394750902224 -0.039167773710505907 0 0.012159862265422577 -0.039738416462702777 0 0.010680776234367601 -0.041450880960007729 0 0.0091597394750902224 -0.039167773710505907 0 0.022610390977047121 -0.0413443302586749 0 0.021852645010641564 -0.040254825140671899 0 0.022006529710900193 -0.04149359435236042 0 0.014676067914183345 -0.041153760400001516 0 0.021769367576397559 -0.038772417103835569 0 0.0084841013042303119 -0.041557700937888353 0 0.0091597394750902224 -0.039167773710505907 0 0.0067979405127976938 -0.039134095555317494 0 0.0089852219707840415 -0.036669731530588917 0 0.0078644849477584964 -0.037936148125699697 0 0.0091597394750902224 -0.039167773710505907 0 0.0078644849477584964 -0.037936148125699697 0 0.0091597394750902224 -0.039167773710505907 0 0.0067979405127976938 -0.039134095555317494 0 0.010873630622474418 -0.037708356027257632 0 0.012159862265422577 -0.039738416462702777 0 0.0091597394750902224 -0.039167773710505907 0 0.0089852219707840415 -0.036669731530588917 0 0.010873630622474418 -0.037708356027257632 0 0.0091597394750902224 -0.039167773710505907 0 0.03520385005196798 -0.038705057007441451 0 0.034545042299747017 -0.038807700845610936 0 0.034865001230672904 -0.03920212058896743 0 0.03520385005196798 -0.038705057007441451 0 0.035661541676728158 -0.039150091541772757 0 0.034865001230672904 -0.03920212058896743 0 0.021769367576397559 -0.038772417103835569 0 0.014668368633151943 -0.035194871277526539 0 0.021769367576397559 -0.038772417103835569 0 0.031943960282068702 -0.033839003491680709 0 0.0078644849477584964 -0.037936148125699697 0 0.0067979405127976938 -0.039134095555317494 0 0.0065713015879056468 -0.036909268563655187 0 0.034545042299747017 -0.038807700845610936 0 0.034521184566436235 -0.038353783526333632 0 0.034914440857812902 -0.038416270950521976 0 0.021769367576397559 -0.038772417103835569 0 0.028688556505393776 -0.040283797816592769 0 0.035426181805809656 -0.038182725999459113 0 0.03520385005196798 -0.038705057007441451 0 0.034914440857812902 -0.038416270950521976 0 0.03520385005196798 -0.038705057007441451 0 0.034545042299747017 -0.038807700845610936 0 0.034914440857812902 -0.038416270950521976 0 0.035426181805809656 -0.038182725999459113 0 0.03520385005196798 -0.038705057007441451 0 0.035857744766642732 -0.038602169906080855 0 0.035979079750386646 -0.03815861038053623 0 0.035857744766642732 -0.038602169906080855 0 0.036381970896040471 -0.038430083445869442 0 0.035857744766642732 -0.038602169906080855 0 0.035661541676728158 -0.039150091541772757 0 0.036428480169929528 -0.039058756703744806 0 0.03520385005196798 -0.038705057007441451 0 0.035857744766642732 -0.038602169906080855 0 0.035661541676728158 -0.039150091541772757 0 0.037950232877541429 -0.028425802780774154 0 0.037450185133025247 -0.028760006175909753 0 0.036832795740987238 -0.028521941945228699 0 0.037950232877541429 -0.028425802780774154 0 0.037450185133025247 -0.028760006175909753 0 0.037831960428159228 -0.028913245621192928 0 0.037950232877541429 -0.028425802780774154 0 0.0387057333069937 -0.028567942029228653 0 0.039054596300119003 -0.028377190978044364 0 0.03682644529886115 -0.033844281314768652 0 0.041532062249200918 -0.033321120943106304 0 0.037950232877541429 -0.028425802780774154 0 0.038274694206288498 -0.028795631751272411 0 0.0387057333069937 -0.028567942029228653 0 0.037950232877541429 -0.028425802780774154 0 0.038274694206288498 -0.028795631751272411 0 0.037831960428159228 -0.028913245621192928 0 0.038274694206288498 -0.028795631751272411 0 0.038633199515483156 -0.029014809232369026 0 0.0387057333069937 -0.028567942029228653 0 0.038274694206288498 -0.028795631751272411 0 0.038229128253780761 -0.029083527135870871 0 0.038633199515483156 -0.029014809232369026 0 0.038274694206288498 -0.028795631751272411 0 0.038229128253780761 -0.029083527135870871 0 0.037831960428159228 -0.028913245621192928 0 0.038229128253780761 -0.029083527135870871 0 0.03790199961171635 -0.029401656727277084 0 0.03845790994828871 -0.029373204560868508 0 0.038229128253780761 -0.029083527135870871 0 0.03845790994828871 -0.029373204560868508 0 0.038633199515483156 -0.029014809232369026 0 0.037450185133025247 -0.028760006175909753 0 0.037831960428159228 -0.028913245621192928 0 0.037433675245602496 -0.02917575327424643 0 0.038229128253780761 -0.029083527135870871 0 0.037831960428159228 -0.028913245621192928 0 0.03790199961171635 -0.029401656727277084 0 0.037831960428159228 -0.028913245621192928 0 0.037433675245602496 -0.02917575327424643 0 0.03790199961171635 -0.029401656727277084 0 0.032816703925324993 -0.029534241425371522 0 0.030617431862186156 -0.030473565151662385 0 0.024342673864924433 -0.031307785347467816 0 0.024044425461731696 -0.03199953941873681 0 0.02516385068503689 -0.032720964694928037 0 0.037433675245602496 -0.02917575327424643 0 0.037208402036121989 -0.028924921065393731 0 0.037378907787369534 -0.029597243420901143 0 0.024342673864924433 -0.031307785347467816 0 0.024044425461731696 -0.03199953941873681 0 0.02388006873933235 -0.030666743823880221 0 0.037450185133025247 -0.028760006175909753 0 0.037433675245602496 -0.02917575327424643 0 0.037194503444303757 -0.02892927903756529 0 0.036108816036596166 -0.030211504155669658 0 0.032816703925324993 -0.029534241425371522 0 0.024044425461731696 -0.03199953941873681 0 0.024562860382885802 -0.032753418466084976 0 0.02516385068503689 -0.032720964694928037 0 0.037450185133025247 -0.028760006175909753 0 0.037194503444303757 -0.02892927903756529 0 0.036832795740987238 -0.028521941945228699 0 0.03682644529886115 -0.033844281314768652 0 0.031943960282068702 -0.033839003491680709 0 0.032816703925324993 -0.029534241425371522 0 0.031943960282068702 -0.033839003491680709 0 0.023119076595878831 -0.035965375456267955 0 0.022902059817729952 -0.035575862435609298 0 0.023087203967341503 -0.035568007778452509 0 0.031943960282068702 -0.033839003491680709 0 0.014668368633151943 -0.035194871277526539 0 0.0076932293116794368 -0.035057949578720896 0 0.0065307312588086704 -0.036762262149145672 0 0.0061372355037217401 -0.033045585205435622 0 0.024342673864924433 -0.031307785347467816 0 0.02516385068503689 -0.032720964694928037 0 0.025009692476906705 -0.030891827922982111 0 0.014668368633151943 -0.035194871277526539 0 0.015747589789474926 -0.031806194085482138 0 0.025009692476906705 -0.030891827922982111 0 0.02454095054066141 -0.030571631728899401 0 0.02423959491757724 -0.029508705709116668 0 0.024342673864924433 -0.031307785347467816 0 0.025009692476906705 -0.030891827922982111 0 0.02454095054066141 -0.030571631728899401 0 0.02388006873933235 -0.030666743823880221 0 0.02454095054066141 -0.030571631728899401 0 0.023780971251532154 -0.029610408875290886 0 0.024342673864924433 -0.031307785347467816 0 0.02388006873933235 -0.030666743823880221 0 0.02454095054066141 -0.030571631728899401 0 0.022786669519965028 -0.029998394859720487 0 0.029107045460714496 -0.029029304819666146 0 0.030617431862186156 -0.030473565151662385 0 0.029107045460714496 -0.029029304819666146 0 0.02454095054066141 -0.030571631728899401 0 0.02423959491757724 -0.029508705709116668 0 0.02307220135069829 -0.028803031091989478 0 0.02423959491757724 -0.029508705709116668 0 0.023874148426560382 -0.028780895401002735 0 0.02478336679207151 -0.028299519293752361 0 0.02423959491757724 -0.029508705709116668 0 0.023874148426560382 -0.028780895401002735 0 0.02307220135069829 -0.028803031091989478 0 0.023874148426560382 -0.028780895401002735 0 0.023676845046272668 -0.028263526723696648 0 0.02307220135069829 -0.028803031091989478 0 0.025009692476906705 -0.030891827922982111 0 0.02423959491757724 -0.029508705709116668 0 0.02478336679207151 -0.028299519293752361 0 0.0079573150896678022 -0.031378921269232689 0 0.0061372355037217401 -0.033045585205435622 0 0.0058289103770028808 -0.029425744758576844 0 0.015747589789474926 -0.031806194085482138 0 0.015209465275814774 -0.029177376700910279 0 0.023900690400302693 -0.027283191676262537 0 0.023647586425230713 -0.026338181590627945 0 0.022928850658378023 -0.02798459130971662 0 0.02478336679207151 -0.028299519293752361 0 0.023676845046272668 -0.028263526723696648 0 0.023900690400302693 -0.027283191676262537 0 0.030269858307483997 -0.025662376813432093 0 0.031965232053053183 -0.028162757322906001 0 0.023874148426560382 -0.028780895401002735 0 0.02478336679207151 -0.028299519293752361 0 0.023676845046272668 -0.028263526723696648 0 0.023676845046272668 -0.028263526723696648 0 0.022928850658378023 -0.02798459130971662 0 0.02307220135069829 -0.028803031091989478 0 0.023676845046272668 -0.028263526723696648 0 0.023900690400302693 -0.027283191676262537 0 0.022928850658378023 -0.02798459130971662 0 0.023900690400302693 -0.027283191676262537 0 0.023647586425230713 -0.026338181590627945 0 0.024483115548471771 -0.025495085166690409 0 0.02478336679207151 -0.028299519293752361 0 0.023900690400302693 -0.027283191676262537 0 0.024483115548471771 -0.025495085166690409 0 0.030269858307483997 -0.025662376813432093 0 0.035248486817497364 -0.026316028541287052 0 0.051013116728714572 -0.021564664700957095 0 0.050105219459077949 -0.021997350780776238 0 0.050599091067546897 -0.021169780897163724 0 0.03155851427298028 -0.020949512295622343 0 0.045484207112682862 -0.023337496573035219 0 0.035797368913194787 -0.024163734959966005 0 0.035650326779864801 -0.024355727045435819 0 0.036178030017932371 -0.024165669302060069 0 0.030269858307483997 -0.025662376813432093 0 0.03155851427298028 -0.020949512295622343 0 0.023647586425230713 -0.026338181590627945 0 0.024015076051185354 -0.025710965067156106 0 0.024483115548471771 -0.025495085166690409 0 0.03155851427298028 -0.020949512295622343 0 0.015600530827401118 -0.02443033264073597 0 0.0079247552212789851 -0.027275398966328475 0 0.0058289103770028808 -0.029425744758576844 0 0.0055248849881606834 -0.025968997292494248 0 0.015209465275814774 -0.029177376700910279 0 0.015600530827401118 -0.02443033264073597 0 0.043174303703327831 -0.026678791844781731 0 0.047947965592685028 -0.022032603635544219 0 0.04922727048762391 -0.022571817395449806 0 0.048194604252810101 -0.021281209830692135 0 0.049173580635822549 -0.021535333074046502 0 0.04922727048762391 -0.022571817395449806 0 0.049648140237488723 -0.021878616365339668 0 0.049173580635822549 -0.021535333074046502 0 0.049648140237488723 -0.021878616365339668 0 0.050038534384962488 -0.021323662253312611 0 0.049173580635822549 -0.021535333074046502 0 0.049648140237488723 -0.021878616365339668 0 0.050156958609417851 -0.022161420038852696 0 0.050038534384962488 -0.021323662253312611 0 0.045484207112682862 -0.023337496573035219 0 0.048537138785075658 -0.021682737185657795 0 0.045484207112682862 -0.023337496573035219 0 0.035248486817497364 -0.026316028541287052 0 0.035797368913194787 -0.024163734959966005 0 0.036178030017932371 -0.024165669302060069 0 0.036095633837573492 -0.023754317161408203 0 0.043174303703327831 -0.026678791844781731 0 0.045484207112682862 -0.023337496573035219 0 0.04922727048762391 -0.022571817395449806 0 0.049648140237488723 -0.021878616365339668 0 0.050156958609417851 -0.022161420038852696 0 0.040961700478238855 -0.026236648086423023 0 0.041222688455730849 -0.026112663190370641 0 0.041141123942188169 -0.026308707313224867 0 0.043174303703327831 -0.026678791844781731 0 0.036975533750696989 -0.028661771919944408 0 0.038191741665314659 -0.030901593979333529 0 0.037762447667760254 -0.030463582209884849 0 0.03798034461834443 -0.030385343314383681 0 0.040961700478238855 -0.026236648086423023 0 0.041141123942188169 -0.026308707313224867 0 0.041164026108834066 -0.026523022357750212 0 0.031844652375227038 -0.026328789290916681 0 0.031813490886566737 -0.026477312404794621 0 0.031825295399251573 -0.026512284539335719 0 0.041222688455730849 -0.026112663190370641 0 0.041141123942188169 -0.026308707313224867 0 0.041241101429623325 -0.026405753689935224 0 0.041141123942188169 -0.026308707313224867 0 0.041241101429623325 -0.026405753689935224 0 0.041164026108834066 -0.026523022357750212 0 0.031965232053053183 -0.028162757322906001 0 0.029107045460714496 -0.029029304819666146 0 0.030963336824338456 -0.028609556257097941 0 0.0307965052122573 -0.02895775045217943 0 0.031065650628178284 -0.029290593895688336 0 0.035248486817497364 -0.026316028541287052 0 0.031965232053053183 -0.028162757322906001 0 0.034977143737091043 -0.027499757739096981 0 0.03508001774730251 -0.028115805009000308 0 0.034345337882856312 -0.028514872628475817 0 0.035248486817497364 -0.026316028541287052 0 0.036975533750696989 -0.028661771919944408 0 0.037762447667760254 -0.030463582209884849 0 0.037697754124320998 -0.030388688993144748 0 0.037824093700642852 -0.030339047069291809 0 0.03508001774730251 -0.028115805009000308 0 0.034345337882856312 -0.028514872628475817 0 0.034695701459446275 -0.028936471420699286 0 0.036975533750696989 -0.028661771919944408 0 0.034664868773158622 -0.02907471863347795 0 0.031965232053053183 -0.028162757322906001 0 0.034664868773158622 -0.02907471863347795 0 0.037762447667760254 -0.030463582209884849 0 0.03798034461834443 -0.030385343314383681 0 0.037824093700642852 -0.030339047069291809 0 0.038191741665314659 -0.030901593979333529 0 0.038376900153083503 -0.030374753965080614 0 0.039049200961062604 -0.030533075746271007 0 0.038191741665314659 -0.030901593979333529 0 0.03798034461834443 -0.030385343314383681 0 0.038376900153083503 -0.030374753965080614 0 0.043174303703327831 -0.026678791844781731 0 0.043707286915557808 -0.028050664680520719 0 0.038111345060174065 -0.030051803474286379 0 0.037730620715528219 -0.029798243290587348 0 0.038299145319696609 -0.029719163731241702 0 0.038376900153083503 -0.030374753965080614 0 0.038111345060174065 -0.030051803474286379 0 0.038570065130270996 -0.03005593094533783 0 0.03798034461834443 -0.030385343314383681 0 0.038376900153083503 -0.030374753965080614 0 0.038111345060174065 -0.030051803474286379 0 0.038111345060174065 -0.030051803474286379 0 0.038570065130270996 -0.03005593094533783 0 0.038299145319696609 -0.029719163731241702 0 0.037378907787369534 -0.029597243420901143 0 0.037518987919645592 -0.030259640163783793 0 0.037730620715528219 -0.029798243290587348 0 0.034664868773158622 -0.02907471863347795 0 0.029107045460714496 -0.029029304819666146 0 0.037642493075873806 -0.030406805544326888 0 0.037518987919645592 -0.030259640163783793 0 0.037781500239401425 -0.030165939948511106 0 0.034664868773158622 -0.02907471863347795 0 0.03609681224833837 -0.029475334833541585 0 0.037697754124320998 -0.030388688993144748 0 0.037781500239401425 -0.030165939948511106 0 0.037824093700642852 -0.030339047069291809 0 0.03798034461834443 -0.030385343314383681 0 0.038111345060174065 -0.030051803474286379 0 0.037781500239401425 -0.030165939948511106 0 0.03798034461834443 -0.030385343314383681 0 0.037781500239401425 -0.030165939948511106 0 0.037824093700642852 -0.030339047069291809 0 0.038111345060174065 -0.030051803474286379 0 0.037781500239401425 -0.030165939948511106 0 0.037730620715528219 -0.029798243290587348 0 0.037518987919645592 -0.030259640163783793 0 0.037781500239401425 -0.030165939948511106 0 0.037730620715528219 -0.029798243290587348 0 0.037730620715528219 -0.029798243290587348 0 0.03790199961171635 -0.029401656727277084 0 0.038299145319696609 -0.029719163731241702 0 0.037378907787369534 -0.029597243420901143 0 0.037730620715528219 -0.029798243290587348 0 0.03790199961171635 -0.029401656727277084 0 0.037433675245602496 -0.02917575327424643 0 0.037378907787369534 -0.029597243420901143 0 0.03790199961171635 -0.029401656727277084 0 0.03790199961171635 -0.029401656727277084 0 0.038299145319696609 -0.029719163731241702 0 0.03845790994828871 -0.029373204560868508 0 0.038570065130270996 -0.03005593094533783 0 0.038299145319696609 -0.029719163731241702 0 0.039005939160530537 -0.029597432463849167 0 0.038299145319696609 -0.029719163731241702 0 0.03845790994828871 -0.029373204560868508 0 0.039005939160530537 -0.029597432463849167 0 0.046847803814358983 -0.027333843509206583 0 0.046405828247138577 -0.027066617578004191 0 0.046390112927495217 -0.027693901662162179 0 0.046405828247138577 -0.027066617578004191 0 0.046033660727576996 -0.027454394795935588 0 0.046390112927495217 -0.027693901662162179 0 0.046405828247138577 -0.027066617578004191 0 0.04680787856794074 -0.026387792104050106 0 0.046240270432159732 -0.026621919870247594 0 0.046847803814358983 -0.027333843509206583 0 0.046405828247138577 -0.027066617578004191 0 0.04680787856794074 -0.026387792104050106 0 0.042854047073144462 -0.028483883641625692 0 0.043707286915557808 -0.028050664680520719 0 0.038570065130270996 -0.03005593094533783 0 0.039005939160530537 -0.029597432463849167 0 0.039049200961062604 -0.030533075746271007 0 0.038376900153083503 -0.030374753965080614 0 0.038570065130270996 -0.03005593094533783 0 0.039049200961062604 -0.030533075746271007 0 0.046749644330033154 -0.026199574150519142 0 0.046260703815593184 -0.02602330114952434 0 0.046192654039973094 -0.026455751196965558 0 0.046749644330033154 -0.026199574150519142 0 0.046260703815593184 -0.02602330114952434 0 0.046745302536271467 -0.025599813236382912 0 0.043707286915557808 -0.028050664680520719 0 0.046846371657782736 -0.026219554958892759 0 0.046980769004419859 -0.024969478270643167 0 0.04709122504183412 -0.02405345134275556 0 0.047558015349736291 -0.023954313127644698 0 0.047952673811389575 -0.022462219314775593 0 0.048675426287612698 -0.022648327079216886 0 0.047558015349736291 -0.023954313127644698 0 0.047952673811389575 -0.022462219314775593 0 0.047173883095227513 -0.022495473197943695 0 0.047952673811389575 -0.022462219314775593 0 0.048675426287612698 -0.022648327079216886 0 0.048572149105967258 -0.021921651184454913 0 0.04709122504183412 -0.02405345134275556 0 0.047780615197568474 -0.022247246432600242 0 0.046026615817022797 -0.025647973962044105 0 0.044484735605284431 -0.025138050636299907 0 0.045161077684634218 -0.024564824323125786 0 0.046026615817022797 -0.025647973962044105 0 0.044488437077848192 -0.026333181331450767 0 0.044484735605284431 -0.025138050636299907 0 0.043707286915557808 -0.028050664680520719 0 0.04709122504183412 -0.02405345134275556 0 0.04709122504183412 -0.02405345134275556 0 0.047947965592685028 -0.022032603635544219 0 0.046466277886041303 -0.023499366614291882 0 0.044999817959360554 -0.024012268193120037 0 0.04623062234111136 -0.021748291314510493 0 0.046466277886041303 -0.023499366614291882 0 0.047173883095227513 -0.022495473197943695 0 0.04623062234111136 -0.021748291314510493 0 0.047558015349736291 -0.023954313127644698 0 0.046466277886041303 -0.023499366614291882 0 0.047173883095227513 -0.022495473197943695 0 0.046980769004419859 -0.024969478270643167 0 0.045996283900982982 -0.025906252935036338 0 0.047558015349736291 -0.023954313127644698 0 0.046466277886041303 -0.023499366614291882 0 0.04634591349298689 -0.025342419452111905 0 0.046260703815593184 -0.02602330114952434 0 0.045749580323671789 -0.026447946833307829 0 0.046192654039973094 -0.026455751196965558 0 0.046466277886041303 -0.023499366614291882 0 0.044999817959360554 -0.024012268193120037 0 0.04634591349298689 -0.025342419452111905 0 0.044999817959360554 -0.024012268193120037 0 0.044999984782071602 -0.02671577778891689 0 0.04634591349298689 -0.025342419452111905 0 0.045541931756291003 -0.026701524114203165 0 0.045000152337396453 -0.026716896545669565 0 0.045749580323671789 -0.026447946833307829 0 0.045000207059663157 -0.026715781536156027 0 0.045996283900982982 -0.025906252935036338 0 0.045345804806963284 -0.026826354585802282 0 0.046846371657782736 -0.026219554958892759 0 0.045541931756291003 -0.026701524114203165 0 0.046240270432159732 -0.026621919870247594 0 0.046021584740314876 -0.026992660215548182 0 0.045541931756291003 -0.026701524114203165 0 0.045749580323671789 -0.026447946833307829 0 0.046192654039973094 -0.026455751196965558 0 0.045541931756291003 -0.026701524114203165 0 0.046021584740314876 -0.026992660215548182 0 0.045699278707432039 -0.027273038267446849 0 0.046405828247138577 -0.027066617578004191 0 0.046240270432159732 -0.026621919870247594 0 0.046021584740314876 -0.026992660215548182 0 0.046405828247138577 -0.027066617578004191 0 0.046021584740314876 -0.026992660215548182 0 0.046033660727576996 -0.027454394795935588 0 0.046021584740314876 -0.026992660215548182 0 0.046033660727576996 -0.027454394795935588 0 0.045699278707432039 -0.027273038267446849 0 0.046033660727576996 -0.027454394795935588 0 0.045720741602326267 -0.027676971350410112 0 0.045995209765942791 -0.027804776405792035 0 0.046033660727576996 -0.027454394795935588 0 0.045699278707432039 -0.027273038267446849 0 0.045720741602326267 -0.027676971350410112 0 0.045000152337396453 -0.026716896545669565 0 0.045302272194322847 -0.027674178820858073 0 0.044999697277564102 -0.028795798574859796 0 0.045000152337396453 -0.026716896545669565 0 0.045699278707432039 -0.027273038267446849 0 0.045302272194322847 -0.027674178820858073 0 0.045541931756291003 -0.026701524114203165 0 0.045000152337396453 -0.026716896545669565 0 0.045699278707432039 -0.027273038267446849 0 0.045699278707432039 -0.027273038267446849 0 0.045720741602326267 -0.027676971350410112 0 0.045302272194322847 -0.027674178820858073 0 0.045271546300405807 -0.027609186170865239 0 0.045551597374808225 -0.02934809901211324 0 0.045302272194322847 -0.027674178820858073 0 0.044999697277564102 -0.028795798574859796 0 0.046029045427517901 -0.029071389585088692 0 0.044999995719367823 -0.028796724267835486 0 0.045986426236952448 -0.029064095025759823 0 0.045889765142163481 -0.03025266990558198 0 0.045720741602326267 -0.027676971350410112 0 0.045302272194322847 -0.027674178820858073 0 0.045586274149103705 -0.028013282619809742 0 0.045000503987539582 -0.028797039254691761 0 0.045551597374808225 -0.02934809901211324 0 0.044999995719367823 -0.028796724267835486 0 0.045889765142163481 -0.03025266990558198 0 0.044999996818965146 -0.031048297103777156 0 0.045986426236952448 -0.029064095025759823 0 0.045889765142163481 -0.03025266990558198 0 0.046880844708413076 -0.030912791296181484 0 0.045889765142163481 -0.03025266990558198 0 0.046880844708413076 -0.030912791296181484 0 0.044999996818965146 -0.031048297103777156 0 0.045907456584420248 -0.031274303269308544 0 0.045277904803479395 -0.029977401124960772 0 0.044638222261550717 -0.030954620567447952 0 0.045551597374808225 -0.02934809901211324 0 0.046906182843321327 -0.030809946430381895 0 0.045586274149103705 -0.028013282619809742 0 0.046215359276785509 -0.028152334387845257 0 0.045995209765942791 -0.027804776405792035 0 0.045551597374808225 -0.02934809901211324 0 0.045926988191562275 -0.029702987777132872 0 0.045720741602326267 -0.027676971350410112 0 0.045586274149103705 -0.028013282619809742 0 0.045995209765942791 -0.027804776405792035 0 0.046033660727576996 -0.027454394795935588 0 0.045995209765942791 -0.027804776405792035 0 0.046390112927495217 -0.027693901662162179 0 0.046215359276785509 -0.028152334387845257 0 0.045995209765942791 -0.027804776405792035 0 0.046390112927495217 -0.027693901662162179 0 0.046847803814358983 -0.027333843509206583 0 0.046390112927495217 -0.027693901662162179 0 0.046831315830872806 -0.028324245800029749 0 0.046215359276785509 -0.028152334387845257 0 0.046390112927495217 -0.027693901662162179 0 0.046831315830872806 -0.028324245800029749 0 0.039005939160530537 -0.029597432463849167 0 0.038633199515483156 -0.029014809232369026 0 0.03900397505687208 -0.028645034203619614 0 0.03845790994828871 -0.029373204560868508 0 0.039005939160530537 -0.029597432463849167 0 0.038633199515483156 -0.029014809232369026 0 0.042854047073144462 -0.028483883641625692 0 0.042660265313130573 -0.028810688545354762 0 0.038740304053898077 -0.028212084661708731 0 0.042660265313130573 -0.028810688545354762 0 0.038633199515483156 -0.029014809232369026 0 0.0387057333069937 -0.028567942029228653 0 0.03900397505687208 -0.028645034203619614 0 0.042660265313130573 -0.028810688545354762 0 0.041532062249200918 -0.033321120943106304 0 0.0387057333069937 -0.028567942029228653 0 0.039071406233885497 -0.028679423784076827 0 0.039054596300119003 -0.028377190978044364 0 0.045277904803479395 -0.029977401124960772 0 0.044638222261550717 -0.030954620567447952 0 0.043328713117779076 -0.030117918536612543 0 0.044638222261550717 -0.030954620567447952 0 0.043338016888168705 -0.030623727054153099 0 0.043328713117779076 -0.030117918536612543 0 0.045926988191562275 -0.029702987777132872 0 0.042660265313130573 -0.028810688545354762 0 0.046906182843321327 -0.030809946430381895 0 0.041532062249200918 -0.033321120943106304 0 0.048511801844154059 -0.031725397301452615 0 0.048649052767273895 -0.033627444467520168 0 0.047142598552055756 -0.03317606037531854 0 0.046486393659955459 -0.031861050065196996 0 0.048511801844154059 -0.031725397301452615 0 0.047142598552055756 -0.03317606037531854 0 0.041532062249200918 -0.033321120943106304 0 0.042637692459293913 -0.036667866440743851 0 0.035857744766642732 -0.038602169906080855 0 0.036428480169929528 -0.039058756703744806 0 0.036381970896040471 -0.038430083445869442 0 0.047847666222302569 -0.034567419702542866 0 0.048649052767273895 -0.033627444467520168 0 0.047142598552055756 -0.03317606037531854 0 0.047790856498731715 -0.034380724652145714 0 0.047196353673508371 -0.033098976757647489 0 0.046536932560484946 -0.034173836015899392 0 0.047238028264633664 -0.032789550630981774 0 0.044998832585498631 -0.031049612056481098 0 0.046536932560484946 -0.034173836015899392 0 0.047847666222302569 -0.034567419702542866 0 0.047238028264633664 -0.032789550630981774 0 0.046906182843321327 -0.030809946430381895 0 0.045000160520916439 -0.031048383720856332 0 0.046589070377145866 -0.031091403028219135 0 0.047238028264633664 -0.032789550630981774 0 0.044998832585498631 -0.031049612056481098 0 0.046906182843321327 -0.030809946430381895 0 0.047196353673508371 -0.033098976757647489 0 0.047483910995603236 -0.013039629847239042 0 0.044999851915587738 -0.013198990485940518 0 0.046300094183302748 -0.015110174089181054 0 0.044999851915587738 -0.013198990485940518 0 0.04697170872172414 -0.010970546589908732 0 0.044999894161519671 -0.010495714220485968 0 0.047483910995603236 -0.013039629847239042 0 0.044999851915587738 -0.013198990485940518 0 0.04697170872172414 -0.010970546589908732 0 0.047483910995603236 -0.013039629847239042 0 0.04852401528533571 -0.011565892330916714 0 0.04697170872172414 -0.010970546589908732 0 0.04852401528533571 -0.011565892330916714 0 0.049859383123040654 -0.011511717722906026 0 0.049390117819037023 -0.012945913283153259 0 0.047483910995603236 -0.013039629847239042 0 0.04852401528533571 -0.011565892330916714 0 0.049390117819037023 -0.012945913283153259 0 0.047483910995603236 -0.013039629847239042 0 0.049390117819037023 -0.012945913283153259 0 0.04853577298229559 -0.014485458847066771 0 0.049390117819037023 -0.012945913283153259 0 0.04853577298229559 -0.014485458847066771 0 0.050594755731822739 -0.01405615736834656 0 0.047614433247466365 -0.015084805573041055 0 0.052996309846019857 -0.015105188214255183 0 0.048216597543367927 -0.015678432451154131 0 0.048578347172890127 -0.016896009650476069 0 0.049576610127388475 -0.015875684721975012 0 0.048216597543367927 -0.015678432451154131 0 0.048578347172890127 -0.016896009650476069 0 0.047365059977861702 -0.016477924577378185 0 0.047365059977861702 -0.016477924577378185 0 0.046300094183302748 -0.015110174089181054 0 0.046210136786193325 -0.016755097572268236 0 0.048216597543367927 -0.015678432451154131 0 0.047365059977861702 -0.016477924577378185 0 0.046300094183302748 -0.015110174089181054 0 0.047614433247466365 -0.015084805573041055 0 0.046650694422577355 -0.015121659250233278 0 0.047483910995603236 -0.013039629847239042 0 0.04853577298229559 -0.014485458847066771 0 0.046300094183302748 -0.015110174089181054 0 0.044999851915587738 -0.013198990485940518 0 0.046300094183302748 -0.015110174089181054 0 0.044999884582151053 -0.015902783001485048 0 0.046300094183302748 -0.015110174089181054 0 0.044999884582151053 -0.015902783001485048 0 0.046210136786193325 -0.016755097572268236 0 0.046210136786193325 -0.016755097572268236 0 0.047209096544760416 -0.017969568013934421 0 0.0449999322015242 -0.018605771163088865 0 0.044999884582151053 -0.015902783001485048 0 0.046210136786193325 -0.016755097572268236 0 0.0449999322015242 -0.018605771163088865 0 0.047365059977861702 -0.016477924577378185 0 0.046210136786193325 -0.016755097572268236 0 0.047209096544760416 -0.017969568013934421 0 0.047209096544760416 -0.017969568013934421 0 0.046205084248571344 -0.019921318977506878 0 0.047697265025378272 -0.019886982737466922 0 0.047209096544760416 -0.017969568013934421 0 0.0449999322015242 -0.018605771163088865 0 0.046205084248571344 -0.019921318977506878 0 0.0449999322015242 -0.018605771163088865 0 0.046205084248571344 -0.019921318977506878 0 0.044999820074960978 -0.021309078664195801 0 0.046205084248571344 -0.019921318977506878 0 0.04623062234111136 -0.021748291314510493 0 0.044999820074960978 -0.021309078664195801 0 0.046291545495498673 -0.021619526596977655 0 0.047505074675728114 -0.020000960257640536 0 0.046205084248571344 -0.019921318977506878 0 0.04623062234111136 -0.021748291314510493 0 0.047697265025378272 -0.019886982737466922 0 0.047173883095227513 -0.022495473197943695 0 0.04623062234111136 -0.021748291314510493 0 0.047771809674426471 -0.021317962292212521 0 0.04623062234111136 -0.021748291314510493 0 0.047771809674426471 -0.021317962292212521 0 0.047364886893603471 -0.020055836718402362 0 0.044999817959360554 -0.024012268193120037 0 0.04623062234111136 -0.021748291314510493 0 0.044999820074960978 -0.021309078664195801 0 0.048707618171053083 -0.020899707066985396 0 0.048572149105967258 -0.021921651184454913 0 0.047771809674426471 -0.021317962292212521 0 0.048647335866730118 -0.021290478956831276 0 0.047947965592685028 -0.022032603635544219 0 0.048707618171053083 -0.020899707066985396 0 0.049055362925750662 -0.021228514568436 0 0.049171104207776491 -0.020710231304889287 0 0.048576342999084476 -0.022632949172052084 0 0.049526704902135364 -0.021811801955481481 0 0.048572149105967258 -0.021921651184454913 0 0.048707618171053083 -0.020899707066985396 0 0.049526704902135364 -0.021811801955481481 0 0.048572149105967258 -0.021921651184454913 0 0.047952673811389575 -0.022462219314775593 0 0.048572149105967258 -0.021921651184454913 0 0.047771809674426471 -0.021317962292212521 0 0.047952673811389575 -0.022462219314775593 0 0.047173883095227513 -0.022495473197943695 0 0.047771809674426471 -0.021317962292212521 0 0.048707618171053083 -0.020899707066985396 0 0.047771809674426471 -0.021317962292212521 0 0.048319813467517854 -0.020126737881250637 0 0.047771809674426471 -0.021317962292212521 0 0.047364886893603471 -0.020055836718402362 0 0.048319813467517854 -0.020126737881250637 0 0.048707618171053083 -0.020899707066985396 0 0.048319813467517854 -0.020126737881250637 0 0.04922416687517947 -0.019900992541392427 0 0.048707618171053083 -0.020899707066985396 0 0.04922416687517947 -0.019900992541392427 0 0.049171104207776491 -0.020710231304889287 0 0.048319813467517854 -0.020126737881250637 0 0.048376421229484365 -0.018609545338669934 0 0.04922416687517947 -0.019900992541392427 0 0.047209096544760416 -0.017969568013934421 0 0.047697265025378272 -0.019886982737466922 0 0.04879600279060739 -0.018177046767768799 0 0.047505074675728114 -0.020000960257640536 0 0.048596923209061629 -0.018382647470614608 0 0.047364886893603471 -0.020055836718402362 0 0.048319813467517854 -0.020126737881250637 0 0.048376421229484365 -0.018609545338669934 0 0.048578347172890127 -0.016896009650476069 0 0.047209096544760416 -0.017969568013934421 0 0.04879600279060739 -0.018177046767768799 0 0.048578347172890127 -0.016896009650476069 0 0.047365059977861702 -0.016477924577378185 0 0.047209096544760416 -0.017969568013934421 0 0.048578347172890127 -0.016896009650476069 0 0.04879600279060739 -0.018177046767768799 0 0.049488754747125531 -0.017074034027438678 0 0.048596923209061629 -0.018382647470614608 0 0.049458411762232264 -0.01716499485076927 0 0.050251234174349312 -0.017563728069476581 0 0.049774359374127074 -0.018651982194561937 0 0.049488754747125531 -0.017074034027438678 0 0.048376421229484365 -0.018609545338669934 0 0.049774359374127074 -0.018651982194561937 0 0.049488754747125531 -0.017074034027438678 0 0.050251234174349312 -0.017563728069476581 0 0.050542353834718744 -0.018498241275027673 0 0.051169668076774109 -0.017331278508455929 0 0.050251234174349312 -0.017563728069476581 0 0.050542353834718744 -0.018498241275027673 0 0.049774359374127074 -0.018651982194561937 0 0.050542353834718744 -0.018498241275027673 0 0.050234656508359656 -0.019828003113568787 0 0.051279849806007506 -0.019109404091120611 0 0.050542353834718744 -0.018498241275027673 0 0.049774359374127074 -0.018651982194561937 0 0.050234656508359656 -0.019828003113568787 0 0.049774359374127074 -0.018651982194561937 0 0.04922416687517947 -0.019900992541392427 0 0.050234656508359656 -0.019828003113568787 0 0.048376421229484365 -0.018609545338669934 0 0.049774359374127074 -0.018651982194561937 0 0.04922416687517947 -0.019900992541392427 0 0.04922416687517947 -0.019900992541392427 0 0.050234656508359656 -0.019828003113568787 0 0.049675316698912002 -0.020587505150489505 0 0.04922416687517947 -0.019900992541392427 0 0.049171104207776491 -0.020710231304889287 0 0.049675316698912002 -0.020587505150489505 0 0.050234656508359656 -0.019828003113568787 0 0.04992806649635799 -0.020630477723174903 0 0.050572600357743663 -0.020472797931809738 0 0.050234656508359656 -0.019828003113568787 0 0.04992806649635799 -0.020630477723174903 0 0.049157443406976753 -0.020506136761358131 0 0.050068073530813856 -0.019979040764107871 0 0.049554275213554974 -0.020435593182110891 0 0.04992806649635799 -0.020630477723174903 0 0.050038534384962488 -0.021323662253312611 0 0.050572600357743663 -0.020472797931809738 0 0.050038534384962488 -0.021323662253312611 0 0.050599091067546897 -0.021169780897163724 0 0.050572600357743663 -0.020472797931809738 0 0.050105219459077949 -0.021997350780776238 0 0.050038534384962488 -0.021323662253312611 0 0.050599091067546897 -0.021169780897163724 0 0.04992806649635799 -0.020630477723174903 0 0.050038534384962488 -0.021323662253312611 0 0.049173580635822549 -0.021535333074046502 0 0.048194604252810101 -0.021281209830692135 0 0.049173580635822549 -0.021535333074046502 0 0.049157443406976753 -0.020506136761358131 0 0.049055362925750662 -0.021228514568436 0 0.049171104207776491 -0.020710231304889287 0 0.049675316698912002 -0.020587505150489505 0 0.047947965592685028 -0.022032603635544219 0 0.049554275213554974 -0.020435593182110891 0 0.04992806649635799 -0.020630477723174903 0 0.049173580635822549 -0.021535333074046502 0 0.049157443406976753 -0.020506136761358131 0 0.018746880430340038 -0.018240453388438976 0 0.018694745748795382 -0.017860120544265588 0 0.020115369260594488 -0.015825578984940775 0 0.0079247552212789851 -0.027275398966328475 0 0.0055248849881606834 -0.025968997292494248 0 0.0080450325065081311 -0.024842870890266086 0 0.015600530827401118 -0.02443033264073597 0 0.0066457123754803575 -0.021726067699401084 0 0.0079237774153668068 -0.018076010892298634 0 0.0073444219755741356 -0.018906860094550344 0 0.0086445407966980817 -0.018283833325904563 0 0.0079237774153668068 -0.018076010892298634 0 0.0073444219755741356 -0.018906860094550344 0 0.0073053114784826069 -0.018595658653371126 0 0.015600530827401118 -0.02443033264073597 0 0.020946174675019583 -0.020809887848864686 0 0.051013116728714572 -0.021564664700957095 0 0.050599091067546897 -0.021169780897163724 0 0.051297543974198244 -0.020851983067979432 0 0.03155851427298028 -0.020949512295622343 0 0.027069316566291506 -0.018581219844864206 0 0.02453189042429333 -0.022527694595714579 0 0.023225413602474015 -0.023084868557975022 0 0.023356322591705461 -0.024324540243790761 0 0.03155851427298028 -0.020949512295622343 0 0.020946174675019583 -0.020809887848864686 0 0.02825328351649016 -0.020250752258843915 0 0.027974030494848548 -0.0206179751067769 0 0.027983367809832797 -0.020803675999553524 0 0.020946174675019583 -0.020809887848864686 0 0.027069316566291506 -0.018581219844864206 0 0.050599091067546897 -0.021169780897163724 0 0.050572600357743663 -0.020472797931809738 0 0.051297543974198244 -0.020851983067979432 0 0.050572600357743663 -0.020472797931809738 0 0.051297543974198244 -0.020851983067979432 0 0.051279849806007506 -0.019109404091120611 0 0.050234656508359656 -0.019828003113568787 0 0.050572600357743663 -0.020472797931809738 0 0.051279849806007506 -0.019109404091120611 0 0.027069316566291506 -0.018581219844864206 0 0.036994158668987941 -0.016304553817187595 0 0.018694745748795382 -0.017860120544265588 0 0.019540548893211 -0.015837127924777844 0 0.020115369260594488 -0.015825578984940775 0 0.0079237774153668068 -0.018076010892298634 0 0.0073053114784826069 -0.018595658653371126 0 0.0080448857162858291 -0.016973959931126284 0 0.020632084626684536 -0.015114194900594203 0 0.021001324858221034 -0.014028236647220449 0 0.020380194355763159 -0.013628134846730118 0 0.027069316566291506 -0.018581219844864206 0 0.019708222472123223 -0.014960847728402322 0 0.020946174675019583 -0.020809887848864686 0 0.012974455688181376 -0.016265341198272928 0 0.0079237774153668068 -0.018076010892298634 0 0.0080448857162858291 -0.016973959931126284 0 0.0083709626822387907 -0.01766127272781064 0 0.021001324858221034 -0.014028236647220449 0 0.020864031501570183 -0.013365229619991559 0 0.021258358543412313 -0.01300128800780254 0 0.019540548893211 -0.015837127924777844 0 0.020115369260594488 -0.015825578984940775 0 0.020463482599924226 -0.013867673593593333 0 0.019708222472123223 -0.014960847728402322 0 0.02092155135768323 -0.013409590684587403 0 0.021001324858221034 -0.014028236647220449 0 0.020864031501570183 -0.013365229619991559 0 0.020380194355763159 -0.013628134846730118 0 0.020864031501570183 -0.013365229619991559 0 0.020380194355763159 -0.013628134846730118 0 0.020743023247924621 -0.012930037584923545 0 0.020864031501570183 -0.013365229619991559 0 0.020743023247924621 -0.012930037584923545 0 0.021258358543412313 -0.01300128800780254 0 0.050542353834718744 -0.018498241275027673 0 0.051279849806007506 -0.019109404091120611 0 0.051169668076774109 -0.017331278508455929 0 0.020380194355763159 -0.013628134846730118 0 0.020743023247924621 -0.012930037584923545 0 0.020186151766713078 -0.012313653429118099 0 0.036994158668987941 -0.016304553817187595 0 0.035131767071053116 -0.014928598597104296 0 0.020743023247924621 -0.012930037584923545 0 0.020985961291934235 -0.012383429522712415 0 0.020186151766713078 -0.012313653429118099 0 0.020743023247924621 -0.012930037584923545 0 0.020985961291934235 -0.012383429522712415 0 0.021258358543412313 -0.01300128800780254 0 0.020985961291934235 -0.012383429522712415 0 0.020856121277405489 -0.01165718931822309 0 0.021428143726061662 -0.012205627414231122 0 0.020985961291934235 -0.012383429522712415 0 0.020856121277405489 -0.01165718931822309 0 0.020186151766713078 -0.012313653429118099 0 0.020856121277405489 -0.01165718931822309 0 0.020979490634695522 -0.010854862507451915 0 0.020350697544304117 -0.011035209057943616 0 0.020030517234541603 -0.011090373300092668 0 0.020350697544304117 -0.011035209057943616 0 0.020186151766713078 -0.012313653429118099 0 0.038707131657764376 -0.01278909332607199 0 0.019420728478830498 -0.012664886476398502 0 0.020856121277405489 -0.01165718931822309 0 0.020350697544304117 -0.011035209057943616 0 0.020186151766713078 -0.012313653429118099 0 0.050911969420211964 -0.015765378304829481 0 0.051169668076774109 -0.017331278508455929 0 0.050291473127625837 -0.01663130681808592 0 0.038707131657764376 -0.01278909332607199 0 0.035131767071053116 -0.014928598597104296 0 0.050251234174349312 -0.017563728069476581 0 0.051169668076774109 -0.017331278508455929 0 0.050291473127625837 -0.01663130681808592 0 0.050251234174349312 -0.017563728069476581 0 0.050291473127625837 -0.01663130681808592 0 0.049488754747125531 -0.017074034027438678 0 0.050291473127625837 -0.01663130681808592 0 0.049488754747125531 -0.017074034027438678 0 0.049576610127388475 -0.015875684721975012 0 0.048578347172890127 -0.016896009650476069 0 0.049488754747125531 -0.017074034027438678 0 0.049576610127388475 -0.015875684721975012 0 0.038707131657764376 -0.01278909332607199 0 0.052996309846019857 -0.015105188214255183 0 0.050911969420211964 -0.015765378304829481 0 0.050291473127625837 -0.01663130681808592 0 0.049576610127388475 -0.015875684721975012 0 0.052528638107452813 -0.013797052689106779 0 0.050594755731822739 -0.01405615736834656 0 0.050997029648321923 -0.012425457002652468 0 0.052528638107452813 -0.013797052689106779 0 0.050997029648321923 -0.012425457002652468 0 0.052399879911716504 -0.011557937008229695 0 0.049390117819037023 -0.012945913283153259 0 0.050594755731822739 -0.01405615736834656 0 0.050997029648321923 -0.012425457002652468 0 0.049859383123040654 -0.011511717722906026 0 0.050997029648321923 -0.012425457002652468 0 0.050971933938907796 -0.010336774878574321 0 0.049859383123040654 -0.011511717722906026 0 0.049390117819037023 -0.012945913283153259 0 0.050997029648321923 -0.012425457002652468 0 0.050997029648321923 -0.012425457002652468 0 0.052399879911716504 -0.011557937008229695 0 0.050971933938907796 -0.010336774878574321 0 0.019208890912696272 -0.0091737465882977629 0 0.020511269114737034 -0.010201556992297743 0 0.021233049905546433 -0.0083225448785422072 0 0.020511269114737034 -0.010201556992297743 0 0.021516201550624267 -0.010154148510974468 0 0.021233049905546433 -0.0083225448785422072 0 0.020817984067913388 -0.0094010434011244839 0 0.020177909864686476 -0.007153898294798869 0 0.020979490634695522 -0.010854862507451915 0 0.020511269114737034 -0.010201556992297743 0 0.021516201550624267 -0.010154148510974468 0 0.020979490634695522 -0.010854862507451915 0 0.020350697544304117 -0.011035209057943616 0 0.020511269114737034 -0.010201556992297743 0 0.019779002533802312 -0.011143948090627447 0 0.020350697544304117 -0.011035209057943616 0 0.020511269114737034 -0.010201556992297743 0 0.038707131657764376 -0.01278909332607199 0 0.035432164544423675 -0.010230042809296361 0 0.019779002533802312 -0.011143948090627447 0 0.019208890912696272 -0.0091737465882977629 0 0.020511269114737034 -0.010201556992297743 0 0.022153688389298657 -0.0094463655149765197 0 0.020102266730914618 -0.0086915749447579477 0 0.021360596489347405 -0.0070138866385494299 0 0.020817984067913388 -0.0094010434011244839 0 0.021394988595450134 -0.011068840656217533 0 0.020979490634695522 -0.010854862507451915 0 0.021516201550624267 -0.010154148510974468 0 0.021454097775616045 -0.011222524687413672 0 0.022153688389298657 -0.0094463655149765197 0 0.020102266730914618 -0.0086915749447579477 0 0.021454097775616045 -0.011222524687413672 0 0.020102266730914618 -0.0086915749447579477 0 0.021360596489347405 -0.0070138866385494299 0 0.019120915969547868 -0.0060315791667611219 0 0.022153688389298657 -0.0094463655149765197 0 0.021360596489347405 -0.0070138866385494299 0 0.023324374661433056 -0.0074409575559497348 0 0.021360596489347405 -0.0070138866385494299 0 0.023324374661433056 -0.0074409575559497348 0 0.022603863855166294 -0.0056659241974107728 0 0.023324374661433056 -0.0074409575559497348 0 0.025588787091785255 -0.0069788611608293614 0 0.024030881894385823 -0.0095207343203404914 0 0.023324374661433056 -0.0074409575559497348 0 0.025588787091785255 -0.0069788611608293614 0 0.024016641478304998 -0.0061242796133167063 0 0.012931328078011461 -0.0067791166552119029 0 0.013567413862453526 -0.0078485617478349819 0 0.011323021616754733 -0.0096686671582040425 0 0.018014891409892739 -0.0056635734031438125 0 0.017834378250532853 -0.0097650104952022934 0 0.018014891409892739 -0.0056635734031438125 0 0.014796576458072168 -0.0064920558329346007 0 0.013567413862453526 -0.0078485617478349819 0 0.013299812697849274 -0.0099136253613764849 0 0.011323021616754733 -0.0096686671582040425 0 0.022153688389298657 -0.0094463655149765197 0 0.023324374661433056 -0.0074409575559497348 0 0.024030881894385823 -0.0095207343203404914 0 0.011323021616754733 -0.0096686671582040425 0 0.012325367472340922 -0.012002027132229351 0 0.010011779715785906 -0.012456363406223744 0 0.017834378250532853 -0.0097650104952022934 0 0.016299124691765452 -0.012063454691516273 0 0.013299812697849274 -0.0099136253613764849 0 0.011323021616754733 -0.0096686671582040425 0 0.012325367472340922 -0.012002027132229351 0 0.013299812697849274 -0.0099136253613764849 0 0.012325367472340922 -0.012002027132229351 0 0.014203478029303234 -0.01111270601298202 0 0.012325367472340922 -0.012002027132229351 0 0.013843107204026895 -0.013184505656549737 0 0.014203478029303234 -0.01111270601298202 0 0.012325367472340922 -0.012002027132229351 0 0.012450270208978971 -0.014399986201265947 0 0.013843107204026895 -0.013184505656549737 0 0.012325367472340922 -0.012002027132229351 0 0.011161281431797555 -0.013643824740854928 0 0.012450270208978971 -0.014399986201265947 0 0.012325367472340922 -0.012002027132229351 0 0.011161281431797555 -0.013643824740854928 0 0.010011779715785906 -0.012456363406223744 0 0.022632969119265264 -0.01176046222138709 0 0.021428143726061662 -0.012205627414231122 0 0.021531169938997397 -0.013492345716995079 0 0.016299124691765452 -0.012063454691516273 0 0.015411917731578786 -0.01416798808322569 0 0.022632969119265264 -0.01176046222138709 0 0.021454097775616045 -0.011222524687413672 0 0.021428143726061662 -0.012205627414231122 0 0.011161281431797555 -0.013643824740854928 0 0.010011779715785906 -0.012456363406223744 0 0.010142221424947825 -0.014362901805772019 0 0.022153688389298657 -0.0094463655149765197 0 0.024030881894385823 -0.0095207343203404914 0 0.022632969119265264 -0.01176046222138709 0 0.022153688389298657 -0.0094463655149765197 0 0.022632969119265264 -0.01176046222138709 0 0.021454097775616045 -0.011222524687413672 0 0.020856121277405489 -0.01165718931822309 0 0.020979490634695522 -0.010854862507451915 0 0.021454097775616045 -0.011222524687413672 0 0.020856121277405489 -0.01165718931822309 0 0.021454097775616045 -0.011222524687413672 0 0.021428143726061662 -0.012205627414231122 0 0.020985961291934235 -0.012383429522712415 0 0.021428143726061662 -0.012205627414231122 0 0.021258358543412313 -0.01300128800780254 0 0.021361753571187712 -0.012339318255688653 0 0.02092155135768323 -0.013409590684587403 0 0.021428143726061662 -0.012205627414231122 0 0.021531169938997397 -0.013492345716995079 0 0.020463482599924226 -0.013867673593593333 0 0.010011779715785906 -0.012456363406223744 0 0.0089490781869467507 -0.014901269944063546 0 0.010142221424947825 -0.014362901805772019 0 0.0089490781869467507 -0.014901269944063546 0 0.010142221424947825 -0.014362901805772019 0 0.0099569554258360296 -0.01555664684947944 0 0.010142221424947825 -0.014362901805772019 0 0.0099569554258360296 -0.01555664684947944 0 0.010784318952932003 -0.015383248535665131 0 0.0089490781869467507 -0.014901269944063546 0 0.0099569554258360296 -0.01555664684947944 0 0.0095047606669031517 -0.016491783120673873 0 0.0099569554258360296 -0.01555664684947944 0 0.010701998391616903 -0.016368017682983828 0 0.010784318952932003 -0.015383248535665131 0 0.0099569554258360296 -0.01555664684947944 0 0.0095047606669031517 -0.016491783120673873 0 0.010701998391616903 -0.016368017682983828 0 0.012974455688181376 -0.016265341198272928 0 0.015411917731578786 -0.01416798808322569 0 0.0080448857162858291 -0.016973959931126284 0 0.0089490781869467507 -0.014901269944063546 0 0.0088480847770647693 -0.016427758574979783 0 0.020115369260594488 -0.015825578984940775 0 0.021531169938997397 -0.013492345716995079 0 0.020463482599924226 -0.013867673593593333 0 0.0089490781869467507 -0.014901269944063546 0 0.0095047606669031517 -0.016491783120673873 0 0.0088480847770647693 -0.016427758574979783 0 0.0080448857162858291 -0.016973959931126284 0 0.0083709626822387907 -0.01766127272781064 0 0.0088895391031650998 -0.017284575908882393 0 0.0080448857162858291 -0.016973959931126284 0 0.0088480847770647693 -0.016427758574979783 0 0.0088895391031650998 -0.017284575908882393 0 0.0088895391031650998 -0.017284575908882393 0 0.010361489019601728 -0.017683500903949181 0 0.0086445407966980817 -0.018283833325904563 0 0.0083709626822387907 -0.01766127272781064 0 0.0088895391031650998 -0.017284575908882393 0 0.0086445407966980817 -0.018283833325904563 0 0.0095047606669031517 -0.016491783120673873 0 0.0088480847770647693 -0.016427758574979783 0 0.0088895391031650998 -0.017284575908882393 0 0.0095047606669031517 -0.016491783120673873 0 0.0088895391031650998 -0.017284575908882393 0 0.010361489019601728 -0.017683500903949181 0 0.0095047606669031517 -0.016491783120673873 0 0.010361489019601728 -0.017683500903949181 0 0.010701998391616903 -0.016368017682983828 0 0.010832227055761871 -0.020586468934522442 0 0.0066457123754803575 -0.021726067699401084 0 0.010584610995925893 -0.023690194405824601 0 0.0099000559923971606 -0.025618328032503197 0 0.0080450325065081311 -0.024842870890266086 0 0.010584610995925893 -0.023690194405824601 0 0.0099000559923971606 -0.025618328032503197 0 0.012368349816409083 -0.025452466635128033 0 0.0079247552212789851 -0.027275398966328475 0 0.0099000559923971606 -0.025618328032503197 0 0.0080450325065081311 -0.024842870890266086 0 0.0079237774153668068 -0.018076010892298634 0 0.0083709626822387907 -0.01766127272781064 0 0.0086445407966980817 -0.018283833325904563 0 0.014459030057949109 -0.026839516509969748 0 0.012368349816409083 -0.025452466635128033 0 0.015127599438072159 -0.024101286373736732 0 0.010832227055761871 -0.020586468934522442 0 0.012725007476049127 -0.01978329987367974 0 0.010361489019601728 -0.017683500903949181 0 0.012433708421545894 -0.016969762634798501 0 0.010701998391616903 -0.016368017682983828 0 0.010584610995925893 -0.023690194405824601 0 0.012368349816409083 -0.025452466635128033 0 0.013151281977446106 -0.022512734804675173 0 0.012368349816409083 -0.025452466635128033 0 0.013151281977446106 -0.022512734804675173 0 0.015127599438072159 -0.024101286373736732 0 0.012433708421545894 -0.016969762634798501 0 0.013090490651189323 -0.015594120361542219 0 0.014631578117451296 -0.016131604981443663 0 0.012725007476049127 -0.01978329987367974 0 0.01521230760964116 -0.018504826576591634 0 0.012433708421545894 -0.016969762634798501 0 0.013090490651189323 -0.015594120361542219 0 0.01202410603670538 -0.015601922809649012 0 0.012433708421545894 -0.016969762634798501 0 0.010701998391616903 -0.016368017682983828 0 0.01202410603670538 -0.015601922809649012 0 0.010701998391616903 -0.016368017682983828 0 0.01202410603670538 -0.015601922809649012 0 0.010784318952932003 -0.015383248535665131 0 0.01202410603670538 -0.015601922809649012 0 0.010784318952932003 -0.015383248535665131 0 0.012450270208978971 -0.014399986201265947 0 0.011161281431797555 -0.013643824740854928 0 0.010142221424947825 -0.014362901805772019 0 0.010784318952932003 -0.015383248535665131 0 0.011161281431797555 -0.013643824740854928 0 0.010784318952932003 -0.015383248535665131 0 0.012450270208978971 -0.014399986201265947 0 0.013090490651189323 -0.015594120361542219 0 0.012450270208978971 -0.014399986201265947 0 0.013874855041705707 -0.014802585660681081 0 0.013090490651189323 -0.015594120361542219 0 0.01202410603670538 -0.015601922809649012 0 0.012450270208978971 -0.014399986201265947 0 0.012450270208978971 -0.014399986201265947 0 0.013874855041705707 -0.014802585660681081 0 0.013843107204026895 -0.013184505656549737 0 0.015281810628754434 -0.01417116819421344 0 0.013874855041705707 -0.014802585660681081 0 0.013843107204026895 -0.013184505656549737 0 0.015191866787030446 -0.013836621982614868 0 0.01521230760964116 -0.018504826576591634 0 0.015281810628754434 -0.01417116819421344 0 0.013874855041705707 -0.014802585660681081 0 0.014631578117451296 -0.016131604981443663 0 0.015281810628754434 -0.01417116819421344 0 0.015934724301011602 -0.01606629902677581 0 0.014488183516100171 -0.018057915453985926 0 0.015934724301011602 -0.01606629902677581 0 0.017412847713929459 -0.018159841431108301 0 0.017939978579387027 -0.01545730778458374 0 0.015281810628754434 -0.01417116819421344 0 0.015934724301011602 -0.01606629902677581 0 0.017939978579387027 -0.01545730778458374 0 0.015934724301011602 -0.01606629902677581 0 0.017412847713929459 -0.018159841431108301 0 0.015059789014329219 -0.017803988404496159 0 0.017412847713929459 -0.018159841431108301 0 0.015059789014329219 -0.017803988404496159 0 0.016035447022298453 -0.020432829990728998 0 0.013090490651189323 -0.015594120361542219 0 0.013874855041705707 -0.014802585660681081 0 0.014631578117451296 -0.016131604981443663 0 0.015934724301011602 -0.01606629902677581 0 0.015059789014329219 -0.017803988404496159 0 0.014488183516100171 -0.018057915453985926 0 0.015160951654928501 -0.018433985270254288 0 0.01521230760964116 -0.018504826576591634 0 0.015059789014329219 -0.017803988404496159 0 0.014549518584660753 -0.018065961997056082 0 0.016035447022298453 -0.020432829990728998 0 0.014549518584660753 -0.018065961997056082 0 0.014070985946741521 -0.021973002731851939 0 0.016035447022298453 -0.020432829990728998 0 0.013151281977446106 -0.022512734804675173 0 0.015772203237133728 -0.021320446639024049 0 0.015127599438072159 -0.024101286373736732 0 0.01521230760964116 -0.018504826576591634 0 0.014576561561133202 -0.023246255324254624 0 0.016035447022298453 -0.020432829990728998 0 0.018183093177966774 -0.024024384409770061 0 0.019109666206447846 -0.021398868304620289 0 0.017412847713929459 -0.018159841431108301 0 0.016035447022298453 -0.020432829990728998 0 0.019109666206447846 -0.021398868304620289 0 0.016035447022298453 -0.020432829990728998 0 0.018183093177966774 -0.024024384409770061 0 0.015756862380567747 -0.024312633457734156 0 0.013767794687526268 -0.025768242334861462 0 0.014070985946741521 -0.021973002731851939 0 0.015756862380567747 -0.024312633457734156 0 0.014070985946741521 -0.021973002731851939 0 0.016035447022298453 -0.020432829990728998 0 0.015756862380567747 -0.024312633457734156 0 0.01413754933451968 -0.026253072983849851 0 0.014576561561133202 -0.023246255324254624 0 0.021530382256886766 -0.025694437780997701 0 0.022213002899331327 -0.022809489569342773 0 0.020172664442852137 -0.024013320014031305 0 0.022213002899331327 -0.022809489569342773 0 0.020172664442852137 -0.024013320014031305 0 0.019109666206447846 -0.021398868304620289 0 0.018183093177966774 -0.024024384409770061 0 0.020172664442852137 -0.024013320014031305 0 0.019109666206447846 -0.021398868304620289 0 0.019109666206447846 -0.021398868304620289 0 0.022348379442299178 -0.020367306413554651 0 0.02028388796473686 -0.017843452055688578 0 0.022213002899331327 -0.022809489569342773 0 0.019109666206447846 -0.021398868304620289 0 0.022348379442299178 -0.020367306413554651 0 0.022348379442299178 -0.020367306413554651 0 0.02028388796473686 -0.017843452055688578 0 0.025214511210199703 -0.018946917283379432 0 0.02028388796473686 -0.017843452055688578 0 0.022077583373246473 -0.016667759264530568 0 0.024201854700749356 -0.018472665666948395 0 0.02213085069356065 -0.0181129699906388 0 0.020854237638425387 -0.018277601058496101 0 0.017412847713929459 -0.018159841431108301 0 0.019109666206447846 -0.021398868304620289 0 0.02028388796473686 -0.017843452055688578 0 0.017412847713929459 -0.018159841431108301 0 0.02028388796473686 -0.017843452055688578 0 0.017939978579387027 -0.01545730778458374 0 0.02028388796473686 -0.017843452055688578 0 0.017939978579387027 -0.01545730778458374 0 0.02083507394435119 -0.0154779973845441 0 0.017939978579387027 -0.01545730778458374 0 0.02083507394435119 -0.0154779973845441 0 0.019056073831691007 -0.013859759916496264 0 0.02028388796473686 -0.017843452055688578 0 0.022077583373246473 -0.016667759264530568 0 0.02083507394435119 -0.0154779973845441 0 0.02083507394435119 -0.0154779973845441 0 0.02060673035783785 -0.013355135178600907 0 0.022932080281536441 -0.014787643188818776 0 0.022077583373246473 -0.016667759264530568 0 0.02083507394435119 -0.0154779973845441 0 0.022932080281536441 -0.014787643188818776 0 0.02060673035783785 -0.013355135178600907 0 0.020967350810325896 -0.010860812651767767 0 0.022932080281536441 -0.014787643188818776 0 0.02133178859401216 -0.011186247435491257 0 0.020967350810325896 -0.010860812651767767 0 0.021825616844286289 -0.013607919094152612 0 0.021007614365147063 -0.011106048656998248 0 0.02264958010589985 -0.014024617001712345 0 0.02083507394435119 -0.0154779973845441 0 0.02060673035783785 -0.013355135178600907 0 0.019056073831691007 -0.013859759916496264 0 0.02133178859401216 -0.011186247435491257 0 0.020967350810325896 -0.010860812651767767 0 0.019582609271642348 -0.0081610485052655383 0 0.02060673035783785 -0.013355135178600907 0 0.020967350810325896 -0.010860812651767767 0 0.019317531647531316 -0.011845818050043007 0 0.020967350810325896 -0.010860812651767767 0 0.019036663582220521 -0.0099904537959924523 0 0.019317531647531316 -0.011845818050043007 0 0.017719604516493154 -0.01064738104543164 0 0.019317531647531316 -0.011845818050043007 0 0.017135442090207693 -0.012615928500080625 0 0.017719604516493154 -0.01064738104543164 0 0.019036663582220521 -0.0099904537959924523 0 0.019317531647531316 -0.011845818050043007 0 0.017939978579387027 -0.01545730778458374 0 0.019056073831691007 -0.013859759916496264 0 0.017135442090207693 -0.012615928500080625 0 0.019317531647531316 -0.011845818050043007 0 0.019056073831691007 -0.013859759916496264 0 0.017135442090207693 -0.012615928500080625 0 0.02060673035783785 -0.013355135178600907 0 0.019317531647531316 -0.011845818050043007 0 0.019056073831691007 -0.013859759916496264 0 0.015281810628754434 -0.01417116819421344 0 0.017939978579387027 -0.01545730778458374 0 0.017135442090207693 -0.012615928500080625 0 0.015281810628754434 -0.01417116819421344 0 0.017135442090207693 -0.012615928500080625 0 0.015242139624481557 -0.012324304865534368 0 0.013843107204026895 -0.013184505656549737 0 0.015242139624481557 -0.012324304865534368 0 0.014203478029303234 -0.01111270601298202 0 0.015281810628754434 -0.01417116819421344 0 0.013843107204026895 -0.013184505656549737 0 0.015242139624481557 -0.012324304865534368 0 0.014203478029303234 -0.01111270601298202 0 0.015955306660816914 -0.010559580070816092 0 0.015072844979850741 -0.0088889504589704325 0 0.015242139624481557 -0.012324304865534368 0 0.014203478029303234 -0.01111270601298202 0 0.015955306660816914 -0.010559580070816092 0 0.017719604516493154 -0.01064738104543164 0 0.017135442090207693 -0.012615928500080625 0 0.015955306660816914 -0.010559580070816092 0 0.017135442090207693 -0.012615928500080625 0 0.015242139624481557 -0.012324304865534368 0 0.015955306660816914 -0.010559580070816092 0 0.017719604516493154 -0.01064738104543164 0 0.015955306660816914 -0.010559580070816092 0 0.01757604358294413 -0.00855297408371683 0 0.015955306660816914 -0.010559580070816092 0 0.015072844979850741 -0.0088889504589704325 0 0.01757604358294413 -0.00855297408371683 0 0.015072844979850741 -0.0088889504589704325 0 0.016092559592371772 -0.0073065284084089079 0 0.01757604358294413 -0.00855297408371683 0 0.013567413862453526 -0.0078485617478349819 0 0.013299812697849274 -0.0099136253613764849 0 0.015072844979850741 -0.0088889504589704325 0 0.013299812697849274 -0.0099136253613764849 0 0.014203478029303234 -0.01111270601298202 0 0.015072844979850741 -0.0088889504589704325 0 0.01305038763825221 -0.0068005945502836842 0 0.013567413862453526 -0.0078485617478349819 0 0.014737240720027687 -0.0065269383476793336 0 0.013567413862453526 -0.0078485617478349819 0 0.015072844979850741 -0.0088889504589704325 0 0.014875986446532487 -0.007635515844652504 0 0.013567413862453526 -0.0078485617478349819 0 0.014875986446532487 -0.007635515844652504 0 0.014737240720027687 -0.0065269383476793336 0 0.014875986446532487 -0.007635515844652504 0 0.014737240720027687 -0.0065269383476793336 0 0.016092559592371772 -0.0073065284084089079 0 0.014737240720027687 -0.0065269383476793336 0 0.016092559592371772 -0.0073065284084089079 0 0.015811181105337441 -0.0055550085636729531 0 0.015072844979850741 -0.0088889504589704325 0 0.014875986446532487 -0.007635515844652504 0 0.016092559592371772 -0.0073065284084089079 0 0.016092559592371772 -0.0073065284084089079 0 0.01757604358294413 -0.00855297408371683 0 0.017072520699249989 -0.0051794207067236645 0 0.018041652503680176 -0.0069603431492256881 0 0.017197362234776026 -0.0053526037203592064 0 0.019582609271642348 -0.0081610485052655383 0 0.01757604358294413 -0.00855297408371683 0 0.017072520699249989 -0.0051794207067236645 0 0.016501283255960956 -0.0056444355120719341 0 0.01688170131957057 -0.0051799591524516681 0 0.016763873486046858 -0.0058720432944238598 0 0.016501283255960956 -0.0056444355120719341 0 0.01688170131957057 -0.0051799591524516681 0 0.017072520699249989 -0.0051794207067236645 0 0.018764833287004401 -0.0091160487749505446 0 0.018041652503680176 -0.0069603431492256881 0 0.020967350810325896 -0.010860812651767767 0 0.019036663582220521 -0.0099904537959924523 0 0.019582609271642348 -0.0081610485052655383 0 0.016340567512771347 -0.0068574707558700949 0 0.016501283255960956 -0.0056444355120719341 0 0.016763873486046858 -0.0058720432944238598 0 0.017719604516493154 -0.01064738104543164 0 0.019036663582220521 -0.0099904537959924523 0 0.01757604358294413 -0.00855297408371683 0 0.019036663582220521 -0.0099904537959924523 0 0.019582609271642348 -0.0081610485052655383 0 0.01757604358294413 -0.00855297408371683 0 0.016809503006468163 -0.0043926543021292376 0 0.016241438173033897 -0.0044970674630422699 0 0.016507730276226335 -0.0039038951129665212 0 0.016809503006468163 -0.0043926543021292376 0 0.017072520699249989 -0.0051794207067236645 0 0.016241438173033897 -0.0044970674630422699 0 0.016809503006468163 -0.0043926543021292376 0 0.016899733789292978 -0.0041487456563375144 0 0.016799576996751438 -0.0039602025169336993 0 0.016809503006468163 -0.0043926543021292376 0 0.016955213710395493 -0.0046005863212191835 0 0.017072520699249989 -0.0051794207067236645 0 0.016809503006468163 -0.0043926543021292376 0 0.016899733789292978 -0.0041487456563375144 0 0.016955213710395493 -0.0046005863212191835 0 0.016899733789292978 -0.0041487456563375144 0 0.016955213710395493 -0.0046005863212191835 0 0.017137788966169489 -0.0040296568949037305 0 0.016955213710395493 -0.0046005863212191835 0 0.01688170131957057 -0.0051799591524516681 0 0.017072520699249989 -0.0051794207067236645 0 0.017072520699249989 -0.0051794207067236645 0 0.015811181105337441 -0.0055550085636729531 0 0.016241438173033897 -0.0044970674630422699 0 0.016092559592371772 -0.0073065284084089079 0 0.017072520699249989 -0.0051794207067236645 0 0.015811181105337441 -0.0055550085636729531 0 0.01305038763825221 -0.0068005945502836842 0 0.014737240720027687 -0.0065269383476793336 0 0.014686945477770708 -0.0046617672108616144 0 0.014737240720027687 -0.0065269383476793336 0 0.015811181105337441 -0.0055550085636729531 0 0.014686945477770708 -0.0046617672108616144 0 0.018014891409892739 -0.0056635734031438125 0 0.017363862952303719 -0.0021848682179885066 0 0.017363862952303719 -0.0021848682179885066 0 0.01848551794708575 -0.0014951035716356277 0 0.015811181105337441 -0.0055550085636729531 0 0.014686945477770708 -0.0046617672108616144 0 0.016241438173033897 -0.0044970674630422699 0 0.014686945477770708 -0.0046617672108616144 0 0.016241438173033897 -0.0044970674630422699 0 0.015764354367896805 -0.0035407558522392553 0 0.016241438173033897 -0.0044970674630422699 0 0.015764354367896805 -0.0035407558522392553 0 0.016507730276226335 -0.0039038951129665212 0 0.020845702189104386 0.00047791769164326394 0 0.020391823154473316 0.00079999628851306465 0 0.020135726011215313 0.00018848928222903999 0 0.020410147020691539 -0.00018919637232319895 0 0.020845702189104386 0.00047791769164326394 0 0.020135726011215313 0.00018848928222903999 0 0.020391823154473316 0.00079999628851306465 0 0.020729334777865819 0.0012371594863386352 0 0.020208320241952418 0.0014334897857355012 0 0.020845702189104386 0.00047791769164326394 0 0.020391823154473316 0.00079999628851306465 0 0.020729334777865819 0.0012371594863386352 0 0.01848551794708575 -0.0014951035716356277 0 0.017632067107898768 -0.0010029287964701747 0 0.020845702189104386 0.00047791769164326394 0 0.021283345576995228 0.0012381842569235857 0 0.020729334777865819 0.0012371594863386352 0 0.015764354367896805 -0.0035407558522392553 0 0.016402796916887338 -0.0032368862235483023 0 0.01634988776405254 -0.0028385019753517132 0 0.015764354367896805 -0.0035407558522392553 0 0.016402796916887338 -0.0032368862235483023 0 0.016324935400169712 -0.0035248278101624761 0 0.016750671989398822 -0.003445043110735113 0 0.017632067107898768 -0.0010029287964701747 0 0.016239853146111125 -0.0031493126531064088 0 0.016568743696512345 -0.0014228050939804463 0 0.016402796916887338 -0.0032368862235483023 0 0.016727511634618244 -0.0033351266398545928 0 0.01634988776405254 -0.0028385019753517132 0 0.015754494280708277 -0.0028359815611710953 0 0.014900324321164586 -0.0019657424834478078 0 0.015505938079212973 -0.0020537872620565011 0 0.016690398291542532 -0.0034468610132471723 0 0.0167321671360624 -0.0034343186670704913 0 0.016324191628834459 -0.0028664285885864607 0 0.016690398291542532 -0.0034468610132471723 0 0.016288992388667274 -0.0029213025017298744 0 0.016324191628834459 -0.0028664285885864607 0 0.016402796916887338 -0.0032368862235483023 0 0.016578429671387587 -0.003502539668036785 0 0.016727511634618244 -0.0033351266398545928 0 0.016578429671387587 -0.003502539668036785 0 0.01671156081949177 -0.0035317462426055911 0 0.016727511634618244 -0.0033351266398545928 0 0.016402796916887338 -0.0032368862235483023 0 0.016324935400169712 -0.0035248278101624761 0 0.016578429671387587 -0.003502539668036785 0 0.015764354367896805 -0.0035407558522392553 0 0.016324935400169712 -0.0035248278101624761 0 0.016507730276226335 -0.0039038951129665212 0 0.016324935400169712 -0.0035248278101624761 0 0.016578429671387587 -0.003502539668036785 0 0.016507730276226335 -0.0039038951129665212 0 0.016578429671387587 -0.003502539668036785 0 0.016507730276226335 -0.0039038951129665212 0 0.016711084690870879 -0.0036932647381794134 0 0.016578429671387587 -0.003502539668036785 0 0.016711084690870879 -0.0036932647381794134 0 0.01671156081949177 -0.0035317462426055911 0 0.016507730276226335 -0.0039038951129665212 0 0.016799576996751438 -0.0039602025169336993 0 0.016711084690870879 -0.0036932647381794134 0 0.016809503006468163 -0.0043926543021292376 0 0.016507730276226335 -0.0039038951129665212 0 0.016799576996751438 -0.0039602025169336993 0 0.016899733789292978 -0.0041487456563375144 0 0.016891788955126771 -0.003844939087275759 0 0.017137788966169489 -0.0040296568949037305 0 0.016891788955126771 -0.003844939087275759 0 0.016799576996751438 -0.0039602025169336993 0 0.016810201285399964 -0.0037590311256963534 0 0.016899733789292978 -0.0041487456563375144 0 0.016891788955126771 -0.003844939087275759 0 0.016799576996751438 -0.0039602025169336993 0 0.016891788955126771 -0.003844939087275759 0 0.016810201285399964 -0.0037590311256963534 0 0.016850717567973753 -0.0037013300694215966 0 0.016891788955126771 -0.003844939087275759 0 0.016861361249846447 -0.0036973708482939509 0 0.016850717567973753 -0.0037013300694215966 0 0.016799576996751438 -0.0039602025169336993 0 0.016810201285399964 -0.0037590311256963534 0 0.016711084690870879 -0.0036932647381794134 0 0.016810201285399964 -0.0037590311256963534 0 0.016711084690870879 -0.0036932647381794134 0 0.016766550481835934 -0.0035982268444534693 0 0.016766550481835934 -0.0035982268444534693 0 0.016850717567973753 -0.0037013300694215966 0 0.016727511634618244 -0.0033351266398545928 0 0.016830287757340461 -0.0036264975902329279 0 0.016750671989398822 -0.003445043110735113 0 0.016711084690870879 -0.0036932647381794134 0 0.01671156081949177 -0.0035317462426055911 0 0.016766550481835934 -0.0035982268444534693 0 0.016861361249846447 -0.0036973708482939509 0 0.016850717567973753 -0.0037013300694215966 0 0.0167321671360624 -0.0034343186670704913 0 0.016861361249846447 -0.0036973708482939509 0 0.016708110942733053 -0.0032596026352308852 0 0.016340777178411543 -0.0030492040002627575 0 0.016767820894112127 -0.0036281362833293414 0 0.016239853146111125 -0.0031493126531064088 0 0.016810201285399964 -0.0037590311256963534 0 0.016766550481835934 -0.0035982268444534693 0 0.016850717567973753 -0.0037013300694215966 0 0.016708110942733053 -0.0032596026352308852 0 0.016452712428348178 -0.0029568557667306113 0 0.016716953305582032 -0.0030040558879984801 0 0.016708110942733053 -0.0032596026352308852 0 0.016452712428348178 -0.0029568557667306113 0 0.016340777178411543 -0.0030492040002627575 0 0.016861361249846447 -0.0036973708482939509 0 0.016340777178411543 -0.0030492040002627575 0 0.015754494280708277 -0.0028359815611710953 0 0.016452712428348178 -0.0029568557667306113 0 0.016340777178411543 -0.0030492040002627575 0 0.016222010394964622 -0.0027545688950490425 0 0.016452712428348178 -0.0029568557667306113 0 0.016222010394964622 -0.0027545688950490425 0 0.016523214731326862 -0.0026473795287789174 0 0.016340777178411543 -0.0030492040002627575 0 0.016222010394964622 -0.0027545688950490425 0 0.016042029732701857 -0.0028014708367115207 0 0.016452712428348178 -0.0029568557667306113 0 0.016523214731326862 -0.0026473795287789174 0 0.016716953305582032 -0.0030040558879984801 0 0.01671156081949177 -0.0035317462426055911 0 0.016766550481835934 -0.0035982268444534693 0 0.016727511634618244 -0.0033351266398545928 0 0.016850717567973753 -0.0037013300694215966 0 0.016690398291542532 -0.0034468610132471723 0 0.0167321671360624 -0.0034343186670704913 0 0.016340777178411543 -0.0030492040002627575 0 0.016042029732701857 -0.0028014708367115207 0 0.015754494280708277 -0.0028359815611710953 0 0.016222010394964622 -0.0027545688950490425 0 0.016042029732701857 -0.0028014708367115207 0 0.015991818124058831 -0.0026514272485931201 0 0.016042029732701857 -0.0028014708367115207 0 0.015754494280708277 -0.0028359815611710953 0 0.015991818124058831 -0.0026514272485931201 0 0.015754494280708277 -0.0028359815611710953 0 0.015859738352288009 -0.0024019200012178662 0 0.015505938079212973 -0.0020537872620565011 0 0.015991818124058831 -0.0026514272485931201 0 0.015859738352288009 -0.0024019200012178662 0 0.016263745411051491 -0.0024245287819186791 0 0.015754494280708277 -0.0028359815611710953 0 0.015991818124058831 -0.0026514272485931201 0 0.015859738352288009 -0.0024019200012178662 0 0.015859738352288009 -0.0024019200012178662 0 0.016263745411051491 -0.0024245287819186791 0 0.016112154740433274 -0.0020182648607458861 0 0.016523214731326862 -0.0026473795287789174 0 0.016263745411051491 -0.0024245287819186791 0 0.016648740479771933 -0.0020700237841159664 0 0.016222010394964622 -0.0027545688950490425 0 0.015991818124058831 -0.0026514272485931201 0 0.016263745411051491 -0.0024245287819186791 0 0.016222010394964622 -0.0027545688950490425 0 0.016523214731326862 -0.0026473795287789174 0 0.016263745411051491 -0.0024245287819186791 0 0.016112154740433274 -0.0020182648607458861 0 0.016263507575715794 -0.0014642907643069903 0 0.016648740479771933 -0.0020700237841159664 0 0.016263745411051491 -0.0024245287819186791 0 0.016112154740433274 -0.0020182648607458861 0 0.016648740479771933 -0.0020700237841159664 0 0.015859738352288009 -0.0024019200012178662 0 0.016112154740433274 -0.0020182648607458861 0 0.015768851797374115 -0.0020769353918478014 0 0.016112154740433274 -0.0020182648607458861 0 0.015779458357919388 -0.0017323225237764338 0 0.016263507575715794 -0.0014642907643069903 0 0.015859738352288009 -0.0024019200012178662 0 0.015768851797374115 -0.0020769353918478014 0 0.015505938079212973 -0.0020537872620565011 0 0.015768851797374115 -0.0020769353918478014 0 0.015779458357919388 -0.0017323225237764338 0 0.015505938079212973 -0.0020537872620565011 0 0.016112154740433274 -0.0020182648607458861 0 0.015768851797374115 -0.0020769353918478014 0 0.015779458357919388 -0.0017323225237764338 0 0.015779458357919388 -0.0017323225237764338 0 0.016263507575715794 -0.0014642907643069903 0 0.015498233316710318 -0.0012849883904525899 0 0.015779458357919388 -0.0017323225237764338 0 0.015419640374029918 -0.0016966705985476587 0 0.015498233316710318 -0.0012849883904525899 0 0.017632067107898768 -0.0010029287964701747 0 0.016568743696512345 -0.0014228050939804463 0 0.014900324321164586 -0.0019657424834478078 0 0.015199636198139424 -0.0018856035792589245 0 0.015505938079212973 -0.0020537872620565011 0 0.015199636198139424 -0.0018856035792589245 0 0.015419640374029918 -0.0016966705985476587 0 0.015188701648957277 -0.0016297560943810709 0 0.014900324321164586 -0.0019657424834478078 0 0.015199636198139424 -0.0018856035792589245 0 0.015188701648957277 -0.0016297560943810709 0 0.015779458357919388 -0.0017323225237764338 0 0.015505938079212973 -0.0020537872620565011 0 0.015419640374029918 -0.0016966705985476587 0 0.015199636198139424 -0.0018856035792589245 0 0.015505938079212973 -0.0020537872620565011 0 0.015419640374029918 -0.0016966705985476587 0 0.014900324321164586 -0.0019657424834478078 0 0.015047499066261299 -0.0013443648000774264 0 0.015188701648957277 -0.0016297560943810709 0 0.015419640374029918 -0.0016966705985476587 0 0.015498233316710318 -0.0012849883904525899 0 0.015188701648957277 -0.0016297560943810709 0 0.015498233316710318 -0.0012849883904525899 0 0.015047499066261299 -0.0013443648000774264 0 0.015188701648957277 -0.0016297560943810709 0 0.014900324321164586 -0.0019657424834478078 0 0.015047499066261299 -0.0013443648000774264 0 0.014757342146645896 -0.0012759018750247734 0 0.015191120923416974 -0.00059945057834176268 0 0.014948990848909145 0.00051467256513938839 0 0.013746826505366138 -0.00071582597631774303 0 0.014757342146645896 -0.0012759018750247734 0 0.015191120923416974 -0.00059945057834176268 0 0.013746826505366138 -0.00071582597631774303 0 0.015047499066261299 -0.0013443648000774264 0 0.014757342146645896 -0.0012759018750247734 0 0.015191120923416974 -0.00059945057834176268 0 0.015498233316710318 -0.0012849883904525899 0 0.015047499066261299 -0.0013443648000774264 0 0.015191120923416974 -0.00059945057834176268 0 0.015498233316710318 -0.0012849883904525899 0 0.015191120923416974 -0.00059945057834176268 0 0.016316764306677209 -0.00054964154596639061 0 0.015191120923416974 -0.00059945057834176268 0 0.016316764306677209 -0.00054964154596639061 0 0.016210823053366394 0.00061021852247045605 0 0.016263507575715794 -0.0014642907643069903 0 0.016316764306677209 -0.00054964154596639061 0 0.01705765855449105 -0.0011391828911170431 0 0.016263507575715794 -0.0014642907643069903 0 0.015498233316710318 -0.0012849883904525899 0 0.016316764306677209 -0.00054964154596639061 0 0.015191120923416974 -0.00059945057834176268 0 0.016210823053366394 0.00061021852247045605 0 0.014948990848909145 0.00051467256513938839 0 0.017174823483454199 0.0033515108990479587 0 0.017099516357478136 0.0025464269152429527 0 0.01648908032451827 0.0021673564715174701 0 0.017099516357478136 0.0025464269152429527 0 0.0177426052974674 0.0027930557432876255 0 0.017369693549390806 0.0023436973043503288 0 0.017174823483454199 0.0033515108990479587 0 0.017099516357478136 0.0025464269152429527 0 0.0177426052974674 0.0027930557432876255 0 0.01560066474034222 0.0018005337943907253 0 0.016659352753089784 0.0022787032382535822 0 0.017099516357478136 0.0025464269152429527 0 0.01648908032451827 0.0021673564715174701 0 0.01683608840065811 0.0021485422464566774 0 0.016210823053366394 0.00061021852247045605 0 0.01648908032451827 0.0021673564715174701 0 0.01668690435276949 0.0022729223485983608 0 0.016210823053366394 0.00061021852247045605 0 0.014948990848909145 0.00051467256513938839 0 0.01648908032451827 0.0021673564715174701 0 0.018269422754385756 0.0031775373882699321 0 0.018677445697148125 0.0030859289833973288 0 0.018356045723205996 0.0027343370563033139 0 0.018269422754385756 0.0031775373882699321 0 0.018677445697148125 0.0030859289833973288 0 0.018589973603670835 0.0034951082575335603 0 0.018677445697148125 0.0030859289833973288 0 0.018356045723205996 0.0027343370563033139 0 0.01888167511796426 0.0028533723401748634 0 0.018269422754385756 0.0031775373882699321 0 0.018356045723205996 0.0027343370563033139 0 0.0177426052974674 0.0027930557432876255 0 0.018269422754385756 0.0031775373882699321 0 0.0177426052974674 0.0027930557432876255 0 0.017899454312345582 0.0033273403191573245 0 0.01560066474034222 0.0018005337943907253 0 0.01854675832076887 0.001651971525001061 0 0.017174823483454199 0.0033515108990479587 0 0.0177426052974674 0.0027930557432876255 0 0.017899454312345582 0.0033273403191573245 0 0.017174823483454199 0.0033515108990479587 0 0.018021720535772313 0.003683082703486227 0 0.017983826422818306 0.0041074367812062845 0 0.017174823483454199 0.0033515108990479587 0 0.017899454312345582 0.0033273403191573245 0 0.018021720535772313 0.003683082703486227 0 0.018269422754385756 0.0031775373882699321 0 0.017899454312345582 0.0033273403191573245 0 0.018203888874936583 0.0034388049292968632 0 0.017899454312345582 0.0033273403191573245 0 0.018021720535772313 0.003683082703486227 0 0.018203888874936583 0.0034388049292968632 0 0.019129567797435524 0.0035914719392030996 0 0.01854675832076887 0.001651971525001061 0 0.018021720535772313 0.003683082703486227 0 0.018203888874936583 0.0034388049292968632 0 0.018589973603670835 0.0034951082575335603 0 0.019767882368431657 0.0031632673526495237 0 0.019804620504065926 0.0031269173413115887 0 0.019959081588695585 0.0030188623754815913 0 0.018021720535772313 0.003683082703486227 0 0.018589973603670835 0.0034951082575335603 0 0.017983826422818306 0.0041074367812062845 0 0.018269422754385756 0.0031775373882699321 0 0.018203888874936583 0.0034388049292968632 0 0.018589973603670835 0.0034951082575335603 0 0.019767882368431657 0.0031632673526495237 0 0.019804620504065926 0.0031269173413115887 0 0.019519228488963009 0.0031449747769180325 0 0.020309064789241417 0.002755441479740859 0 0.020016446509644462 0.0025149789797098299 0 0.019933658185472918 0.0027490920327958037 0 0.020309064789241417 0.002755441479740859 0 0.020398689943725037 0.0022635159103859526 0 0.020016446509644462 0.0025149789797098299 0 0.020398689943725037 0.0022635159103859526 0 0.020954830245340797 0.0021975365371684945 0 0.020208320241952418 0.0014334897857355012 0 0.020398689943725037 0.0022635159103859526 0 0.020013771119140353 0.0021320272283618224 0 0.020016446509644462 0.0025149789797098299 0 0.020398689943725037 0.0022635159103859526 0 0.020208320241952418 0.0014334897857355012 0 0.020013771119140353 0.0021320272283618224 0 0.020309064789241417 0.002755441479740859 0 0.020398689943725037 0.0022635159103859526 0 0.020954830245340797 0.0021975365371684945 0 0.020174242662051645 0.0028664247714426656 0 0.01854675832076887 0.001651971525001061 0 0.017632067107898768 -0.0010029287964701747 0 0.01854675832076887 0.001651971525001061 0 0.018259417003305679 -0.00043108742910890875 0 0.018309934625375262 -0.0003511534545213581 0 0.017412147430469722 0.00075081191729501912 0 0.021283345576995228 0.0012381842569235857 0 0.020767485144728353 0.0018859448519087812 0 0.020729334777865819 0.0012371594863386352 0 0.016568743696512345 -0.0014228050939804463 0 0.01854675832076887 0.001651971525001061 0 0.014900324321164586 -0.0019657424834478078 0 0.014757342146645896 -0.0012759018750247734 0 0.013746826505366138 -0.00071582597631774303 0 0.01854675832076887 0.001651971525001061 0 0.021021201918801351 0.0018207310882171509 0 0.020767485144728353 0.0018859448519087812 0 0.020729334777865819 0.0012371594863386352 0 0.020208320241952418 0.0014334897857355012 0 0.020208320241952418 0.0014334897857355012 0 0.019498187529516285 0.0015431426501730358 0 0.019616222017105049 0.0010921446085162135 0 0.020208320241952418 0.0014334897857355012 0 0.019498187529516285 0.0015431426501730358 0 0.019679632701125629 0.0019636722523429526 0 0.020208320241952418 0.0014334897857355012 0 0.020013771119140353 0.0021320272283618224 0 0.019679632701125629 0.0019636722523429526 0 0.019498187529516285 0.0015431426501730358 0 0.019141870615207047 0.0019828119715431616 0 0.019055736764688132 0.00093450489387106458 0 0.019498187529516285 0.0015431426501730358 0 0.019141870615207047 0.0019828119715431616 0 0.019679632701125629 0.0019636722523429526 0 0.019141870615207047 0.0019828119715431616 0 0.019354254117082522 0.0024054316708935972 0 0.018977157203119131 0.0027784268660513405 0 0.019141870615207047 0.0019828119715431616 0 0.019354254117082522 0.0024054316708935972 0 0.019679632701125629 0.0019636722523429526 0 0.020013771119140353 0.0021320272283618224 0 0.019679632701125629 0.0019636722523429526 0 0.01971208109803373 0.0024315539561784436 0 0.019354254117082522 0.0024054316708935972 0 0.01971208109803373 0.0024315539561784436 0 0.019443125201294029 0.0027682251818760173 0 0.019354254117082522 0.0024054316708935972 0 0.019679632701125629 0.0019636722523429526 0 0.01971208109803373 0.0024315539561784436 0 0.020013771119140353 0.0021320272283618224 0 0.01971208109803373 0.0024315539561784436 0 0.020016446509644462 0.0025149789797098299 0 0.01971208109803373 0.0024315539561784436 0 0.020016446509644462 0.0025149789797098299 0 0.019715732444289751 0.0027572137264607359 0 0.020016446509644462 0.0025149789797098299 0 0.019715732444289751 0.0027572137264607359 0 0.019933658185472918 0.0027490920327958037 0 0.020309064789241417 0.002755441479740859 0 0.019933658185472918 0.0027490920327958037 0 0.019756169221047493 0.0029034756932876178 0 0.019715732444289751 0.0027572137264607359 0 0.019933658185472918 0.0027490920327958037 0 0.019756169221047493 0.0029034756932876178 0 0.020309064789241417 0.002755441479740859 0 0.019756169221047493 0.0029034756932876178 0 0.019519228488963009 0.0031449747769180325 0 0.020174242662051645 0.0028664247714426656 0 0.019582809094087921 0.0031865582451546075 0 0.019756169221047493 0.0029034756932876178 0 0.019480090445749051 0.0030083269116852841 0 0.019519228488963009 0.0031449747769180325 0 0.019715732444289751 0.0027572137264607359 0 0.019756169221047493 0.0029034756932876178 0 0.019480090445749051 0.0030083269116852841 0 0.019715732444289751 0.0027572137264607359 0 0.019480090445749051 0.0030083269116852841 0 0.019443125201294029 0.0027682251818760173 0 0.01971208109803373 0.0024315539561784436 0 0.019715732444289751 0.0027572137264607359 0 0.019443125201294029 0.0027682251818760173 0 0.018977157203119131 0.0027784268660513405 0 0.019218739858277441 0.0030710847614296767 0 0.018807618739219552 0.0035764996231140156 0 0.019443125201294029 0.0027682251818760173 0 0.018977157203119131 0.0027784268660513405 0 0.019218739858277441 0.0030710847614296767 0 0.019354254117082522 0.0024054316708935972 0 0.019443125201294029 0.0027682251818760173 0 0.018977157203119131 0.0027784268660513405 0 0.019480090445749051 0.0030083269116852841 0 0.019218739858277441 0.0030710847614296767 0 0.019317129230380623 0.003199522904107399 0 0.019480090445749051 0.0030083269116852841 0 0.019443125201294029 0.0027682251818760173 0 0.019218739858277441 0.0030710847614296767 0 0.019317129230380623 0.003199522904107399 0 0.018807618739219552 0.0035764996231140156 0 0.019423184794230584 0.0029614830041025963 0 0.019218739858277441 0.0030710847614296767 0 0.019317129230380623 0.003199522904107399 0 0.018807618739219552 0.0035764996231140156 0 0.018807618739219552 0.0035764996231140156 0 0.018628019330565244 0.0042997143566123391 0 0.018645949558581228 0.0045924441317459963 0 0.018758853030958866 0.0035356562714796585 0 0.018934053943891815 0.0037222617931376373 0 0.019317129230380623 0.003199522904107399 0 0.019313523507182045 0.0031138327120917241 0 0.019423184794230584 0.0029614830041025963 0 0.019767882368431657 0.0031632673526495237 0 0.019313523507182045 0.0031138327120917241 0 0.019519228488963009 0.0031449747769180325 0 0.019129567797435524 0.0035914719392030996 0 0.019385994699574662 0.0030126959769281076 0 0.018677445697148125 0.0030859289833973288 0 0.018589973603670835 0.0034951082575335603 0 0.019313523507182045 0.0031138327120917241 0 0.019313523507182045 0.0031138327120917241 0 0.01888167511796426 0.0028533723401748634 0 0.019423184794230584 0.0029614830041025963 0 0.018677445697148125 0.0030859289833973288 0 0.019313523507182045 0.0031138327120917241 0 0.01888167511796426 0.0028533723401748634 0 0.019480090445749051 0.0030083269116852841 0 0.019317129230380623 0.003199522904107399 0 0.019519228488963009 0.0031449747769180325 0 0.019317129230380623 0.003199522904107399 0 0.019313523507182045 0.0031138327120917241 0 0.019519228488963009 0.0031449747769180325 0 0.018517294012328087 0.0040522729153910529 0 0.01821893716053748 0.0034777819224301658 0 0.018607888039893536 0.004198610508645036 0 0.019091921790473806 0.0030350124665052096 0 0.0186629545129566 0.0040831315712102426 0 0.019958375191589536 0.00266676238323216 0 0.018682805823469501 0.0029112388348249188 0 0.018607888039893536 0.004198610508645036 0 0.018517294012328087 0.0040522729153910529 0 0.018807618739219552 0.0035764996231140156 0 0.018628019330565244 0.0042997143566123391 0 0.018517294012328087 0.0040522729153910529 0 0.018807618739219552 0.0035764996231140156 0 0.01821893716053748 0.0034777819224301658 0 0.019091921790473806 0.0030350124665052096 0 0.019563885665677416 0.00159037268693828 0 0.018977157203119131 0.0027784268660513405 0 0.01821893716053748 0.0034777819224301658 0 0.018520537579774298 0.0020933142846548663 0 0.018977157203119131 0.0027784268660513405 0 0.018807618739219552 0.0035764996231140156 0 0.01821893716053748 0.0034777819224301658 0 0.019958375191589536 0.00266676238323216 0 0.019538494190534023 0.001816606735428844 0 0.020635218101740127 0.0010628778126436852 0 0.019958375191589536 0.00266676238323216 0 0.019538494190534023 0.001816606735428844 0 0.018682805823469501 0.0029112388348249188 0 0.019538494190534023 0.001816606735428844 0 0.020635218101740127 0.0010628778126436852 0 0.020366497010365699 0.00060401637546925332 0 0.019590618906679621 0.0017197836311970062 0 0.019924011178164606 0.0002329634302628269 0 0.019141870615207047 0.0019828119715431616 0 0.018977157203119131 0.0027784268660513405 0 0.018520537579774298 0.0020933142846548663 0 0.019563885665677416 0.00159037268693828 0 0.019783246735534346 0.00048654210083696792 0 0.020635218101740127 0.0010628778126436852 0 0.020366497010365699 0.00060401637546925332 0 0.020545729800112596 -5.5462960266497027e-05 0 0.019141870615207047 0.0019828119715431616 0 0.018520537579774298 0.0020933142846548663 0 0.019055736764688132 0.00093450489387106458 0 0.019538494190534023 0.001816606735428844 0 0.020103699977323006 -2.5253667631820996e-05 0 0.019292134133451121 0.00025805352572474364 0 0.019538494190534023 0.001816606735428844 0 0.020366497010365699 0.00060401637546925332 0 0.019774682943505411 0.00048934689428112126 0 0.020366497010365699 0.00060401637546925332 0 0.019774682943505411 0.00048934689428112126 0 0.020496661037659326 2.7584224176135058e-05 0 0.020103699977323006 -2.5253667631820996e-05 0 0.019625322135592659 -0.00090085257450689946 0 0.019292134133451121 0.00025805352572474364 0 0.020103699977323006 -2.5253667631820996e-05 0 0.020549648044804102 -0.0022110944117760822 0 0.019625322135592659 -0.00090085257450689946 0 0.019774682943505411 0.00048934689428112126 0 0.020084946542761207 -0.0017513424963826417 0 0.020496661037659326 2.7584224176135058e-05 0 0.019924011178164606 0.0002329634302628269 0 0.020336123884538218 -0.0020303256847976157 0 0.020549648044804102 -0.0022110944117760822 0 0.019243094773044651 -0.0019118767437325177 0 0.019625322135592659 -0.00090085257450689946 0 0.020549648044804102 -0.0022110944117760822 0 0.019817509770429304 -0.0036345606083719546 0 0.019243094773044651 -0.0019118767437325177 0 0.020084946542761207 -0.0017513424963826417 0 0.022493056622098176 -0.0021009261884988068 0 0.020496661037659326 2.7584224176135058e-05 0 0.020084946542761207 -0.0017513424963826417 0 0.022493056622098176 -0.0021009261884988068 0 0.021444309267496176 -0.0031868080721926526 0 0.021279467739818446 -0.0010871939898499186 0 0.020621996648008845 -7.1756620827731409e-05 0 0.020366497010365699 0.00060401637546925332 0 0.020496661037659326 2.7584224176135058e-05 0 0.020545729800112596 -5.5462960266497027e-05 0 0.020266358184622996 -2.7948233434333858e-05 0 0.020496661037659326 2.7584224176135058e-05 0 0.020545729800112596 -5.5462960266497027e-05 0 0.019055736764688132 0.00093450489387106458 0 0.019616222017105049 0.0010921446085162135 0 0.019933947886793917 0.0006727962662928616 0 0.019498187529516285 0.0015431426501730358 0 0.019055736764688132 0.00093450489387106458 0 0.019616222017105049 0.0010921446085162135 0 0.020391823154473316 0.00079999628851306465 0 0.020208320241952418 0.0014334897857355012 0 0.019933947886793917 0.0006727962662928616 0 0.020208320241952418 0.0014334897857355012 0 0.019616222017105049 0.0010921446085162135 0 0.019933947886793917 0.0006727962662928616 0 0.019933947886793917 0.0006727962662928616 0 0.020135726011215313 0.00018848928222903999 0 0.019807293083725305 -3.8466552711254051e-05 0 0.020391823154473316 0.00079999628851306465 0 0.019933947886793917 0.0006727962662928616 0 0.020135726011215313 0.00018848928222903999 0 0.019055736764688132 0.00093450489387106458 0 0.019933947886793917 0.0006727962662928616 0 0.019807293083725305 -3.8466552711254051e-05 0 0.019783246735534346 0.00048654210083696792 0 0.019808652825733259 3.2936212728063474e-05 0 0.020266358184622996 -2.7948233434333858e-05 0 0.020545729800112596 -5.5462960266497027e-05 0 0.019807293083725305 -3.8466552711254051e-05 0 0.021279467739818446 -0.0010871939898499186 0 0.02254229622756225 -0.0022941751545126139 0 0.020266358184622996 -2.7948233434333858e-05 0 0.019807293083725305 -3.8466552711254051e-05 0 0.019723323627161598 -0.0001204906106425611 0 0.022493056622098176 -0.0021009261884988068 0 0.02417991443639014 -0.0045963287281807833 0 0.022357311261260809 -0.0040027392758265464 0 0.019807293083725305 -3.8466552711254051e-05 0 0.019723323627161598 -0.0001204906106425611 0 0.019958676963212747 -7.3783650675883557e-05 0 0.02417991443639014 -0.0045963287281807833 0 0.022603863855166294 -0.0056659241974107728 0 0.022357311261260809 -0.0040027392758265464 0 0.020410147020691539 -0.00018919637232319895 0 0.020135726011215313 0.00018848928222903999 0 0.019958676963212747 -7.3783650675883557e-05 0 0.020410147020691539 -0.00018919637232319895 0 0.019958676963212747 -7.3783650675883557e-05 0 0.020022781699967594 -0.00030035199354839809 0 0.020135726011215313 0.00018848928222903999 0 0.019807293083725305 -3.8466552711254051e-05 0 0.019958676963212747 -7.3783650675883557e-05 0 0.019723323627161598 -0.0001204906106425611 0 0.019958676963212747 -7.3783650675883557e-05 0 0.020022781699967594 -0.00030035199354839809 0 0.020020857426856078 -0.00084128458169753268 0 0.020410147020691539 -0.00018919637232319895 0 0.020022781699967594 -0.00030035199354839809 0 0.018014891409892739 -0.0056635734031438125 0 0.02254229622756225 -0.0022941751545126139 0 0.020020857426856078 -0.00084128458169753268 0 0.019723323627161598 -0.0001204906106425611 0 0.020022781699967594 -0.00030035199354839809 0 0.023324374661433056 -0.0074409575559497348 0 0.024016641478304998 -0.0061242796133167063 0 0.022603863855166294 -0.0056659241974107728 0 0.025588787091785255 -0.0069788611608293614 0 0.02417991443639014 -0.0045963287281807833 0 0.024016641478304998 -0.0061242796133167063 0 0.02417991443639014 -0.0045963287281807833 0 0.024016641478304998 -0.0061242796133167063 0 0.022603863855166294 -0.0056659241974107728 0 0.022603863855166294 -0.0056659241974107728 0 0.020853594366223235 -0.0048526126662411795 0 0.022357311261260809 -0.0040027392758265464 0 0.021360596489347405 -0.0070138866385494299 0 0.022603863855166294 -0.0056659241974107728 0 0.020853594366223235 -0.0048526126662411795 0 0.021360596489347405 -0.0070138866385494299 0 0.020853594366223235 -0.0048526126662411795 0 0.019120915969547868 -0.0060315791667611219 0 0.020853594366223235 -0.0048526126662411795 0 0.019817509770429304 -0.0036345606083719546 0 0.019120915969547868 -0.0060315791667611219 0 0.020336123884538218 -0.0020303256847976157 0 0.020794177033065742 -0.0046594087344491867 0 0.020084946542761207 -0.0017513424963826417 0 0.020853594366223235 -0.0048526126662411795 0 0.021444309267496176 -0.0031868080721926526 0 0.020549648044804102 -0.0022110944117760822 0 0.020853594366223235 -0.0048526126662411795 0 0.019817509770429304 -0.0036345606083719546 0 0.022493056622098176 -0.0021009261884988068 0 0.021444309267496176 -0.0031868080721926526 0 0.022357311261260809 -0.0040027392758265464 0 0.020853594366223235 -0.0048526126662411795 0 0.021444309267496176 -0.0031868080721926526 0 0.022357311261260809 -0.0040027392758265464 0 0.020685373409564941 -0.0058220878014974328 0 0.019873141899673243 -0.007533937688616414 0 0.01837591506316405 -0.0063502741584049111 0 0.020685373409564941 -0.0058220878014974328 0 0.01837591506316405 -0.0063502741584049111 0 0.019054226186766256 -0.0043542797029686581 0 0.019817509770429304 -0.0036345606083719546 0 0.018440714187698388 -0.0035660925726024159 0 0.019120915969547868 -0.0060315791667611219 0 0.019557760468926461 -0.0046973276344108687 0 0.020177909864686476 -0.007153898294798869 0 0.020685373409564941 -0.0058220878014974328 0 0.021233049905546433 -0.0083225448785422072 0 0.019873141899673243 -0.007533937688616414 0 0.019208890912696272 -0.0091737465882977629 0 0.021233049905546433 -0.0083225448785422072 0 0.019873141899673243 -0.007533937688616414 0 0.019208890912696272 -0.0091737465882977629 0 0.019873141899673243 -0.007533937688616414 0 0.01837591506316405 -0.0063502741584049111 0 0.035432164544423675 -0.010230042809296361 0 0.03536270487501416 -0.0077102417221543195 0 0.052399879911716504 -0.011557937008229695 0 0.050971933938907796 -0.010336774878574321 0 0.052254652738392533 -0.0090925480095417916 0 0.050971933938907796 -0.010336774878574321 0 0.050401479158905402 -0.0084529218885042341 0 0.048943987095932763 -0.0098089236685554686 0 0.050971933938907796 -0.010336774878574321 0 0.050401479158905402 -0.0084529218885042341 0 0.052254652738392533 -0.0090925480095417916 0 0.01837591506316405 -0.0063502741584049111 0 0.017488687270842272 -0.0024673882432381883 0 0.019054226186766256 -0.0043542797029686581 0 0.03536270487501416 -0.0077102417221543195 0 0.034759056427007544 -0.0044631011302731262 0 0.050401479158905402 -0.0084529218885042341 0 0.052254652738392533 -0.0090925480095417916 0 0.052030824439767857 -0.006496412682546646 0 0.050401479158905402 -0.0084529218885042341 0 0.04991680857666804 -0.0064155977101996277 0 0.052030824439767857 -0.006496412682546646 0 0.04991680857666804 -0.0064155977101996277 0 0.052030824439767857 -0.006496412682546646 0 0.050797349780220463 -0.0052333848671566692 0 0.01800887800802705 -0.0013069212370557311 0 0.01893506469793069 -0.00069461588668257262 0 0.018556583278244027 0.00011666243789670738 0 0.017488687270842272 -0.0024673882432381883 0 0.01958526233850276 -0.0026934761506737298 0 0.017957597952682838 0.00030370280803180449 0 0.018783298278041378 -0.0020212501144949357 0 0.018035463874139655 0.00010863240362891756 0 0.017488687270842272 -0.0024673882432381883 0 0.01958526233850276 -0.0026934761506737298 0 0.019054226186766256 -0.0043542797029686581 0 0.020685373409564941 -0.0058220878014974328 0 0.01958526233850276 -0.0026934761506737298 0 0.019054226186766256 -0.0043542797029686581 0 0.019557760468926461 -0.0046973276344108687 0 0.018783298278041378 -0.0020212501144949357 0 0.018440714187698388 -0.0035660925726024159 0 0.01800887800802705 -0.0013069212370557311 0 0.019243094773044651 -0.0019118767437325177 0 0.019817509770429304 -0.0036345606083719546 0 0.018440714187698388 -0.0035660925726024159 0 0.019243094773044651 -0.0019118767437325177 0 0.019243094773044651 -0.0019118767437325177 0 0.01893506469793069 -0.00069461588668257262 0 0.019625322135592659 -0.00090085257450689946 0 0.01800887800802705 -0.0013069212370557311 0 0.019243094773044651 -0.0019118767437325177 0 0.01893506469793069 -0.00069461588668257262 0 0.01893506469793069 -0.00069461588668257262 0 0.019625322135592659 -0.00090085257450689946 0 0.019292134133451121 0.00025805352572474364 0 0.01893506469793069 -0.00069461588668257262 0 0.019292134133451121 0.00025805352572474364 0 0.018556583278244027 0.00011666243789670738 0 0.019292134133451121 0.00025805352572474364 0 0.018556583278244027 0.00011666243789670738 0 0.018874571673803513 0.0010019255989497497 0 0.01800887800802705 -0.0013069212370557311 0 0.018556583278244027 0.00011666243789670738 0 0.017957597952682838 0.00030370280803180449 0 0.018556583278244027 0.00011666243789670738 0 0.017957597952682838 0.00030370280803180449 0 0.01827665287322194 0.0011572384994377174 0 0.017957597952682838 0.00030370280803180449 0 0.01827665287322194 0.0011572384994377174 0 0.01762847570154474 0.0016024488322643631 0 0.018556583278244027 0.00011666243789670738 0 0.01827665287322194 0.0011572384994377174 0 0.018874571673803513 0.0010019255989497497 0 0.01827665287322194 0.0011572384994377174 0 0.01868297717805676 0.001846854100693451 0 0.018063405388123566 0.0022692634453865524 0 0.01827665287322194 0.0011572384994377174 0 0.018063405388123566 0.0022692634453865524 0 0.01762847570154474 0.0016024488322643631 0 0.019538494190534023 0.001816606735428844 0 0.019292134133451121 0.00025805352572474364 0 0.018874571673803513 0.0010019255989497497 0 0.01827665287322194 0.0011572384994377174 0 0.018874571673803513 0.0010019255989497497 0 0.01868297717805676 0.001846854100693451 0 0.019538494190534023 0.001816606735428844 0 0.018874571673803513 0.0010019255989497497 0 0.01868297717805676 0.001846854100693451 0 0.019538494190534023 0.001816606735428844 0 0.01868297717805676 0.001846854100693451 0 0.018682805823469501 0.0029112388348249188 0 0.01868297717805676 0.001846854100693451 0 0.018063405388123566 0.0022692634453865524 0 0.018682805823469501 0.0029112388348249188 0 0.018063405388123566 0.0022692634453865524 0 0.017996264244000405 0.0030451076144531234 0 0.018682805823469501 0.0029112388348249188 0 0.018063405388123566 0.0022692634453865524 0 0.017996264244000405 0.0030451076144531234 0 0.017137177952426922 0.0028821776677685081 0 0.017996264244000405 0.0030451076144531234 0 0.018682805823469501 0.0029112388348249188 0 0.017971105909872175 0.0039557175693537144 0 0.017996264244000405 0.0030451076144531234 0 0.017137177952426922 0.0028821776677685081 0 0.017971105909872175 0.0039557175693537144 0 0.018682805823469501 0.0029112388348249188 0 0.017971105909872175 0.0039557175693537144 0 0.018607888039893536 0.004198610508645036 0 0.051374391854473157 -0.0012717340609733352 0 0.049478821625624399 -0.00040548772342361127 0 0.051005677927340592 0.0012381808135070341 0 0.034256025990859272 0.0007691079367094588 0 0.034155996969919777 0.0027392934784489817 0 0.034256025990859272 0.0007691079367094588 0 0.034378022076285035 -0.0014431111795955777 0 0.018063405388123566 0.0022692634453865524 0 0.017137177952426922 0.0028821776677685081 0 0.01762847570154474 0.0016024488322643631 0 0.051374391854473157 -0.0012717340609733352 0 0.050029209548249416 -0.0023819227210254892 0 0.051725814666461145 -0.0038396125360008458 0 0.051374391854473157 -0.0012717340609733352 0 0.050029209548249416 -0.0023819227210254892 0 0.049478821625624399 -0.00040548772342361127 0 0.050029209548249416 -0.0023819227210254892 0 0.051725814666461145 -0.0038396125360008458 0 0.049503440072799582 -0.0041771547765040162 0 0.017957597952682838 0.00030370280803180449 0 0.016994229055238723 0.00099849073598328028 0 0.01762847570154474 0.0016024488322643631 0 0.017137177952426922 0.0028821776677685081 0 0.016994229055238723 0.00099849073598328028 0 0.01762847570154474 0.0016024488322643631 0 0.017488687270842272 -0.0024673882432381883 0 0.017957597952682838 0.00030370280803180449 0 0.016994229055238723 0.00099849073598328028 0 0.034759056427007544 -0.0044631011302731262 0 0.034378022076285035 -0.0014431111795955777 0 0.052030824439767857 -0.006496412682546646 0 0.051725814666461145 -0.0038396125360008458 0 0.050797349780220463 -0.0052333848671566692 0 0.04991680857666804 -0.0064155977101996277 0 0.050797349780220463 -0.0052333848671566692 0 0.049503440072799582 -0.0041771547765040162 0 0.051725814666461145 -0.0038396125360008458 0 0.050797349780220463 -0.0052333848671566692 0 0.049503440072799582 -0.0041771547765040162 0 0.04991680857666804 -0.0064155977101996277 0 0.049503440072799582 -0.0041771547765040162 0 0.048173971000809786 -0.005797202109558597 0 0.049503440072799582 -0.0041771547765040162 0 0.047832732984842946 -0.0041959357868887812 0 0.048173971000809786 -0.005797202109558597 0 0.047832732984842946 -0.0041959357868887812 0 0.046579067710339012 -0.0053401716314479325 0 0.048173971000809786 -0.005797202109558597 0 0.047832732984842946 -0.0041959357868887812 0 0.048126094902803215 -0.0022471444307410808 0 0.04659891314837835 -0.0034523969225638221 0 0.049503440072799582 -0.0041771547765040162 0 0.047832732984842946 -0.0041959357868887812 0 0.048126094902803215 -0.0022471444307410808 0 0.050029209548249416 -0.0023819227210254892 0 0.049503440072799582 -0.0041771547765040162 0 0.048126094902803215 -0.0022471444307410808 0 0.050029209548249416 -0.0023819227210254892 0 0.048126094902803215 -0.0022471444307410808 0 0.049478821625624399 -0.00040548772342361127 0 0.048126094902803215 -0.0022471444307410808 0 0.049478821625624399 -0.00040548772342361127 0 0.047188987329667045 9.7702352000619673e-05 0 0.044999829023776208 -0.00037025965668428606 0 0.046367952605254864 -0.0016825795510322188 0 0.047188987329667045 9.7702352000619673e-05 0 0.048126094902803215 -0.0022471444307410808 0 0.046367952605254864 -0.0016825795510322188 0 0.047188987329667045 9.7702352000619673e-05 0 0.048126094902803215 -0.0022471444307410808 0 0.046367952605254864 -0.0016825795510322188 0 0.04659891314837835 -0.0034523969225638221 0 0.046367952605254864 -0.0016825795510322188 0 0.044999823984079611 -0.0027297199876911175 0 0.04659891314837835 -0.0034523969225638221 0 0.044999829023776208 -0.00037025965668428606 0 0.046367952605254864 -0.0016825795510322188 0 0.044999823984079611 -0.0027297199876911175 0 0.044999823984079611 -0.0027297199876911175 0 0.04659891314837835 -0.0034523969225638221 0 0.044999871948869903 -0.0050885132685059651 0 0.047832732984842946 -0.0041959357868887812 0 0.04659891314837835 -0.0034523969225638221 0 0.046579067710339012 -0.0053401716314479325 0 0.04659891314837835 -0.0034523969225638221 0 0.046579067710339012 -0.0053401716314479325 0 0.044999871948869903 -0.0050885132685059651 0 0.046626627942821755 -0.005502172101026292 0 0.045000338290374781 -0.0050891519296308949 0 0.046716985152526647 -0.005659250213060258 0 0.044999902247835871 -0.0050894030568137258 0 0.044999905827066068 -0.0077923945601293442 0 0.046716985152526647 -0.005659250213060258 0 0.044999905827066068 -0.0077923945601293442 0 0.047109560861155315 -0.0083203095507026203 0 0.046716985152526647 -0.005659250213060258 0 0.047109560861155315 -0.0083203095507026203 0 0.048341181544066462 -0.0061277755932440999 0 0.046626627942821755 -0.005502172101026292 0 0.048297469654033254 -0.0059698060938848871 0 0.049800696861838217 -0.0063759341611726731 0 0.048297469654033254 -0.0059698060938848871 0 0.04991680857666804 -0.0064155977101996277 0 0.048341181544066462 -0.0061277755932440999 0 0.048930643976773359 -0.007815707343984889 0 0.050401479158905402 -0.0084529218885042341 0 0.04991680857666804 -0.0064155977101996277 0 0.048930643976773359 -0.007815707343984889 0 0.047109560861155315 -0.0083203095507026203 0 0.048341181544066462 -0.0061277755932440999 0 0.048930643976773359 -0.007815707343984889 0 0.047109560861155315 -0.0083203095507026203 0 0.048943987095932763 -0.0098089236685554686 0 0.04697170872172414 -0.010970546589908732 0 0.047109560861155315 -0.0083203095507026203 0 0.048930643976773359 -0.007815707343984889 0 0.048943987095932763 -0.0098089236685554686 0 0.050401479158905402 -0.0084529218885042341 0 0.048930643976773359 -0.007815707343984889 0 0.048943987095932763 -0.0098089236685554686 0 0.04852401528533571 -0.011565892330916714 0 0.049859383123040654 -0.011511717722906026 0 0.048943987095932763 -0.0098089236685554686 0 0.049859383123040654 -0.011511717722906026 0 0.050971933938907796 -0.010336774878574321 0 0.048943987095932763 -0.0098089236685554686 0 0.04852401528533571 -0.011565892330916714 0 0.048943987095932763 -0.0098089236685554686 0 0.04697170872172414 -0.010970546589908732 0 0.047109560861155315 -0.0083203095507026203 0 0.04697170872172414 -0.010970546589908732 0 0.044999894161519671 -0.010495714220485968 0 0.044999905827066068 -0.0077923945601293442 0 0.047109560861155315 -0.0083203095507026203 0 0.044999894161519671 -0.010495714220485968 0 0.021372500682530531 -0.0077299359675380326 0 0.021205013294231884 -0.0073293060044906135 0 0.021419058163739277 -0.0070649401661394143 0 0.021104049888731741 -0.0077123570954751386 0 0.021372500682530531 -0.0077299359675380326 0 0.021205013294231884 -0.0073293060044906135 0 0.021372500682530531 -0.0077299359675380326 0 0.021543422431847533 -0.0079448351159791403 0 0.021461763534312631 -0.0082091115572215708 0 0.021372500682530531 -0.0077299359675380326 0 0.021299226499993992 -0.0082477645048959648 0 0.021461763534312631 -0.0082091115572215708 0 0.021104049888731741 -0.0077123570954751386 0 0.021372500682530531 -0.0077299359675380326 0 0.021299226499993992 -0.0082477645048959648 0 0.021299226499993992 -0.0082477645048959648 0 0.021015728222934533 -0.0081089490944500301 0 0.021082784954492804 -0.0086368752933935946 0 0.021104049888731741 -0.0077123570954751386 0 0.021299226499993992 -0.0082477645048959648 0 0.021015728222934533 -0.0081089490944500301 0 0.021015728222934533 -0.0081089490944500301 0 0.020689241143418583 -0.0081851624703587113 0 0.021082784954492804 -0.0086368752933935946 0 0.021015728222934533 -0.0081089490944500301 0 0.020689241143418583 -0.0081851624703587113 0 0.020837658468742731 -0.0077506875644331166 0 0.020689241143418583 -0.0081851624703587113 0 0.020476140291338749 -0.0075276646500534129 0 0.020238076580379093 -0.0082645218300303937 0 0.020689241143418583 -0.0081851624703587113 0 0.020710076534963807 -0.0087526178331420162 0 0.020238076580379093 -0.0082645218300303937 0 0.020689241143418583 -0.0081851624703587113 0 0.020837658468742731 -0.0077506875644331166 0 0.020476140291338749 -0.0075276646500534129 0 0.021104049888731741 -0.0077123570954751386 0 0.020837658468742731 -0.0077506875644331166 0 0.020938490122131156 -0.0072790150636974273 0 0.021104049888731741 -0.0077123570954751386 0 0.021015728222934533 -0.0081089490944500301 0 0.020837658468742731 -0.0077506875644331166 0 0.021095102581897528 -0.0056605445788744813 0 0.020301519147518484 -0.0060546775467310342 0 0.02080774526145061 -0.0051751389817478706 0 0.020837658468742731 -0.0077506875644331166 0 0.020938490122131156 -0.0072790150636974273 0 0.020476140291338749 -0.0075276646500534129 0 0.021012837623302423 -0.0064759551824233848 0 0.020386634724942437 -0.0067870931570951027 0 0.020301519147518484 -0.0060546775467310342 0 0.020274975434977891 -0.005242825914564226 0 0.019986327756478676 -0.0055542959628585957 0 0.020301519147518484 -0.0060546775467310342 0 0.020274975434977891 -0.005242825914564226 0 0.02080774526145061 -0.0051751389817478706 0 0.020274975434977891 -0.005242825914564226 0 0.02080774526145061 -0.0051751389817478706 0 0.02048919142131353 -0.0045364204483445726 0 0.020809364148866579 -0.0051977234289086321 0 0.021363022562591757 -0.005047592583824089 0 0.021095102581897528 -0.0056605445788744813 0 0.02080774526145061 -0.0051751389817478706 0 0.021171817924890961 -0.0056361649853138695 0 0.021095102581897528 -0.0056605445788744813 0 0.021204775553344303 -0.0058288272789056668 0 0.021171817924890961 -0.0056361649853138695 0 0.021104049888731741 -0.0077123570954751386 0 0.020938490122131156 -0.0072790150636974273 0 0.021205013294231884 -0.0073293060044906135 0 0.020938490122131156 -0.0072790150636974273 0 0.021205013294231884 -0.0073293060044906135 0 0.021185744235407918 -0.0068987918648104867 0 0.021012837623302423 -0.0064759551824233848 0 0.021232320143109062 -0.0063474324458552937 0 0.021205013294231884 -0.0073293060044906135 0 0.021185744235407918 -0.0068987918648104867 0 0.021419058163739277 -0.0070649401661394143 0 0.021232320143109062 -0.0063474324458552937 0 0.021396207004760012 -0.0062494760874527294 0 0.021185744235407918 -0.0068987918648104867 0 0.02135717041491195 -0.0062558778328732937 0 0.021419058163739277 -0.0070649401661394143 0 0.02135717041491195 -0.0062558778328732937 0 0.021592711235310813 -0.0065938640786375987 0 0.021500877518174321 -0.0062213164113245423 0 0.02135717041491195 -0.0062558778328732937 0 0.021592711235310813 -0.0065938640786375987 0 0.021419058163739277 -0.0070649401661394143 0 0.021592711235310813 -0.0065938640786375987 0 0.021419058163739277 -0.0070649401661394143 0 0.021820405708826082 -0.0070480180756137449 0 0.020875879475079885 -0.0064474906934370432 0 0.020712764087527952 -0.0072663718145370218 0 0.019607991018157685 -0.0075233332197154369 0 0.020831537463077091 -0.0065259788194753938 0 0.020617954445994659 -0.0069525595240739046 0 0.021592711235310813 -0.0065938640786375987 0 0.021623024762646246 -0.0063332264709356576 0 0.021500877518174321 -0.0062213164113245423 0 0.021623024762646246 -0.0063332264709356576 0 0.021342703009382843 -0.0062746066666994156 0 0.021500877518174321 -0.0062213164113245423 0 0.020617954445994659 -0.0069525595240739046 0 0.020188808237488119 -0.0079748675333172949 0 0.019607991018157685 -0.0075233332197154369 0 0.019701300562985288 -0.008714455105503012 0 0.018716790434681812 -0.0086535908093779527 0 0.021592711235310813 -0.0065938640786375987 0 0.021623024762646246 -0.0063332264709356576 0 0.021820405708826082 -0.0070480180756137449 0 0.020538550403892179 -0.0080500146898144359 0 0.019607991018157685 -0.0075233332197154369 0 0.019701300562985288 -0.008714455105503012 0 0.020494823106428084 -0.0089284471215607258 0 0.019701300562985288 -0.008714455105503012 0 0.019861204711310067 -0.0095423503127428783 0 0.019701300562985288 -0.008714455105503012 0 0.019248713463814578 -0.0094709136066666016 0 0.019861204711310067 -0.0095423503127428783 0 0.019701300562985288 -0.008714455105503012 0 0.018716790434681812 -0.0086535908093779527 0 0.019248713463814578 -0.0094709136066666016 0 0.018716790434681812 -0.0086535908093779527 0 0.018677213339954264 -0.009940321990368808 0 0.019248713463814578 -0.0094709136066666016 0 0.018677213339954264 -0.009940321990368808 0 0.019335061797527028 -0.010022707355416795 0 0.018873469026059398 -0.010595910273657784 0 0.018677213339954264 -0.009940321990368808 0 0.019248713463814578 -0.0094709136066666016 0 0.019335061797527028 -0.010022707355416795 0 0.019248713463814578 -0.0094709136066666016 0 0.019335061797527028 -0.010022707355416795 0 0.019861204711310067 -0.0095423503127428783 0 0.019335061797527028 -0.010022707355416795 0 0.019861204711310067 -0.0095423503127428783 0 0.020015332337647428 -0.010312402415120218 0 0.021372500682530531 -0.0077299359675380326 0 0.021419058163739277 -0.0070649401661394143 0 0.021582854895797463 -0.0075151010157690993 0 0.021419058163739277 -0.0070649401661394143 0 0.021820405708826082 -0.0070480180756137449 0 0.021582854895797463 -0.0075151010157690993 0 0.021820405708826082 -0.0070480180756137449 0 0.021582854895797463 -0.0075151010157690993 0 0.021785928875280549 -0.0077831554060627658 0 0.020188808237488119 -0.0079748675333172949 0 0.020039194096157929 -0.0082665357533872712 0 0.018716790434681812 -0.0086535908093779527 0 0.018677213339954264 -0.009940321990368808 0 0.017889936853402417 -0.009788563384966701 0 0.018677213339954264 -0.009940321990368808 0 0.017889936853402417 -0.009788563384966701 0 0.018074181736939657 -0.010312521291239421 0 0.018677213339954264 -0.009940321990368808 0 0.018074181736939657 -0.010312521291239421 0 0.018474859748496129 -0.010610098183229744 0 0.021785928875280549 -0.0077831554060627658 0 0.021543422431847533 -0.0079448351159791403 0 0.021652674087641703 -0.0083847596495525631 0 0.021372500682530531 -0.0077299359675380326 0 0.021582854895797463 -0.0075151010157690993 0 0.021543422431847533 -0.0079448351159791403 0 0.021582854895797463 -0.0075151010157690993 0 0.021785928875280549 -0.0077831554060627658 0 0.021543422431847533 -0.0079448351159791403 0 0.016199342128327042 -0.022158133233752507 0 0.014855357892657687 -0.022448561259566541 0 0.015437824915210884 -0.021635063109070464 0 0.018887517057559346 -0.012476468845384435 0 0.015797342426015187 -0.016628623834789264 0 0.020039194096157929 -0.0082665357533872712 0 0.018887517057559346 -0.012476468845384435 0 0.021543422431847533 -0.0079448351159791403 0 0.021652674087641703 -0.0083847596495525631 0 0.021461763534312631 -0.0082091115572215708 0 0.017889936853402417 -0.009788563384966701 0 0.018074181736939657 -0.010312521291239421 0 0.01707388565969965 -0.010975712979569209 0 0.015797342426015187 -0.016628623834789264 0 0.016521299074980646 -0.013902391466617287 0 0.018074181736939657 -0.010312521291239421 0 0.01707388565969965 -0.010975712979569209 0 0.017974946641399835 -0.01079275843873626 0 0.018074181736939657 -0.010312521291239421 0 0.017974946641399835 -0.01079275843873626 0 0.018474859748496129 -0.010610098183229744 0 0.014855357892657687 -0.022448561259566541 0 0.014793313748228317 -0.021146587340974018 0 0.013835483967768812 -0.021596890359230229 0 0.014793313748228317 -0.021146587340974018 0 0.013835483967768812 -0.021596890359230229 0 0.014299547151407858 -0.019995350890537597 0 0.015437824915210884 -0.021635063109070464 0 0.014793313748228317 -0.021146587340974018 0 0.015899916351428112 -0.020793028228550357 0 0.014855357892657687 -0.022448561259566541 0 0.015437824915210884 -0.021635063109070464 0 0.014793313748228317 -0.021146587340974018 0 0.014793313748228317 -0.021146587340974018 0 0.015899916351428112 -0.020793028228550357 0 0.015364772910646194 -0.020121152948626653 0 0.016199342128327042 -0.022158133233752507 0 0.015437824915210884 -0.021635063109070464 0 0.015899916351428112 -0.020793028228550357 0 0.016199342128327042 -0.022158133233752507 0 0.015899916351428112 -0.020793028228550357 0 0.017440459127879133 -0.020398290797706744 0 0.01760936565893308 -0.016906484051840375 0 0.016521299074980646 -0.013902391466617287 0 0.020003986991616513 -0.010195799980401966 0 0.016521299074980646 -0.013902391466617287 0 0.011711330394425533 -0.022512946065366603 0 0.011829092373331088 -0.022292499771437262 0 0.012692270331232568 -0.022141668513955031 0 0.019664651864981838 -0.010966351676120601 0 0.019164735369847776 -0.010613632868841819 0 0.017218879692306382 -0.011117226532131553 0 0.019335061797527028 -0.010022707355416795 0 0.020015332337647428 -0.010312402415120218 0 0.018873469026059398 -0.010595910273657784 0 0.011711330394425533 -0.022512946065366603 0 0.012692270331232568 -0.022141668513955031 0 0.013482641115737075 -0.022702804110963572 0 0.014855357892657687 -0.022448561259566541 0 0.013482641115737075 -0.022702804110963572 0 0.013835483967768812 -0.021596890359230229 0 0.017974946641399835 -0.01079275843873626 0 0.018856136518754427 -0.010612523927245135 0 0.018474859748496129 -0.010610098183229744 0 0.012692270331232568 -0.022141668513955031 0 0.013482641115737075 -0.022702804110963572 0 0.013835483967768812 -0.021596890359230229 0 0.018677213339954264 -0.009940321990368808 0 0.018873469026059398 -0.010595910273657784 0 0.018474859748496129 -0.010610098183229744 0 0.016521299074980646 -0.013902391466617287 0 0.018281846036026124 -0.012679294409688036 0 0.013835483967768812 -0.021596890359230229 0 0.012971666319690798 -0.021091993782487529 0 0.014299547151407858 -0.019995350890537597 0 0.012692270331232568 -0.022141668513955031 0 0.013835483967768812 -0.021596890359230229 0 0.012971666319690798 -0.021091993782487529 0 0.011829092373331088 -0.022292499771437262 0 0.011294273796044581 -0.022737149309916081 0 0.011642441121086361 -0.022725461528800058 0 0.011851539125024546 -0.022234883292461295 0 0.012163678698431248 -0.021915993024552442 0 0.011829092373331088 -0.022292499771437262 0 0.012692270331232568 -0.022141668513955031 0 0.012971666319690798 -0.021091993782487529 0 0.011294273796044581 -0.022737149309916081 0 0.011642441121086361 -0.022725461528800058 0 0.01149175366476163 -0.022949956116825536 0 0.011719107985566492 -0.022968838682658383 0 0.01149175366476163 -0.022949956116825536 0 0.011493750416240065 -0.02324730531792385 0 0.011719107985566492 -0.022968838682658383 0 0.011642441121086361 -0.022725461528800058 0 0.01149175366476163 -0.022949956116825536 0 0.011294273796044581 -0.022737149309916081 0 0.01149175366476163 -0.022949956116825536 0 0.011299736346320619 -0.023022785221761242 0 0.01149175366476163 -0.022949956116825536 0 0.011299736346320619 -0.023022785221761242 0 0.011493750416240065 -0.02324730531792385 0 0.012163678698431248 -0.021915993024552442 0 0.012688445011079789 -0.021510250313815624 0 0.011294273796044581 -0.022737149309916081 0 0.011299736346320619 -0.023022785221761242 0 0.01112331841407636 -0.023002571616444249 0 0.011299736346320619 -0.023022785221761242 0 0.011172185183072456 -0.023131625801055954 0 0.01112331841407636 -0.023002571616444249 0 0.011583370332006741 -0.023836940030663372 0 0.011589303895157626 -0.023877897519575739 0 0.011559627000278889 -0.023744659787716386 0 0.010978613393157002 -0.023691884004577994 0 0.01165141581880964 -0.023477528985309668 0 0.011299736346320619 -0.023022785221761242 0 0.011172185183072456 -0.023131625801055954 0 0.011493750416240065 -0.02324730531792385 0 0.01151737672269927 -0.023857552563249868 0 0.011583370332006741 -0.023836940030663372 0 0.011559627000278889 -0.023744659787716386 0 0.011583370332006741 -0.023836940030663372 0 0.011589303895157626 -0.023877897519575739 0 0.011723081837569021 -0.023847073587462846 0 0.01167627148802786 -0.023834030797380279 0 0.01151737672269927 -0.023857552563249868 0 0.011559627000278889 -0.023744659787716386 0 0.015899916351428112 -0.020793028228550357 0 0.016206602516269913 -0.019847668962179047 0 0.017440459127879133 -0.020398290797706744 0 0.016206602516269913 -0.019847668962179047 0 0.015364772910646194 -0.020121152948626653 0 0.015642927320589525 -0.018970158533850683 0 0.015899916351428112 -0.020793028228550357 0 0.016206602516269913 -0.019847668962179047 0 0.015364772910646194 -0.020121152948626653 0 0.012688445011079789 -0.021510250313815624 0 0.013505654080472633 -0.020960783449687211 0 0.011172185183072456 -0.023131625801055954 0 0.01112331841407636 -0.023002571616444249 0 0.011049063480145654 -0.023083527483292888 0 0.015364772910646194 -0.020121152948626653 0 0.014299547151407858 -0.019995350890537597 0 0.015642927320589525 -0.018970158533850683 0 0.014793313748228317 -0.021146587340974018 0 0.015364772910646194 -0.020121152948626653 0 0.014299547151407858 -0.019995350890537597 0 0.011589303895157626 -0.023877897519575739 0 0.011723081837569021 -0.023847073587462846 0 0.011886209418731088 -0.023980205521269775 0 0.010978613393157002 -0.023691884004577994 0 0.013505654080472633 -0.020960783449687211 0 0.011723081837569021 -0.023847073587462846 0 0.011854574711683595 -0.023833551293947638 0 0.011886209418731088 -0.023980205521269775 0 0.012287852922488173 -0.023739832372978956 0 0.011854574711683595 -0.023833551293947638 0 0.011886209418731088 -0.023980205521269775 0 0.015711028340942172 -0.025172820846371541 0 0.013505654080472633 -0.020960783449687211 0 0.017152981588585858 -0.017842355574789439 0 0.015625360495279971 -0.018989663209648549 0 0.017096622501778045 -0.018472211717548752 0 0.015625360495279971 -0.018989663209648549 0 0.016669555880623636 -0.01895670970591682 0 0.017096622501778045 -0.018472211717548752 0 0.016206602516269913 -0.019847668962179047 0 0.015642927320589525 -0.018970158533850683 0 0.016669555880623636 -0.01895670970591682 0 0.013505654080472633 -0.020960783449687211 0 0.016956154061103703 -0.019378938908315962 0 0.015711028340942172 -0.025172820846371541 0 0.020925205625066674 -0.014939310326420405 0 0.017152981588585858 -0.017842355574789439 0 0.017096622501778045 -0.018472211717548752 0 0.018682493722016101 -0.018661795369427386 0 0.016669555880623636 -0.01895670970591682 0 0.017096622501778045 -0.018472211717548752 0 0.017440459127879133 -0.020398290797706744 0 0.017096622501778045 -0.018472211717548752 0 0.018682493722016101 -0.018661795369427386 0 0.017440459127879133 -0.020398290797706744 0 0.017484186953519647 -0.020877591684922241 0 0.021115473113942719 -0.021306336507672989 0 0.020312212614653186 -0.02242196312596189 0 0.022409167164219861 -0.021854979986560445 0 0.020925205625066674 -0.014939310326420405 0 0.021509372073810738 -0.010190197078480637 0 0.021393677915487467 -0.0097135592034333085 0 0.021915118853663242 -0.0095884338214647768 0 0.021393677915487467 -0.0097135592034333085 0 0.021915118853663242 -0.0095884338214647768 0 0.02163869864614993 -0.0093569519266800474 0 0.020925205625066674 -0.014939310326420405 0 0.01949637479818437 -0.01548053178806613 0 0.016206602516269913 -0.019847668962179047 0 0.016669555880623636 -0.01895670970591682 0 0.017440459127879133 -0.020398290797706744 0 0.021915118853663242 -0.0095884338214647768 0 0.02163869864614993 -0.0093569519266800474 0 0.021920799267375394 -0.0089857120132590153 0 0.022327052105050066 -0.0089373101897754076 0 0.021915118853663242 -0.0095884338214647768 0 0.021920799267375394 -0.0089857120132590153 0 0.018887517057559346 -0.012476468845384435 0 0.01949637479818437 -0.01548053178806613 0 0.021393677915487467 -0.0097135592034333085 0 0.02163869864614993 -0.0093569519266800474 0 0.021401829122195449 -0.0089156974831557968 0 0.02163869864614993 -0.0093569519266800474 0 0.021401829122195449 -0.0089156974831557968 0 0.021920799267375394 -0.0089857120132590153 0 0.021299226499993992 -0.0082477645048959648 0 0.021401829122195449 -0.0089156974831557968 0 0.021082784954492804 -0.0086368752933935946 0 0.021299226499993992 -0.0082477645048959648 0 0.021401829122195449 -0.0089156974831557968 0 0.021491186723392598 -0.0085530118366098796 0 0.021223197263578155 -0.008921357567096307 0 0.022271911420405528 -0.0087810888177890668 0 0.021299226499993992 -0.0082477645048959648 0 0.021461763534312631 -0.0082091115572215708 0 0.021491186723392598 -0.0085530118366098796 0 0.018887517057559346 -0.012476468845384435 0 0.022271911420405528 -0.0087810888177890668 0 0.021652674087641703 -0.0083847596495525631 0 0.021461763534312631 -0.0082091115572215708 0 0.021491186723392598 -0.0085530118366098796 0 0.020689241143418583 -0.0081851624703587113 0 0.020710076534963807 -0.0087526178331420162 0 0.021082784954492804 -0.0086368752933935946 0 0.020710076534963807 -0.0087526178331420162 0 0.020801042767960375 -0.0093851584670808993 0 0.020327544758100283 -0.0089672668749619568 0 0.020710076534963807 -0.0087526178331420162 0 0.021082784954492804 -0.0086368752933935946 0 0.021090548922261754 -0.0092297381331070214 0 0.021401829122195449 -0.0089156974831557968 0 0.021082784954492804 -0.0086368752933935946 0 0.021090548922261754 -0.0092297381331070214 0 0.021393677915487467 -0.0097135592034333085 0 0.021401829122195449 -0.0089156974831557968 0 0.021090548922261754 -0.0092297381331070214 0 0.021090548922261754 -0.0092297381331070214 0 0.020801042767960375 -0.0093851584670808993 0 0.021081795892532111 -0.0099950207497137809 0 0.020710076534963807 -0.0087526178331420162 0 0.021090548922261754 -0.0092297381331070214 0 0.020801042767960375 -0.0093851584670808993 0 0.021081795892532111 -0.0099950207497137809 0 0.020560038649116305 -0.010409057932237264 0 0.020456225888366104 -0.0096724726488713417 0 0.020801042767960375 -0.0093851584670808993 0 0.021081795892532111 -0.0099950207497137809 0 0.020456225888366104 -0.0096724726488713417 0 0.021509372073810738 -0.010190197078480637 0 0.021393677915487467 -0.0097135592034333085 0 0.021081795892532111 -0.0099950207497137809 0 0.021393677915487467 -0.0097135592034333085 0 0.021090548922261754 -0.0092297381331070214 0 0.021081795892532111 -0.0099950207497137809 0 0.022549352790940658 -0.010841344103174408 0 0.021081795892532111 -0.0099950207497137809 0 0.021553629940239204 -0.010746555559368999 0 0.020925205625066674 -0.014939310326420405 0 0.021233228142743404 -0.0087235796336875594 0 0.02222564014539426 -0.011273264551449285 0 0.022549352790940658 -0.010841344103174408 0 0.021553629940239204 -0.010746555559368999 0 0.022409167164219861 -0.021854979986560445 0 0.026039109215404189 -0.012743524672575659 0 0.02222564014539426 -0.011273264551449285 0 0.021553629940239204 -0.010746555559368999 0 0.020897185567217574 -0.010953982731369641 0 0.021081795892532111 -0.0099950207497137809 0 0.021553629940239204 -0.010746555559368999 0 0.020897185567217574 -0.010953982731369641 0 0.021081795892532111 -0.0099950207497137809 0 0.020897185567217574 -0.010953982731369641 0 0.020560038649116305 -0.010409057932237264 0 0.026880711617107093 -0.017726051109935869 0 0.029176753936038764 -0.016307059825300448 0 0.024402026514401282 -0.014820807716229354 0 0.026039109215404189 -0.012743524672575659 0 0.021859124556642757 -0.013154910948423524 0 0.020897185567217574 -0.010953982731369641 0 0.020560038649116305 -0.010409057932237264 0 0.020190854896320245 -0.011221059896641501 0 0.020560038649116305 -0.010409057932237264 0 0.019960486624821725 -0.010124649842648378 0 0.020190854896320245 -0.011221059896641501 0 0.020560038649116305 -0.010409057932237264 0 0.019960486624821725 -0.010124649842648378 0 0.020456225888366104 -0.0096724726488713417 0 0.019960486624821725 -0.010124649842648378 0 0.020190854896320245 -0.011221059896641501 0 0.018949133339337228 -0.01059865835162256 0 0.020190854896320245 -0.011221059896641501 0 0.01767655864370225 -0.012806769825064131 0 0.018949133339337228 -0.01059865835162256 0 0.021859124556642757 -0.013154910948423524 0 0.017895463301167664 -0.012720685525288922 0 0.020838882864935189 -0.017695430838834444 0 0.024402026514401282 -0.014820807716229354 0 0.01767655864370225 -0.012806769825064131 0 0.01767655864370225 -0.012806769825064131 0 0.013928832264152089 -0.014681982219652227 0 0.014117283783091383 -0.0094803552597381557 0 0.016752721395548537 -0.017766695008911548 0 0.01767655864370225 -0.012806769825064131 0 0.013928832264152089 -0.014681982219652227 0 0.015954239832301303 -0.0094992236928384283 0 0.018921111691146752 -0.010524274593376881 0 0.01767655864370225 -0.012806769825064131 0 0.014117283783091383 -0.0094803552597381557 0 0.018949133339337228 -0.01059865835162256 0 0.018333049742651864 -0.0098732372828161438 0 0.018949133339337228 -0.01059865835162256 0 0.018694134614494772 -0.009453677578508601 0 0.019960486624821725 -0.010124649842648378 0 0.018949133339337228 -0.01059865835162256 0 0.01930378023281307 -0.0094605821180701564 0 0.01930378023281307 -0.0094605821180701564 0 0.018694134614494772 -0.009453677578508601 0 0.018905659372444573 -0.0088728002531035695 0 0.018949133339337228 -0.01059865835162256 0 0.01930378023281307 -0.0094605821180701564 0 0.018694134614494772 -0.009453677578508601 0 0.01930378023281307 -0.0094605821180701564 0 0.018905659372444573 -0.0088728002531035695 0 0.019384631034896804 -0.008882167629827506 0 0.018333049742651864 -0.0098732372828161438 0 0.018694134614494772 -0.009453677578508601 0 0.018154582850865429 -0.0093480619331944275 0 0.018694134614494772 -0.009453677578508601 0 0.018154582850865429 -0.0093480619331944275 0 0.018413806514880855 -0.008846661404533664 0 0.018694134614494772 -0.009453677578508601 0 0.018905659372444573 -0.0088728002531035695 0 0.018413806514880855 -0.008846661404533664 0 0.018905659372444573 -0.0088728002531035695 0 0.018635404408073951 -0.0084127223702181227 0 0.018413806514880855 -0.008846661404533664 0 0.018635404408073951 -0.0084127223702181227 0 0.019034559150378716 -0.0083809694656034606 0 0.018775460039008072 -0.0081329523497245364 0 0.018905659372444573 -0.0088728002531035695 0 0.018635404408073951 -0.0084127223702181227 0 0.019034559150378716 -0.0083809694656034606 0 0.018905659372444573 -0.0088728002531035695 0 0.019384631034896804 -0.008882167629827506 0 0.019034559150378716 -0.0083809694656034606 0 0.019384631034896804 -0.008882167629827506 0 0.019034559150378716 -0.0083809694656034606 0 0.019456167667825187 -0.0084549293784891514 0 0.019384631034896804 -0.008882167629827506 0 0.019456167667825187 -0.0084549293784891514 0 0.019850544001988202 -0.0087610647678090132 0 0.019456167667825187 -0.0084549293784891514 0 0.019850544001988202 -0.0087610647678090132 0 0.019784227435644976 -0.0082124343706640023 0 0.019384631034896804 -0.008882167629827506 0 0.019850544001988202 -0.0087610647678090132 0 0.019885023634389484 -0.0093402034872929387 0 0.019850544001988202 -0.0087610647678090132 0 0.020327544758100283 -0.0089672668749619568 0 0.019885023634389484 -0.0093402034872929387 0 0.019850544001988202 -0.0087610647678090132 0 0.020327544758100283 -0.0089672668749619568 0 0.020238076580379093 -0.0082645218300303937 0 0.020710076534963807 -0.0087526178331420162 0 0.020327544758100283 -0.0089672668749619568 0 0.020238076580379093 -0.0082645218300303937 0 0.020327544758100283 -0.0089672668749619568 0 0.020456225888366104 -0.0096724726488713417 0 0.019885023634389484 -0.0093402034872929387 0 0.020801042767960375 -0.0093851584670808993 0 0.020327544758100283 -0.0089672668749619568 0 0.020456225888366104 -0.0096724726488713417 0 0.019960486624821725 -0.010124649842648378 0 0.020456225888366104 -0.0096724726488713417 0 0.019885023634389484 -0.0093402034872929387 0 0.019960486624821725 -0.010124649842648378 0 0.01930378023281307 -0.0094605821180701564 0 0.019885023634389484 -0.0093402034872929387 0 0.01930378023281307 -0.0094605821180701564 0 0.019384631034896804 -0.008882167629827506 0 0.019885023634389484 -0.0093402034872929387 0 0.022348379442299178 -0.020367306413554651 0 0.024634386231489246 -0.021727814560043666 0 0.025214511210199703 -0.018946917283379432 0 0.022213002899331327 -0.022809489569342773 0 0.022348379442299178 -0.020367306413554651 0 0.024634386231489246 -0.021727814560043666 0 0.023366608872015762 -0.025573522406747384 0 0.022213002899331327 -0.022809489569342773 0 0.024307643987445154 -0.024295323412592218 0 0.022213002899331327 -0.022809489569342773 0 0.024634386231489246 -0.021727814560043666 0 0.023935300460455396 -0.02298652962045427 0 0.022213002899331327 -0.022809489569342773 0 0.023935300460455396 -0.02298652962045427 0 0.024307643987445154 -0.024295323412592218 0 0.025584680077777266 -0.024568884277591917 0 0.024307643987445154 -0.024295323412592218 0 0.025010515670370031 -0.023418238041747245 0 0.023935300460455396 -0.02298652962045427 0 0.024307643987445154 -0.024295323412592218 0 0.025010515670370031 -0.023418238041747245 0 0.024634386231489246 -0.021727814560043666 0 0.023935300460455396 -0.02298652962045427 0 0.025010515670370031 -0.023418238041747245 0 0.010868391175567635 -0.022397989177565063 0 0.010332790893329112 -0.020997367589783253 0 0.010557399588335556 -0.020538223728293826 0 0.010897492302209729 -0.022124516329670819 0 0.0098056686371328933 -0.0205270071501608 0 0.024634386231489246 -0.021727814560043666 0 0.025010515670370031 -0.023418238041747245 0 0.026644086250422531 -0.023524421918635904 0 0.025584680077777266 -0.024568884277591917 0 0.025010515670370031 -0.023418238041747245 0 0.026644086250422531 -0.023524421918635904 0 0.0098056686371328933 -0.0205270071501608 0 0.014753545990589334 -0.015458159532545897 0 0.010259925912862816 -0.018475433583213876 0 0.011660727195112896 -0.017883443077959426 0 0.0089658535599542611 -0.017358806272371741 0 0.010332790893329112 -0.020997367589783253 0 0.010557399588335556 -0.020538223728293826 0 0.010058349177738599 -0.018883517287652567 0 0.024634386231489246 -0.021727814560043666 0 0.026644086250422531 -0.023524421918635904 0 0.025214511210199703 -0.018946917283379432 0 0.0098673944840624774 -0.019858233016608742 0 0.010259925912862816 -0.018475433583213876 0 0.0089658535599542611 -0.017358806272371741 0 0.0098673944840624774 -0.019858233016608742 0 0.010259925912862816 -0.018475433583213876 0 0.011070669955184605 -0.01938312360979242 0 0.010557399588335556 -0.020538223728293826 0 0.010286843570495079 -0.018945361982518467 0 0.010058349177738599 -0.018883517287652567 0 0.017975801332872757 -0.02237719562702202 0 0.020854237638425387 -0.018277601058496101 0 0.011660727195112896 -0.017883443077959426 0 0.011070669955184605 -0.01938312360979242 0 0.012413595895753048 -0.020137518789562298 0 0.014166329573429276 -0.011304001303519197 0 0.011037839871425027 -0.016838619040243075 0 0.010259925912862816 -0.018475433583213876 0 0.011660727195112896 -0.017883443077959426 0 0.011070669955184605 -0.01938312360979242 0 0.010868391175567635 -0.022397989177565063 0 0.0098673944840624774 -0.019858233016608742 0 0.011276393787438013 -0.020710075132860332 0 0.0098673944840624774 -0.019858233016608742 0 0.011070669955184605 -0.01938312360979242 0 0.011276393787438013 -0.020710075132860332 0 0.011878933663280996 -0.021655289319571724 0 0.011276393787438013 -0.020710075132860332 0 0.012413595895753048 -0.020137518789562298 0 0.011070669955184605 -0.01938312360979242 0 0.011276393787438013 -0.020710075132860332 0 0.012413595895753048 -0.020137518789562298 0 0.011753746888277725 -0.018478837320791829 0 0.013928832264152089 -0.014681982219652227 0 0.010091136389579678 -0.013274908991564074 0 0.012497919989835914 -0.020412331285240781 0 0.011037839871425027 -0.016838619040243075 0 0.013928832264152089 -0.014681982219652227 0 0.014117283783091383 -0.0094803552597381557 0 0.010091136389579678 -0.013274908991564074 0 0.014117283783091383 -0.0094803552597381557 0 0.0083851807912319262 -0.0084152802273994333 0 0.010091136389579678 -0.013274908991564074 0 0.018333049742651864 -0.0098732372828161438 0 0.017609133461454509 -0.0095824824193637779 0 0.018154582850865429 -0.0093480619331944275 0 0.015954239832301303 -0.0094992236928384283 0 0.014166329573429276 -0.011304001303519197 0 0.017609133461454509 -0.0095824824193637779 0 0.018154582850865429 -0.0093480619331944275 0 0.017925760926579673 -0.0088878831186542592 0 0.018154582850865429 -0.0093480619331944275 0 0.017925760926579673 -0.0088878831186542592 0 0.018413806514880855 -0.008846661404533664 0 0.017925760926579673 -0.0088878831186542592 0 0.018413806514880855 -0.008846661404533664 0 0.018139230843258448 -0.008175342666728324 0 0.018635404408073951 -0.0084127223702181227 0 0.018413806514880855 -0.008846661404533664 0 0.018139230843258448 -0.008175342666728324 0 0.018139230843258448 -0.008175342666728324 0 0.01743941552339482 -0.0084487474730942091 0 0.017684293109110766 -0.0077837150717349523 0 0.017925760926579673 -0.0088878831186542592 0 0.018139230843258448 -0.008175342666728324 0 0.01743941552339482 -0.0084487474730942091 0 0.017609133461454509 -0.0095824824193637779 0 0.017925760926579673 -0.0088878831186542592 0 0.01743941552339482 -0.0084487474730942091 0 0.017799027699280035 -0.0094615910532216945 0 0.01743941552339482 -0.0084487474730942091 0 0.017230287891609131 -0.0089039581094496941 0 0.014166329573429276 -0.011304001303519197 0 0.018231510243166733 -0.0080319145080157712 0 0.017799027699280035 -0.0094615910532216945 0 0.016855373598597938 -0.0092889363528830607 0 0.017230287891609131 -0.0089039581094496941 0 0.014166329573429276 -0.011304001303519197 0 0.014753545990589334 -0.015458159532545897 0 0.014753545990589334 -0.015458159532545897 0 0.020854237638425387 -0.018277601058496101 0 0.016855373598597938 -0.0092889363528830607 0 0.017230287891609131 -0.0089039581094496941 0 0.016775694162720862 -0.0086973955789140019 0 0.01743941552339482 -0.0084487474730942091 0 0.017230287891609131 -0.0089039581094496941 0 0.017029230683990992 -0.0082062583525145567 0 0.01743941552339482 -0.0084487474730942091 0 0.017029230683990992 -0.0082062583525145567 0 0.017251409007720184 -0.007719172355193653 0 0.017029230683990992 -0.0082062583525145567 0 0.016774616760958143 -0.0082861931737199263 0 0.016766077577306623 -0.008054061765898143 0 0.017230287891609131 -0.0089039581094496941 0 0.017029230683990992 -0.0082062583525145567 0 0.016775694162720862 -0.0086973955789140019 0 0.017029230683990992 -0.0082062583525145567 0 0.016775694162720862 -0.0086973955789140019 0 0.016774616760958143 -0.0082861931737199263 0 0.016775694162720862 -0.0086973955789140019 0 0.016774616760958143 -0.0082861931737199263 0 0.016516500522725783 -0.008177914844608225 0 0.02264958010589985 -0.014024617001712345 0 0.020854237638425387 -0.018277601058496101 0 0.022077583373246473 -0.016667759264530568 0 0.022932080281536441 -0.014787643188818776 0 0.024201854700749356 -0.018472665666948395 0 0.022120423725519443 -0.013784556125329925 0 0.021825616844286289 -0.013607919094152612 0 0.022440043899505945 -0.015967550327152812 0 0.016516500522725783 -0.008177914844608225 0 0.016766077577306623 -0.008054061765898143 0 0.016694724352813561 -0.0077805022349327346 0 0.016774616760958143 -0.0082861931737199263 0 0.016516500522725783 -0.008177914844608225 0 0.016766077577306623 -0.008054061765898143 0 0.022752037387518759 -0.01603492364211874 0 0.022120423725519443 -0.013784556125329925 0 0.022440043899505945 -0.015967550327152812 0 0.014753545990589334 -0.015458159532545897 0 0.019903340207033247 -0.010556126990293771 0 0.016855373598597938 -0.0092889363528830607 0 0.016775694162720862 -0.0086973955789140019 0 0.016516500522725783 -0.008177914844608225 0 0.016340567512771347 -0.0068574707558700949 0 0.016678319178610217 -0.0065368482292769165 0 0.016763873486046858 -0.0058720432944238598 0 0.016678319178610217 -0.0065368482292769165 0 0.016823336686283455 -0.006805706067680363 0 0.016613648993969072 -0.0068009590015816173 0 0.016340567512771347 -0.0068574707558700949 0 0.016678319178610217 -0.0065368482292769165 0 0.016613648993969072 -0.0068009590015816173 0 0.016823336686283455 -0.006805706067680363 0 0.01707606467100652 -0.0066944044566817308 0 0.017001296469943829 -0.0063175234627016064 0 0.016678319178610217 -0.0065368482292769165 0 0.016823336686283455 -0.006805706067680363 0 0.017001296469943829 -0.0063175234627016064 0 0.016823336686283455 -0.006805706067680363 0 0.016597434919177007 -0.0070054487701741008 0 0.0167690606531995 -0.007263861198348009 0 0.016823336686283455 -0.006805706067680363 0 0.0167690606531995 -0.007263861198348009 0 0.017104672228221512 -0.0071262590599052841 0 0.016340567512771347 -0.0068574707558700949 0 0.016597434919177007 -0.0070054487701741008 0 0.01654745661678932 -0.0073884782327946902 0 0.016823336686283455 -0.006805706067680363 0 0.016597434919177007 -0.0070054487701741008 0 0.016613648993969072 -0.0068009590015816173 0 0.016340567512771347 -0.0068574707558700949 0 0.016597434919177007 -0.0070054487701741008 0 0.016613648993969072 -0.0068009590015816173 0 0.02133178859401216 -0.011186247435491257 0 0.022120423725519443 -0.013784556125329925 0 0.021825616844286289 -0.013607919094152612 0 0.016340567512771347 -0.0068574707558700949 0 0.016516500522725783 -0.008177914844608225 0 0.01654745661678932 -0.0073884782327946902 0 0.018764833287004401 -0.0091160487749505446 0 0.019903340207033247 -0.010556126990293771 0 0.016597434919177007 -0.0070054487701741008 0 0.01654745661678932 -0.0073884782327946902 0 0.0167690606531995 -0.007263861198348009 0 0.016516500522725783 -0.008177914844608225 0 0.01654745661678932 -0.0073884782327946902 0 0.016694724352813561 -0.0077805022349327346 0 0.016766077577306623 -0.008054061765898143 0 0.016694724352813561 -0.0077805022349327346 0 0.016890907784784019 -0.0076789943039371035 0 0.016694724352813561 -0.0077805022349327346 0 0.016890907784784019 -0.0076789943039371035 0 0.016717533511058258 -0.0075465022269987133 0 0.016890907784784019 -0.0076789943039371035 0 0.016717533511058258 -0.0075465022269987133 0 0.0167690606531995 -0.007263861198348009 0 0.016890907784784019 -0.0076789943039371035 0 0.0167690606531995 -0.007263861198348009 0 0.017104672228221512 -0.0071262590599052841 0 0.01654745661678932 -0.0073884782327946902 0 0.016717533511058258 -0.0075465022269987133 0 0.0167690606531995 -0.007263861198348009 0 0.01654745661678932 -0.0073884782327946902 0 0.016694724352813561 -0.0077805022349327346 0 0.016717533511058258 -0.0075465022269987133 0 0.016890907784784019 -0.0076789943039371035 0 0.017251409007720184 -0.007719172355193653 0 0.017104672228221512 -0.0071262590599052841 0 0.017029230683990992 -0.0082062583525145567 0 0.016890907784784019 -0.0076789943039371035 0 0.017251409007720184 -0.007719172355193653 0 0.017029230683990992 -0.0082062583525145567 0 0.016766077577306623 -0.008054061765898143 0 0.016890907784784019 -0.0076789943039371035 0 0.017251409007720184 -0.007719172355193653 0 0.017104672228221512 -0.0071262590599052841 0 0.017563214871645205 -0.0071887800463681008 0 0.017104672228221512 -0.0071262590599052841 0 0.017373454723409711 -0.006540474978002064 0 0.017563214871645205 -0.0071887800463681008 0 0.016823336686283455 -0.006805706067680363 0 0.017104672228221512 -0.0071262590599052841 0 0.01707606467100652 -0.0066944044566817308 0 0.017104672228221512 -0.0071262590599052841 0 0.01707606467100652 -0.0066944044566817308 0 0.017373454723409711 -0.006540474978002064 0 0.01707606467100652 -0.0066944044566817308 0 0.017373454723409711 -0.006540474978002064 0 0.017001296469943829 -0.0063175234627016064 0 0.017373454723409711 -0.006540474978002064 0 0.01788512581306826 -0.0066185892546517513 0 0.017563214871645205 -0.0071887800463681008 0 0.01788512581306826 -0.0066185892546517513 0 0.017563214871645205 -0.0071887800463681008 0 0.018027058929639544 -0.0073611126489019126 0 0.017251409007720184 -0.007719172355193653 0 0.017563214871645205 -0.0071887800463681008 0 0.017684293109110766 -0.0077837150717349523 0 0.018139230843258448 -0.008175342666728324 0 0.017684293109110766 -0.0077837150717349523 0 0.018027058929639544 -0.0073611126489019126 0 0.017563214871645205 -0.0071887800463681008 0 0.017684293109110766 -0.0077837150717349523 0 0.018027058929639544 -0.0073611126489019126 0 0.01743941552339482 -0.0084487474730942091 0 0.017251409007720184 -0.007719172355193653 0 0.017684293109110766 -0.0077837150717349523 0 0.018139230843258448 -0.008175342666728324 0 0.018027058929639544 -0.0073611126489019126 0 0.018447764536433271 -0.0075946879655598119 0 0.018635404408073951 -0.0084127223702181227 0 0.018139230843258448 -0.008175342666728324 0 0.018523795713117734 -0.0079980859940238253 0 0.018139230843258448 -0.008175342666728324 0 0.018523795713117734 -0.0079980859940238253 0 0.018447764536433271 -0.0075946879655598119 0 0.018447764536433271 -0.0075946879655598119 0 0.01847399239480093 -0.0066675327922358059 0 0.019267218115099873 -0.0064593148030214651 0 0.018027058929639544 -0.0073611126489019126 0 0.018447764536433271 -0.0075946879655598119 0 0.01847399239480093 -0.0066675327922358059 0 0.01788512581306826 -0.0066185892546517513 0 0.018027058929639544 -0.0073611126489019126 0 0.01847399239480093 -0.0066675327922358059 0 0.01847399239480093 -0.0066675327922358059 0 0.01825691115985582 -0.0059954425180392861 0 0.018924507911269355 -0.0057602935647703482 0 0.01788512581306826 -0.0066185892546517513 0 0.01847399239480093 -0.0066675327922358059 0 0.01825691115985582 -0.0059954425180392861 0 0.01825691115985582 -0.0059954425180392861 0 0.018520780377984061 -0.0052182819463477553 0 0.018924507911269355 -0.0057602935647703482 0 0.01825691115985582 -0.0059954425180392861 0 0.018520780377984061 -0.0052182819463477553 0 0.018053439739702158 -0.0055684517193718558 0 0.018053439739702158 -0.0055684517193718558 0 0.01781275682384036 -0.0050858924422533874 0 0.017645929959194374 -0.0059768356156705161 0 0.018520780377984061 -0.0052182819463477553 0 0.018053439739702158 -0.0055684517193718558 0 0.01781275682384036 -0.0050858924422533874 0 0.01788512581306826 -0.0066185892546517513 0 0.01825691115985582 -0.0059954425180392861 0 0.017645929959194374 -0.0059768356156705161 0 0.01825691115985582 -0.0059954425180392861 0 0.018053439739702158 -0.0055684517193718558 0 0.017645929959194374 -0.0059768356156705161 0 0.017373454723409711 -0.006540474978002064 0 0.01788512581306826 -0.0066185892546517513 0 0.017645929959194374 -0.0059768356156705161 0 0.017373454723409711 -0.006540474978002064 0 0.017645929959194374 -0.0059768356156705161 0 0.017248705841238509 -0.0058403926332743113 0 0.017373454723409711 -0.006540474978002064 0 0.017248705841238509 -0.0058403926332743113 0 0.017001296469943829 -0.0063175234627016064 0 0.01781275682384036 -0.0050858924422533874 0 0.017645929959194374 -0.0059768356156705161 0 0.017248705841238509 -0.0058403926332743113 0 0.01781275682384036 -0.0050858924422533874 0 0.017248705841238509 -0.0058403926332743113 0 0.017205733343552312 -0.0053015290796200572 0 0.01688170131957057 -0.0051799591524516681 0 0.017205733343552312 -0.0053015290796200572 0 0.016763873486046858 -0.0058720432944238598 0 0.017248705841238509 -0.0058403926332743113 0 0.017205733343552312 -0.0053015290796200572 0 0.016763873486046858 -0.0058720432944238598 0 0.017248705841238509 -0.0058403926332743113 0 0.016763873486046858 -0.0058720432944238598 0 0.017001296469943829 -0.0063175234627016064 0 0.016678319178610217 -0.0065368482292769165 0 0.016763873486046858 -0.0058720432944238598 0 0.017001296469943829 -0.0063175234627016064 0 0.020386634724942437 -0.0067870931570951027 0 0.019494989269772722 -0.0071220120515408216 0 0.020476140291338749 -0.0075276646500534129 0 0.019795224071212526 -0.0077624771943262194 0 0.020238076580379093 -0.0082645218300303937 0 0.019850544001988202 -0.0087610647678090132 0 0.020238076580379093 -0.0082645218300303937 0 0.019784227435644976 -0.0082124343706640023 0 0.019795224071212526 -0.0077624771943262194 0 0.020238076580379093 -0.0082645218300303937 0 0.019784227435644976 -0.0082124343706640023 0 0.019795224071212526 -0.0077624771943262194 0 0.019784227435644976 -0.0082124343706640023 0 0.019342792768548202 -0.0081232343896543487 0 0.019456167667825187 -0.0084549293784891514 0 0.019784227435644976 -0.0082124343706640023 0 0.019342792768548202 -0.0081232343896543487 0 0.019795224071212526 -0.0077624771943262194 0 0.019342792768548202 -0.0081232343896543487 0 0.019032810974794607 -0.0079444261002701248 0 0.019034559150378716 -0.0083809694656034606 0 0.019456167667825187 -0.0084549293784891514 0 0.019342792768548202 -0.0081232343896543487 0 0.019034559150378716 -0.0083809694656034606 0 0.019342792768548202 -0.0081232343896543487 0 0.018951106484760789 -0.0080377325677678819 0 0.019342792768548202 -0.0081232343896543487 0 0.018951106484760789 -0.0080377325677678819 0 0.019032810974794607 -0.0079444261002701248 0 0.018523795713117734 -0.0079980859940238253 0 0.018775460039008072 -0.0081329523497245364 0 0.018798821105878178 -0.0078346634944506614 0 0.018635404408073951 -0.0084127223702181227 0 0.018523795713117734 -0.0079980859940238253 0 0.018775460039008072 -0.0081329523497245364 0 0.019034559150378716 -0.0083809694656034606 0 0.018775460039008072 -0.0081329523497245364 0 0.018951106484760789 -0.0080377325677678819 0 0.018775460039008072 -0.0081329523497245364 0 0.018951106484760789 -0.0080377325677678819 0 0.018798821105878178 -0.0078346634944506614 0 0.018951106484760789 -0.0080377325677678819 0 0.019059091088411879 -0.0078256484473586772 0 0.018798821105878178 -0.0078346634944506614 0 0.018764218479165685 -0.0074665284473162379 0 0.018828207249509402 -0.0076549524668000982 0 0.018757549339033328 -0.0077952300787066412 0 0.018764218479165685 -0.0074665284473162379 0 0.018523795713117734 -0.0079980859940238253 0 0.018447764536433271 -0.0075946879655598119 0 0.018798821105878178 -0.0078346634944506614 0 0.018487081155544181 -0.0075275899776768591 0 0.01906147195439177 -0.0067281995487826927 0 0.019143719794793058 -0.0077095619125410204 0 0.018798821105878178 -0.0078346634944506614 0 0.018891645211525435 -0.0069718768457229848 0 0.018447764536433271 -0.0075946879655598119 0 0.018798821105878178 -0.0078346634944506614 0 0.018891645211525435 -0.0069718768457229848 0 0.019494989269772722 -0.0071220120515408216 0 0.018764218479165685 -0.0074665284473162379 0 0.019258681907407243 -0.0064898474075857282 0 0.018232510811993383 -0.0068910352507399828 0 0.018729805350870758 -0.0059022573062277985 0 0.019143719794793058 -0.0077095619125410204 0 0.018891645211525435 -0.0069718768457229848 0 0.019681883370731373 -0.0066961484517436215 0 0.018764218479165685 -0.0074665284473162379 0 0.019204572647581776 -0.0062585160002454699 0 0.01906147195439177 -0.0067281995487826927 0 0.019633254996819213 -0.0058244740378855008 0 0.018891645211525435 -0.0069718768457229848 0 0.019681883370731373 -0.0066961484517436215 0 0.019495838590568602 -0.0061407971580426171 0 0.01847399239480093 -0.0066675327922358059 0 0.019267218115099873 -0.0064593148030214651 0 0.018924507911269355 -0.0057602935647703482 0 0.019267218115099873 -0.0064593148030214651 0 0.018924507911269355 -0.0057602935647703482 0 0.019786209782684121 -0.0054943135609630848 0 0.018520780377984061 -0.0052182819463477553 0 0.018924507911269355 -0.0057602935647703482 0 0.019260510236420406 -0.0051424741950243033 0 0.018520780377984061 -0.0052182819463477553 0 0.019260510236420406 -0.0051424741950243033 0 0.018911159973144208 -0.0047896891427638404 0 0.018924507911269355 -0.0057602935647703482 0 0.019260510236420406 -0.0051424741950243033 0 0.019786209782684121 -0.0054943135609630848 0 0.019633254996819213 -0.0058244740378855008 0 0.020218646414300403 -0.0049000910200817866 0 0.019681883370731373 -0.0066961484517436215 0 0.019495838590568602 -0.0061407971580426171 0 0.020259756072932004 -0.0055593547577358652 0 0.019786209782684121 -0.0054943135609630848 0 0.020250615367609123 -0.0045287279926586417 0 0.019691221491350362 -0.0047722129245147838 0 0.019260510236420406 -0.0051424741950243033 0 0.019786209782684121 -0.0054943135609630848 0 0.019691221491350362 -0.0047722129245147838 0 0.019204572647581776 -0.0062585160002454699 0 0.019710813273486612 -0.0052590721791728494 0 0.019198863931760717 -0.0048952748237162582 0 0.01944193304658404 -0.0052715681055707656 0 0.019203602829289505 -0.0056669543324104352 0 0.018729805350870758 -0.0059022573062277985 0 0.019198863931760717 -0.0048952748237162582 0 0.019203602829289505 -0.0056669543324104352 0 0.019495838590568602 -0.0061407971580426171 0 0.020259756072932004 -0.0055593547577358652 0 0.020159815248629288 -0.005267167956008908 0 0.019198863931760717 -0.0048952748237162582 0 0.01944193304658404 -0.0052715681055707656 0 0.019546530672110211 -0.0048915445812657016 0 0.019258681907407243 -0.0064898474075857282 0 0.019203602829289505 -0.0056669543324104352 0 0.019567580114554475 -0.0056995817212948559 0 0.019258681907407243 -0.0064898474075857282 0 0.018729805350870758 -0.0059022573062277985 0 0.019203602829289505 -0.0056669543324104352 0 0.01944193304658404 -0.0052715681055707656 0 0.019203602829289505 -0.0056669543324104352 0 0.019567580114554475 -0.0056995817212948559 0 0.020301519147518484 -0.0060546775467310342 0 0.019567580114554475 -0.0056995817212948559 0 0.019986327756478676 -0.0055542959628585957 0 0.020301519147518484 -0.0060546775467310342 0 0.019258681907407243 -0.0064898474075857282 0 0.019567580114554475 -0.0056995817212948559 0 0.020274975434977891 -0.005242825914564226 0 0.019986327756478676 -0.0055542959628585957 0 0.019793744105186025 -0.0051560134410907309 0 0.019567580114554475 -0.0056995817212948559 0 0.019986327756478676 -0.0055542959628585957 0 0.019793744105186025 -0.0051560134410907309 0 0.01944193304658404 -0.0052715681055707656 0 0.019567580114554475 -0.0056995817212948559 0 0.019793744105186025 -0.0051560134410907309 0 0.019793744105186025 -0.0051560134410907309 0 0.019546530672110211 -0.0048915445812657016 0 0.019773060986931715 -0.0047501902846523846 0 0.01944193304658404 -0.0052715681055707656 0 0.019793744105186025 -0.0051560134410907309 0 0.019546530672110211 -0.0048915445812657016 0 0.020274975434977891 -0.005242825914564226 0 0.019793744105186025 -0.0051560134410907309 0 0.020061684128505456 -0.0046574969204614854 0 0.019793744105186025 -0.0051560134410907309 0 0.020061684128505456 -0.0046574969204614854 0 0.019773060986931715 -0.0047501902846523846 0 0.019198863931760717 -0.0048952748237162582 0 0.019708686017406642 -0.0042293542850618138 0 0.019747441637428625 -0.0037268614754320862 0 0.020061684128505456 -0.0046574969204614854 0 0.019849041407248125 -0.0044612109505751119 0 0.019773060986931715 -0.0047501902846523846 0 0.019198863931760717 -0.0048952748237162582 0 0.019609040597111566 -0.0045755833619338451 0 0.019708686017406642 -0.0042293542850618138 0 0.019546530672110211 -0.0048915445812657016 0 0.019773060986931715 -0.0047501902846523846 0 0.019609040597111566 -0.0045755833619338451 0 0.019849041407248125 -0.0044612109505751119 0 0.019773060986931715 -0.0047501902846523846 0 0.019609040597111566 -0.0045755833619338451 0 0.019849041407248125 -0.0044612109505751119 0 0.019609040597111566 -0.0045755833619338451 0 0.019708686017406642 -0.0042293542850618138 0 0.019849041407248125 -0.0044612109505751119 0 0.019708686017406642 -0.0042293542850618138 0 0.020080664631195205 -0.0041658841806943969 0 0.019708686017406642 -0.0042293542850618138 0 0.020080664631195205 -0.0041658841806943969 0 0.019925743884248368 -0.0039434977606703286 0 0.020061684128505456 -0.0046574969204614854 0 0.019849041407248125 -0.0044612109505751119 0 0.020080664631195205 -0.0041658841806943969 0 0.02021671749794551 -0.0037267459467766779 0 0.019925743884248368 -0.0039434977606703286 0 0.019747441637428625 -0.0037268614754320862 0 0.020080664631195205 -0.0041658841806943969 0 0.02021671749794551 -0.0037267459467766779 0 0.019925743884248368 -0.0039434977606703286 0 0.019708686017406642 -0.0042293542850618138 0 0.019925743884248368 -0.0039434977606703286 0 0.019747441637428625 -0.0037268614754320862 0 0.02050291299430337 -0.0035493374733662712 0 0.020473321932911587 -0.0034414738410475827 0 0.020374394707396118 -0.0034467876482973505 0 0.020374394707396118 -0.0034467876482973505 0 0.020228015195162832 -0.0033445513128891997 0 0.020347668426643706 -0.0031793958845364166 0 0.02050291299430337 -0.0035493374733662712 0 0.020374394707396118 -0.0034467876482973505 0 0.020275119683964622 -0.0035930485377267309 0 0.020473321932911587 -0.0034414738410475827 0 0.020374394707396118 -0.0034467876482973505 0 0.020347668426643706 -0.0031793958845364166 0 0.020393890611894592 -0.0039222427615730479 0 0.020426211412409183 -0.0038446406110770859 0 0.020473321932911587 -0.0034414738410475827 0 0.020343444627818643 -0.0032088874401197077 0 0.020347668426643706 -0.0031793958845364166 0 0.02021671749794551 -0.0037267459467766779 0 0.019747441637428625 -0.0037268614754320862 0 0.020343444627818643 -0.0032088874401197077 0 0.020505304917679292 -0.0034956011622851771 0 0.020473321932911587 -0.0034414738410475827 0 0.020343444627818643 -0.0032088874401197077 0 0.020393890611894592 -0.0039222427615730479 0 0.020367353784048237 -0.0033827542085887417 0 0.020228015195162832 -0.0033445513128891997 0 0.020011931720827904 -0.0037124492628805347 0 0.019874173379048631 -0.0029397814179529303 0 0.020228015195162832 -0.0033445513128891997 0 0.020275119683964622 -0.0035930485377267309 0 0.020011931720827904 -0.0037124492628805347 0 0.020374394707396118 -0.0034467876482973505 0 0.020228015195162832 -0.0033445513128891997 0 0.020275119683964622 -0.0035930485377267309 0 0.02050291299430337 -0.0035493374733662712 0 0.020275119683964622 -0.0035930485377267309 0 0.020242794155726204 -0.0039192954045706527 0 0.020275119683964622 -0.0035930485377267309 0 0.020242794155726204 -0.0039192954045706527 0 0.020011931720827904 -0.0037124492628805347 0 0.020242794155726204 -0.0039192954045706527 0 0.020011931720827904 -0.0037124492628805347 0 0.020085303575980977 -0.0040934233010372165 0 0.020011931720827904 -0.0037124492628805347 0 0.020085303575980977 -0.0040934233010372165 0 0.019840800547071748 -0.0042406291722677063 0 0.019710813273486612 -0.0052590721791728494 0 0.020393890611894592 -0.0039222427615730479 0 0.020242794155726204 -0.0039192954045706527 0 0.020085303575980977 -0.0040934233010372165 0 0.020250615367609123 -0.0045287279926586417 0 0.020259756072932004 -0.0055593547577358652 0 0.020844764919288911 -0.004373476615156812 0 0.020159815248629288 -0.005267167956008908 0 0.02050291299430337 -0.0035493374733662712 0 0.020242794155726204 -0.0039192954045706527 0 0.020250615367609123 -0.0045287279926586417 0 0.020393890611894592 -0.0039222427615730479 0 0.020218646414300403 -0.0049000910200817866 0 0.020085303575980977 -0.0040934233010372165 0 0.020250615367609123 -0.0045287279926586417 0 0.019840800547071748 -0.0042406291722677063 0 0.019198863931760717 -0.0048952748237162582 0 0.019546530672110211 -0.0048915445812657016 0 0.019609040597111566 -0.0045755833619338451 0 0.020250615367609123 -0.0045287279926586417 0 0.019691221491350362 -0.0047722129245147838 0 0.019840800547071748 -0.0042406291722677063 0 0.019691221491350362 -0.0047722129245147838 0 0.019840800547071748 -0.0042406291722677063 0 0.019321137126504177 -0.0044791637683712256 0 0.019260510236420406 -0.0051424741950243033 0 0.019691221491350362 -0.0047722129245147838 0 0.019321137126504177 -0.0044791637683712256 0 0.019840800547071748 -0.0042406291722677063 0 0.019321137126504177 -0.0044791637683712256 0 0.019444062538457554 -0.003821023688354421 0 0.018911159973144208 -0.0047896891427638404 0 0.019321137126504177 -0.0044791637683712256 0 0.018623179510596496 -0.0043911836573512324 0 0.019321137126504177 -0.0044791637683712256 0 0.019444062538457554 -0.003821023688354421 0 0.018623179510596496 -0.0043911836573512324 0 0.019260510236420406 -0.0051424741950243033 0 0.018911159973144208 -0.0047896891427638404 0 0.019321137126504177 -0.0044791637683712256 0 0.019444062538457554 -0.003821023688354421 0 0.018917830913558323 -0.0035500944177289839 0 0.018623179510596496 -0.0043911836573512324 0 0.020011931720827904 -0.0037124492628805347 0 0.019444062538457554 -0.003821023688354421 0 0.019874173379048631 -0.0029397814179529303 0 0.020011931720827904 -0.0037124492628805347 0 0.019840800547071748 -0.0042406291722677063 0 0.019444062538457554 -0.003821023688354421 0 0.019846737109373621 -0.002990598001626149 0 0.019156205107242891 -0.0034222207048382443 0 0.019874173379048631 -0.0029397814179529303 0 0.019373563860966791 -0.0032951127331479462 0 0.019621939468834493 -0.0021809640997184757 0 0.019444062538457554 -0.003821023688354421 0 0.019874173379048631 -0.0029397814179529303 0 0.018917830913558323 -0.0035500944177289839 0 0.019373563860966791 -0.0032951127331479462 0 0.019621939468834493 -0.0021809640997184757 0 0.019103570081334568 -0.0025749010546388023 0 0.019874173379048631 -0.0029397814179529303 0 0.019621939468834493 -0.0021809640997184757 0 0.020010115252058779 -0.0021684743503931759 0 0.020010115252058779 -0.0021684743503931759 0 0.020264235940030063 -0.0023159780020205541 0 0.020208545893881099 -0.0027836337770979496 0 0.019874173379048631 -0.0029397814179529303 0 0.020010115252058779 -0.0021684743503931759 0 0.020208545893881099 -0.0027836337770979496 0 0.020264235940030063 -0.0023159780020205541 0 0.020382024782655696 -0.0027668475927018197 0 0.020482000398595029 -0.0021610820348861711 0 0.020264235940030063 -0.0023159780020205541 0 0.020382024782655696 -0.0027668475927018197 0 0.020208545893881099 -0.0027836337770979496 0 0.020382024782655696 -0.0027668475927018197 0 0.020347668426643706 -0.0031793958845364166 0 0.020208545893881099 -0.0027836337770979496 0 0.020382024782655696 -0.0027668475927018197 0 0.020343444627818643 -0.0032088874401197077 0 0.020563854698417542 -0.0029676579825960447 0 0.020382024782655696 -0.0027668475927018197 0 0.020343444627818643 -0.0032088874401197077 0 0.020347668426643706 -0.0031793958845364166 0 0.020228015195162832 -0.0033445513128891997 0 0.019874173379048631 -0.0029397814179529303 0 0.020208545893881099 -0.0027836337770979496 0 0.020228015195162832 -0.0033445513128891997 0 0.020347668426643706 -0.0031793958845364166 0 0.020208545893881099 -0.0027836337770979496 0 0.016955213710395493 -0.0046005863212191835 0 0.017137788966169489 -0.0040296568949037305 0 0.017432089085025436 -0.0045860774871799128 0 0.01688170131957057 -0.0051799591524516681 0 0.017205733343552312 -0.0053015290796200572 0 0.017432089085025436 -0.0045860774871799128 0 0.016955213710395493 -0.0046005863212191835 0 0.01688170131957057 -0.0051799591524516681 0 0.017432089085025436 -0.0045860774871799128 0 0.01781275682384036 -0.0050858924422533874 0 0.017205733343552312 -0.0053015290796200572 0 0.017432089085025436 -0.0045860774871799128 0 0.017473323565011918 -0.0045257628569165265 0 0.018290370657887012 -0.0040344857950643173 0 0.017432089085025436 -0.0045860774871799128 0 0.017765974721675987 -0.0038107314671500339 0 0.018556946516877879 -0.0039265157280985383 0 0.017137788966169489 -0.0040296568949037305 0 0.017432089085025436 -0.0045860774871799128 0 0.017765974721675987 -0.0038107314671500339 0 0.01781275682384036 -0.0050858924422533874 0 0.017432089085025436 -0.0045860774871799128 0 0.018058608449168286 -0.0041321920742394885 0 0.01781275682384036 -0.0050858924422533874 0 0.018058608449168286 -0.0041321920742394885 0 0.018623179510596496 -0.0043911836573512324 0 0.018520780377984061 -0.0052182819463477553 0 0.01781275682384036 -0.0050858924422533874 0 0.018623179510596496 -0.0043911836573512324 0 0.018520780377984061 -0.0052182819463477553 0 0.018911159973144208 -0.0047896891427638404 0 0.018623179510596496 -0.0043911836573512324 0 0.019156205107242891 -0.0034222207048382443 0 0.018290370657887012 -0.0040344857950643173 0 0.018917830913558323 -0.0035500944177289839 0 0.018058608449168286 -0.0041321920742394885 0 0.018623179510596496 -0.0043911836573512324 0 0.019373563860966791 -0.0032951127331479462 0 0.018556946516877879 -0.0039265157280985383 0 0.018552269143992169 -0.0030734334919230704 0 0.019373563860966791 -0.0032951127331479462 0 0.019103570081334568 -0.0025749010546388023 0 0.018552269143992169 -0.0030734334919230704 0 0.019103570081334568 -0.0025749010546388023 0 0.018342516795734193 -0.00228201505721729 0 0.018552269143992169 -0.0030734334919230704 0 0.018342516795734193 -0.00228201505721729 0 0.018552269143992169 -0.0030734334919230704 0 0.017911450971061053 -0.0031124657308510993 0 0.017765974721675987 -0.0038107314671500339 0 0.018556946516877879 -0.0039265157280985383 0 0.018552269143992169 -0.0030734334919230704 0 0.017765974721675987 -0.0038107314671500339 0 0.018552269143992169 -0.0030734334919230704 0 0.017911450971061053 -0.0031124657308510993 0 0.017765974721675987 -0.0038107314671500339 0 0.017911450971061053 -0.0031124657308510993 0 0.017367720249077068 -0.0035654259394667367 0 0.017911450971061053 -0.0031124657308510993 0 0.017479824350817155 -0.0027895722202750319 0 0.017367720249077068 -0.0035654259394667367 0 0.018342516795734193 -0.00228201505721729 0 0.017911450971061053 -0.0031124657308510993 0 0.017479824350817155 -0.0027895722202750319 0 0.018342516795734193 -0.00228201505721729 0 0.017479824350817155 -0.0027895722202750319 0 0.017481208885068971 -0.0019616069639670224 0 0.017479824350817155 -0.0027895722202750319 0 0.016833443942832968 -0.0026440326327922944 0 0.017023739366182875 -0.003252960959982806 0 0.016833443942832968 -0.0026440326327922944 0 0.016648740479771933 -0.0020700237841159664 0 0.017481208885068971 -0.0019616069639670224 0 0.017479824350817155 -0.0027895722202750319 0 0.016833443942832968 -0.0026440326327922944 0 0.017481208885068971 -0.0019616069639670224 0 0.016523214731326862 -0.0026473795287789174 0 0.016833443942832968 -0.0026440326327922944 0 0.016648740479771933 -0.0020700237841159664 0 0.016833443942832968 -0.0026440326327922944 0 0.016716953305582032 -0.0030040558879984801 0 0.017023739366182875 -0.003252960959982806 0 0.016523214731326862 -0.0026473795287789174 0 0.016833443942832968 -0.0026440326327922944 0 0.016716953305582032 -0.0030040558879984801 0 0.016708110942733053 -0.0032596026352308852 0 0.016716953305582032 -0.0030040558879984801 0 0.017023739366182875 -0.003252960959982806 0 0.016708110942733053 -0.0032596026352308852 0 0.016925802402825457 -0.0034933198289146504 0 0.017023739366182875 -0.003252960959982806 0 0.017023739366182875 -0.003252960959982806 0 0.017367720249077068 -0.0035654259394667367 0 0.017040857430849016 -0.0036851999298009586 0 0.017137788966169489 -0.0040296568949037305 0 0.017765974721675987 -0.0038107314671500339 0 0.017367720249077068 -0.0035654259394667367 0 0.016861361249846447 -0.0036973708482939509 0 0.016708110942733053 -0.0032596026352308852 0 0.016925802402825457 -0.0034933198289146504 0 0.016861361249846447 -0.0036973708482939509 0 0.016925802402825457 -0.0034933198289146504 0 0.017040857430849016 -0.0036851999298009586 0 0.016925802402825457 -0.0034933198289146504 0 0.017023739366182875 -0.003252960959982806 0 0.017040857430849016 -0.0036851999298009586 0 0.017479824350817155 -0.0027895722202750319 0 0.017023739366182875 -0.003252960959982806 0 0.017367720249077068 -0.0035654259394667367 0 0.017137788966169489 -0.0040296568949037305 0 0.017367720249077068 -0.0035654259394667367 0 0.017040857430849016 -0.0036851999298009586 0 0.016891788955126771 -0.003844939087275759 0 0.017137788966169489 -0.0040296568949037305 0 0.017040857430849016 -0.0036851999298009586 0 0.016891788955126771 -0.003844939087275759 0 0.016861361249846447 -0.0036973708482939509 0 0.017040857430849016 -0.0036851999298009586 0 0.016316764306677209 -0.00054964154596639061 0 0.01705765855449105 -0.0011391828911170431 0 0.017476727219566241 -9.7271843022148221e-05 0 0.01705765855449105 -0.0011391828911170431 0 0.016648740479771933 -0.0020700237841159664 0 0.017481208885068971 -0.0019616069639670224 0 0.016263507575715794 -0.0014642907643069903 0 0.01705765855449105 -0.0011391828911170431 0 0.016648740479771933 -0.0020700237841159664 0 0.01705765855449105 -0.0011391828911170431 0 0.017481208885068971 -0.0019616069639670224 0 0.018166075484750681 -0.0010128656522858219 0 0.018342516795734193 -0.00228201505721729 0 0.017481208885068971 -0.0019616069639670224 0 0.018166075484750681 -0.0010128656522858219 0 0.01705765855449105 -0.0011391828911170431 0 0.018166075484750681 -0.0010128656522858219 0 0.017476727219566241 -9.7271843022148221e-05 0 0.018166075484750681 -0.0010128656522858219 0 0.019104317722401225 -0.0015482211035792717 0 0.018999960256470935 -0.00019207797560192704 0 0.018342516795734193 -0.00228201505721729 0 0.018166075484750681 -0.0010128656522858219 0 0.019104317722401225 -0.0015482211035792717 0 0.019103570081334568 -0.0025749010546388023 0 0.018342516795734193 -0.00228201505721729 0 0.019104317722401225 -0.0015482211035792717 0 0.019104317722401225 -0.0015482211035792717 0 0.018999960256470935 -0.00019207797560192704 0 0.019648042283781784 -0.00091803763938289864 0 0.018999960256470935 -0.00019207797560192704 0 0.019021054652811314 0.00094679146860214005 0 0.019501496743593964 8.0102207636139334e-05 0 0.019021054652811314 0.00094679146860214005 0 0.019501496743593964 8.0102207636139334e-05 0 0.019704166521994689 0.0010497593751085167 0 0.018999960256470935 -0.00019207797560192704 0 0.019021054652811314 0.00094679146860214005 0 0.018546894787570382 0.00052520785545269531 0 0.019021054652811314 0.00094679146860214005 0 0.018546894787570382 0.00052520785545269531 0 0.018296561175414477 0.0012438524350932034 0 0.018546894787570382 0.00052520785545269531 0 0.018018284997009471 0.00054937979317089161 0 0.018296561175414477 0.0012438524350932034 0 0.018546894787570382 0.00052520785545269531 0 0.018234578700259289 -2.6766037417434234e-05 0 0.018018284997009471 0.00054937979317089161 0 0.018999960256470935 -0.00019207797560192704 0 0.018546894787570382 0.00052520785545269531 0 0.018234578700259289 -2.6766037417434234e-05 0 0.018166075484750681 -0.0010128656522858219 0 0.018999960256470935 -0.00019207797560192704 0 0.018234578700259289 -2.6766037417434234e-05 0 0.018234578700259289 -2.6766037417434234e-05 0 0.018018284997009471 0.00054937979317089161 0 0.017476727219566241 -9.7271843022148221e-05 0 0.018166075484750681 -0.0010128656522858219 0 0.018234578700259289 -2.6766037417434234e-05 0 0.017476727219566241 -9.7271843022148221e-05 0 0.018018284997009471 0.00054937979317089161 0 0.017507990260676027 0.0011268279733389844 0 0.018296561175414477 0.0012438524350932034 0 0.018018284997009471 0.00054937979317089161 0 0.017507990260676027 0.0011268279733389844 0 0.017476727219566241 -9.7271843022148221e-05 0 0.016717012726594021 0.0017371965709727594 0 0.017439503274084792 2.5699775202057655e-05 0 0.017507990260676027 0.0011268279733389844 0 0.016728480040526843 0.0012244578226506952 0 0.017476727219566241 -9.7271843022148221e-05 0 0.016316764306677209 -0.00054964154596639061 0 0.016210823053366394 0.00061021852247045605 0 0.017476727219566241 -9.7271843022148221e-05 0 0.016210823053366394 0.00061021852247045605 0 0.01668690435276949 0.0022729223485983608 0 0.017476727219566241 -9.7271843022148221e-05 0 0.019994683586996194 -0.0014636177200850874 0 0.019991854398901339 -0.00083327749326986885 0 0.020282127857646694 -0.0010364473118156404 0 0.019994683586996194 -0.0014636177200850874 0 0.020296845811270024 -0.0017062985510729099 0 0.020282127857646694 -0.0010364473118156404 0 0.020296845811270024 -0.0017062985510729099 0 0.020462987440318402 -0.0012953461471053728 0 0.020535381566036948 -0.00171735559578463 0 0.020296845811270024 -0.0017062985510729099 0 0.020282127857646694 -0.0010364473118156404 0 0.020462987440318402 -0.0012953461471053728 0 0.020296845811270024 -0.0017062985510729099 0 0.020535381566036948 -0.00171735559578463 0 0.020482000398595029 -0.0021610820348861711 0 0.020264235940030063 -0.0023159780020205541 0 0.020296845811270024 -0.0017062985510729099 0 0.020482000398595029 -0.0021610820348861711 0 0.020010115252058779 -0.0021684743503931759 0 0.019994683586996194 -0.0014636177200850874 0 0.020296845811270024 -0.0017062985510729099 0 0.020010115252058779 -0.0021684743503931759 0 0.020264235940030063 -0.0023159780020205541 0 0.020296845811270024 -0.0017062985510729099 0 0.019621939468834493 -0.0021809640997184757 0 0.020010115252058779 -0.0021684743503931759 0 0.019994683586996194 -0.0014636177200850874 0 0.019621939468834493 -0.0021809640997184757 0 0.019994683586996194 -0.0014636177200850874 0 0.019648042283781784 -0.00091803763938289864 0 0.019621939468834493 -0.0021809640997184757 0 0.019104317722401225 -0.0015482211035792717 0 0.019648042283781784 -0.00091803763938289864 0 0.019621939468834493 -0.0021809640997184757 0 0.019103570081334568 -0.0025749010546388023 0 0.019104317722401225 -0.0015482211035792717 0 0.019994683586996194 -0.0014636177200850874 0 0.019648042283781784 -0.00091803763938289864 0 0.019991854398901339 -0.00083327749326986885 0 0.019991854398901339 -0.00083327749326986885 0 0.019867251148104927 -0.00028417659887192668 0 0.02008612454516789 -0.00055518172406974575 0 0.019648042283781784 -0.00091803763938289864 0 0.019991854398901339 -0.00083327749326986885 0 0.019867251148104927 -0.00028417659887192668 0 0.018999960256470935 -0.00019207797560192704 0 0.019648042283781784 -0.00091803763938289864 0 0.019501496743593964 8.0102207636139334e-05 0 0.019648042283781784 -0.00091803763938289864 0 0.019501496743593964 8.0102207636139334e-05 0 0.019867251148104927 -0.00028417659887192668 0 0.019820085502283542 -0.00011925298318068737 0 0.019669375278866728 0.00035601838521037851 0 0.019501496743593964 8.0102207636139334e-05 0 0.019867251148104927 -0.00028417659887192668 0 0.019704166521994689 0.0010497593751085167 0 0.019867251148104927 -0.00028417659887192668 0 0.019941591889599108 -0.00028427759517757979 0 0.019790864069509129 -0.00014271633524482174 0 0.019867251148104927 -0.00028417659887192668 0 0.019941591889599108 -0.00028427759517757979 0 0.02008612454516789 -0.00055518172406974575 0 0.019941591889599108 -0.00028427759517757979 0 0.02008612454516789 -0.00055518172406974575 0 0.020112314146542531 -0.00030299750139047677 0 0.019991854398901339 -0.00083327749326986885 0 0.02008612454516789 -0.00055518172406974575 0 0.020282127857646694 -0.0010364473118156404 0 0.020282127857646694 -0.0010364473118156404 0 0.020515589343475402 -0.00097399661319623801 0 0.020462987440318402 -0.0012953461471053728 0 0.020282127857646694 -0.0010364473118156404 0 0.02043342302907028 -0.00055969660324836526 0 0.020515589343475402 -0.00097399661319623801 0 0.02008612454516789 -0.00055518172406974575 0 0.020282127857646694 -0.0010364473118156404 0 0.02043342302907028 -0.00055969660324836526 0 0.02008612454516789 -0.00055518172406974575 0 0.02043342302907028 -0.00055969660324836526 0 0.020112314146542531 -0.00030299750139047677 0 0.02043342302907028 -0.00055969660324836526 0 0.020520021376679475 -0.00069769915797267029 0 0.020465962773332298 -0.00055208181921672522 0 0.02043342302907028 -0.00055969660324836526 0 0.020520021376679475 -0.00069769915797267029 0 0.020515589343475402 -0.00097399661319623801 0 0.020465553575703004 -0.00059433242300405999 0 0.020520021376679475 -0.00069769915797267029 0 0.020465962773332298 -0.00055208181921672522 0 0.020465553575703004 -0.00059433242300405999 0 0.020520021376679475 -0.00069769915797267029 0 0.020637030909617944 -0.0008630847724881549 0 0.020637030909617944 -0.0008630847724881549 0 0.020906482657481271 -0.0010670615588091641 0 0.020699454530445222 -0.0013781596255993431 0 0.020637030909617944 -0.0008630847724881549 0 0.020515589343475402 -0.00097399661319623801 0 0.020699454530445222 -0.0013781596255993431 0 0.020520021376679475 -0.00069769915797267029 0 0.020637030909617944 -0.0008630847724881549 0 0.020515589343475402 -0.00097399661319623801 0 0.020730921533294918 -0.00083867671469217166 0 0.020602540641800147 -0.00074814449278055579 0 0.020695793028150351 -0.00064910223614377937 0 0.020465553575703004 -0.00059433242300405999 0 0.020637030909617944 -0.0008630847724881549 0 0.020602540641800147 -0.00074814449278055579 0 0.020465553575703004 -0.00059433242300405999 0 0.020602540641800147 -0.00074814449278055579 0 0.020290037884740802 -0.00049659890999051383 0 0.020637030909617944 -0.0008630847724881549 0 0.020602540641800147 -0.00074814449278055579 0 0.020906482657481271 -0.0010670615588091641 0 0.020730921533294918 -0.00083867671469217166 0 0.020602540641800147 -0.00074814449278055579 0 0.020906482657481271 -0.0010670615588091641 0 0.020640533470064868 -0.00098256184979962592 0 0.021591354750435544 -0.0014182986447536178 0 0.020730921533294918 -0.00083867671469217166 0 0.020906482657481271 -0.0010670615588091641 0 0.020672577175372284 -0.00063668102026298991 0 0.020906482657481271 -0.0010670615588091641 0 0.021279764438701318 -0.0016782866878139329 0 0.021480787103777578 -0.0016741394797938505 0 0.020906482657481271 -0.0010670615588091641 0 0.021279764438701318 -0.0016782866878139329 0 0.021114930273992572 -0.0018988860736252175 0 0.020906482657481271 -0.0010670615588091641 0 0.021114930273992572 -0.0018988860736252175 0 0.020699454530445222 -0.0013781596255993431 0 0.021279764438701318 -0.0016782866878139329 0 0.021114930273992572 -0.0018988860736252175 0 0.021427805591387745 -0.0020157731044229145 0 0.021114930273992572 -0.0018988860736252175 0 0.021427805591387745 -0.0020157731044229145 0 0.021489137872827503 -0.0023550925359895857 0 0.021279764438701318 -0.0016782866878139329 0 0.021427805591387745 -0.0020157731044229145 0 0.021475293629541158 -0.0019472727848673847 0 0.020515589343475402 -0.00097399661319623801 0 0.020462987440318402 -0.0012953461471053728 0 0.020699454530445222 -0.0013781596255993431 0 0.020462987440318402 -0.0012953461471053728 0 0.020699454530445222 -0.0013781596255993431 0 0.020535381566036948 -0.00171735559578463 0 0.021114930273992572 -0.0018988860736252175 0 0.020699454530445222 -0.0013781596255993431 0 0.020766828589900803 -0.0019966841970393626 0 0.021114930273992572 -0.0018988860736252175 0 0.020766828589900803 -0.0019966841970393626 0 0.021080582871899078 -0.0024283343442075395 0 0.020699454530445222 -0.0013781596255993431 0 0.020766828589900803 -0.0019966841970393626 0 0.020535381566036948 -0.00171735559578463 0 0.020766828589900803 -0.0019966841970393626 0 0.020535381566036948 -0.00171735559578463 0 0.020482000398595029 -0.0021610820348861711 0 0.020766828589900803 -0.0019966841970393626 0 0.020482000398595029 -0.0021610820348861711 0 0.020676913007337681 -0.0024789975191802376 0 0.020382024782655696 -0.0027668475927018197 0 0.020482000398595029 -0.0021610820348861711 0 0.020676913007337681 -0.0024789975191802376 0 0.020382024782655696 -0.0027668475927018197 0 0.020676913007337681 -0.0024789975191802376 0 0.020563854698417542 -0.0029676579825960447 0 0.020676913007337681 -0.0024789975191802376 0 0.020563854698417542 -0.0029676579825960447 0 0.020897127277640936 -0.0030160489274970925 0 0.020563854698417542 -0.0029676579825960447 0 0.020897127277640936 -0.0030160489274970925 0 0.020594326843523171 -0.0034320850912771647 0 0.020343444627818643 -0.0032088874401197077 0 0.020563854698417542 -0.0029676579825960447 0 0.020594326843523171 -0.0034320850912771647 0 0.020897127277640936 -0.0030160489274970925 0 0.021080582871899078 -0.0024283343442075395 0 0.021444930703676975 -0.0030746177068189111 0 0.020766828589900803 -0.0019966841970393626 0 0.020676913007337681 -0.0024789975191802376 0 0.021080582871899078 -0.0024283343442075395 0 0.020676913007337681 -0.0024789975191802376 0 0.020897127277640936 -0.0030160489274970925 0 0.021080582871899078 -0.0024283343442075395 0 0.021114930273992572 -0.0018988860736252175 0 0.021080582871899078 -0.0024283343442075395 0 0.021489137872827503 -0.0023550925359895857 0 0.021080582871899078 -0.0024283343442075395 0 0.021489137872827503 -0.0023550925359895857 0 0.021444930703676975 -0.0030746177068189111 0 0.021444930703676975 -0.0030746177068189111 0 0.021788862613575821 -0.0038813055023426248 0 0.02214803581173903 -0.0040505370151209261 0 0.021415738418732958 -0.0030892001306872677 0 0.021669860598548571 -0.0031466153605533794 0 0.021489137872827503 -0.0023550925359895857 0 0.021444930703676975 -0.0030746177068189111 0 0.021521492336598422 -0.0022231501140948765 0 0.021444930703676975 -0.0030746177068189111 0 0.021788862613575821 -0.0038813055023426248 0 0.02110577830937619 -0.003959074595346496 0 0.021788862613575821 -0.0038813055023426248 0 0.022073042413211976 -0.0040723586346726364 0 0.02214803581173903 -0.0040505370151209261 0 0.021788862613575821 -0.0038813055023426248 0 0.02166020151098598 -0.004427840241153962 0 0.022073042413211976 -0.0040723586346726364 0 0.021363022562591757 -0.005047592583824089 0 0.021628062544977386 -0.005010132995406578 0 0.021204775553344303 -0.0058288272789056668 0 0.021171817924890961 -0.0056361649853138695 0 0.021200890666854166 -0.0059401581142010306 0 0.021788862613575821 -0.0038813055023426248 0 0.02166020151098598 -0.004427840241153962 0 0.02110577830937619 -0.003959074595346496 0 0.02080774526145061 -0.0051751389817478706 0 0.02048919142131353 -0.0045364204483445726 0 0.02110577830937619 -0.003959074595346496 0 0.02080774526145061 -0.0051751389817478706 0 0.02166020151098598 -0.004427840241153962 0 0.02110577830937619 -0.003959074595346496 0 0.02048919142131353 -0.0045364204483445726 0 0.020450439712838088 -0.0039374471624070958 0 0.02110577830937619 -0.003959074595346496 0 0.020274975434977891 -0.005242825914564226 0 0.020061684128505456 -0.0046574969204614854 0 0.02048919142131353 -0.0045364204483445726 0 0.020061684128505456 -0.0046574969204614854 0 0.020080664631195205 -0.0041658841806943969 0 0.02048919142131353 -0.0045364204483445726 0 0.020080664631195205 -0.0041658841806943969 0 0.02048919142131353 -0.0045364204483445726 0 0.020450439712838088 -0.0039374471624070958 0 0.020450439712838088 -0.0039374471624070958 0 0.020594326843523171 -0.0034320850912771647 0 0.02110577830937619 -0.003959074595346496 0 0.02021671749794551 -0.0037267459467766779 0 0.020450439712838088 -0.0039374471624070958 0 0.020594326843523171 -0.0034320850912771647 0 0.020080664631195205 -0.0041658841806943969 0 0.02021671749794551 -0.0037267459467766779 0 0.020450439712838088 -0.0039374471624070958 0 0.02021671749794551 -0.0037267459467766779 0 0.020343444627818643 -0.0032088874401197077 0 0.020594326843523171 -0.0034320850912771647 0 0.020897127277640936 -0.0030160489274970925 0 0.020594326843523171 -0.0034320850912771647 0 0.02110577830937619 -0.003959074595346496 0 0.020897127277640936 -0.0030160489274970925 0 0.021444930703676975 -0.0030746177068189111 0 0.02110577830937619 -0.003959074595346496 0 0.02163440311095206 -0.005113240763537712 0 0.021437385565007988 -0.0053727334267671331 0 0.021471003573545904 -0.005954178156507014 0 0.021331033371870936 -0.0058605958168713689 0 0.021372305377706076 -0.005450813722027029 0 0.021471003573545904 -0.005954178156507014 0 0.021334680681847965 -0.0055803312752031571 0 0.021372305377706076 -0.005450813722027029 0 0.020853873534311451 -0.0048938318402829018 0 0.021471003573545904 -0.005954178156507014 0 0.021236006638973567 -0.0055128901180953758 0 0.020476114601017777 -0.0056694904047300005 0 0.021493759247089426 -0.0059029422759981874 0 0.02090892175508063 -0.0054425773664590511 0 0.021334680681847965 -0.0055803312752031571 0 0.021236006638973567 -0.0055128901180953758 0 0.02090892175508063 -0.0054425773664590511 0 0.021334680681847965 -0.0055803312752031571 0 0.021238727392631575 -0.0057461879725976255 0 0.020853873534311451 -0.0048938318402829018 0 0.02090892175508063 -0.0054425773664590511 0 0.021236006638973567 -0.0055128901180953758 0 0.021471003573545904 -0.005954178156507014 0 0.021334680681847965 -0.0055803312752031571 0 0.021236006638973567 -0.0055128901180953758 0 0.020895051102188394 -0.0064461155632396872 0 0.021471003573545904 -0.005954178156507014 0 0.021342703009382843 -0.0062746066666994156 0 0.020875879475079885 -0.0064474906934370432 0 0.021623024762646246 -0.0063332264709356576 0 0.021342703009382843 -0.0062746066666994156 0 0.020895051102188394 -0.0064461155632396872 0 0.020875879475079885 -0.0064474906934370432 0 0.021342703009382843 -0.0062746066666994156 0 0.021471003573545904 -0.005954178156507014 0 0.021500877518174321 -0.0062213164113245423 0 0.021331033371870936 -0.0058605958168713689 0 0.021471003573545904 -0.005954178156507014 0 0.021342703009382843 -0.0062746066666994156 0 0.021500877518174321 -0.0062213164113245423 0 0.02135717041491195 -0.0062558778328732937 0 0.021500877518174321 -0.0062213164113245423 0 0.021331033371870936 -0.0058605958168713689 0 0.02135717041491195 -0.0062558778328732937 0 0.021200890666854166 -0.0059401581142010306 0 0.021331033371870936 -0.0058605958168713689 0 0.021204775553344303 -0.0058288272789056668 0 0.02135717041491195 -0.0062558778328732937 0 0.021200890666854166 -0.0059401581142010306 0 0.022073042413211976 -0.0040723586346726364 0 0.021880689623946268 -0.0043493190452247544 0 0.02214803581173903 -0.0040505370151209261 0 0.021628062544977386 -0.005010132995406578 0 0.02163440311095206 -0.005113240763537712 0 0.021669860598548571 -0.0031466153605533794 0 0.021684258167812734 -0.0035302325744958653 0 0.021880689623946268 -0.0043493190452247544 0 0.02214803581173903 -0.0040505370151209261 0 0.021676813201969975 -0.0050299309977252515 0 0.021427805591387745 -0.0020157731044229145 0 0.021489137872827503 -0.0023550925359895857 0 0.021439308541555561 -0.0020477756380947541 0 0.021489137872827503 -0.0023550925359895857 0 0.021521492336598422 -0.0022231501140948765 0 0.021439308541555561 -0.0020477756380947541 0 0.021439308541555561 -0.0020477756380947541 0 0.021152682319781166 -0.0019488259777013931 0 0.021207327410946532 -0.0018503080127814152 0 0.021521492336598422 -0.0022231501140948765 0 0.021439308541555561 -0.0020477756380947541 0 0.021207327410946532 -0.0018503080127814152 0 0.021439308541555561 -0.0020477756380947541 0 0.021152682319781166 -0.0019488259777013931 0 0.020961078528930737 -0.0020190150012353082 0 0.021152682319781166 -0.0019488259777013931 0 0.020943169116072819 -0.0019003166759447734 0 0.020961078528930737 -0.0020190150012353082 0 0.021152682319781166 -0.0019488259777013931 0 0.021207327410946532 -0.0018503080127814152 0 0.020943169116072819 -0.0019003166759447734 0 0.021684258167812734 -0.0035302325744958653 0 0.019656000129992485 -0.003071654770970106 0 0.021207327410946532 -0.0018503080127814152 0 0.020750164816625311 -0.0017553710963092055 0 0.020943169116072819 -0.0019003166759447734 0 0.021880689623946268 -0.0043493190452247544 0 0.021676813201969975 -0.0050299309977252515 0 0.021372305377706076 -0.005450813722027029 0 0.021676813201969975 -0.0050299309977252515 0 0.021372305377706076 -0.005450813722027029 0 0.021180850459432479 -0.0058034646402108023 0 0.020070835295879129 -0.0054789833426986357 0 0.019656000129992485 -0.003071654770970106 0 0.021238727392631575 -0.0057461879725976255 0 0.021372305377706076 -0.005450813722027029 0 0.021180850459432479 -0.0058034646402108023 0 0.021334680681847965 -0.0055803312752031571 0 0.021238727392631575 -0.0057461879725976255 0 0.021372305377706076 -0.005450813722027029 0 0.020671725078435378 -0.0019195570969780325 0 0.020943169116072819 -0.0019003166759447734 0 0.020961078528930737 -0.0020190150012353082 0 0.020671725078435378 -0.0019195570969780325 0 0.020750164816625311 -0.0017553710963092055 0 0.020943169116072819 -0.0019003166759447734 0 0.014112228217634073 0.00076525234586687964 0 0.016611082044440992 0.0022859422923238201 0 0.020559098821195766 -0.0020212486538318773 0 0.020749619127910575 -0.0019901282045215593 0 0.020795136268689705 -0.0019731212181854588 0 0.020749619127910575 -0.0019901282045215593 0 0.020961078528930737 -0.0020190150012353082 0 0.020795136268689705 -0.0019731212181854588 0 0.020671725078435378 -0.0019195570969780325 0 0.020749619127910575 -0.0019901282045215593 0 0.020961078528930737 -0.0020190150012353082 0 0.020961078528930737 -0.0020190150012353082 0 0.020795136268689705 -0.0019731212181854588 0 0.020580927133157952 -0.00187332529841419 0 0.021977972036878343 -0.0031539879668388291 0 0.018404567590102873 0.00061481501411350052 0 0.012381166569478472 0.006056464396602952 0 0.012493517309861236 0.0063200106276583116 0 0.0123256491018853 0.0061149049844449578 0 0.016611082044440992 0.0022859422923238201 0 0.018404567590102873 0.00061481501411350052 0 0.01233040039756998 0.0060443848031586167 0 0.012381166569478472 0.006056464396602952 0 0.0123256491018853 0.0061149049844449578 0 0.012419901649844238 0.0059690690936028889 0 0.01233040039756998 0.0060443848031586167 0 0.012381166569478472 0.006056464396602952 0 0.021427805591387745 -0.0020157731044229145 0 0.021439308541555561 -0.0020477756380947541 0 0.021475293629541158 -0.0019472727848673847 0 0.021439308541555561 -0.0020477756380947541 0 0.021475293629541158 -0.0019472727848673847 0 0.021394902505073369 -0.00204351628465331 0 0.021439308541555561 -0.0020477756380947541 0 0.020961078528930737 -0.0020190150012353082 0 0.021394902505073369 -0.00204351628465331 0 0.021475293629541158 -0.0019472727848673847 0 0.021394902505073369 -0.00204351628465331 0 0.021480787103777578 -0.0016741394797938505 0 0.021279764438701318 -0.0016782866878139329 0 0.021475293629541158 -0.0019472727848673847 0 0.021480787103777578 -0.0016741394797938505 0 0.018404567590102873 0.00061481501411350052 0 0.021591354750435544 -0.0014182986447536178 0 0.020730921533294918 -0.00083867671469217166 0 0.020672577175372284 -0.00063668102026298991 0 0.020564510188057702 -0.00080728301992435655 0 0.020180764554760703 -0.00040060626143318805 0 0.020672577175372284 -0.00063668102026298991 0 0.020564510188057702 -0.00080728301992435655 0 0.018404567590102873 0.00061481501411350052 0 0.016604451510180949 0.0032910049390620704 0 0.012493517309861236 0.0063200106276583116 0 0.013348977402464027 0.0063940858428202241 0 0.012276084499516901 0.0060891927572989729 0 0.013348977402464027 0.0063940858428202241 0 0.012276084499516901 0.0060891927572989729 0 0.011914033294019178 0.0055725085266712824 0 0.013348977402464027 0.0063940858428202241 0 0.011914033294019178 0.0055725085266712824 0 0.013760199801883973 0.0048165280560567231 0 0.013348977402464027 0.0063940858428202241 0 0.013760199801883973 0.0048165280560567231 0 0.016516635826712815 0.0041345159388763231 0 0.016604451510180949 0.0032910049390620704 0 0.01867309030722495 0.0015001416108854919 0 0.020730921533294918 -0.00083867671469217166 0 0.020564510188057702 -0.00080728301992435655 0 0.020695793028150351 -0.00064910223614377937 0 0.01233040039756998 0.0060443848031586167 0 0.012251820791195434 0.0060288290823953183 0 0.0123256491018853 0.0061149049844449578 0 0.012304707683739808 0.0060355185046585954 0 0.01233040039756998 0.0060443848031586167 0 0.012251820791195434 0.0060288290823953183 0 0.012276084499516901 0.0060891927572989729 0 0.012251820791195434 0.0060288290823953183 0 0.0123256491018853 0.0061149049844449578 0 0.012493517309861236 0.0063200106276583116 0 0.012276084499516901 0.0060891927572989729 0 0.0123256491018853 0.0061149049844449578 0 0.012276084499516901 0.0060891927572989729 0 0.012251820791195434 0.0060288290823953183 0 0.01211661996726923 0.0058996075087571088 0 0.012276084499516901 0.0060891927572989729 0 0.011914033294019178 0.0055725085266712824 0 0.01211661996726923 0.0058996075087571088 0 0.012304707683739808 0.0060355185046585954 0 0.012251820791195434 0.0060288290823953183 0 0.012265084716999277 0.0060162344993964613 0 0.012251820791195434 0.0060288290823953183 0 0.01211661996726923 0.0058996075087571088 0 0.012265084716999277 0.0060162344993964613 0 0.0079828012297817729 0.0094727226621696241 0 0.0072448062393724345 0.0082340149342293809 0 0.0047444796242054575 0.01146335665280339 0 0.01211661996726923 0.0058996075087571088 0 0.012265084716999277 0.0060162344993964613 0 0.012271379742543576 0.0064178273538840289 0 0.0032406016168005556 0.01217419287184319 0 0.0046014628879186854 0.011519017255708289 0 0.012265084716999277 0.0060162344993964613 0 0.012271379742543576 0.0064178273538840289 0 0.012325669525121864 0.0060941230187185518 0 0.010985440422670217 0.0073416229924203203 0 0.0046014628879186854 0.011519017255708289 0 0.01211661996726923 0.0058996075087571088 0 0.012271379742543576 0.0064178273538840289 0 0.011603586031490575 0.0063211019770201948 0 0.011914033294019178 0.0055725085266712824 0 0.01211661996726923 0.0058996075087571088 0 0.011603586031490575 0.0063211019770201948 0 0.012271379742543576 0.0064178273538840289 0 0.011603586031490575 0.0063211019770201948 0 0.010757166341537366 0.0072490062997487472 0 0.010985440422670217 0.0073416229924203203 0 0.010350376038610432 0.0075730421925693679 0 0.0079828012297817729 0.0094727226621696241 0 0.0072448062393724345 0.0082340149342293809 0 0.010757166341537366 0.0072490062997487472 0 0.013760199801883973 0.0048165280560567231 0 0.013616040921756561 0.0027745616387768275 0 0.016516635826712815 0.0041345159388763231 0 0.013616040921756561 0.0027745616387768275 0 0.016561929795741271 -0.00017367348936221004 0 0.016516635826712815 0.0041345159388763231 0 0.011914033294019178 0.0055725085266712824 0 0.011603586031490575 0.0063211019770201948 0 0.01080214005924654 0.0066270666356275645 0 0.011970861128546676 0.0053488428594233731 0 0.012143831194915349 0.0048943709025711423 0 0.011914033294019178 0.0055725085266712824 0 0.013760199801883973 0.0048165280560567231 0 0.013616040921756561 0.0027745616387768275 0 0.011603586031490575 0.0063211019770201948 0 0.01080214005924654 0.0066270666356275645 0 0.010757166341537366 0.0072490062997487472 0 0.01080214005924654 0.0066270666356275645 0 0.010757166341537366 0.0072490062997487472 0 0.010922114117265218 0.0069020534007441098 0 0.010922114117265218 0.0069020534007441098 0 0.011012512727851632 0.0064467041341312653 0 0.011192812769668537 0.0068529676051039537 0 0.01080214005924654 0.0066270666356275645 0 0.010922114117265218 0.0069020534007441098 0 0.011192812769668537 0.0068529676051039537 0 0.012143831194915349 0.0048943709025711423 0 0.014816968102433369 0.0023931722838079744 0 0.010757166341537366 0.0072490062997487472 0 0.010922114117265218 0.0069020534007441098 0 0.011012512727851632 0.0064467041341312653 0 0.0050101358854061145 0.011593161232530021 0 0.0033200901341945239 0.011615923676455708 0 0.00047949242101172443 0.01618872042221552 0 -0.0014248882170974453 0.015706996924357036 0 -0.0020280723611249538 0.016076981271074035 0 0.010757166341537366 0.0072490062997487472 0 0.011012512727851632 0.0064467041341312653 0 0.00943371221781668 0.0058791479889891045 0 0.00047949242101172443 0.01618872042221552 0 -0.0014248882170974453 0.015706996924357036 0 0.00056885302175458882 0.013982778726027508 0 -0.0014407009607953171 0.015709261394230963 0 -0.00097336916516975068 0.015155753993277954 0 -0.0014248882170974453 0.015706996924357036 0 -0.0015619333453589378 0.015717334229278582 0 -0.0020290422039040976 0.016054009995977961 0 0.00047949242101172443 0.01618872042221552 0 0.00056885302175458882 0.013982778726027508 0 0.0015432507858753716 0.015116353680376851 0 -0.00052388577511271151 0.015935223801366902 0 -0.0010825392110408072 0.012109514066680338 0 -0.0025341436821276864 0.015503282197120691 0 -0.00052388577511271151 0.015935223801366902 0 -0.0010825392110408072 0.012109514066680338 0 0.0025340435461073453 0.012194222735954158 0 -0.0022542296017338793 0.015091225209768676 0 0.0033200901341945239 0.011615923676455708 0 0.0032406016168005556 0.01217419287184319 0 0.0033200901341945239 0.011615923676455708 0 0.0072448062393724345 0.0082340149342293809 0 0.010757166341537366 0.0072490062997487472 0 0.00943371221781668 0.0058791479889891045 0 -0.0015619333453589378 0.015717334229278582 0 -0.0017151143617774565 0.015884088120091403 0 -0.0020290422039040976 0.016054009995977961 0 -0.0013585254636903051 0.015657067002688659 0 -0.0016098776848773146 0.015682268149422956 0 -0.0016046856230719033 0.015770268037935662 0 -0.0016046856230719033 0.015770268037935662 0 -0.0017151143617774565 0.015884088120091403 0 -0.0016583724973238945 0.016085066823424862 0 -0.0016098776848773146 0.015682268149422956 0 -0.0016046856230719033 0.015770268037935662 0 -0.0015619333453589378 0.015717334229278582 0 0.0033200901341945239 0.011615923676455708 0 -0.0010889555667933336 0.016263871780068859 0 -0.0014248882170974453 0.015706996924357036 0 -0.0020280723611249538 0.016076981271074035 0 -0.0015619333453589378 0.015717334229278582 0 -0.0016046856230719033 0.015770268037935662 0 -0.0015619333453589378 0.015717334229278582 0 -0.0017151143617774565 0.015884088120091403 0 -0.0013585254636903051 0.015657067002688659 0 -0.0016046856230719033 0.015770268037935662 0 -0.0016583724973238945 0.016085066823424862 0 -0.0022542296017338793 0.015091225209768676 0 -0.002409049195753746 0.016381775359331104 0 -0.0032417373249816763 0.016354606605233118 0 -0.0030606165561194941 0.016329194373052372 0 -0.0033007358080864389 0.016208736790074448 0 -0.0030606165561194941 0.016329194373052372 0 -0.0031554721712112356 0.016254010292591378 0 -0.0033007358080864389 0.016208736790074448 0 -0.0016583724973238945 0.016085066823424862 0 -0.0020290422039040976 0.016054009995977961 0 -0.0026431644274769435 0.016515669759611863 0 -0.0030606165561194941 0.016329194373052372 0 -0.0026431644274769435 0.016515669759611863 0 -0.0031554721712112356 0.016254010292591378 0 -0.002409049195753746 0.016381775359331104 0 -0.0025591848122737786 0.016372961684347799 0 -0.0017151143617774565 0.015884088120091403 0 -0.0016583724973238945 0.016085066823424862 0 -0.0020290422039040976 0.016054009995977961 0 -0.0014248882170974453 0.015706996924357036 0 -0.0020290422039040976 0.016054009995977961 0 -0.0025068675229893535 0.016217725557365423 0 -0.00097336916516975068 0.015155753993277954 0 -0.00030338927976861159 0.015005584668216108 0 -0.0025068675229893535 0.016217725557365423 0 -0.0026307666512150928 0.016658207804585979 0 -0.00264296337360557 0.016750959341968876 0 -0.0025068675229893535 0.016217725557365423 0 -0.0026662129957985559 0.016593830682632368 0 -0.0026307666512150928 0.016658207804585979 0 -0.0020290422039040976 0.016054009995977961 0 -0.0025068675229893535 0.016217725557365423 0 -0.0026431644274769435 0.016515669759611863 0 -0.0025068675229893535 0.016217725557365423 0 -0.0026431644274769435 0.016515669759611863 0 -0.0026662129957985559 0.016593830682632368 0 -0.0026431644274769435 0.016515669759611863 0 -0.0026662129957985559 0.016593830682632368 0 -0.0028128594028374136 0.016516703444144035 0 -0.0026307666512150928 0.016658207804585979 0 -0.0027305478682639406 0.016507447915578566 0 -0.0025285482541242453 0.016741631723105339 0 -0.0026662129957985559 0.016593830682632368 0 -0.0026307666512150928 0.016658207804585979 0 -0.0027305478682639406 0.016507447915578566 0 -0.0028569157548589898 0.016424755593415379 0 -0.0025565407086093244 0.016718150772614522 0 -0.0026662129957985559 0.016593830682632368 0 -0.0027305478682639406 0.016507447915578566 0 -0.0028128594028374136 0.016516703444144035 0 -0.0028128594028374136 0.016516703444144035 0 -0.0029855016353765723 0.016460360485654142 0 -0.0030086117145255321 0.016552992400456504 0 -0.0026431644274769435 0.016515669759611863 0 -0.0028128594028374136 0.016516703444144035 0 -0.0029855016353765723 0.016460360485654142 0 -0.0029855016353765723 0.016460360485654142 0 -0.0031554721712112356 0.016254010292591378 0 -0.0031174130142163675 0.016500622522093878 0 -0.0026431644274769435 0.016515669759611863 0 -0.0029855016353765723 0.016460360485654142 0 -0.0031554721712112356 0.016254010292591378 0 0.0026572211749474979 0.013272799891408255 0 0.0028856762711700987 0.013443823536242792 0 0.0027008247261641814 0.013325624053819716 0 0.0026572211749474979 0.013272799891408255 0 0.0028856762711700987 0.013443823536242792 0 0.0026400411179850784 0.013381542266636076 0 0.0028856762711700987 0.013443823536242792 0 0.0029906759351785812 0.013393510478351554 0 0.0031677579564551432 0.01362623324563283 0 0.0028856762711700987 0.013443823536242792 0 0.0029906759351785812 0.013393510478351554 0 0.0027008247261641814 0.013325624053819716 0 0.0029906759351785812 0.013393510478351554 0 0.0027008247261641814 0.013325624053819716 0 0.0029904877454270482 0.01313585501672348 0 0.0027008247261641814 0.013325624053819716 0 0.0029904877454270482 0.01313585501672348 0 0.0024830359483364551 0.01348104194605575 0 0.0024636280734701321 0.0133911892239089 0 0.0027008247261641814 0.013325624053819716 0 0.0024830359483364551 0.01348104194605575 0 0.0026572211749474979 0.013272799891408255 0 0.0024636280734701321 0.0133911892239089 0 0.0027008247261641814 0.013325624053819716 0 0.0026572211749474979 0.013272799891408255 0 0.0024636280734701321 0.0133911892239089 0 0.0027202655835213197 0.013280345586036323 0 -0.0014117274411412438 0.016771289689455512 0 -0.0025082554952184288 0.016293876687893623 0 -0.0019983987336359308 0.015459031789521859 0 -0.0029896336080087612 0.016309246065195494 0 -0.0025082554952184288 0.016293876687893623 0 -0.0025285482541242453 0.016741631723105339 0 -0.0014117274411412438 0.016771289689455512 0 -0.0025082554952184288 0.016293876687893623 0 -0.0025285482541242453 0.016741631723105339 0 -0.0014117274411412438 0.016771289689455512 0 -0.00264296337360557 0.016750959341968876 0 -0.0025285482541242453 0.016741631723105339 0 0.0019976010927483744 0.013213426978891413 0 0.0024410147071971394 0.013292231577281604 0 0.0021746827144236928 0.013393730870742037 0 -0.0026307666512150928 0.016658207804585979 0 -0.00264296337360557 0.016750959341968876 0 -0.0025285482541242453 0.016741631723105339 0 0.0027202655835213197 0.013280345586036323 0 0.0019976010927483744 0.013213426978891413 0 0.0024410147071971394 0.013292231577281604 0 0.00065993318117683636 0.01493402218977778 0 -0.00030338927976861159 0.015005584668216108 0 0.0026572211749474979 0.013272799891408255 0 0.0027202655835213197 0.013280345586036323 0 0.0024410147071971394 0.013292231577281604 0 0.0026572211749474979 0.013272799891408255 0 0.0024410147071971394 0.013292231577281604 0 0.0026400411179850784 0.013381542266636076 0 0.0026400411179850784 0.013381542266636076 0 0.0027691565804004552 0.013523665102582825 0 0.002376481287082025 0.013540991170854114 0 0.0024410147071971394 0.013292231577281604 0 0.002376481287082025 0.013540991170854114 0 0.0021746827144236928 0.013393730870742037 0 0.0024410147071971394 0.013292231577281604 0 0.0026400411179850784 0.013381542266636076 0 0.002376481287082025 0.013540991170854114 0 0.002376481287082025 0.013540991170854114 0 0.0026319082126679918 0.013809673961528686 0 0.0020731401097546166 0.014141398811428143 0 0.0027691565804004552 0.013523665102582825 0 0.0026319082126679918 0.013809673961528686 0 0.0030978265553765578 0.013628939452515039 0 0.0027691565804004552 0.013523665102582825 0 0.002376481287082025 0.013540991170854114 0 0.0026319082126679918 0.013809673961528686 0 0.00056885302175458882 0.013982778726027508 0 0.0019976010927483744 0.013213426978891413 0 0.001767015144367907 0.013670745201656469 0 0.0019976010927483744 0.013213426978891413 0 0.0021746827144236928 0.013393730870742037 0 0.001767015144367907 0.013670745201656469 0 0.002376481287082025 0.013540991170854114 0 0.0021746827144236928 0.013393730870742037 0 0.001767015144367907 0.013670745201656469 0 0.002376481287082025 0.013540991170854114 0 0.001767015144367907 0.013670745201656469 0 0.0020731401097546166 0.014141398811428143 0 0.00056885302175458882 0.013982778726027508 0 0.001767015144367907 0.013670745201656469 0 0.0020731401097546166 0.014141398811428143 0 0.00056885302175458882 0.013982778726027508 0 0.0020731401097546166 0.014141398811428143 0 0.0015432507858753716 0.015116353680376851 0 0.0026319082126679918 0.013809673961528686 0 0.0027593553236225383 0.014319879534823068 0 0.0030978265553765578 0.013628939452515039 0 0.0026319082126679918 0.013809673961528686 0 0.0020731401097546166 0.014141398811428143 0 0.0027593553236225383 0.014319879534823068 0 0.0020731401097546166 0.014141398811428143 0 0.0027593553236225383 0.014319879534823068 0 0.0023131507342724761 0.014874783119946252 0 0.0076872109003437647 0.011291807454395076 0 0.0038028177095494132 0.013830241389997892 0 0.0027593553236225383 0.014319879534823068 0 0.0034955798804668379 0.014406433387840974 0 0.0030978265553765578 0.013628939452515039 0 0.0028856762711700987 0.013443823536242792 0 0.0027691565804004552 0.013523665102582825 0 0.0030978265553765578 0.013628939452515039 0 0.0028856762711700987 0.013443823536242792 0 0.0026400411179850784 0.013381542266636076 0 0.0027691565804004552 0.013523665102582825 0 0.0028856762711700987 0.013443823536242792 0 0.0030978265553765578 0.013628939452515039 0 0.0031677579564551432 0.01362623324563283 0 0.0076872109003437647 0.011291807454395076 0 0.0080175602133826258 0.011444112213878531 0 0.013218737238662933 0.0086059661090670536 0 0.013046057999769925 0.0086215373240015845 0 0.012600806418324955 0.0094852994085316555 0 0.01312223475783773 0.0086036463594396893 0 0.013342349110853214 0.0086145301491960622 0 0.013046057999769925 0.0086215373240015845 0 0.012600806418324955 0.0094852994085316555 0 0.012691886025379916 0.009474003753378462 0 0.013046057999769925 0.0086215373240015845 0 0.013529447609288842 0.0084197995984944107 0 0.013757209227096225 0.0081726551839806545 0 0.0032543611388289729 0.013389072360448145 0 0.0030978265553765578 0.013628939452515039 0 0.0031677579564551432 0.01362623324563283 0 0.013218737238662933 0.0086059661090670536 0 0.013046057999769925 0.0086215373240015845 0 0.013227292708685853 0.0085115686545540175 0 0.013529447609288842 0.0084197995984944107 0 0.013227292708685853 0.0085115686545540175 0 0.013460427166694162 0.0086059590832247672 0 0.013227292708685853 0.0085115686545540175 0 0.01319279055501292 0.0085380560897777864 0 0.013460427166694162 0.0086059590832247672 0 0.013046057999769925 0.0086215373240015845 0 0.013529447609288842 0.0084197995984944107 0 0.013227292708685853 0.0085115686545540175 0 0.010829860468557209 0.0097797803303464464 0 0.010846760796990026 0.009706147782586801 0 0.010875745435038173 0.0097241051158567429 0 0.013218737238662933 0.0086059661090670536 0 0.013227292708685853 0.0085115686545540175 0 0.01319279055501292 0.0085380560897777864 0 0.0076872109003437647 0.011291807454395076 0 0.012163132179753205 0.0095113969014673349 0 0.010846760796990026 0.009706147782586801 0 0.010894053339220292 0.0096644837043936699 0 0.010875745435038173 0.0097241051158567429 0 0.0027593553236225383 0.014319879534823068 0 0.0034955798804668379 0.014406433387840974 0 0.0029510195480150882 0.01516847487025943 0 0.0076872109003437647 0.011291807454395076 0 0.0059910422547007442 0.013402143498420923 0 0.016136492510703985 0.0043246676827521039 0 0.016320153596875161 0.00443387632349694 0 0.02037882136585421 -0.0010268164233738822 0 0.020554066731939036 -0.00080570482128402784 0 0.020462642579083947 -0.00075338920252575564 0 0.010846760796990026 0.009706147782586801 0 0.010894053339220292 0.0096644837043936699 0 0.010874738334342389 0.0096364906754792361 0 0.012163132179753205 0.0095113969014673349 0 0.016320153596875161 0.00443387632349694 0 0.01319279055501292 0.0085380560897777864 0 0.013248090397202667 0.0089239388861047236 0 0.013460427166694162 0.0086059590832247672 0 0.0020731401097546166 0.014141398811428143 0 0.0015432507858753716 0.015116353680376851 0 0.0023131507342724761 0.014874783119946252 0 0.0015432507858753716 0.015116353680376851 0 0.0023131507342724761 0.014874783119946252 0 0.002335195253227831 0.016050434672499208 0 0.0023131507342724761 0.014874783119946252 0 0.0029510195480150882 0.01516847487025943 0 0.002335195253227831 0.016050434672499208 0 0.0027593553236225383 0.014319879534823068 0 0.0023131507342724761 0.014874783119946252 0 0.0029510195480150882 0.01516847487025943 0 0.010894053339220292 0.0096644837043936699 0 0.010875745435038173 0.0097241051158567429 0 0.010896498418665301 0.0096798705958438536 0 0.02037882136585421 -0.0010268164233738822 0 0.019267000891831972 -0.0017150226656568307 0 0.019821093482011241 -0.00022424807787258753 0 0.016136492510703985 0.0043246676827521039 0 0.010730121823235451 0.0077499122097473014 0 0.0059910422547007442 0.013402143498420923 0 0.010730121823235451 0.0077499122097473014 0 0.00047949242101172443 0.01618872042221552 0 0.0015432507858753716 0.015116353680376851 0 0.002335195253227831 0.016050434672499208 0 0.011012512727851632 0.0064467041341312653 0 0.011580114382400017 0.00647911374045967 0 0.011192812769668537 0.0068529676051039537 0 0.0050101358854061145 0.011593161232530021 0 0.010730121823235451 0.0077499122097473014 0 0.010730121823235451 0.0077499122097473014 0 0.014816968102433369 0.0023931722838079744 0 0.016561929795741271 -0.00017367348936221004 0 0.019821093482011241 -0.00022424807787258753 0 0.016516635826712815 0.0041345159388763231 0 0.019267000891831972 -0.0017150226656568307 0 0.016561929795741271 -0.00017367348936221004 0 0.019821093482011241 -0.00022424807787258753 0 0.02037882136585421 -0.0010268164233738822 0 0.019821093482011241 -0.00022424807787258753 0 0.020362373719898644 -0.00046791368898048505 0 0.019821093482011241 -0.00022424807787258753 0 0.020290037884740802 -0.00049659890999051383 0 0.020362373719898644 -0.00046791368898048505 0 0.020465553575703004 -0.00059433242300405999 0 0.020290037884740802 -0.00049659890999051383 0 0.020362373719898644 -0.00046791368898048505 0 0.020602540641800147 -0.00074814449278055579 0 0.020290037884740802 -0.00049659890999051383 0 0.020695793028150351 -0.00064910223614377937 0 0.019821093482011241 -0.00022424807787258753 0 0.020290037884740802 -0.00049659890999051383 0 0.020695793028150351 -0.00064910223614377937 0 0.019755913706487938 -4.9555426815944345e-05 0 0.01867309030722495 0.0015001416108854919 0 0.020554066731939036 -0.00080570482128402784 0 0.020462642579083947 -0.00075338920252575564 0 0.020528837479984262 -0.00055158641771964063 0 0.020645984988859337 0.00039221162089945967 0 0.020581313231654876 -5.4025181069481537e-05 0 0.020388256711112402 0.00018530658069622542 0 0.016320153596875161 0.00443387632349694 0 0.020702616023273744 -0.0010733193821271345 0 0.020362373719898644 -0.00046791368898048505 0 0.020462642579083947 -0.00075338920252575564 0 0.020528837479984262 -0.00055158641771964063 0 0.02037882136585421 -0.0010268164233738822 0 0.020362373719898644 -0.00046791368898048505 0 0.020462642579083947 -0.00075338920252575564 0 0.020362373719898644 -0.00046791368898048505 0 0.020465962773332298 -0.00055208181921672522 0 0.020528837479984262 -0.00055158641771964063 0 0.020465553575703004 -0.00059433242300405999 0 0.020362373719898644 -0.00046791368898048505 0 0.020465962773332298 -0.00055208181921672522 0 0.02043342302907028 -0.00055969660324836526 0 0.020465962773332298 -0.00055208181921672522 0 0.020528837479984262 -0.00055158641771964063 0 0.020478342149841906 -0.00027727967109871546 0 0.020702616023273744 -0.0010733193821271345 0 0.02043342302907028 -0.00055969660324836526 0 0.020581313231654876 -5.4025181069481537e-05 0 0.020374647827495498 7.8025875518323108e-07 0 0.02043342302907028 -0.00055969660324836526 0 0.020184440462545569 -5.5936512173664443e-05 0 0.020374647827495498 7.8025875518323108e-07 0 0.02043342302907028 -0.00055969660324836526 0 0.020184440462545569 -5.5936512173664443e-05 0 0.020112314146542531 -0.00030299750139047677 0 0.020374647827495498 7.8025875518323108e-07 0 0.020234410060324559 0.00012477488066318945 0 0.020388256711112402 0.00018530658069622542 0 0.020581313231654876 -5.4025181069481537e-05 0 0.020374647827495498 7.8025875518323108e-07 0 0.020388256711112402 0.00018530658069622542 0 0.020184440462545569 -5.5936512173664443e-05 0 0.020234410060324559 0.00012477488066318945 0 0.020134348304890394 0.00012688794403780494 0 0.020184440462545569 -5.5936512173664443e-05 0 0.020374647827495498 7.8025875518323108e-07 0 0.020234410060324559 0.00012477488066318945 0 0.020234410060324559 0.00012477488066318945 0 0.020134348304890394 0.00012688794403780494 0 0.020114703881662397 0.00028661508196539892 0 0.020234410060324559 0.00012477488066318945 0 0.020388256711112402 0.00018530658069622542 0 0.020114703881662397 0.00028661508196539892 0 0.020036787068794013 8.4991145341861484e-05 0 0.019854692530859253 7.120288476579779e-05 0 0.020114703881662397 0.00028661508196539892 0 0.020184440462545569 -5.5936512173664443e-05 0 0.020036787068794013 8.4991145341861484e-05 0 0.019949837392400967 -0.00010867401399599701 0 0.020134348304890394 0.00012688794403780494 0 0.020036787068794013 8.4991145341861484e-05 0 0.020114703881662397 0.00028661508196539892 0 0.020184440462545569 -5.5936512173664443e-05 0 0.020134348304890394 0.00012688794403780494 0 0.020036787068794013 8.4991145341861484e-05 0 0.020036787068794013 8.4991145341861484e-05 0 0.019949837392400967 -0.00010867401399599701 0 0.019854692530859253 7.120288476579779e-05 0 0.020184440462545569 -5.5936512173664443e-05 0 0.019949837392400967 -0.00010867401399599701 0 0.020112314146542531 -0.00030299750139047677 0 0.019941591889599108 -0.00028427759517757979 0 0.019949837392400967 -0.00010867401399599701 0 0.020112314146542531 -0.00030299750139047677 0 0.019941591889599108 -0.00028427759517757979 0 0.019949837392400967 -0.00010867401399599701 0 0.019790864069509129 -0.00014271633524482174 0 0.019790864069509129 -0.00014271633524482174 0 0.019643790175621467 2.6635640735533978e-05 0 0.019854692530859253 7.120288476579779e-05 0 0.019949837392400967 -0.00010867401399599701 0 0.019790864069509129 -0.00014271633524482174 0 0.019854692530859253 7.120288476579779e-05 0 0.019790864069509129 -0.00014271633524482174 0 0.01956225715439374 -0.00015053668075874546 0 0.019643790175621467 2.6635640735533978e-05 0 0.019867251148104927 -0.00028417659887192668 0 0.019790864069509129 -0.00014271633524482174 0 0.01956225715439374 -0.00015053668075874546 0 0.016983122595649599 0.0054321108232504075 0 0.018994459896648629 0.0018137509032636532 0 0.016983122595649599 0.0054321108232504075 0 0.016771408211186382 0.0061686766344425503 0 0.017062738811632769 0.0044047144252857377 0 0.01819104092074093 0.0047144385711044351 0 0.017727699805088457 0.004452277521387573 0 0.019643790175621467 2.6635640735533978e-05 0 0.019700600848842408 0.00023256305561260442 0 0.019295755707499519 0.00012389086543886479 0 0.019700600848842408 0.00023256305561260442 0 0.019854692530859253 7.120288476579779e-05 0 0.020114703881662397 0.00028661508196539892 0 0.019643790175621467 2.6635640735533978e-05 0 0.019700600848842408 0.00023256305561260442 0 0.019854692530859253 7.120288476579779e-05 0 0.016983122595649599 0.0054321108232504075 0 0.014140682707653817 0.0090098297815299228 0 0.014992246211035861 0.0081854508522633505 0 0.014564901240162837 0.0082717224753545704 0 0.014286655305059921 0.0085257897073699115 0 0.014992246211035861 0.0081854508522633505 0 0.014837988224930293 0.0081233381641684869 0 0.014564901240162837 0.0082717224753545704 0 0.016983122595649599 0.0054321108232504075 0 0.017568681494327738 0.0045488184750309656 0 0.014992246211035861 0.0081854508522633505 0 0.014837988224930293 0.0081233381641684869 0 0.015076522717192786 0.0079927219015997648 0 0.014837988224930293 0.0081233381641684869 0 0.014564901240162837 0.0082717224753545704 0 0.014712472400637238 0.0080913083698142072 0 0.014837988224930293 0.0081233381641684869 0 0.015076522717192786 0.0079927219015997648 0 0.015002168768612868 0.0080302677544546799 0 0.015076522717192786 0.0079927219015997648 0 0.016125539381318998 0.0061995468751632208 0 0.016264439766463051 0.0072597255018036063 0 0.015125254235069292 0.0079490064833411585 0 0.015562452406730147 0.0071905844416623888 0 0.014992246211035861 0.0081854508522633505 0 0.015076522717192786 0.0079927219015997648 0 0.016268284130988638 0.0079895533568990866 0 0.015076522717192786 0.0079927219015997648 0 0.016268284130988638 0.0079895533568990866 0 0.016264439766463051 0.0072597255018036063 0 0.015002168768612868 0.0080302677544546799 0 0.014712472400637238 0.0080913083698142072 0 0.014768122166959436 0.0078318366036987663 0 0.014837988224930293 0.0081233381641684869 0 0.015002168768612868 0.0080302677544546799 0 0.014712472400637238 0.0080913083698142072 0 0.014712472400637238 0.0080913083698142072 0 0.014524930290930089 0.0080294220162600814 0 0.014768122166959436 0.0078318366036987663 0 0.014524930290930089 0.0080294220162600814 0 0.014358477669332586 0.0082373002024704062 0 0.0143274085042363 0.0079110846601051655 0 0.014712472400637238 0.0080913083698142072 0 0.014524930290930089 0.0080294220162600814 0 0.014358477669332586 0.0082373002024704062 0 0.014358477669332586 0.0082373002024704062 0 0.013961808598417575 0.0082826983237514872 0 0.0143274085042363 0.0079110846601051655 0 0.014564901240162837 0.0082717224753545704 0 0.014712472400637238 0.0080913083698142072 0 0.014358477669332586 0.0082373002024704062 0 0.014358477669332586 0.0082373002024704062 0 0.014132616899401143 0.0083806197494156638 0 0.013961808598417575 0.0082826983237514872 0 0.014358477669332586 0.0082373002024704062 0 0.014132616899401143 0.0083806197494156638 0 0.014318559608612001 0.0083644355494945678 0 0.013529447609288842 0.0084197995984944107 0 0.013961808598417575 0.0082826983237514872 0 0.013757209227096225 0.0081726551839806545 0 0.013529447609288842 0.0084197995984944107 0 0.013460427166694162 0.0086059590832247672 0 0.013873443782807027 0.0084418951480750761 0 0.013529447609288842 0.0084197995984944107 0 0.013961808598417575 0.0082826983237514872 0 0.013873443782807027 0.0084418951480750761 0 0.014132616899401143 0.0083806197494156638 0 0.013961808598417575 0.0082826983237514872 0 0.013873443782807027 0.0084418951480750761 0 0.013607425960760715 0.0084888420006005456 0 0.014140682707653817 0.0090098297815299228 0 0.020645984988859337 0.00039221162089945967 0 0.020388256711112402 0.00018530658069622542 0 0.020114703881662397 0.00028661508196539892 0 0.013460427166694162 0.0086059590832247672 0 0.014409643920419081 0.0089684411810036727 0 0.014567153897157414 0.0087346936782573305 0 0.013460427166694162 0.0086059590832247672 0 0.013873443782807027 0.0084418951480750761 0 0.014286655305059921 0.0085257897073699115 0 0.013248090397202667 0.0089239388861047236 0 0.013460427166694162 0.0086059590832247672 0 0.014409643920419081 0.0089684411810036727 0 0.016320153596875161 0.00443387632349694 0 0.017568681494327738 0.0045488184750309656 0 0.015852562245724223 0.0089578105104493547 0 0.014409643920419081 0.0089684411810036727 0 0.014567153897157414 0.0087346936782573305 0 0.014564901240162837 0.0082717224753545704 0 0.014286655305059921 0.0085257897073699115 0 0.014318559608612001 0.0083644355494945678 0 0.014564901240162837 0.0082717224753545704 0 0.014358477669332586 0.0082373002024704062 0 0.014318559608612001 0.0083644355494945678 0 0.014132616899401143 0.0083806197494156638 0 0.014286655305059921 0.0085257897073699115 0 0.014318559608612001 0.0083644355494945678 0 0.014132616899401143 0.0083806197494156638 0 0.013873443782807027 0.0084418951480750761 0 0.014286655305059921 0.0085257897073699115 0 0.017155539593883433 0.0032251895937791849 0 0.01688854331019023 0.0024800864344884438 0 0.016135067651807899 0.0032743089322142768 0 0.017155539593883433 0.0032251895937791849 0 0.01688854331019023 0.0024800864344884438 0 0.017544963092553541 0.002151323261520293 0 0.016728480040526843 0.0012244578226506952 0 0.01688854331019023 0.0024800864344884438 0 0.017179579441886604 0.0017403520996853773 0 0.017507990260676027 0.0011268279733389844 0 0.017179579441886604 0.0017403520996853773 0 0.017544963092553541 0.002151323261520293 0 0.017507990260676027 0.0011268279733389844 0 0.016728480040526843 0.0012244578226506952 0 0.017179579441886604 0.0017403520996853773 0 0.01688854331019023 0.0024800864344884438 0 0.017179579441886604 0.0017403520996853773 0 0.017544963092553541 0.002151323261520293 0 0.017507990260676027 0.0011268279733389844 0 0.018002595534958778 0.0018441851147985499 0 0.018296561175414477 0.0012438524350932034 0 0.017544963092553541 0.002151323261520293 0 0.018002595534958778 0.0018441851147985499 0 0.018232461448847992 0.0029966122339221812 0 0.017507990260676027 0.0011268279733389844 0 0.017544963092553541 0.002151323261520293 0 0.018002595534958778 0.0018441851147985499 0 0.018002595534958778 0.0018441851147985499 0 0.018414972975640546 0.0019726286828717688 0 0.018296561175414477 0.0012438524350932034 0 0.017155539593883433 0.0032251895937791849 0 0.017544963092553541 0.002151323261520293 0 0.018232461448847992 0.0029966122339221812 0 0.018002595534958778 0.0018441851147985499 0 0.018232461448847992 0.0029966122339221812 0 0.018414972975640546 0.0019726286828717688 0 0.017155539593883433 0.0032251895937791849 0 0.018232461448847992 0.0029966122339221812 0 0.017614545665507866 0.00419749609496091 0 0.018232461448847992 0.0029966122339221812 0 0.018943232445672319 0.0026234484657781916 0 0.018687669985854607 0.0022981310724926496 0 0.018232461448847992 0.0029966122339221812 0 0.020089662082181488 0.0031878815761834799 0 0.01894476756569833 0.004422338000855724 0 0.018711673662296164 0.0028791838789392196 0 0.018290426425988712 0.0044129466722222918 0 0.018290426425988712 0.0044129466722222918 0 0.018994459896648629 0.0018137509032636532 0 0.018964240805013386 0.002296296247002917 0 0.018687669985854607 0.0022981310724926496 0 0.018813165527286731 0.0017447812871967299 0 0.018943232445672319 0.0026234484657781916 0 0.018964240805013386 0.002296296247002917 0 0.018687669985854607 0.0022981310724926496 0 0.018964240805013386 0.002296296247002917 0 0.018813165527286731 0.0017447812871967299 0 0.019168486080349538 0.0023141961569901576 0 0.018943232445672319 0.0026234484657781916 0 0.018964240805013386 0.002296296247002917 0 0.019175752146460921 0.0023600545890331229 0 0.018232461448847992 0.0029966122339221812 0 0.018687669985854607 0.0022981310724926496 0 0.018414972975640546 0.0019726286828717688 0 0.019021054652811314 0.00094679146860214005 0 0.018813165527286731 0.0017447812871967299 0 0.019168486080349538 0.0023141961569901576 0 0.018687669985854607 0.0022981310724926496 0 0.018414972975640546 0.0019726286828717688 0 0.018813165527286731 0.0017447812871967299 0 0.018414972975640546 0.0019726286828717688 0 0.018296561175414477 0.0012438524350932034 0 0.018813165527286731 0.0017447812871967299 0 0.019021054652811314 0.00094679146860214005 0 0.018296561175414477 0.0012438524350932034 0 0.018813165527286731 0.0017447812871967299 0 0.019669375278866728 0.00035601838521037851 0 0.018994459896648629 0.0018137509032636532 0 0.019021054652811314 0.00094679146860214005 0 0.019704166521994689 0.0010497593751085167 0 0.019168486080349538 0.0023141961569901576 0 0.01956225715439374 -0.00015053668075874546 0 0.019643790175621467 2.6635640735533978e-05 0 0.019295755707499519 0.00012389086543886479 0 0.018290426425988712 0.0044129466722222918 0 0.016771408211186382 0.0061686766344425503 0 0.017234622743234312 0.0077532591162721102 0 0.016268284130988638 0.0079895533568990866 0 0.016772763987337812 0.007309199718922685 0 0.018392116606060174 0.0045032497337089512 0 0.01819104092074093 0.0047144385711044351 0 0.017727699805088457 0.004452277521387573 0 0.01905755909685701 0.0019227771575344094 0 0.018994459896648629 0.0018137509032636532 0 0.016268284130988638 0.0079895533568990866 0 0.016772763987337812 0.007309199718922685 0 0.016264439766463051 0.0072597255018036063 0 0.016772763987337812 0.007309199718922685 0 0.016846438908505155 0.0066564097061954271 0 0.017199906804660495 0.0069413394699933606 0 0.016772763987337812 0.007309199718922685 0 0.016264439766463051 0.0072597255018036063 0 0.016846438908505155 0.0066564097061954271 0 0.016125539381318998 0.0061995468751632208 0 0.016846438908505155 0.0066564097061954271 0 0.01701676206417441 0.0059722006679567563 0 0.016846438908505155 0.0066564097061954271 0 0.017384754115993366 0.0061473859560901801 0 0.01701676206417441 0.0059722006679567563 0 0.016125539381318998 0.0061995468751632208 0 0.016264439766463051 0.0072597255018036063 0 0.016846438908505155 0.0066564097061954271 0 0.016846438908505155 0.0066564097061954271 0 0.017384754115993366 0.0061473859560901801 0 0.017199906804660495 0.0069413394699933606 0 0.017384754115993366 0.0061473859560901801 0 0.017671442989185857 0.0067832562460901878 0 0.017199906804660495 0.0069413394699933606 0 0.017234622743234312 0.0077532591162721102 0 0.017671442989185857 0.0067832562460901878 0 0.017199906804660495 0.0069413394699933606 0 0.017234622743234312 0.0077532591162721102 0 0.016772763987337812 0.007309199718922685 0 0.017199906804660495 0.0069413394699933606 0 0.018290426425988712 0.0044129466722222918 0 0.018193236926504094 0.005691860263567633 0 0.01894476756569833 0.004422338000855724 0 0.017614545665507866 0.00419749609496091 0 0.017807035221648591 0.0056592308419643605 0 0.018232461448847992 0.0029966122339221812 0 0.01894476756569833 0.004422338000855724 0 0.017614545665507866 0.00419749609496091 0 0.018193236926504094 0.005691860263567633 0 0.017900743865062536 0.0057153578531770419 0 0.017384754115993366 0.0061473859560901801 0 0.017671442989185857 0.0067832562460901878 0 0.017807035221648591 0.0056592308419643605 0 0.017384754115993366 0.0061473859560901801 0 0.017807035221648591 0.0056592308419643605 0 0.017515147330054832 0.0057908690177478081 0 0.017807035221648591 0.0056592308419643605 0 0.017305391571218652 0.0054975238236421482 0 0.017269451517581857 0.0049557933326722006 0 0.017807035221648591 0.0056592308419643605 0 0.017305391571218652 0.0054975238236421482 0 0.017397146929377764 0.0057271634750673175 0 0.017305391571218652 0.0054975238236421482 0 0.016978806821874599 0.0053904542560169752 0 0.017041483208638904 0.0056410841299190774 0 0.017305391571218652 0.0054975238236421482 0 0.016950446760585974 0.0050709345805246544 0 0.016978806821874599 0.0053904542560169752 0 0.017305391571218652 0.0054975238236421482 0 0.017269451517581857 0.0049557933326722006 0 0.016950446760585974 0.0050709345805246544 0 0.017155539593883433 0.0032251895937791849 0 0.017614545665507866 0.00419749609496091 0 0.016634806165174994 0.0041650079222687866 0 0.017614545665507866 0.00419749609496091 0 0.017269451517581857 0.0049557933326722006 0 0.016634806165174994 0.0041650079222687866 0 0.017269451517581857 0.0049557933326722006 0 0.016634806165174994 0.0041650079222687866 0 0.016950446760585974 0.0050709345805246544 0 0.017614545665507866 0.00419749609496091 0 0.017807035221648591 0.0056592308419643605 0 0.017269451517581857 0.0049557933326722006 0 0.017186265854357858 0.0059196827460055376 0 0.017397146929377764 0.0057271634750673175 0 0.017397566354112982 0.0058577649906373557 0 0.017305391571218652 0.0054975238236421482 0 0.017397146929377764 0.0057271634750673175 0 0.017041483208638904 0.0056410841299190774 0 0.017186265854357858 0.0059196827460055376 0 0.017397146929377764 0.0057271634750673175 0 0.017041483208638904 0.0056410841299190774 0 0.017397146929377764 0.0057271634750673175 0 0.017515147330054832 0.0057908690177478081 0 0.017397566354112982 0.0058577649906373557 0 0.017807035221648591 0.0056592308419643605 0 0.017397146929377764 0.0057271634750673175 0 0.017515147330054832 0.0057908690177478081 0 0.017515147330054832 0.0057908690177478081 0 0.017397566354112982 0.0058577649906373557 0 0.017385831267345379 0.0058263951864919641 0 0.017186265854357858 0.0059196827460055376 0 0.017397566354112982 0.0058577649906373557 0 0.01738264936431454 0.0060449357301020192 0 0.017397566354112982 0.0058577649906373557 0 0.017380948790458612 0.0058986764874011761 0 0.01738264936431454 0.0060449357301020192 0 0.017380948790458612 0.0058986764874011761 0 0.017235999692659289 0.005807318254460298 0 0.017384266220022013 0.0059150393321266946 0 0.017380948790458612 0.0058986764874011761 0 0.017385831267345379 0.0058263951864919641 0 0.017235999692659289 0.005807318254460298 0 0.017397566354112982 0.0058577649906373557 0 0.017380948790458612 0.0058986764874011761 0 0.017385831267345379 0.0058263951864919641 0 0.017313134873526474 0.0058751473281684584 0 0.01701676206417441 0.0059722006679567563 0 0.017235999692659289 0.005807318254460298 0 0.017515147330054832 0.0057908690177478081 0 0.017385831267345379 0.0058263951864919641 0 0.017313134873526474 0.0058751473281684584 0 0.017384754115993366 0.0061473859560901801 0 0.017515147330054832 0.0057908690177478081 0 0.017313134873526474 0.0058751473281684584 0 0.017384754115993366 0.0061473859560901801 0 0.017313134873526474 0.0058751473281684584 0 0.01701676206417441 0.0059722006679567563 0 0.017385831267345379 0.0058263951864919641 0 0.017313134873526474 0.0058751473281684584 0 0.017235999692659289 0.005807318254460298 0 0.016125539381318998 0.0061995468751632208 0 0.01701676206417441 0.0059722006679567563 0 0.016984120278098692 0.0057519983688743611 0 0.01701676206417441 0.0059722006679567563 0 0.016984120278098692 0.0057519983688743611 0 0.017235999692659289 0.005807318254460298 0 0.016045499781434686 0.0066254550781569572 0 0.016814424859493294 0.007062520689486651 0 0.01521032066073889 0.0076208020894561806 0 0.015402196174077043 0.0071452181043198367 0 0.014939277782982111 0.0073351600909400579 0 0.016984120278098692 0.0057519983688743611 0 0.017235999692659289 0.005807318254460298 0 0.017384266220022013 0.0059150393321266946 0 0.017406511460215077 0.0084511779245854991 0 0.017023522075408234 0.007773497158773646 0 0.017551672709273172 0.0073975563299050742 0 0.016814424859493294 0.007062520689486651 0 0.017283753866055563 0.0075230721469781306 0 0.017406511460215077 0.0084511779245854991 0 0.017023522075408234 0.007773497158773646 0 0.016266747547244484 0.008075200276421314 0 0.017023522075408234 0.007773497158773646 0 0.017022874617386829 0.0070792907544059503 0 0.017551672709273172 0.0073975563299050742 0 0.017023522075408234 0.007773497158773646 0 0.017022874617386829 0.0070792907544059503 0 0.016266747547244484 0.008075200276421314 0 0.017022874617386829 0.0070792907544059503 0 0.017469989869237458 0.0071470601453455102 0 0.017551672709273172 0.0073975563299050742 0 0.017551672709273172 0.0073975563299050742 0 0.017526953272906542 0.0070819853627782049 0 0.017474005712051082 0.0071354977961150543 0 0.017469989869237458 0.0071470601453455102 0 0.017551672709273172 0.0073975563299050742 0 0.017526953272906542 0.0070819853627782049 0 0.017526953272906542 0.0070819853627782049 0 0.017474005712051082 0.0071354977961150543 0 0.017347725219497512 0.0066350679387829365 0 0.017609801043528221 0.0072208955707327707 0 0.017551672709273172 0.0073975563299050742 0 0.017474005712051082 0.0071354977961150543 0 0.017384266220022013 0.0059150393321266946 0 0.017469833482771622 0.0061671763880728524 0 0.017419823347968894 0.0060094783496683329 0 0.016814424859493294 0.007062520689486651 0 0.017531763344637595 0.0066077015572248632 0 0.017380948790458612 0.0058986764874011761 0 0.017384266220022013 0.0059150393321266946 0 0.017419823347968894 0.0060094783496683329 0 0.017469833482771622 0.0061671763880728524 0 0.017419823347968894 0.0060094783496683329 0 0.01738264936431454 0.0060449357301020192 0 0.017380948790458612 0.0058986764874011761 0 0.017419823347968894 0.0060094783496683329 0 0.01738264936431454 0.0060449357301020192 0 0.01738264936431454 0.0060449357301020192 0 0.017347725219497512 0.0066350679387829365 0 0.017151598045898768 0.0062789696999796746 0 0.017469833482771622 0.0061671763880728524 0 0.01738264936431454 0.0060449357301020192 0 0.017347725219497512 0.0066350679387829365 0 0.017186265854357858 0.0059196827460055376 0 0.01738264936431454 0.0060449357301020192 0 0.017151598045898768 0.0062789696999796746 0 0.017347725219497512 0.0066350679387829365 0 0.016932250130213804 0.0067242223378132463 0 0.017303092371706345 0.0070579559417276007 0 0.017531763344637595 0.0066077015572248632 0 0.017263245522224874 0.0066930643268528871 0 0.017526953272906542 0.0070819853627782049 0 0.017347725219497512 0.0066350679387829365 0 0.017303092371706345 0.0070579559417276007 0 0.016932250130213804 0.0067242223378132463 0 0.017151598045898768 0.0062789696999796746 0 0.016978278139333867 0.0061906141846100578 0 0.017347725219497512 0.0066350679387829365 0 0.016932250130213804 0.0067242223378132463 0 0.017151598045898768 0.0062789696999796746 0 0.017186265854357858 0.0059196827460055376 0 0.017151598045898768 0.0062789696999796746 0 0.016978278139333867 0.0061906141846100578 0 0.014246062702868269 0.0085408804811605912 0 0.013342349110853214 0.0086145301491960622 0 0.013921071391719952 0.0096644429227979479 0 0.013105096640625574 0.0092477486276420391 0 0.012691886025379916 0.009474003753378462 0 0.013105096640625574 0.0092477486276420391 0 0.012600806418324955 0.0094852994085316555 0 0.012691886025379916 0.009474003753378462 0 0.013854519316692144 0.0077495384420882578 0 0.013757209227096225 0.0081726551839806545 0 0.0143274085042363 0.0079110846601051655 0 0.013046057999769925 0.0086215373240015845 0 0.013854519316692144 0.0077495384420882578 0 0.013757209227096225 0.0081726551839806545 0 0.013961808598417575 0.0082826983237514872 0 0.013757209227096225 0.0081726551839806545 0 0.0143274085042363 0.0079110846601051655 0 0.014484317133675779 0.007505899170174175 0 0.013854519316692144 0.0077495384420882578 0 0.0143274085042363 0.0079110846601051655 0 0.014524930290930089 0.0080294220162600814 0 0.0143274085042363 0.0079110846601051655 0 0.014768122166959436 0.0078318366036987663 0 0.014484317133675779 0.007505899170174175 0 0.0143274085042363 0.0079110846601051655 0 0.014768122166959436 0.0078318366036987663 0 0.015002168768612868 0.0080302677544546799 0 0.01521032066073889 0.0076208020894561806 0 0.014768122166959436 0.0078318366036987663 0 0.015562452406730147 0.0071905844416623888 0 0.016045499781434686 0.0066254550781569572 0 0.01521032066073889 0.0076208020894561806 0 0.014768122166959436 0.0078318366036987663 0 0.014939277782982111 0.0073351600909400579 0 0.014484317133675779 0.007505899170174175 0 0.014768122166959436 0.0078318366036987663 0 0.014939277782982111 0.0073351600909400579 0 0.014246062702868269 0.0085408804811605912 0 0.015194298621215092 0.0083646788384739035 0 0.013921071391719952 0.0096644429227979479 0 0.015678306573178539 0.0092455919451492775 0 0.014769986904316539 0.0083613640093254862 0 0.017406511460215077 0.0084511779245854991 0 0.015678306573178539 0.0092455919451492775 0 0.016266747547244484 0.008075200276421314 0 0.016814424859493294 0.007062520689486651 0 0.015194298621215092 0.0083646788384739035 0 0.015678306573178539 0.0092455919451492775 0 0.014769986904316539 0.0083613640093254862 0 0.016266747547244484 0.008075200276421314 0 0.017022874617386829 0.0070792907544059503 0 0.016266747547244484 0.008075200276421314 0 0.014955025597081308 0.0066193150574414749 0 0.014769986904316539 0.0083613640093254862 0 0.013315588771937569 0.0082548657854490688 0 0.014955025597081308 0.0066193150574414749 0 0.014769986904316539 0.0083613640093254862 0 0.016266747547244484 0.008075200276421314 0 0.014955025597081308 0.0066193150574414749 0 0.008875049840624356 0.01078140168008259 0 0.010179932313765551 0.0093105064285489997 0 0.0042329893043867054 0.013365739731952394 0 0.0047288922869639233 0.012150159220224385 0 0.0062436075966602628 0.01202460810969417 0 0.0040298578886273457 0.012677099473761314 0 0.0042329893043867054 0.013365739731952394 0 0.0047288922869639233 0.012150159220224385 0 0.013921071391719952 0.0096644429227979479 0 0.013105096640625574 0.0092477486276420391 0 0.013315588771937569 0.0082548657854490688 0 0.013921071391719952 0.0096644429227979479 0 0.014769986904316539 0.0083613640093254862 0 0.013315588771937569 0.0082548657854490688 0 0.0080175602133826258 0.011444112213878531 0 0.008875049840624356 0.01078140168008259 0 0.013105096640625574 0.0092477486276420391 0 0.012600806418324955 0.0094852994085316555 0 0.013315588771937569 0.0082548657854490688 0 0.0031677579564551432 0.01362623324563283 0 0.0042329893043867054 0.013365739731952394 0 0.003429104393929031 0.013341153674824191 0 0.0029906759351785812 0.013393510478351554 0 0.0031677579564551432 0.01362623324563283 0 0.003429104393929031 0.013341153674824191 0 0.0029906759351785812 0.013393510478351554 0 0.003429104393929031 0.013341153674824191 0 0.0029904877454270482 0.01313585501672348 0 0.0040298578886273457 0.012677099473761314 0 0.0029904877454270482 0.01313585501672348 0 0.0033991215267565279 0.012341532286154545 0 0.0040298578886273457 0.012677099473761314 0 0.003429104393929031 0.013341153674824191 0 0.0029904877454270482 0.01313585501672348 0 0.0040298578886273457 0.012677099473761314 0 0.0042329893043867054 0.013365739731952394 0 0.003429104393929031 0.013341153674824191 0 0.0040298578886273457 0.012677099473761314 0 0.0040794818501380834 0.011619083048147369 0 0.0040160180948188825 0.011490785283601646 0 0.0040298578886273457 0.012677099473761314 0 0.0035939090603150821 0.01220418601348894 0 0.0036286984566375117 0.011859424829024141 0 0.0029904877454270482 0.01313585501672348 0 0.0033991215267565279 0.012341532286154545 0 0.0030563883924697652 0.011895293688725736 0 0.0040021927177327204 0.012590864264325327 0 0.0038500102342909574 0.011810436612411558 0 0.0040298578886273457 0.012677099473761314 0 0.0033991215267565279 0.012341532286154545 0 0.0035939090603150821 0.01220418601348894 0 0.0035939090603150821 0.01220418601348894 0 0.0033647874186685748 0.011957211633944682 0 0.0036286984566375117 0.011859424829024141 0 0.0033991215267565279 0.012341532286154545 0 0.0033647874186685748 0.011957211633944682 0 0.0030563883924697652 0.011895293688725736 0 0.0033991215267565279 0.012341532286154545 0 0.0035939090603150821 0.01220418601348894 0 0.0033647874186685748 0.011957211633944682 0 0.0038500102342909574 0.011810436612411558 0 0.0038733753297567185 0.011885024414299457 0 0.0033647874186685748 0.011957211633944682 0 0.00331328950971292 0.011643512703560406 0 0.0030563883924697652 0.011895293688725736 0 0.0036286984566375117 0.011859424829024141 0 0.00331328950971292 0.011643512703560406 0 0.0034373606149087055 0.011417517034555326 0 0.0040160180948188825 0.011490785283601646 0 0.0037429799698055844 0.012173770533861259 0 0.0043501578619006033 0.012802379363359314 0 0.0033647874186685748 0.011957211633944682 0 0.0036286984566375117 0.011859424829024141 0 0.00331328950971292 0.011643512703560406 0 0.0040410677222278953 0.011578442859857147 0 0.0041931947091153167 0.01109429894378239 0 0.0040794818501380834 0.011619083048147369 0 0.0040160180948188825 0.011490785283601646 0 0.0037429799698055844 0.012173770533861259 0 0.0040794818501380834 0.011619083048147369 0 0.0037429799698055844 0.012173770533861259 0 0.0030833808297205511 0.012332989295007025 0 0.0040794818501380834 0.011619083048147369 0 0.0052810906484688043 0.011007700740364024 0 0.0052600443890237604 0.0097730778402701293 0 0.0040794818501380834 0.011619083048147369 0 0.0052810906484688043 0.011007700740364024 0 0.0047288922869639233 0.012150159220224385 0 0.0040298578886273457 0.012677099473761314 0 0.0040794818501380834 0.011619083048147369 0 0.0047288922869639233 0.012150159220224385 0 0.0052810906484688043 0.011007700740364024 0 0.0047288922869639233 0.012150159220224385 0 0.0062436075966602628 0.01202460810969417 0 0.017022874617386829 0.0070792907544059503 0 0.014955025597081308 0.0066193150574414749 0 0.016730082364844089 0.0049190054401930658 0 0.010179932313765551 0.0093105064285489997 0 0.014702154030803593 0.0081494972049032336 0 0.0062436075966602628 0.01202460810969417 0 0.0065351958264140229 0.0099976446764530776 0 0.0079904157445152522 0.010370390067549411 0 0.0052810906484688043 0.011007700740364024 0 0.0062436075966602628 0.01202460810969417 0 0.0065351958264140229 0.0099976446764530776 0 0.0052810906484688043 0.011007700740364024 0 0.0065351958264140229 0.0099976446764530776 0 0.0052600443890237604 0.0097730778402701293 0 0.0040446179543252277 0.011105628991679779 0 0.0041931947091153167 0.01109429894378239 0 0.0065351958264140229 0.0099976446764530776 0 0.0064724452967955155 0.0082317439502524962 0 0.0052600443890237604 0.0097730778402701293 0 0.0018683806170825825 0.013949187695926304 0 0.0032834032832548053 0.013451030188450131 0 0.0030833808297205511 0.012332989295007025 0 0.0065351958264140229 0.0099976446764530776 0 0.0078592120512986918 0.0087121626841171369 0 0.0079904157445152522 0.010370390067549411 0 0.0065351958264140229 0.0099976446764530776 0 0.0078592120512986918 0.0087121626841171369 0 0.0064724452967955155 0.0082317439502524962 0 0.0078592120512986918 0.0087121626841171369 0 0.0064724452967955155 0.0082317439502524962 0 0.0077897838682251287 0.0071531836884509608 0 0.012840190681859938 0.0086492772635298927 0 0.015285003368885053 0.0089398511557938105 0 0.0040446179543252277 0.011105628991679779 0 0.0071401402442001355 0.012635252660843158 0 0.0018683806170825825 0.013949187695926304 0 0.0028224878808668398 0.014596594607509308 0 0.0032834032832548053 0.013451030188450131 0 0.0018683806170825825 0.013949187695926304 0 0.0028224878808668398 0.014596594607509308 0 0.0020344343014515719 0.01504175926242503 0 0.0028224878808668398 0.014596594607509308 0 0.0032834032832548053 0.013451030188450131 0 0.0038012278146635553 0.014528283764289421 0 0.0032834032832548053 0.013451030188450131 0 0.0038012278146635553 0.014528283764289421 0 0.0043501578619006033 0.012802379363359314 0 0.0041230017793301502 0.014398417464535813 0 0.0040363761368807684 0.014000619378274669 0 0.0034373606149087055 0.011417517034555326 0 0.0033656182766669453 0.011148935555136335 0 0.0032437142318142162 0.011269860030010228 0 0.0038733753297567185 0.011885024414299457 0 0.0040363761368807684 0.014000619378274669 0 0.0038012278146635553 0.014528283764289421 0 0.0043501578619006033 0.012802379363359314 0 0.0046706862948943627 0.014616571045707733 0 0.00331328950971292 0.011643512703560406 0 0.0034373606149087055 0.011417517034555326 0 0.0031076944439764622 0.011419017671342978 0 0.0037429799698055844 0.012173770533861259 0 0.0032834032832548053 0.013451030188450131 0 0.0030833808297205511 0.012332989295007025 0 0.0037429799698055844 0.012173770533861259 0 0.0032834032832548053 0.013451030188450131 0 0.0043501578619006033 0.012802379363359314 0 0.017053123667316098 0.0076520434979596083 0 0.016651414358614877 0.0084254523854894164 0 0.016571744750204981 0.0074071509334831896 0 0.017002369882057417 0.0072014477305475258 0 0.017053123667316098 0.0076520434979596083 0 0.016571744750204981 0.0074071509334831896 0 0.016932250130213804 0.0067242223378132463 0 0.017002369882057417 0.0072014477305475258 0 0.017303092371706345 0.0070579559417276007 0 0.016932250130213804 0.0067242223378132463 0 0.017002369882057417 0.0072014477305475258 0 0.016571744750204981 0.0074071509334831896 0 0.017002369882057417 0.0072014477305475258 0 0.017303092371706345 0.0070579559417276007 0 0.01726255349218804 0.0073414206390461931 0 0.017303092371706345 0.0070579559417276007 0 0.01726255349218804 0.0073414206390461931 0 0.017467785285813199 0.0072396243421366819 0 0.01726255349218804 0.0073414206390461931 0 0.017053123667316098 0.0076520434979596083 0 0.017468857147129924 0.0076274102425333539 0 0.017053123667316098 0.0076520434979596083 0 0.017468857147129924 0.0076274102425333539 0 0.017204860904681388 0.0081633362601715755 0 0.01726255349218804 0.0073414206390461931 0 0.017468857147129924 0.0076274102425333539 0 0.017467785285813199 0.0072396243421366819 0 0.017002369882057417 0.0072014477305475258 0 0.01726255349218804 0.0073414206390461931 0 0.017053123667316098 0.0076520434979596083 0 0.017468857147129924 0.0076274102425333539 0 0.017673170287470251 0.007865078230696456 0 0.017567968058140277 0.0080913096791134526 0 0.017468857147129924 0.0076274102425333539 0 0.017673170287470251 0.007865078230696456 0 0.017683181311008312 0.0075994635550059638 0 0.017673170287470251 0.007865078230696456 0 0.017683181311008312 0.0075994635550059638 0 0.017869323194487821 0.0078728805639366375 0 0.017468857147129924 0.0076274102425333539 0 0.017683181311008312 0.0075994635550059638 0 0.017595624107782828 0.0073450963697974016 0 0.017468857147129924 0.0076274102425333539 0 0.017467785285813199 0.0072396243421366819 0 0.017595624107782828 0.0073450963697974016 0 0.017526953272906542 0.0070819853627782049 0 0.017303092371706345 0.0070579559417276007 0 0.017467785285813199 0.0072396243421366819 0 0.017526953272906542 0.0070819853627782049 0 0.017467785285813199 0.0072396243421366819 0 0.017533974841743117 0.0071945803142640678 0 0.017469989869237458 0.0071470601453455102 0 0.017526953272906542 0.0070819853627782049 0 0.017533974841743117 0.0071945803142640678 0 0.017533974841743117 0.0071945803142640678 0 0.017595624107782828 0.0073450963697974016 0 0.017562708411004425 0.0072438181415597405 0 0.017467785285813199 0.0072396243421366819 0 0.017533974841743117 0.0071945803142640678 0 0.017595624107782828 0.0073450963697974016 0 0.017763900198016453 0.006321524424234619 0 0.014702154030803593 0.0081494972049032336 0 0.017022874617386829 0.0070792907544059503 0 0.017562708411004425 0.0072438181415597405 0 0.018096762805073271 0.0075599924861408617 0 0.017469989869237458 0.0071470601453455102 0 0.017533974841743117 0.0071945803142640678 0 0.017562708411004425 0.0072438181415597405 0 0.017022874617386829 0.0070792907544059503 0 0.017469989869237458 0.0071470601453455102 0 0.017562708411004425 0.0072438181415597405 0 0.017562708411004425 0.0072438181415597405 0 0.0178377064090121 0.0075632461448308392 0 0.018096762805073271 0.0075599924861408617 0 0.017683181311008312 0.0075994635550059638 0 0.017595624107782828 0.0073450963697974016 0 0.0178377064090121 0.0075632461448308392 0 0.017595624107782828 0.0073450963697974016 0 0.017562708411004425 0.0072438181415597405 0 0.0178377064090121 0.0075632461448308392 0 0.017683181311008312 0.0075994635550059638 0 0.0178377064090121 0.0075632461448308392 0 0.017869323194487821 0.0078728805639366375 0 0.0178377064090121 0.0075632461448308392 0 0.017973032723394025 0.0077968957795907425 0 0.017869323194487821 0.0078728805639366375 0 0.017973032723394025 0.0077968957795907425 0 0.018098544800210194 0.007712972432394034 0 0.018080395471568648 0.0080522902997149717 0 0.0178377064090121 0.0075632461448308392 0 0.018098544800210194 0.007712972432394034 0 0.018096762805073271 0.0075599924861408617 0 0.015739204334384787 0.0075151994230687148 0 0.014702154030803593 0.0081494972049032336 0 0.0178377064090121 0.0075632461448308392 0 0.017973032723394025 0.0077968957795907425 0 0.018098544800210194 0.007712972432394034 0 0.012840190681859938 0.0086492772635298927 0 0.014702154030803593 0.0081494972049032336 0 0.018433716220262693 0.0085932956900286791 0 0.018098544800210194 0.007712972432394034 0 0.018080395471568648 0.0080522902997149717 0 0.018433716220262693 0.0085932956900286791 0 0.018098544800210194 0.007712972432394034 0 0.018201442263067299 0.0075888649740411332 0 0.017973032723394025 0.0077968957795907425 0 0.018080395471568648 0.0080522902997149717 0 0.017869323194487821 0.0078728805639366375 0 0.018080395471568648 0.0080522902997149717 0 0.017869323194487821 0.0078728805639366375 0 0.018040020061962841 0.0082983576014648095 0 0.017869323194487821 0.0078728805639366375 0 0.018040020061962841 0.0082983576014648095 0 0.017802151145784276 0.008176997776550024 0 0.018040020061962841 0.0082983576014648095 0 0.017925771883461141 0.0085099752421538034 0 0.018170076115934179 0.0087588604330930842 0 0.018040020061962841 0.0082983576014648095 0 0.017925771883461141 0.0085099752421538034 0 0.017802151145784276 0.008176997776550024 0 0.018433716220262693 0.0085932956900286791 0 0.018080395471568648 0.0080522902997149717 0 0.018040020061962841 0.0082983576014648095 0 0.018433716220262693 0.0085932956900286791 0 0.018040020061962841 0.0082983576014648095 0 0.018170076115934179 0.0087588604330930842 0 0.018864074861355846 0.009354248043878079 0 0.015285003368885053 0.0089398511557938105 0 0.018433716220262693 0.0085932956900286791 0 0.018170076115934179 0.0087588604330930842 0 0.018405482658129239 0.0092277237764140027 0 0.018170076115934179 0.0087588604330930842 0 0.018270024783957041 0.0093877027695143528 0 0.01871610580463752 0.0096228985880593681 0 0.018047299824102071 0.009176507409121749 0 0.018170076115934179 0.0087588604330930842 0 0.018270024783957041 0.0093877027695143528 0 0.018047299824102071 0.009176507409121749 0 0.018170076115934179 0.0087588604330930842 0 0.01792289441812717 0.0088710404297781247 0 0.017925771883461141 0.0085099752421538034 0 0.018170076115934179 0.0087588604330930842 0 0.01792289441812717 0.0088710404297781247 0 0.017925771883461141 0.0085099752421538034 0 0.01792289441812717 0.0088710404297781247 0 0.017695625392006288 0.008655123558045397 0 0.018047299824102071 0.009176507409121749 0 0.01792289441812717 0.0088710404297781247 0 0.017787941940830297 0.009279548756687522 0 0.01792289441812717 0.0088710404297781247 0 0.017787941940830297 0.009279548756687522 0 0.017695625392006288 0.008655123558045397 0 0.017787941940830297 0.009279548756687522 0 0.01754626361345751 0.009151539628332846 0 0.017695625392006288 0.008655123558045397 0 0.01754626361345751 0.009151539628332846 0 0.017695625392006288 0.008655123558045397 0 0.017357238082216061 0.0087300749391272872 0 0.017695625392006288 0.008655123558045397 0 0.017460179083772238 0.0084100064153254644 0 0.017357238082216061 0.0087300749391272872 0 0.017695625392006288 0.008655123558045397 0 0.017460179083772238 0.0084100064153254644 0 0.017567968058140277 0.0080913096791134526 0 0.017925771883461141 0.0085099752421538034 0 0.017695625392006288 0.008655123558045397 0 0.017802151145784276 0.008176997776550024 0 0.017695625392006288 0.008655123558045397 0 0.017802151145784276 0.008176997776550024 0 0.017567968058140277 0.0080913096791134526 0 0.017673170287470251 0.007865078230696456 0 0.017869323194487821 0.0078728805639366375 0 0.017802151145784276 0.008176997776550024 0 0.017673170287470251 0.007865078230696456 0 0.017802151145784276 0.008176997776550024 0 0.017567968058140277 0.0080913096791134526 0 0.017053123667316098 0.0076520434979596083 0 0.017204860904681388 0.0081633362601715755 0 0.016651414358614877 0.0084254523854894164 0 0.017204860904681388 0.0081633362601715755 0 0.017357238082216061 0.0087300749391272872 0 0.016651414358614877 0.0084254523854894164 0 0.017468857147129924 0.0076274102425333539 0 0.017567968058140277 0.0080913096791134526 0 0.017204860904681388 0.0081633362601715755 0 0.017460179083772238 0.0084100064153254644 0 0.017204860904681388 0.0081633362601715755 0 0.017357238082216061 0.0087300749391272872 0 0.017460179083772238 0.0084100064153254644 0 0.017567968058140277 0.0080913096791134526 0 0.017204860904681388 0.0081633362601715755 0 0.017342643272285584 0.0092222277068394771 0 0.016651414358614877 0.0084254523854894164 0 0.017382527749147184 0.0099127921756871143 0 0.017357238082216061 0.0087300749391272872 0 0.017342643272285584 0.0092222277068394771 0 0.016651414358614877 0.0084254523854894164 0 0.01754626361345751 0.009151539628332846 0 0.017342643272285584 0.0092222277068394771 0 0.017526671668436116 0.0096393629594962553 0 0.01754626361345751 0.009151539628332846 0 0.017357238082216061 0.0087300749391272872 0 0.017342643272285584 0.0092222277068394771 0 0.018418185058942146 0.010468002250695611 0 0.017382527749147184 0.0099127921756871143 0 0.018345936136553168 0.010321664035501487 0 0.017535386689165152 0.0094062151818485734 0 0.017406718369431855 0.0098567544933945307 0 0.017535386689165152 0.0094062151818485734 0 0.017637278163290668 0.0082610205119405169 0 0.018224187424181217 0.037526519499004866 0 0.021492021023375364 0.026700752331223748 0 0.021451285294629408 0.041547713354204645 0 0.022097533891136174 0.041066613659369616 0 0.021931755446263849 0.041109867729416556 0 0.020817020223073249 0.014418941179097899 0 0.02195495928247081 0.015496980054583187 0 0.019383610415391592 0.014844639453501698 0 0.020817020223073249 0.014418941179097899 0 0.021751813047208784 0.01495130251815289 0 0.02195495928247081 0.015496980054583187 0 0.020355218513930837 0.011405298999927219 0 0.019143327991174224 0.011640504695423701 0 0.017382527749147184 0.0099127921756871143 0 0.017309461220313137 0.0097693106020059761 0 0.018345936136553168 0.010321664035501487 0 0.020817020223073249 0.014418941179097899 0 0.022242600415597235 0.014489598118489178 0 0.020276120643993496 0.0127829478089957 0 0.017342643272285584 0.0092222277068394771 0 0.017382527749147184 0.0099127921756871143 0 0.017526671668436116 0.0096393629594962553 0 0.017382527749147184 0.0099127921756871143 0 0.017404296980136576 0.0098150407080798557 0 0.017309461220313137 0.0097693106020059761 0 0.017382527749147184 0.0099127921756871143 0 0.017404296980136576 0.0098150407080798557 0 0.017526671668436116 0.0096393629594962553 0 0.017404296980136576 0.0098150407080798557 0 0.017309461220313137 0.0097693106020059761 0 0.017527845763187253 0.0099186723830541092 0 0.017404296980136576 0.0098150407080798557 0 0.017527845763187253 0.0099186723830541092 0 0.017526671668436116 0.0096393629594962553 0 0.022242600415597235 0.014489598118489178 0 0.02195495928247081 0.015496980054583187 0 0.023910934597762751 0.01596951956548744 0 0.020817020223073249 0.014418941179097899 0 0.021751813047208784 0.01495130251815289 0 0.022242600415597235 0.014489598118489178 0 0.021751813047208784 0.01495130251815289 0 0.022242600415597235 0.014489598118489178 0 0.02195495928247081 0.015496980054583187 0 0.020355218513930837 0.011405298999927219 0 0.016815372138564627 0.019305707526972336 0 0.017309461220313137 0.0097693106020059761 0 0.017527845763187253 0.0099186723830541092 0 0.017918888029772425 0.010814137814720457 0 0.017855057479857366 0.01033498979307884 0 0.017974693576506745 0.010529106275158899 0 0.017932314178833932 0.010739808797615637 0 0.016682129022692924 0.0079182004041237382 0 0.016815372138564627 0.019305707526972336 0 0.017855057479857366 0.01033498979307884 0 0.017527845763187253 0.0099186723830541092 0 0.017932314178833932 0.010739808797615637 0 0.017855057479857366 0.01033498979307884 0 0.01801855776949789 0.010382891916150803 0 0.017974693576506745 0.010529106275158899 0 0.017855057479857366 0.01033498979307884 0 0.017781251719029358 0.01011813134823746 0 0.01792650066898429 0.01018557043878413 0 0.017855057479857366 0.01033498979307884 0 0.01792650066898429 0.01018557043878413 0 0.01801855776949789 0.010382891916150803 0 0.01792650066898429 0.01018557043878413 0 0.017816001747359249 0.0099611285183346977 0 0.018001805431395963 0.010038598770126026 0 0.017781251719029358 0.01011813134823746 0 0.01792650066898429 0.01018557043878413 0 0.017816001747359249 0.0099611285183346977 0 0.017781251719029358 0.01011813134823746 0 0.017816001747359249 0.0099611285183346977 0 0.017527845763187253 0.0099186723830541092 0 0.017855057479857366 0.01033498979307884 0 0.017781251719029358 0.01011813134823746 0 0.017527845763187253 0.0099186723830541092 0 0.017527845763187253 0.0099186723830541092 0 0.017526671668436116 0.0096393629594962553 0 0.017760205400423577 0.0097118270863088864 0 0.017816001747359249 0.0099611285183346977 0 0.017527845763187253 0.0099186723830541092 0 0.017760205400423577 0.0097118270863088864 0 0.017787941940830297 0.009279548756687522 0 0.01754626361345751 0.009151539628332846 0 0.017526671668436116 0.0096393629594962553 0 0.017787941940830297 0.009279548756687522 0 0.017526671668436116 0.0096393629594962553 0 0.017760205400423577 0.0097118270863088864 0 0.017787941940830297 0.009279548756687522 0 0.017760205400423577 0.0097118270863088864 0 0.018055386695811484 0.0095960036928261043 0 0.018047299824102071 0.009176507409121749 0 0.017787941940830297 0.009279548756687522 0 0.018055386695811484 0.0095960036928261043 0 0.017760205400423577 0.0097118270863088864 0 0.017954463478573237 0.0098523161399547803 0 0.018055386695811484 0.0095960036928261043 0 0.017816001747359249 0.0099611285183346977 0 0.017760205400423577 0.0097118270863088864 0 0.017954463478573237 0.0098523161399547803 0 0.017816001747359249 0.0099611285183346977 0 0.017954463478573237 0.0098523161399547803 0 0.018001805431395963 0.010038598770126026 0 0.017954463478573237 0.0098523161399547803 0 0.018168068971436854 0.0099568888240740127 0 0.018001805431395963 0.010038598770126026 0 0.018168068971436854 0.0099568888240740127 0 0.018055386695811484 0.0095960036928261043 0 0.018382257129002398 0.009777576818192666 0 0.017954463478573237 0.0098523161399547803 0 0.018168068971436854 0.0099568888240740127 0 0.018055386695811484 0.0095960036928261043 0 0.018055386695811484 0.0095960036928261043 0 0.018270024783957041 0.0093877027695143528 0 0.018382257129002398 0.009777576818192666 0 0.018047299824102071 0.009176507409121749 0 0.018055386695811484 0.0095960036928261043 0 0.018270024783957041 0.0093877027695143528 0 0.018270024783957041 0.0093877027695143528 0 0.018382257129002398 0.009777576818192666 0 0.01871610580463752 0.0096228985880593681 0 0.018382257129002398 0.009777576818192666 0 0.018573400525591831 0.009922640875785961 0 0.01871610580463752 0.0096228985880593681 0 0.018168068971436854 0.0099568888240740127 0 0.018382257129002398 0.009777576818192666 0 0.018430951735671008 0.010076156580818917 0 0.018382257129002398 0.009777576818192666 0 0.018573400525591831 0.009922640875785961 0 0.018430951735671008 0.010076156580818917 0 0.018573400525591831 0.009922640875785961 0 0.018430951735671008 0.010076156580818917 0 0.018641709959878461 0.010148547241641484 0 0.018397667978663254 0.0104146954258095 0 0.018641709959878461 0.010148547241641484 0 0.018519434842653715 0.01093977489452121 0 0.018430951735671008 0.010076156580818917 0 0.018397667978663254 0.0104146954258095 0 0.018641709959878461 0.010148547241641484 0 0.018278644725856212 0.010210844730845688 0 0.018430951735671008 0.010076156580818917 0 0.018397667978663254 0.0104146954258095 0 0.018278644725856212 0.010210844730845688 0 0.018192808396472224 0.010418133982952483 0 0.018397667978663254 0.0104146954258095 0 0.018168068971436854 0.0099568888240740127 0 0.018278644725856212 0.010210844730845688 0 0.018430951735671008 0.010076156580818917 0 0.018168068971436854 0.0099568888240740127 0 0.018278644725856212 0.010210844730845688 0 0.018109553950906344 0.010208770268908632 0 0.018168068971436854 0.0099568888240740127 0 0.018001805431395963 0.010038598770126026 0 0.018109553950906344 0.010208770268908632 0 0.01792650066898429 0.01018557043878413 0 0.018001805431395963 0.010038598770126026 0 0.018109553950906344 0.010208770268908632 0 0.018109553950906344 0.010208770268908632 0 0.018192808396472224 0.010418133982952483 0 0.01801855776949789 0.010382891916150803 0 0.01792650066898429 0.01018557043878413 0 0.018109553950906344 0.010208770268908632 0 0.01801855776949789 0.010382891916150803 0 0.018278644725856212 0.010210844730845688 0 0.018109553950906344 0.010208770268908632 0 0.018192808396472224 0.010418133982952483 0 0.018192808396472224 0.010418133982952483 0 0.01801855776949789 0.010382891916150803 0 0.018103621954272182 0.010606795321306751 0 0.01801855776949789 0.010382891916150803 0 0.017974693576506745 0.010529106275158899 0 0.018103621954272182 0.010606795321306751 0 0.017974693576506745 0.010529106275158899 0 0.018103621954272182 0.010606795321306751 0 0.017932314178833932 0.010739808797615637 0 0.018103621954272182 0.010606795321306751 0 0.018277385039468731 0.010653862577272945 0 0.018111199092073194 0.010857889694165342 0 0.018192808396472224 0.010418133982952483 0 0.018103621954272182 0.010606795321306751 0 0.018277385039468731 0.010653862577272945 0 0.018277385039468731 0.010653862577272945 0 0.018397667978663254 0.0104146954258095 0 0.018519434842653715 0.01093977489452121 0 0.018192808396472224 0.010418133982952483 0 0.018277385039468731 0.010653862577272945 0 0.018397667978663254 0.0104146954258095 0 0.011823121247584972 0.031770996191610182 0 0.01371077732757576 0.033135862546800246 0 0.013492439030714662 0.034042968971218335 0 0.016046569793963274 0.025328650679477403 0 0.012917771130475274 0.033843755029514214 0 0.011823121247584972 0.031770996191610182 0 0.011634629668438251 0.031724533040766653 0 0.013492439030714662 0.034042968971218335 0 0.013215537550800387 0.049800802523357959 0 0.012942174090503154 0.049393125449604482 0 0.012157865166496929 0.049075946635753716 0 0.018064761612661909 0.027803901501801932 0 0.013174794113815051 0.04398231303296702 0 0.018277385039468731 0.010653862577272945 0 0.018111199092073194 0.010857889694165342 0 0.018519434842653715 0.01093977489452121 0 0.018103621954272182 0.010606795321306751 0 0.018111199092073194 0.010857889694165342 0 0.017932314178833932 0.010739808797615637 0 0.018064761612661909 0.027803901501801932 0 0.016815372138564627 0.019305707526972336 0 0.016046569793963274 0.025328650679477403 0 0.018064761612661909 0.027803901501801932 0 0.018761244654473347 0.023495849704810976 0 0.018006294039644606 0.023337638241572083 0 0.017232170672916391 0.022476918113139732 0 0.016046569793963274 0.025328650679477403 0 0.016815372138564627 0.019305707526972336 0 0.012942174090503154 0.049393125449604482 0 0.011722406873117633 0.049475180081862635 0 0.012474929937120321 0.049244094911616937 0 0.012708181439602145 0.049295756779854413 0 0.011993316386960769 0.049112564385555495 0 0.012942174090503154 0.049393125449604482 0 0.013079518015867474 0.049236080569871284 0 0.012474929937120321 0.049244094911616937 0 0.013678344701263192 0.049350527261108584 0 0.013079518015867474 0.049236080569871284 0 0.013677813233693234 0.049011888045203955 0 0.012942174090503154 0.049393125449604482 0 0.013678344701263192 0.049350527261108584 0 0.013079518015867474 0.049236080569871284 0 0.014267497672132376 0.049485729021311375 0 0.013215537550800387 0.049800802523357959 0 0.013678344701263192 0.049350527261108584 0 0.02195495928247081 0.015496980054583187 0 0.024042559320423058 0.016147183144607599 0 0.023910934597762751 0.01596951956548744 0 0.018224187424181217 0.037526519499004866 0 0.018064761612661909 0.027803901501801932 0 0.013215537550800387 0.049800802523357959 0 0.012942174090503154 0.049393125449604482 0 0.013678344701263192 0.049350527261108584 0 0.014267497672132376 0.049485729021311375 0 0.013678344701263192 0.049350527261108584 0 0.014588351769610871 0.048960428095097493 0 0.013678344701263192 0.049350527261108584 0 0.014588351769610871 0.048960428095097493 0 0.013677813233693234 0.049011888045203955 0 0.021451285294629408 0.041547713354204645 0 0.021747684339624807 0.041070453200993867 0 0.021931755446263849 0.041109867729416556 0 0.018224187424181217 0.037526519499004866 0 0.017855948927839885 0.046749303661269941 0 0.0035825655122682537 0.016786159993507702 0 0.0025919879377328909 0.015621061189022446 0 0.0023999953117017142 0.016695696445862378 0 0.0035825655122682537 0.016786159993507702 0 0.0023999953117017142 0.016695696445862378 0 0.0029899800355890844 0.017393620948522856 0 0.0035825655122682537 0.016786159993507702 0 0.0036487225898258605 0.015686616665555039 0 0.0025919879377328909 0.015621061189022446 0 0.0046145548801854678 0.016705698344676324 0 0.0047921568472796888 0.017566656576116006 0 0.0051121170131808351 0.016662503278862352 0 0.0035825655122682537 0.016786159993507702 0 0.0047907561749448088 0.016139368679316729 0 0.0047921568472796888 0.017566656576116006 0 0.0047374903997204187 0.016665722992775668 0 0.0047830175455781136 0.017340100413952026 0 0.0035825655122682537 0.016786159993507702 0 0.0047907561749448088 0.016139368679316729 0 0.0036487225898258605 0.015686616665555039 0 0.0047907561749448088 0.016139368679316729 0 0.0041602330541577982 0.015180769975190411 0 0.0036487225898258605 0.015686616665555039 0 0.0047907561749448088 0.016139368679316729 0 0.0046740803064314867 0.014663707876349781 0 0.0041602330541577982 0.015180769975190411 0 0.0047374903997204187 0.016665722992775668 0 0.0040363761368807684 0.014000619378274669 0 0.0046145548801854678 0.016705698344676324 0 0.0044695578392740824 0.015811260317183325 0 0.0049877026410420303 0.016273191342314829 0 0.0038012278146635553 0.014528283764289421 0 0.0046740803064314867 0.014663707876349781 0 0.0041602330541577982 0.015180769975190411 0 0.0038012278146635553 0.014528283764289421 0 0.0041602330541577982 0.015180769975190411 0 0.0036487225898258605 0.015686616665555039 0 0.0028224878808668398 0.014596594607509308 0 0.0038012278146635553 0.014528283764289421 0 0.0036487225898258605 0.015686616665555039 0 0.0028224878808668398 0.014596594607509308 0 0.0036487225898258605 0.015686616665555039 0 0.0025919879377328909 0.015621061189022446 0 0.0018683806170825825 0.013949187695926304 0 0.0020344343014515719 0.01504175926242503 0 0.001031566595328138 0.01522622761053186 0 0.0028224878808668398 0.014596594607509308 0 0.0020344343014515719 0.01504175926242503 0 0.0025919879377328909 0.015621061189022446 0 0.0020344343014515719 0.01504175926242503 0 0.0018449248441793891 0.015805382664306502 0 0.0025919879377328909 0.015621061189022446 0 0.0020344343014515719 0.01504175926242503 0 0.0018449248441793891 0.015805382664306502 0 0.001031566595328138 0.01522622761053186 0 0.0086910623351319424 0.011558521124994321 0 0.0083189621112834782 0.012115798518474597 0 0.0091236320241310353 0.013456200449135692 0 0.0064724452967955155 0.0082317439502524962 0 0.0077897838682251287 0.0071531836884509608 0 0.0073110743084516946 0.0071504594939246586 0 0.015285003368885053 0.0089398511557938105 0 0.016319260509113233 0.0098896956907460927 0 0.018573400525591831 0.009922640875785961 0 0.01871610580463752 0.0096228985880593681 0 0.018708413424893003 0.010059639056370502 0 0.015437836450448191 0.0092376325520421177 0 0.015830820926675357 0.0098872262445567037 0 0.015497911009189526 0.010385220666461675 0 0.0077897838682251287 0.0071531836884509608 0 0.0073110743084516946 0.0071504594939246586 0 0.0075768724922923277 0.0068073063802534346 0 0.0071401402442001355 0.012635252660843158 0 0.013149686939159471 0.010494414334663889 0 0.013149686939159471 0.010494414334663889 0 0.016319260509113233 0.0098896956907460927 0 0.015285003368885053 0.0089398511557938105 0 0.013149686939159471 0.010494414334663889 0 0.0071401402442001355 0.012635252660843158 0 0.0082705920209699638 0.013957437506154958 0 0.016319260509113233 0.0098896956907460927 0 0.018586295770973656 0.011028935009806664 0 0.018641709959878461 0.010148547241641484 0 0.018718538401906598 0.010062062497282854 0 0.018519434842653715 0.01093977489452121 0 0.0018449248441793891 0.015805382664306502 0 0.001031566595328138 0.01522622761053186 0 0.0013446286594543876 0.016612519812377609 0 0.018443351305943483 0.010594153543204145 0 0.018672201286615304 0.010764120124512874 0 0.018519434842653715 0.01093977489452121 0 0.018486359654523679 0.010511098622082068 0 0.018443351305943483 0.010594153543204145 0 0.018672201286615304 0.010764120124512874 0 0.018573400525591831 0.009922640875785961 0 0.018641709959878461 0.010148547241641484 0 0.018708413424893003 0.010059639056370502 0 0.016493304530496373 0.009792364875338376 0 0.016319260509113233 0.0098896956907460927 0 0.013149686939159471 0.010494414334663889 0 0.0082705920209699638 0.013957437506154958 0 0.0013446286594543876 0.016612519812377609 0 0.0023999953117017142 0.016695696445862378 0 0.0021098086241156128 0.017898873172951156 0 0.0018449248441793891 0.015805382664306502 0 0.0025919879377328909 0.015621061189022446 0 0.0023999953117017142 0.016695696445862378 0 0.0018449248441793891 0.015805382664306502 0 0.0013446286594543876 0.016612519812377609 0 0.0023999953117017142 0.016695696445862378 0 0.0022389850966704123 0.035309021301564644 0 0.0021621947633661217 0.035265257928197249 0 0.0021680327747098473 0.035588594754861286 0 0.0082705920209699638 0.013957437506154958 0 0.0036036815736395652 0.027254910611514395 0 0.0056753476321874368 0.01693091836168845 0 0.010659250115848619 0.025334801199340857 0 0.0073338000497394588 0.024686724707695836 0 0.0023999953117017142 0.016695696445862378 0 0.0021098086241156128 0.017898873172951156 0 0.0029899800355890844 0.017393620948522856 0 0.0036036815736395652 0.027254910611514395 0 0.012333147805536815 0.025346731261382788 0 0.016046569793963274 0.025328650679477403 0 0.012333147805536815 0.025346731261382788 0 0.018111199092073194 0.010857889694165342 0 0.018519434842653715 0.01093977489452121 0 0.018821285128872132 0.011187423598771855 0 0.011540382473722431 0.031597802991993627 0 0.01480589786531958 0.032346592537862331 0 0.01371077732757576 0.033135862546800246 0 0.0082705920209699638 0.013957437506154958 0 0.012333147805536815 0.025346731261382788 0 0.018672201286615304 0.010764120124512874 0 0.018519434842653715 0.01093977489452121 0 0.018821285128872132 0.011187423598771855 0 0.013492439030714662 0.034042968971218335 0 0.015204412482583675 0.034413991160468053 0 0.015575478561067556 0.036539464186658002 0 0.01480589786531958 0.032346592537862331 0 0.01371077732757576 0.033135862546800246 0 0.015204412482583675 0.034413991160468053 0 0.012942174090503154 0.049393125449604482 0 0.012157865166496929 0.049075946635753716 0 0.012004747668325261 0.048408956149917658 0 0.01371077732757576 0.033135862546800246 0 0.013492439030714662 0.034042968971218335 0 0.015204412482583675 0.034413991160468053 0 0.012333147805536815 0.025346731261382788 0 0.008812924751459136 0.03553415231438091 0 0.0021680327747098473 0.035588594754861286 0 0.0022141742919140608 0.035630995504501335 0 0.0021948547872307324 0.035669653745908379 0 0.0022389850966704123 0.035309021301564644 0 0.0021680327747098473 0.035588594754861286 0 0.0022141742919140608 0.035630995504501335 0 0.0036036815736395652 0.027254910611514395 0 0.0025229579182413754 0.036710494391718806 0 0.0018713177424433773 0.035497168847468986 0 0.0019083951635008585 0.035638660219355987 0 0.0019326643029983083 0.035631054260922689 0 0.0019083951635008585 0.035638660219355987 0 0.0019337326500409502 0.035655102769048881 0 0.0019326643029983083 0.035631054260922689 0 0.0021098086241156128 0.017898873172951156 0 0.0038398866003623074 0.018176040142910271 0 0.0029899800355890844 0.017393620948522856 0 0.0036036815736395652 0.027254910611514395 0 0.0024273205316726111 0.026780169568564462 0 0.0035825655122682537 0.016786159993507702 0 0.0038398866003623074 0.018176040142910271 0 0.0029899800355890844 0.017393620948522856 0 0.0038398866003623074 0.018176040142910271 0 0.0047921568472796888 0.017566656576116006 0 0.0051935769233655248 0.018354717240008825 0 0.0035825655122682537 0.016786159993507702 0 0.0038398866003623074 0.018176040142910271 0 0.0047921568472796888 0.017566656576116006 0 0.0019337326500409502 0.035655102769048881 0 0.0019326643029983083 0.035631054260922689 0 0.0018603893778537373 0.035668211979133606 0 0.0024273205316726111 0.026780169568564462 0 0.003954341603365847 0.02724419387081525 0 0.0019326643029983083 0.035631054260922689 0 0.0018603893778537373 0.035668211979133606 0 0.001744760228336363 0.035721442904284598 0 0.0018603893778537373 0.035668211979133606 0 0.001744760228336363 0.035721442904284598 0 0.0016437184827081158 0.035657470018737439 0 0.0051935769233655248 0.018354717240008825 0 0.0062916797005835561 0.018601448504613028 0 0.005636662274079325 0.017771518333184712 0 0.0014810851922082383 0.035694213172578891 0 0.0014554700851013276 0.035621423438644106 0 0.0016437184827081158 0.035657470018737439 0 0.001744760228336363 0.035721442904284598 0 0.0014810851922082383 0.035694213172578891 0 0.0016437184827081158 0.035657470018737439 0 0.003954341603365847 0.02724419387081525 0 0.0020292829910183515 0.02565042180503576 0 0.0020292829910183515 0.02565042180503576 0 0.0012547829708197847 0.03810020824956753 0 0.0020292829910183515 0.02565042180503576 0 0.0020999130301996068 0.017418383527131015 0 0.0062916797005835561 0.018601448504613028 0 0.005636662274079325 0.017771518333184712 0 0.0063797268143454041 0.017300683921596342 0 0.0047921568472796888 0.017566656576116006 0 0.005636662274079325 0.017771518333184712 0 0.0055319530406624882 0.017022598933178323 0 0.0047921568472796888 0.017566656576116006 0 0.0051935769233655248 0.018354717240008825 0 0.005636662274079325 0.017771518333184712 0 0.0047921568472796888 0.017566656576116006 0 0.0051121170131808351 0.016662503278862352 0 0.0055319530406624882 0.017022598933178323 0 0.0051121170131808351 0.016662503278862352 0 0.0055319530406624882 0.017022598933178323 0 0.0055747944375134067 0.016537421286029887 0 0.0055319530406624882 0.017022598933178323 0 0.0060198390130270759 0.016566019628185078 0 0.0063797268143454041 0.017300683921596342 0 0.0060198390130270759 0.016566019628185078 0 0.0064224291088080115 0.016033227382312949 0 0.0063797268143454041 0.017300683921596342 0 0.005636662274079325 0.017771518333184712 0 0.0055319530406624882 0.017022598933178323 0 0.0063797268143454041 0.017300683921596342 0 0.0055319530406624882 0.017022598933178323 0 0.0055747944375134067 0.016537421286029887 0 0.0060198390130270759 0.016566019628185078 0 0.0055747944375134067 0.016537421286029887 0 0.00577760396594272 0.016299190524838806 0 0.0060198390130270759 0.016566019628185078 0 0.0037307143391430418 0.011982673750077761 0 0.00055939398385677571 0.014597761333821818 0 0.0015700240769195026 0.0091772962710623494 0 -0.00022801742981304549 0.0089916013288330252 0 0.00060149240597187246 0.0096785794886469715 0 0.0056097040482471459 0.016020666853807607 0 0.0055915148808895736 0.015942963115189925 0 0.0064224291088080115 0.016033227382312949 0 0.00577760396594272 0.016299190524838806 0 0.0056097040482471459 0.016020666853807607 0 0.0064224291088080115 0.016033227382312949 0 0.0055747944375134067 0.016537421286029887 0 0.00577760396594272 0.016299190524838806 0 0.0054530639973763475 0.016221800079533978 0 0.00577760396594272 0.016299190524838806 0 0.0060198390130270759 0.016566019628185078 0 0.0064224291088080115 0.016033227382312949 0 0.00577760396594272 0.016299190524838806 0 0.0056097040482471459 0.016020666853807607 0 0.0054530639973763475 0.016221800079533978 0 0.003843270455576748 0.012386029908115478 0 0.0037307143391430418 0.011982673750077761 0 0.0051988958487658296 0.016057438037046446 0 0.0049877026410420303 0.016273191342314829 0 0.0054530639973763475 0.016221800079533978 0 0.0040363761368807684 0.014000619378274669 0 0.0037307143391430418 0.011982673750077761 0 0.0055958639252211093 0.015943988004071805 0 0.0054649553325088673 0.016061116999425966 0 0.0051988958487658296 0.016057438037046446 0 0.0044695578392740824 0.015811260317183325 0 0.0055958639252211093 0.015943988004071805 0 0.0051988958487658296 0.016057438037046446 0 0.0056097040482471459 0.016020666853807607 0 0.0055958639252211093 0.015943988004071805 0 0.0054649553325088673 0.016061116999425966 0 0.0056097040482471459 0.016020666853807607 0 0.0054649553325088673 0.016061116999425966 0 0.0054530639973763475 0.016221800079533978 0 0.0054649553325088673 0.016061116999425966 0 0.0051988958487658296 0.016057438037046446 0 0.0054530639973763475 0.016221800079533978 0 0.0044695578392740824 0.015811260317183325 0 0.0051988958487658296 0.016057438037046446 0 0.0049877026410420303 0.016273191342314829 0 0.0051121170131808351 0.016662503278862352 0 0.0049877026410420303 0.016273191342314829 0 0.0054530639973763475 0.016221800079533978 0 0.0046145548801854678 0.016705698344676324 0 0.0051121170131808351 0.016662503278862352 0 0.0049877026410420303 0.016273191342314829 0 0.0051121170131808351 0.016662503278862352 0 0.0055747944375134067 0.016537421286029887 0 0.0054530639973763475 0.016221800079533978 0 -0.002452708906753412 0.019068744549832095 0 -0.0024631875689651406 0.019075010781824824 0 -0.0024633830845707427 0.019079410358458893 0 -0.0023365074528288311 0.0089765597444071803 0 -0.0003194406573790293 0.0091324983625191408 0 -0.0018209941195553696 0.010197590556920752 0 -0.0029129997265679546 0.013890422958387124 0 0.00055939398385677571 0.014597761333821818 0 -0.002452708906753412 0.019068744549832095 0 -0.0024736324518576432 0.019009149327464104 0 -0.0024631875689651406 0.019075010781824824 0 0.00055939398385677571 0.014597761333821818 0 0.0020999130301996068 0.017418383527131015 0 -0.0024736324518576432 0.019009149327464104 0 -0.0024631875689651406 0.019075010781824824 0 -0.0025021800550764231 0.019113768836203904 0 -0.0024631875689651406 0.019075010781824824 0 -0.0025021800550764231 0.019113768836203904 0 -0.0024614791774739521 0.019119686013240364 0 -0.0024631875689651406 0.019075010781824824 0 -0.0024633830845707427 0.019079410358458893 0 -0.0024614791774739521 0.019119686013240364 0 -0.0024633830845707427 0.019079410358458893 0 -0.0024614791774739521 0.019119686013240364 0 -0.0024786539097128787 0.019076479605441007 0 -0.0024614791774739521 0.019119686013240364 0 -0.0024459599461050339 0.019191304983761009 0 -0.0024786539097128787 0.019076479605441007 0 -0.0024614791774739521 0.019119686013240364 0 -0.0024459599461050339 0.019191304983761009 0 -0.0024742497345127045 0.019198808583124848 0 -0.0025021800550764231 0.019113768836203904 0 -0.0024614791774739521 0.019119686013240364 0 -0.0024742497345127045 0.019198808583124848 0 -0.0025091544335107776 0.019285600544699352 0 -0.0025021800550764231 0.019113768836203904 0 -0.0024742497345127045 0.019198808583124848 0 0.0020292829910183515 0.02565042180503576 0 -0.00090791649512192429 0.027423794503510564 0 0.0014253914961747099 0.03562088689371351 0 0.0013093184259663317 0.035604161300217693 0 0.0013380216313074618 0.03560211576698552 0 -0.0025091544335107776 0.019285600544699352 0 -0.0024742497345127045 0.019198808583124848 0 -0.0024618895003401214 0.019288947380787892 0 -0.00090791649512192429 0.027423794503510564 0 -0.001012305932298473 0.02809503165102667 0 -0.0024459599461050339 0.019191304983761009 0 -0.0024618895003401214 0.019288947380787892 0 -0.0023848345675405295 0.019331667529420102 0 -0.0024459599461050339 0.019191304983761009 0 -0.0024742497345127045 0.019198808583124848 0 -0.0024618895003401214 0.019288947380787892 0 -0.0024459599461050339 0.019191304983761009 0 -0.0023848345675405295 0.019331667529420102 0 -0.0024078466418317227 0.019142885804967428 0 -0.0024333271162092539 0.017872651534546015 0 -0.0028501638781429765 0.018044358967289089 0 -0.0025442004241130515 0.018380324180672918 0 -0.001012305932298473 0.02809503165102667 0 -0.0022110733519539591 0.01701623593568409 0 -0.0028501638781429765 0.018044358967289089 0 -0.0032301175349318777 0.018317073818012061 0 -0.0031876696829206499 0.017680294725436679 0 -0.0024333271162092539 0.017872651534546015 0 -0.0028501638781429765 0.018044358967289089 0 -0.0031876696829206499 0.017680294725436679 0 -0.0028501638781429765 0.018044358967289089 0 -0.0032301175349318777 0.018317073818012061 0 -0.0028108191096099964 0.01854427154848283 0 -0.0032301175349318777 0.018317073818012061 0 -0.0028108191096099964 0.01854427154848283 0 -0.0027882853939805788 0.018950705119025163 0 -0.0032301175349318777 0.018317073818012061 0 -0.0035175888685986495 0.01831514005790609 0 -0.0034145313488746624 0.018321380810490694 0 -0.0028501638781429765 0.018044358967289089 0 -0.0028108191096099964 0.01854427154848283 0 -0.0025442004241130515 0.018380324180672918 0 -0.0033252636004099498 0.018168856642752768 0 -0.0029455792973848722 0.019082118213533762 0 -0.0022110733519539591 0.01701623593568409 0 -0.002739135955662548 0.019671959889374653 0 -0.0028108191096099964 0.01854427154848283 0 -0.0025442004241130515 0.018380324180672918 0 -0.0025988779253264152 0.019023174585315911 0 -0.0024078466418317227 0.019142885804967428 0 -0.0024786539097128787 0.019076479605441007 0 -0.0025988779253264152 0.019023174585315911 0 -0.0024459599461050339 0.019191304983761009 0 -0.0024078466418317227 0.019142885804967428 0 -0.0024786539097128787 0.019076479605441007 0 -0.003668800888395044 0.01820631203697649 0 -0.0031876696829206499 0.017680294725436679 0 -0.0039329576981445482 0.017362568873132981 0 -0.003668800888395044 0.01820631203697649 0 -0.0039329576981445482 0.017362568873132981 0 -0.0043448112816642844 0.018118947839366514 0 -0.0032301175349318777 0.018317073818012061 0 -0.003668800888395044 0.01820631203697649 0 -0.0031876696829206499 0.017680294725436679 0 -0.0032301175349318777 0.018317073818012061 0 -0.003668800888395044 0.01820631203697649 0 -0.0034543475101741395 0.018369737204484277 0 -0.0032301175349318777 0.018317073818012061 0 -0.0034543475101741395 0.018369737204484277 0 -0.0034145313488746624 0.018321380810490694 0 -0.003668800888395044 0.01820631203697649 0 -0.0037505365215315212 0.018472544551251149 0 -0.0041255140560155093 0.018635490159927711 0 -0.003668800888395044 0.01820631203697649 0 -0.0037505365215315212 0.018472544551251149 0 -0.0034543475101741395 0.018369737204484277 0 -0.0037505365215315212 0.018472544551251149 0 -0.0035622889532006988 0.018324051311977566 0 -0.004107194805368166 0.018680853692196752 0 -0.0037505365215315212 0.018472544551251149 0 -0.0034543475101741395 0.018369737204484277 0 -0.0035622889532006988 0.018324051311977566 0 -0.0034543475101741395 0.018369737204484277 0 -0.0034167519546197088 0.018130520684776469 0 -0.0034468300996067965 0.0182128808776191 0 -0.0034543475101741395 0.018369737204484277 0 -0.0034167519546197088 0.018130520684776469 0 -0.0035622889532006988 0.018324051311977566 0 -0.0034543475101741395 0.018369737204484277 0 -0.0034145313488746624 0.018321380810490694 0 -0.0034468300996067965 0.0182128808776191 0 -0.0034167519546197088 0.018130520684776469 0 -0.0035622889532006988 0.018324051311977566 0 -0.0032891307776051907 0.017834534508343828 0 -0.0034167519546197088 0.018130520684776469 0 -0.0034535108351081917 0.017766573487393345 0 -0.0032891307776051907 0.017834534508343828 0 -0.0035622889532006988 0.018324051311977566 0 -0.003969666254242111 0.018792217436758608 0 -0.004107194805368166 0.018680853692196752 0 -0.0024633830845707427 0.019079410358458893 0 -0.0025988779253264152 0.019023174585315911 0 -0.0025353762152089416 0.019156400356323319 0 -0.0024633830845707427 0.019079410358458893 0 -0.0024786539097128787 0.019076479605441007 0 -0.0025988779253264152 0.019023174585315911 0 -0.0025988779253264152 0.019023174585315911 0 -0.0027882853939805788 0.018950705119025163 0 -0.0025353762152089416 0.019156400356323319 0 -0.0035175888685986495 0.01831514005790609 0 -0.0035517085171153651 0.018149807708725055 0 -0.0037123660136675093 0.017904632437899814 0 -0.0028108191096099964 0.01854427154848283 0 -0.0025988779253264152 0.019023174585315911 0 -0.0027882853939805788 0.018950705119025163 0 -0.0029455792973848722 0.019082118213533762 0 -0.0027113027701567904 0.015084289511724748 0 -0.0035175888685986495 0.01831514005790609 0 -0.0034145313488746624 0.018321380810490694 0 -0.0034468300996067965 0.0182128808776191 0 -0.0034468300996067965 0.0182128808776191 0 -0.0035517085171153651 0.018149807708725055 0 -0.0035093013948028955 0.018017155678776979 0 -0.0035175888685986495 0.01831514005790609 0 -0.0034468300996067965 0.0182128808776191 0 -0.0035517085171153651 0.018149807708725055 0 -0.0035517085171153651 0.018149807708725055 0 -0.0036093282055333956 0.018019662423031123 0 -0.0037123660136675093 0.017904632437899814 0 -0.0036093282055333956 0.018019662423031123 0 -0.0035093013948028955 0.018017155678776979 0 -0.0037123660136675093 0.017904632437899814 0 -0.0035517085171153651 0.018149807708725055 0 -0.0036093282055333956 0.018019662423031123 0 -0.0035093013948028955 0.018017155678776979 0 -0.0034167519546197088 0.018130520684776469 0 -0.0034468300996067965 0.0182128808776191 0 -0.0035093013948028955 0.018017155678776979 0 -0.0034167519546197088 0.018130520684776469 0 -0.0035093013948028955 0.018017155678776979 0 -0.0034535108351081917 0.017766573487393345 0 -0.0034535108351081917 0.017766573487393345 0 -0.0037123660136675093 0.017904632437899814 0 -0.0035471427371553538 0.017406628378331779 0 -0.0035093013948028955 0.018017155678776979 0 -0.0034535108351081917 0.017766573487393345 0 -0.0037123660136675093 0.017904632437899814 0 -0.0029129997265679546 0.013890422958387124 0 -0.0027113027701567904 0.015084289511724748 0 -0.002452708906753412 0.019068744549832095 0 -0.0024633830845707427 0.019079410358458893 0 -0.0025353762152089416 0.019156400356323319 0 -0.0023365074528288311 0.0089765597444071803 0 -0.0042033083892484072 0.0088469604008564844 0 -0.0033367543815845803 0.010701275052445523 0 -0.0037123660136675093 0.017904632437899814 0 -0.003674337149718908 0.017031562122973444 0 -0.0035471427371553538 0.017406628378331779 0 -0.0027113027701567904 0.015084289511724748 0 -0.0037067524067608448 0.013512174405343512 0 -0.003674337149718908 0.017031562122973444 0 -0.0035471427371553538 0.017406628378331779 0 -0.0033369717176147543 0.016642258678883512 0 -0.0035471427371553538 0.017406628378331779 0 -0.0033527710311467866 0.017315700376434796 0 -0.0033369717176147543 0.016642258678883512 0 -0.0034535108351081917 0.017766573487393345 0 -0.0035471427371553538 0.017406628378331779 0 -0.0033527710311467866 0.017315700376434796 0 -0.0033527710311467866 0.017315700376434796 0 -0.0033369717176147543 0.016642258678883512 0 -0.0031307005708080351 0.016861427701447468 0 -0.003674337149718908 0.017031562122973444 0 -0.0033369717176147543 0.016642258678883512 0 -0.0032140248470489867 0.016183802842408269 0 -0.0032891307776051907 0.017834534508343828 0 -0.0029717194645625597 0.016889883417870243 0 -0.0029091060567024677 0.017054749328892432 0 -0.0035622889532006988 0.018324051311977566 0 -0.0032891307776051907 0.017834534508343828 0 -0.003969666254242111 0.018792217436758608 0 -0.0033248221891052777 0.017850622496627985 0 -0.0035885079368418991 0.01796801351127679 0 -0.0034535108351081917 0.017766573487393345 0 -0.0033527710311467866 0.017315700376434796 0 -0.0032891307776051907 0.017834534508343828 0 -0.0033527710311467866 0.017315700376434796 0 -0.0032891307776051907 0.017834534508343828 0 -0.0031307005708080351 0.016861427701447468 0 -0.0032891307776051907 0.017834534508343828 0 -0.0031307005708080351 0.016861427701447468 0 -0.0029717194645625597 0.016889883417870243 0 -0.0029717194645625597 0.016889883417870243 0 -0.0030470743095925689 0.016647619376511373 0 -0.0030391659717520611 0.016832368036974809 0 -0.0031307005708080351 0.016861427701447468 0 -0.0029717194645625597 0.016889883417870243 0 -0.0030470743095925689 0.016647619376511373 0 -0.0031307005708080351 0.016861427701447468 0 -0.0030470743095925689 0.016647619376511373 0 -0.0030086117145255321 0.016552992400456504 0 -0.003099893779839658 0.016799252138128405 0 -0.0030853873553000292 0.016433021956921326 0 -0.0029855016353765723 0.016460360485654142 0 -0.0030470743095925689 0.016647619376511373 0 -0.0030086117145255321 0.016552992400456504 0 -0.0029855016353765723 0.016460360485654142 0 -0.0030470743095925689 0.016647619376511373 0 -0.0031174130142163675 0.016500622522093878 0 -0.0033369717176147543 0.016642258678883512 0 -0.0030005261332562445 0.016014492950635416 0 -0.0032140248470489867 0.016183802842408269 0 -0.0033369717176147543 0.016642258678883512 0 -0.0031529986930365155 0.016260212205632965 0 -0.0030005261332562445 0.016014492950635416 0 -0.0033369717176147543 0.016642258678883512 0 -0.0031307005708080351 0.016861427701447468 0 -0.0031529986930365155 0.016260212205632965 0 -0.0027305478682639406 0.016507447915578566 0 -0.0028128594028374136 0.016516703444144035 0 -0.0030086117145255321 0.016552992400456504 0 -0.0028569157548589898 0.016424755593415379 0 -0.0030853873553000292 0.016433021956921326 0 -0.0029896336080087612 0.016309246065195494 0 -0.0025082554952184288 0.016293876687893623 0 -0.0030005261332562445 0.016014492950635416 0 -0.0029896336080087612 0.016309246065195494 0 -0.0031529986930365155 0.016260212205632965 0 -0.0030005261332562445 0.016014492950635416 0 -0.0025082554952184288 0.016293876687893623 0 -0.0030005261332562445 0.016014492950635416 0 -0.0019983987336359308 0.015459031789521859 0 -0.0027929698232029383 0.014642790991734635 0 -0.0020810587562704662 0.01548163610151774 0 -0.0030005261332562445 0.016014492950635416 0 -0.0032140248470489867 0.016183802842408269 0 -0.0019983987336359308 0.015459031789521859 0 -0.0025966927872861515 0.012731511166984059 0 -0.00043467677615153079 0.014006140053720802 0 -0.00057002008321041693 0.012458719106770809 0 -0.0025966927872861515 0.012731511166984059 0 -0.00043467677615153079 0.014006140053720802 0 -0.0019983987336359308 0.015459031789521859 0 -0.0014117274411412438 0.016771289689455512 0 -0.00043467677615153079 0.014006140053720802 0 -0.0019983987336359308 0.015459031789521859 0 0.00065993318117683636 0.01493402218977778 0 0.0017409426589597983 0.01385240680029262 0 0.0024636280734701321 0.0133911892239089 0 0.0024830359483364551 0.01348104194605575 0 0.0017663180274507544 0.013828867092965151 0 0.0024636280734701321 0.0133911892239089 0 0.0027202655835213197 0.013280345586036323 0 0.0017663180274507544 0.013828867092965151 0 -0.0014117274411412438 0.016771289689455512 0 -0.00043467677615153079 0.014006140053720802 0 0.0017663180274507544 0.013828867092965151 0 0.0024830359483364551 0.01348104194605575 0 0.002442676482757835 0.013722880103092142 0 0.0017663180274507544 0.013828867092965151 0 0.0029904877454270482 0.01313585501672348 0 0.0024830359483364551 0.01348104194605575 0 0.002442676482757835 0.013722880103092142 0 0.0029507097029435533 0.013146045899416637 0 0.0028184042613925105 0.012906906521681168 0 0.0028184042613925105 0.012906906521681168 0 0.0024017638941193011 0.011159316279531647 0 0.002442676482757835 0.013722880103092142 0 0.0013225344905952044 0.012727903522929305 0 0.0021430637052084985 0.011758229919106682 0 0.00331328950971292 0.011643512703560406 0 0.0030563883924697652 0.011895293688725736 0 0.0031076944439764622 0.011419017671342978 0 0.002442676482757835 0.013722880103092142 0 0.0017663180274507544 0.013828867092965151 0 0.0013225344905952044 0.012727903522929305 0 -0.00043467677615153079 0.014006140053720802 0 0.0017663180274507544 0.013828867092965151 0 0.0013225344905952044 0.012727903522929305 0 -0.00043467677615153079 0.014006140053720802 0 0.0013225344905952044 0.012727903522929305 0 -0.00057002008321041693 0.012458719106770809 0 0.00035419915973894535 0.011526178813866365 0 0.0021430637052084985 0.011758229919106682 0 0.0008600455888056758 0.010505949687988904 0 0.0013225344905952044 0.012727903522929305 0 0.00035419915973894535 0.011526178813866365 0 -0.00057002008321041693 0.012458719106770809 0 0.0013225344905952044 0.012727903522929305 0 0.00035419915973894535 0.011526178813866365 0 0.0021430637052084985 0.011758229919106682 0 0.0034373606149087055 0.011417517034555326 0 0.0031076944439764622 0.011419017671342978 0 0.0032437142318142162 0.011269860030010228 0 0.0037307143391430418 0.011982673750077761 0 0.0024017638941193011 0.011159316279531647 0 0.0033656182766669453 0.011148935555136335 0 0.0030807804614493852 0.011115093442993076 0 0.0032437142318142162 0.011269860030010228 0 0.0030807804614493852 0.011115093442993076 0 0.0031076944439764622 0.011419017671342978 0 0.0032437142318142162 0.011269860030010228 0 0.0015700240769195026 0.0091772962710623494 0 0.0021430637052084985 0.011758229919106682 0 0.0008600455888056758 0.010505949687988904 0 0.00035419915973894535 0.011526178813866365 0 0.0008600455888056758 0.010505949687988904 0 -0.00037210641374593761 0.010448044883688206 0 0.0015700240769195026 0.0091772962710623494 0 0.0008600455888056758 0.010505949687988904 0 0.00060149240597187246 0.0096785794886469715 0 0.0008600455888056758 0.010505949687988904 0 0.00060149240597187246 0.0096785794886469715 0 -0.00037210641374593761 0.010448044883688206 0 0.00055939398385677571 0.014597761333821818 0 -9.9283360315603761e-05 0.0087712249066150636 0 -0.00022801742981304549 0.0089916013288330252 0 0.00060149240597187246 0.0096785794886469715 0 -0.00037210641374593761 0.010448044883688206 0 -0.00037210641374593761 0.010448044883688206 0 -0.0018209941195553696 0.010197590556920752 0 -0.0014985427074093705 0.011462971562378277 0 -0.0003194406573790293 0.0091324983625191408 0 -0.00037210641374593761 0.010448044883688206 0 -0.0018209941195553696 0.010197590556920752 0 -0.0033367543815845803 0.010701275052445523 0 -0.0018209941195553696 0.010197590556920752 0 -0.0014985427074093705 0.011462971562378277 0 -0.0023365074528288311 0.0089765597444071803 0 -0.0033367543815845803 0.010701275052445523 0 -0.0018209941195553696 0.010197590556920752 0 -0.0033367543815845803 0.010701275052445523 0 -0.0025966927872861515 0.012731511166984059 0 -0.0014985427074093705 0.011462971562378277 0 -0.0037067524067608448 0.013512174405343512 0 -0.0027929698232029383 0.014642790991734635 0 0.00035419915973894535 0.011526178813866365 0 -0.00057002008321041693 0.012458719106770809 0 -0.0014985427074093705 0.011462971562378277 0 0.00035419915973894535 0.011526178813866365 0 -0.00037210641374593761 0.010448044883688206 0 -0.0014985427074093705 0.011462971562378277 0 -0.0025966927872861515 0.012731511166984059 0 -0.00057002008321041693 0.012458719106770809 0 -0.0014985427074093705 0.011462971562378277 0 0.046742529167095655 0.010116071669285973 0 0.04773877362073866 0.0080032712624913595 0 0.046180520075543463 0.0080432848287727843 0 0.044999987586538399 0.0091444356724463306 0 0.046742529167095655 0.010116071669285973 0 0.046180520075543463 0.0080432848287727843 0 0.044999987586538399 0.0091444356724463306 0 0.046742529167095655 0.010116071669285973 0 0.044999585351998092 0.011542202463575259 0 0.046742529167095655 0.010116071669285973 0 0.046336040268549178 0.011897834555244676 0 0.044999585351998092 0.011542202463575259 0 0.046742529167095655 0.010116071669285973 0 0.048998763541947314 0.0098064939542802376 0 0.047889525195928428 0.012299689286475839 0 0.048998763541947314 0.0098064939542802376 0 0.050242638421046218 0.011563454577388535 0 0.047889525195928428 0.012299689286475839 0 0.050521629746137671 0.0095273629930028979 0 0.036645431959434767 0.014617729685260908 0 0.048291038251436692 0.0090474308340312178 0 0.049862166095308844 0.0083932048566359319 0 0.049464354428606999 0.010828193035897493 0 0.048291038251436692 0.0090474308340312178 0 0.048770922994011777 0.0069051985864992099 0 0.049862166095308844 0.0083932048566359319 0 0.050521629746137671 0.0095273629930028979 0 0.047158239235965238 0.0075571233391723775 0 0.046742529167095655 0.010116071669285973 0 0.048998763541947314 0.0098064939542802376 0 0.04773877362073866 0.0080032712624913595 0 0.047172488651144061 0.0073361860671116563 0 0.048770922994011777 0.0069051985864992099 0 0.047809836024683895 0.0059165217622334136 0 0.048291038251436692 0.0090474308340312178 0 0.047172488651144061 0.0073361860671116563 0 0.048770922994011777 0.0069051985864992099 0 0.048770922994011777 0.0069051985864992099 0 0.047809836024683895 0.0059165217622334136 0 0.049307986224325882 0.0052113096193963119 0 0.048770922994011777 0.0069051985864992099 0 0.049307986224325882 0.0052113096193963119 0 0.050169691784686721 0.0060426046971236392 0 0.047809836024683895 0.0059165217622334136 0 0.046078188469199935 0.0057445809489426562 0 0.047764494433775055 0.0043873818461554913 0 0.047158239235965238 0.0075571233391723775 0 0.046290460983828906 0.00599474665059028 0 0.047172488651144061 0.0073361860671116563 0 0.047809836024683895 0.0059165217622334136 0 0.046078188469199935 0.0057445809489426562 0 0.04773877362073866 0.0080032712624913595 0 0.046413811229034464 0.0061632833547405272 0 0.046180520075543463 0.0080432848287727843 0 0.044999987586538399 0.0091444356724463306 0 0.046180520075543463 0.0080432848287727843 0 0.044999898388910352 0.0067464957798540563 0 0.046413811229034464 0.0061632833547405272 0 0.046180520075543463 0.0080432848287727843 0 0.044999898388910352 0.0067464957798540563 0 0.046413811229034464 0.0061632833547405272 0 0.044999898388910352 0.0067464957798540563 0 0.045000030080136214 0.0043485183304351454 0 0.046290460983828906 0.00599474665059028 0 0.045000170591581956 0.0043487471864648505 0 0.046078188469199935 0.0057445809489426562 0 0.044999712700469242 0.0043477543285273769 0 0.046435922890612283 0.0034551084722341911 0 0.046078188469199935 0.0057445809489426562 0 0.046435922890612283 0.0034551084722341911 0 0.047764494433775055 0.0043873818461554913 0 0.044999712700469242 0.0043477543285273769 0 0.046435922890612283 0.0034551084722341911 0 0.044999829721641758 0.0019892637264504014 0 0.046435922890612283 0.0034551084722341911 0 0.044999829721641758 0.0019892637264504014 0 0.046433117531808177 0.0016546244308240422 0 0.046433117531808177 0.0016546244308240422 0 0.047188987329667045 9.7702352000619673e-05 0 0.047691601142069551 0.0025586961141429057 0 0.046435922890612283 0.0034551084722341911 0 0.046433117531808177 0.0016546244308240422 0 0.047691601142069551 0.0025586961141429057 0 0.044999829023776208 -0.00037025965668428606 0 0.046433117531808177 0.0016546244308240422 0 0.047188987329667045 9.7702352000619673e-05 0 0.044999829023776208 -0.00037025965668428606 0 0.044999829721641758 0.0019892637264504014 0 0.046433117531808177 0.0016546244308240422 0 0.049478821625624399 -0.00040548772342361127 0 0.047188987329667045 9.7702352000619673e-05 0 0.049402295366372841 0.0018225838551144174 0 0.047188987329667045 9.7702352000619673e-05 0 0.047691601142069551 0.0025586961141429057 0 0.049402295366372841 0.0018225838551144174 0 0.047691601142069551 0.0025586961141429057 0 0.049402295366372841 0.0018225838551144174 0 0.048993014179237883 0.0035665932670952672 0 0.049402295366372841 0.0018225838551144174 0 0.048993014179237883 0.0035665932670952672 0 0.050587748460492292 0.003680329635128305 0 0.046435922890612283 0.0034551084722341911 0 0.047691601142069551 0.0025586961141429057 0 0.047764494433775055 0.0043873818461554913 0 0.047691601142069551 0.0025586961141429057 0 0.048993014179237883 0.0035665932670952672 0 0.047764494433775055 0.0043873818461554913 0 0.047809836024683895 0.0059165217622334136 0 0.047764494433775055 0.0043873818461554913 0 0.049307986224325882 0.0052113096193963119 0 0.048993014179237883 0.0035665932670952672 0 0.047764494433775055 0.0043873818461554913 0 0.049307986224325882 0.0052113096193963119 0 0.034073810820026716 0.0039994534790764981 0 0.033772453951462292 0.0068943043185188237 0 0.048993014179237883 0.0035665932670952672 0 0.049307986224325882 0.0052113096193963119 0 0.050587748460492292 0.003680329635128305 0 0.049307986224325882 0.0052113096193963119 0 0.050587748460492292 0.003680329635128305 0 0.050143297126213786 0.0060061162364243425 0 0.01779792996795683 0.0051710259242690789 0 0.017514676893371224 0.0049083818896621624 0 0.017603485051939944 0.0054038610676825638 0 0.01779792996795683 0.0051710259242690789 0 0.017514676893371224 0.0049083818896621624 0 0.017730493357752893 0.0046296442773459132 0 0.049402295366372841 0.0018225838551144174 0 0.050587748460492292 0.003680329635128305 0 0.051005677927340592 0.0012381808135070341 0 0.034073810820026716 0.0039994534790764981 0 0.034155996969919777 0.0027392934784489817 0 0.017730493357752893 0.0046296442773459132 0 0.017319256105813283 0.0041602531721151069 0 0.017971105909872175 0.0039557175693537144 0 0.017514676893371224 0.0049083818896621624 0 0.017730493357752893 0.0046296442773459132 0 0.017319256105813283 0.0041602531721151069 0 0.017137177952426922 0.0028821776677685081 0 0.017319256105813283 0.0041602531721151069 0 0.017971105909872175 0.0039557175693537144 0 0.049478821625624399 -0.00040548772342361127 0 0.049402295366372841 0.0018225838551144174 0 0.051005677927340592 0.0012381808135070341 0 0.017730493357752893 0.0046296442773459132 0 0.017971105909872175 0.0039557175693537144 0 0.018150241095729873 0.0047707577566600294 0 0.017971105909872175 0.0039557175693537144 0 0.018150241095729873 0.0047707577566600294 0 0.018607888039893536 0.004198610508645036 0 0.018150241095729873 0.0047707577566600294 0 0.018063442431067191 0.0054288821330234719 0 0.018402732184156792 0.0049293521193126688 0 0.01779792996795683 0.0051710259242690789 0 0.018150241095729873 0.0047707577566600294 0 0.018063442431067191 0.0054288821330234719 0 0.01779792996795683 0.0051710259242690789 0 0.017730493357752893 0.0046296442773459132 0 0.018150241095729873 0.0047707577566600294 0 0.018063442431067191 0.0054288821330234719 0 0.017795780747253076 0.0056102802673912268 0 0.017907255353230532 0.0057529255830975675 0 0.018063442431067191 0.0054288821330234719 0 0.017907255353230532 0.0057529255830975675 0 0.017995515361279555 0.0055893516096749904 0 0.01779792996795683 0.0051710259242690789 0 0.018063442431067191 0.0054288821330234719 0 0.017795780747253076 0.0056102802673912268 0 0.01779792996795683 0.0051710259242690789 0 0.017603485051939944 0.0054038610676825638 0 0.017795780747253076 0.0056102802673912268 0 0.051718081218687123 0.0082361548096799384 0 0.033772453951462292 0.0068943043185188237 0 0.033772453951462292 0.0068943043185188237 0 0.035865659457682768 0.012185495042453399 0 0.022020067843133123 0.01250606465630295 0 0.023606308278162031 0.014006876417687756 0 0.021636720942468109 0.015107882666156841 0 0.048770922994011777 0.0069051985864992099 0 0.050169691784686721 0.0060426046971236392 0 0.049862166095308844 0.0083932048566359319 0 0.033772453951462292 0.0068943043185188237 0 0.018446526150350983 0.0093344379070604659 0 0.023606308278162031 0.014006876417687756 0 0.023574554462163048 0.015947662497382286 0 0.021636720942468109 0.015107882666156841 0 0.021636720942468109 0.015107882666156841 0 0.022670783807976699 0.017401402698280281 0 0.021278251320566464 0.017777916356993627 0 0.035865659457682768 0.012185495042453399 0 0.036645431959434767 0.014617729685260908 0 0.023574554462163048 0.015947662497382286 0 0.021636720942468109 0.015107882666156841 0 0.022670783807976699 0.017401402698280281 0 0.023574554462163048 0.015947662497382286 0 0.022670783807976699 0.017401402698280281 0 0.024017280449587425 0.017609357428016833 0 0.023574554462163048 0.015947662497382286 0 0.024017280449587425 0.017609357428016833 0 0.025241683375267589 0.017110002820776789 0 0.023574554462163048 0.015947662497382286 0 0.025241683375267589 0.017110002820776789 0 0.025242209118122378 0.01555737484184664 0 0.025241683375267589 0.017110002820776789 0 0.026839479723796709 0.017123778819472545 0 0.026296559289634206 0.018742006035328631 0 0.025241683375267589 0.017110002820776789 0 0.025242209118122378 0.01555737484184664 0 0.026839479723796709 0.017123778819472545 0 0.021962514250791577 0.010839890053069698 0 0.022313456634629279 0.011557460714793187 0 0.017907255353230532 0.0057529255830975675 0 0.017864345257143123 0.0059310787766575423 0 0.017995515361279555 0.0055893516096749904 0 0.018446526150350983 0.0093344379070604659 0 0.021962514250791577 0.010839890053069698 0 0.023606308278162031 0.014006876417687756 0 0.023574554462163048 0.015947662497382286 0 0.025242209118122378 0.01555737484184664 0 0.018046829094307111 0.0056424142459589651 0 0.017771159930054826 0.0056350745689688602 0 0.017763692782467779 0.0056548823405509182 0 0.018046829094307111 0.0056424142459589651 0 0.017864345257143123 0.0059310787766575423 0 0.017995515361279555 0.0055893516096749904 0 0.018046829094307111 0.0056424142459589651 0 0.017864345257143123 0.0059310787766575423 0 0.018254698089669404 0.006113273233126746 0 0.017864345257143123 0.0059310787766575423 0 0.018254698089669404 0.006113273233126746 0 0.018247221801612083 0.0067811338006923336 0 0.018046829094307111 0.0056424142459589651 0 0.018254698089669404 0.006113273233126746 0 0.018965981848328241 0.006221382731336017 0 0.018201535881198425 0.0057991677411697055 0 0.018145241321263248 0.0054049221724767329 0 0.018046829094307111 0.0056424142459589651 0 0.017734078678361298 0.0053478926642778818 0 0.017622382186211757 0.005532762539370328 0 0.017734078678361298 0.0053478926642778818 0 0.017622382186211757 0.005532762539370328 0 0.017474686185232048 0.0054064524492077768 0 0.017474686185232048 0.0054064524492077768 0 0.017363577211292665 0.0055852878562445436 0 0.017122636451241138 0.0054601306540779555 0 0.017622382186211757 0.005532762539370328 0 0.017474686185232048 0.0054064524492077768 0 0.017363577211292665 0.0055852878562445436 0 0.017363577211292665 0.0055852878562445436 0 0.017526055193998989 0.0056541252912911903 0 0.017277002862485513 0.0057165284913625819 0 0.017622382186211757 0.005532762539370328 0 0.017363577211292665 0.0055852878562445436 0 0.017526055193998989 0.0056541252912911903 0 0.017526055193998989 0.0056541252912911903 0 0.017771159930054826 0.0056350745689688602 0 0.017763692782467779 0.0056548823405509182 0 0.018046829094307111 0.0056424142459589651 0 0.017622382186211757 0.005532762539370328 0 0.017771159930054826 0.0056350745689688602 0 0.017622382186211757 0.005532762539370328 0 0.017526055193998989 0.0056541252912911903 0 0.017771159930054826 0.0056350745689688602 0 0.017526055193998989 0.0056541252912911903 0 0.017763692782467779 0.0056548823405509182 0 0.01745848836311226 0.0056712795375065432 0 0.017526055193998989 0.0056541252912911903 0 0.01745848836311226 0.0056712795375065432 0 0.017277002862485513 0.0057165284913625819 0 0.01745848836311226 0.0056712795375065432 0 0.017561024215834393 0.0056791834565042588 0 0.01757747445928062 0.0053045778402563189 0 0.017763692782467779 0.0056548823405509182 0 0.01745848836311226 0.0056712795375065432 0 0.017561024215834393 0.0056791834565042588 0 0.017763692782467779 0.0056548823405509182 0 0.017561024215834393 0.0056791834565042588 0 0.017894953377125929 0.0056841686497422442 0 0.017922837447582867 0.0053235259439749086 0 0.018126507210187163 0.0054037464577755294 0 0.018046829094307111 0.0056424142459589651 0 0.017763692782467779 0.0056548823405509182 0 0.017995515361279555 0.0055893516096749904 0 0.017763692782467779 0.0056548823405509182 0 0.017894953377125929 0.0056841686497422442 0 0.017995515361279555 0.0055893516096749904 0 0.018063442431067191 0.0054288821330234719 0 0.017894953377125929 0.0056841686497422442 0 0.017995515361279555 0.0055893516096749904 0 0.018049268956332361 0.0054337382280200217 0 0.018126507210187163 0.0054037464577755294 0 0.018063442431067191 0.0054288821330234719 0 0.018416204789010408 0.0051398636302623169 0 0.018402732184156792 0.0049293521193126688 0 0.018269562594010014 0.0049582901069767371 0 0.018416204789010408 0.0051398636302623169 0 0.01840861933718595 0.0049846741130399426 0 0.018416204789010408 0.0051398636302623169 0 0.01840861933718595 0.0049846741130399426 0 0.018402732184156792 0.0049293521193126688 0 0.018402732184156792 0.0049293521193126688 0 0.018482132403403313 0.0046187789729955457 0 0.018476967054462969 0.0048006160484416992 0 0.01840861933718595 0.0049846741130399426 0 0.018402732184156792 0.0049293521193126688 0 0.018476967054462969 0.0048006160484416992 0 0.018150241095729873 0.0047707577566600294 0 0.018402732184156792 0.0049293521193126688 0 0.018482132403403313 0.0046187789729955457 0 0.018150241095729873 0.0047707577566600294 0 0.018482132403403313 0.0046187789729955457 0 0.018607888039893536 0.004198610508645036 0 0.018476967054462969 0.0048006160484416992 0 0.018535855734392849 0.0044338713166046468 0 0.018550737025822484 0.0046272314525373816 0 0.018482132403403313 0.0046187789729955457 0 0.018476967054462969 0.0048006160484416992 0 0.018535855734392849 0.0044338713166046468 0 0.018535855734392849 0.0044338713166046468 0 0.018628019330565244 0.0042997143566123391 0 0.018550737025822484 0.0046272314525373816 0 0.018517294012328087 0.0040522729153910529 0 0.018535855734392849 0.0044338713166046468 0 0.018628019330565244 0.0042997143566123391 0 0.018482132403403313 0.0046187789729955457 0 0.018535855734392849 0.0044338713166046468 0 0.018607888039893536 0.004198610508645036 0 0.018517294012328087 0.0040522729153910529 0 0.018535855734392849 0.0044338713166046468 0 0.018607888039893536 0.004198610508645036 0 0.01888167511796426 0.0028533723401748634 0 0.019423184794230584 0.0029614830041025963 0 0.01864522962493587 0.0020044028681217166 0 0.018934053943891815 0.0037222617931376373 0 0.018377329673811678 0.0035522928007706706 0 0.018645949558581228 0.0045924441317459963 0 0.018406374354904376 0.0048914386563891701 0 0.01813910084015543 0.0050926743155380897 0 0.018628019330565244 0.0042997143566123391 0 0.018645949558581228 0.0045924441317459963 0 0.018550737025822484 0.0046272314525373816 0 0.018645949558581228 0.0045924441317459963 0 0.018550737025822484 0.0046272314525373816 0 0.018406374354904376 0.0048914386563891701 0 0.018476967054462969 0.0048006160484416992 0 0.018406374354904376 0.0048914386563891701 0 0.018323476272141169 0.0050096714933808373 0 0.018476967054462969 0.0048006160484416992 0 0.018550737025822484 0.0046272314525373816 0 0.018406374354904376 0.0048914386563891701 0 0.018406374354904376 0.0048914386563891701 0 0.017937016028486991 0.0051889463239228701 0 0.01813910084015543 0.0050926743155380897 0 0.018406374354904376 0.0048914386563891701 0 0.017937016028486991 0.0051889463239228701 0 0.018323476272141169 0.0050096714933808373 0 0.01840861933718595 0.0049846741130399426 0 0.018476967054462969 0.0048006160484416992 0 0.018323476272141169 0.0050096714933808373 0 0.018269562594010014 0.0049582901069767371 0 0.01840861933718595 0.0049846741130399426 0 0.018323476272141169 0.0050096714933808373 0 0.018269562594010014 0.0049582901069767371 0 0.017937016028486991 0.0051889463239228701 0 0.018323476272141169 0.0050096714933808373 0 0.018269562594010014 0.0049582901069767371 0 0.017937016028486991 0.0051889463239228701 0 0.01757747445928062 0.0053045778402563189 0 0.017922837447582867 0.0053235259439749086 0 0.017634703594456132 0.0053066827852444572 0 0.017937016028486991 0.0051889463239228701 0 0.01757747445928062 0.0053045778402563189 0 0.017434917515254039 0.0053489652022686452 0 0.01757747445928062 0.0053045778402563189 0 0.017434917515254039 0.0053489652022686452 0 0.017315586537485366 0.0054225308642569655 0 0.017434917515254039 0.0053489652022686452 0 0.017196817561009003 0.005403724197404417 0 0.01705538562269358 0.0054222386340614919 0 0.017434917515254039 0.0053489652022686452 0 0.01705538562269358 0.0054222386340614919 0 0.017315586537485366 0.0054225308642569655 0 0.017691443081187114 0.003261535477429986 0 0.017076987754267386 0.0039203926877116194 0 0.017434917515254039 0.0053489652022686452 0 0.017594872981695944 0.0053471446902038488 0 0.017196817561009003 0.005403724197404417 0 0.017937016028486991 0.0051889463239228701 0 0.017434917515254039 0.0053489652022686452 0 0.017594872981695944 0.0053471446902038488 0 0.017937016028486991 0.0051889463239228701 0 0.017594872981695944 0.0053471446902038488 0 0.01813910084015543 0.0050926743155380897 0 0.017691443081187114 0.003261535477429986 0 0.018377329673811678 0.0035522928007706706 0 0.017847009970874669 0.0014188654051745671 0 0.01864522962493587 0.0020044028681217166 0 0.01785564040638048 0.0021826454861105958 0 0.017847009970874669 0.0014188654051745671 0 0.01785564040638048 0.0021826454861105958 0 0.017306395892522319 0.0018202405072328069 0 0.018356045723205996 0.0027343370563033139 0 0.0177426052974674 0.0027930557432876255 0 0.01785564040638048 0.0021826454861105958 0 0.01785564040638048 0.0021826454861105958 0 0.017369693549390806 0.0023436973043503288 0 0.017306395892522319 0.0018202405072328069 0 0.0177426052974674 0.0027930557432876255 0 0.01785564040638048 0.0021826454861105958 0 0.017369693549390806 0.0023436973043503288 0 0.018356045723205996 0.0027343370563033139 0 0.01888167511796426 0.0028533723401748634 0 0.01864522962493587 0.0020044028681217166 0 0.018356045723205996 0.0027343370563033139 0 0.01864522962493587 0.0020044028681217166 0 0.01785564040638048 0.0021826454861105958 0 0.01648908032451827 0.0021673564715174701 0 0.01668690435276949 0.0022729223485983608 0 0.01683608840065811 0.0021485422464566774 0 0.016717012726594021 0.0017371965709727594 0 0.016494933107285708 0.0023277319079910942 0 0.016728480040526843 0.0012244578226506952 0 0.01688854331019023 0.0024800864344884438 0 0.016135067651807899 0.0032743089322142768 0 0.01668690435276949 0.0022729223485983608 0 0.01683608840065811 0.0021485422464566774 0 0.016774641479269038 0.0017898658069462827 0 0.017099516357478136 0.0025464269152429527 0 0.01683608840065811 0.0021485422464566774 0 0.017369693549390806 0.0023436973043503288 0 0.01683608840065811 0.0021485422464566774 0 0.017369693549390806 0.0023436973043503288 0 0.017306395892522319 0.0018202405072328069 0 0.01683608840065811 0.0021485422464566774 0 0.017306395892522319 0.0018202405072328069 0 0.016774641479269038 0.0017898658069462827 0 0.017306395892522319 0.0018202405072328069 0 0.016774641479269038 0.0017898658069462827 0 0.017184375835568387 0.00095706602196008882 0 0.017155539593883433 0.0032251895937791849 0 0.016135067651807899 0.0032743089322142768 0 0.016634806165174994 0.0041650079222687866 0 0.016634806165174994 0.0041650079222687866 0 0.016355772736408345 0.0050988896935392101 0 0.01661832170886722 0.0050069310980966272 0 0.016135067651807899 0.0032743089322142768 0 0.016634806165174994 0.0041650079222687866 0 0.016355772736408345 0.0050988896935392101 0 0.016634806165174994 0.0041650079222687866 0 0.016950446760585974 0.0050709345805246544 0 0.01661832170886722 0.0050069310980966272 0 0.016494933107285708 0.0023277319079910942 0 0.017076987754267386 0.0039203926877116194 0 0.017847009970874669 0.0014188654051745671 0 0.017306395892522319 0.0018202405072328069 0 0.017184375835568387 0.00095706602196008882 0 0.017076987754267386 0.0039203926877116194 0 0.016786994803040557 0.0056154147748812434 0 0.016355772736408345 0.0050988896935392101 0 0.016568238932862796 0.0051539478103410745 0 0.01661832170886722 0.0050069310980966272 0 0.016592224379681209 0.0052204921606846429 0 0.016355772736408345 0.0050988896935392101 0 0.016728641522995094 0.0053268926172328236 0 0.016592224379681209 0.0052204921606846429 0 0.016355772736408345 0.0050988896935392101 0 0.016568238932862796 0.0051539478103410745 0 0.016592224379681209 0.0052204921606846429 0 0.016568238932862796 0.0051539478103410745 0 0.016665341646859944 0.0052391505293993461 0 0.016592224379681209 0.0052204921606846429 0 0.016728641522995094 0.0053268926172328236 0 0.016665341646859944 0.0052391505293993461 0 0.016728641522995094 0.0053268926172328236 0 0.016665341646859944 0.0052391505293993461 0 0.016827652922058022 0.0054021763036660401 0 0.016355772736408345 0.0050988896935392101 0 0.016728641522995094 0.0053268926172328236 0 0.01705538562269358 0.0054222386340614919 0 0.016950446760585974 0.0050709345805246544 0 0.016819302445088929 0.0052169449706306837 0 0.016978806821874599 0.0053904542560169752 0 0.016950446760585974 0.0050709345805246544 0 0.016819302445088929 0.0052169449706306837 0 0.01661832170886722 0.0050069310980966272 0 0.016819302445088929 0.0052169449706306837 0 0.01661832170886722 0.0050069310980966272 0 0.016665341646859944 0.0052391505293993461 0 0.016568238932862796 0.0051539478103410745 0 0.01661832170886722 0.0050069310980966272 0 0.016665341646859944 0.0052391505293993461 0 0.016819302445088929 0.0052169449706306837 0 0.016665341646859944 0.0052391505293993461 0 0.016827652922058022 0.0054021763036660401 0 0.016827652922058022 0.0054021763036660401 0 0.016978806821874599 0.0053904542560169752 0 0.017041483208638904 0.0056410841299190774 0 0.016819302445088929 0.0052169449706306837 0 0.016827652922058022 0.0054021763036660401 0 0.016978806821874599 0.0053904542560169752 0 0.016827652922058022 0.0054021763036660401 0 0.017041483208638904 0.0056410841299190774 0 0.016922288793740147 0.0055580566358336475 0 0.017041483208638904 0.0056410841299190774 0 0.01694677860048787 0.0058256084816738114 0 0.016922288793740147 0.0055580566358336475 0 0.017186265854357858 0.0059196827460055376 0 0.01694677860048787 0.0058256084816738114 0 0.016978278139333867 0.0061906141846100578 0 0.017186265854357858 0.0059196827460055376 0 0.017041483208638904 0.0056410841299190774 0 0.01694677860048787 0.0058256084816738114 0 0.01694677860048787 0.0058256084816738114 0 0.017018555725009352 0.0056945799446526035 0 0.016922288793740147 0.0055580566358336475 0 0.017018555725009352 0.0056945799446526035 0 0.016922288793740147 0.0055580566358336475 0 0.01713083884134569 0.0055471881828305317 0 0.016728641522995094 0.0053268926172328236 0 0.016827652922058022 0.0054021763036660401 0 0.016922288793740147 0.0055580566358336475 0 0.016728641522995094 0.0053268926172328236 0 0.01705538562269358 0.0054222386340614919 0 0.016922288793740147 0.0055580566358336475 0 0.01705538562269358 0.0054222386340614919 0 0.016922288793740147 0.0055580566358336475 0 0.01713083884134569 0.0055471881828305317 0 0.01705538562269358 0.0054222386340614919 0 0.017315586537485366 0.0054225308642569655 0 0.01713083884134569 0.0055471881828305317 0 0.017315586537485366 0.0054225308642569655 0 0.01713083884134569 0.0055471881828305317 0 0.017272170027999453 0.0056269330198323265 0 0.01745848836311226 0.0056712795375065432 0 0.01757747445928062 0.0053045778402563189 0 0.017272170027999453 0.0056269330198323265 0 0.01757747445928062 0.0053045778402563189 0 0.017315586537485366 0.0054225308642569655 0 0.017272170027999453 0.0056269330198323265 0 0.017272170027999453 0.0056269330198323265 0 0.017277002862485513 0.0057165284913625819 0 0.017025898677950534 0.0057973266259980045 0 0.017272170027999453 0.0056269330198323265 0 0.017106717695303277 0.0056557028059197115 0 0.017025898677950534 0.0057973266259980045 0 0.01745848836311226 0.0056712795375065432 0 0.017272170027999453 0.0056269330198323265 0 0.017277002862485513 0.0057165284913625819 0 0.01713083884134569 0.0055471881828305317 0 0.017272170027999453 0.0056269330198323265 0 0.017106717695303277 0.0056557028059197115 0 0.017018555725009352 0.0056945799446526035 0 0.01713083884134569 0.0055471881828305317 0 0.017106717695303277 0.0056557028059197115 0 0.017018555725009352 0.0056945799446526035 0 0.017106717695303277 0.0056557028059197115 0 0.017025898677950534 0.0057973266259980045 0 0.017018555725009352 0.0056945799446526035 0 0.016758101802359551 0.0060370849406358208 0 0.017025898677950534 0.0057973266259980045 0 0.016758101802359551 0.0060370849406358208 0 0.017025898677950534 0.0057973266259980045 0 0.017068493701278425 0.0057299043885007664 0 0.017277002862485513 0.0057165284913625819 0 0.017025898677950534 0.0057973266259980045 0 0.017068493701278425 0.0057299043885007664 0 0.017363577211292665 0.0055852878562445436 0 0.017277002862485513 0.0057165284913625819 0 0.017068493701278425 0.0057299043885007664 0 0.017363577211292665 0.0055852878562445436 0 0.017068493701278425 0.0057299043885007664 0 0.017122636451241138 0.0054601306540779555 0 0.016758101802359551 0.0060370849406358208 0 0.017068493701278425 0.0057299043885007664 0 0.017109767666087055 0.0053200467385244058 0 0.017128373641695581 0.0055822902768809376 0 0.017046415011847484 0.0063438512254270097 0 0.016625185563060401 0.0061039524865421002 0 0.017046415011847484 0.0063438512254270097 0 0.016758101802359551 0.0060370849406358208 0 0.015626270912204025 0.0069992649525745252 0 0.01674602901772038 0.0075342458256809292 0 0.016758101802359551 0.0060370849406358208 0 0.018034977174198559 0.0069395571621500146 0 0.01674602901772038 0.0075342458256809292 0 0.016932250130213804 0.0067242223378132463 0 0.016615402413441005 0.0064857553991757152 0 0.016978278139333867 0.0061906141846100578 0 0.01694677860048787 0.0058256084816738114 0 0.016615402413441005 0.0064857553991757152 0 0.016978278139333867 0.0061906141846100578 0 0.017018555725009352 0.0056945799446526035 0 0.016758101802359551 0.0060370849406358208 0 0.018034977174198559 0.0069395571621500146 0 0.017039444849270953 0.0057920140159619634 0 0.017330071209494646 0.0067443892022836602 0 0.01694677860048787 0.0058256084816738114 0 0.017018555725009352 0.0056945799446526035 0 0.016615402413441005 0.0064857553991757152 0 0.017335053498135994 0.0092736774367043751 0 0.018758828113045634 0.0091387280501683387 0 0.018349826396489296 0.010219666144199939 0 0.017330071209494646 0.0067443892022836602 0 0.017637278163290668 0.0082610205119405169 0 0.016932250130213804 0.0067242223378132463 0 0.016615402413441005 0.0064857553991757152 0 0.016571744750204981 0.0074071509334831896 0 0.018034977174198559 0.0069395571621500146 0 0.017335053498135994 0.0092736774367043751 0 0.018758828113045634 0.0091387280501683387 0 0.018034977174198559 0.0069395571621500146 0 0.017335053498135994 0.0092736774367043751 0 0.01674602901772038 0.0075342458256809292 0 0.017335053498135994 0.0092736774367043751 0 0.01674602901772038 0.0075342458256809292 0 0.015332160700270917 0.0084616925755874994 0 0.017046415011847484 0.0063438512254270097 0 0.016696977108200617 0.0084818027389977711 0 0.018351920523845218 0.0071983758277559982 0 0.018121976265291773 0.008589217758864209 0 0.016860864411167114 0.0087205561710970679 0 0.015626270912204025 0.0069992649525745252 0 0.01674602901772038 0.0075342458256809292 0 0.015332160700270917 0.0084616925755874994 0 0.016696977108200617 0.0084818027389977711 0 0.017604226609459397 0.011118747569121274 0 0.015332160700270917 0.0084616925755874994 0 0.016044132696286066 0.0097299430332554483 0 0.015047974068927893 0.0098665824012571356 0 0.017335053498135994 0.0092736774367043751 0 0.015332160700270917 0.0084616925755874994 0 0.016044132696286066 0.0097299430332554483 0 0.017335053498135994 0.0092736774367043751 0 0.016044132696286066 0.0097299430332554483 0 0.01659451028846648 0.010668852970188583 0 0.016044132696286066 0.0097299430332554483 0 0.01659451028846648 0.010668852970188583 0 0.015583575917430448 0.010581845508490704 0 0.017604226609459397 0.011118747569121274 0 0.019799640692006553 0.015567393948929795 0 0.017604226609459397 0.011118747569121274 0 0.01538302153399221 0.009853598632316397 0 0.016044132696286066 0.0097299430332554483 0 0.015047974068927893 0.0098665824012571356 0 0.015583575917430448 0.010581845508490704 0 0.01659451028846648 0.010668852970188583 0 0.015583575917430448 0.010581845508490704 0 0.015581568243479291 0.01143753839324428 0 0.015583575917430448 0.010581845508490704 0 0.014848152378312622 0.010702138682808464 0 0.015581568243479291 0.01143753839324428 0 0.015011508332080297 0.009903472882824808 0 0.015583575917430448 0.010581845508490704 0 0.014848152378312622 0.010702138682808464 0 0.01468676587502267 0.010723881927102595 0 0.015581568243479291 0.01143753839324428 0 0.014407297013405505 0.012129942323241978 0 0.019799640692006553 0.015567393948929795 0 0.0140822535273622 0.010282624223827582 0 0.015581568243479291 0.01143753839324428 0 0.016717856541963037 0.012134476961589206 0 0.015507761970409501 0.012674922143731822 0 0.015581568243479291 0.01143753839324428 0 0.015507761970409501 0.012674922143731822 0 0.014407297013405505 0.012129942323241978 0 0.01659451028846648 0.010668852970188583 0 0.015581568243479291 0.01143753839324428 0 0.016717856541963037 0.012134476961589206 0 0.01659451028846648 0.010668852970188583 0 0.016717856541963037 0.012134476961589206 0 0.017880372119620232 0.010896303012932386 0 0.016717856541963037 0.012134476961589206 0 0.017880372119620232 0.010896303012932386 0 0.018310553109691617 0.0130418902267224 0 0.017335053498135994 0.0092736774367043751 0 0.01659451028846648 0.010668852970188583 0 0.017880372119620232 0.010896303012932386 0 0.017335053498135994 0.0092736774367043751 0 0.017880372119620232 0.010896303012932386 0 0.018349826396489296 0.010219666144199939 0 0.018418185058942146 0.010468002250695611 0 0.018758828113045634 0.0091387280501683387 0 0.018349826396489296 0.010219666144199939 0 0.017960531381255924 0.010855936793303236 0 0.019143327991174224 0.011640504695423701 0 0.017880372119620232 0.010896303012932386 0 0.020276120643993496 0.0127829478089957 0 0.018310553109691617 0.0130418902267224 0 0.017880372119620232 0.010896303012932386 0 0.018349826396489296 0.010219666144199939 0 0.018345936136553168 0.010321664035501487 0 0.018418185058942146 0.010468002250695611 0 0.018349826396489296 0.010219666144199939 0 0.018345936136553168 0.010321664035501487 0 0.020276120643993496 0.0127829478089957 0 0.018310553109691617 0.0130418902267224 0 0.019383610415391592 0.014844639453501698 0 0.020817020223073249 0.014418941179097899 0 0.020276120643993496 0.0127829478089957 0 0.019383610415391592 0.014844639453501698 0 0.018310553109691617 0.0130418902267224 0 0.019383610415391592 0.014844639453501698 0 0.016663993971178414 0.014115201489135983 0 0.022097533891136174 0.041066613659369616 0 0.022215572405891164 0.040895845313215017 0 0.022368571106107949 0.040601951502728439 0 0.022097533891136174 0.041066613659369616 0 0.022368571106107949 0.040601951502728439 0 0.022531448883899897 0.040418630243497282 0 0.021492021023375364 0.026700752331223748 0 0.018852230627724162 0.027372939081818811 0 0.021931755446263849 0.041109867729416556 0 0.022215572405891164 0.040895845313215017 0 0.022160342859380903 0.040904217535400113 0 0.022097533891136174 0.041066613659369616 0 0.021931755446263849 0.041109867729416556 0 0.022215572405891164 0.040895845313215017 0 0.022215572405891164 0.040895845313215017 0 0.022160342859380903 0.040904217535400113 0 0.022349802102073116 0.040798571118710311 0 0.022215572405891164 0.040895845313215017 0 0.022349802102073116 0.040798571118710311 0 0.022368571106107949 0.040601951502728439 0 0.022160342859380903 0.040904217535400113 0 0.022343109690077016 0.040752280576968301 0 0.022140803820603988 0.040825824260547629 0 0.022160342859380903 0.040904217535400113 0 0.022349802102073116 0.040798571118710311 0 0.022343109690077016 0.040752280576968301 0 0.021747684339624807 0.041070453200993867 0 0.022160342859380903 0.040904217535400113 0 0.022140803820603988 0.040825824260547629 0 0.021747684339624807 0.041070453200993867 0 0.021931755446263849 0.041109867729416556 0 0.022160342859380903 0.040904217535400113 0 0.022497392898600008 0.040706866728802513 0 0.022643916142566573 0.040659443291219094 0 0.022692756817574395 0.040618080799359635 0 0.022497392898600008 0.040706866728802513 0 0.022349802102073116 0.040798571118710311 0 0.022343109690077016 0.040752280576968301 0 0.022466540984274409 0.040715013537380038 0 0.022349802102073116 0.040798571118710311 0 0.022368571106107949 0.040601951502728439 0 0.022497392898600008 0.040706866728802513 0 0.022466540984274409 0.040715013537380038 0 0.022349802102073116 0.040798571118710311 0 0.022497392898600008 0.040706866728802513 0 0.022466540984274409 0.040715013537380038 0 0.022643916142566573 0.040659443291219094 0 0.022466540984274409 0.040715013537380038 0 0.022643916142566573 0.040659443291219094 0 0.02261089649875073 0.040791795517335749 0 0.023489514287859808 0.039337799031136003 0 0.022531448883899897 0.040418630243497282 0 0.023906249874196647 0.039762148272688591 0 0.022466540984274409 0.040715013537380038 0 0.02261089649875073 0.040791795517335749 0 0.022368571106107949 0.040601951502728439 0 0.023096384657351553 0.040087607544966881 0 0.022488446981901122 0.040502450740990306 0 0.023489514287859808 0.039337799031136003 0 0.022368571106107949 0.040601951502728439 0 0.022531448883899897 0.040418630243497282 0 0.016717856541963037 0.012134476961589206 0 0.016663993971178414 0.014115201489135983 0 0.015507761970409501 0.012674922143731822 0 0.016717856541963037 0.012134476961589206 0 0.018310553109691617 0.0130418902267224 0 0.016663993971178414 0.014115201489135983 0 0.018852230627724162 0.027372939081818811 0 0.021678069332531871 0.026808436585046839 0 0.016663993971178414 0.014115201489135983 0 0.015507761970409501 0.012674922143731822 0 0.014178847397046094 0.013598529936138229 0 0.015507761970409501 0.012674922143731822 0 0.014178847397046094 0.013598529936138229 0 0.014407297013405505 0.012129942323241978 0 0.026242054378923317 0.02091689113121957 0 0.0268192580465259 0.02102328759755008 0 0.026551576795227551 0.021231021993391018 0 0.021678069332531871 0.026808436585046839 0 0.020594236474008105 0.015405153179178597 0 0.021678069332531871 0.026808436585046839 0 0.02638526418113888 0.030129276033035588 0 0.026242054378923317 0.02091689113121957 0 0.026187270544217323 0.021268278017964038 0 0.026551576795227551 0.021231021993391018 0 0.024025931364727703 0.039128010107466069 0 0.024696798514766242 0.038766958117896662 0 0.024631121514169584 0.038644207896805616 0 0.024696798514766242 0.038766958117896662 0 0.024631121514169584 0.038644207896805616 0 0.024780561343715903 0.03855078419145766 0 0.02261089649875073 0.040791795517335749 0 0.022983808552105786 0.040637272662670643 0 0.022808166998286614 0.040647465838706848 0 0.024025931364727703 0.039128010107466069 0 0.024631121514169584 0.038644207896805616 0 0.024011909543199542 0.039103375105119159 0 0.023489514287859808 0.039337799031136003 0 0.024631121514169584 0.038644207896805616 0 0.024011909543199542 0.039103375105119159 0 0.023096384657351553 0.040087607544966881 0 0.023809427813271795 0.039657660057577503 0 0.021678069332531871 0.026808436585046839 0 0.022335144297340761 0.040863816314968632 0 0.023489514287859808 0.039337799031136003 0 0.023906249874196647 0.039762148272688591 0 0.024011909543199542 0.039103375105119159 0 0.022643916142566573 0.040659443291219094 0 0.02261089649875073 0.040791795517335749 0 0.022808166998286614 0.040647465838706848 0 0.022643916142566573 0.040659443291219094 0 0.022808166998286614 0.040647465838706848 0 0.022812267837102281 0.040594917445951506 0 0.022808166998286614 0.040647465838706848 0 0.022973888258191289 0.040534018168935586 0 0.022812267837102281 0.040594917445951506 0 0.022983808552105786 0.040637272662670643 0 0.022808166998286614 0.040647465838706848 0 0.022973888258191289 0.040534018168935586 0 0.022983808552105786 0.040637272662670643 0 0.022973888258191289 0.040534018168935586 0 0.023108343421527379 0.040421715300392687 0 0.022973888258191289 0.040534018168935586 0 0.022812267837102281 0.040594917445951506 0 0.022949522441942205 0.040542072773589677 0 0.022973888258191289 0.040534018168935586 0 0.02309866051231307 0.040481005504741936 0 0.022949522441942205 0.040542072773589677 0 0.022812267837102281 0.040594917445951506 0 0.022692756817574395 0.040618080799359635 0 0.022949522441942205 0.040542072773589677 0 0.022643916142566573 0.040659443291219094 0 0.022812267837102281 0.040594917445951506 0 0.022692756817574395 0.040618080799359635 0 0.023144123202862774 0.040306645574862569 0 0.023002071164117864 0.040318171046705105 0 0.023147575884304675 0.040552819340087407 0 0.02309866051231307 0.040481005504741936 0 0.023144123202862774 0.040306645574862569 0 0.023147575884304675 0.040552819340087407 0 0.023108343421527379 0.040421715300392687 0 0.023144123202862774 0.040306645574862569 0 0.023214438389765741 0.040195392928315893 0 0.02309866051231307 0.040481005504741936 0 0.023108343421527379 0.040421715300392687 0 0.023144123202862774 0.040306645574862569 0 0.022973888258191289 0.040534018168935586 0 0.02309866051231307 0.040481005504741936 0 0.023108343421527379 0.040421715300392687 0 0.023144123202862774 0.040306645574862569 0 0.023214438389765741 0.040195392928315893 0 0.023039527653567558 0.039990780712999982 0 0.023144123202862774 0.040306645574862569 0 0.023039527653567558 0.039990780712999982 0 0.023002071164117864 0.040318171046705105 0 0.023900937292889134 0.039402900107715327 0 0.022880448647290202 0.039213352788492396 0 0.024789609799707936 0.03861597464150588 0 0.023977093793273025 0.038282105227563104 0 0.022894435007748733 0.039187744769503902 0 0.024789609799707936 0.03861597464150588 0 0.024352444501865595 0.038010254276769705 0 0.023977093793273025 0.038282105227563104 0 0.023809427813271795 0.039657660057577503 0 0.023900937292889134 0.039402900107715327 0 0.024631121514169584 0.038644207896805616 0 0.024789609799707936 0.03861597464150588 0 0.024780561343715903 0.03855078419145766 0 0.022983808552105786 0.040637272662670643 0 0.023108343421527379 0.040421715300392687 0 0.023214438389765741 0.040195392928315893 0 0.024789609799707936 0.03861597464150588 0 0.024780561343715903 0.03855078419145766 0 0.024793867065458434 0.038065794724101126 0 0.024696798514766242 0.038766958117896662 0 0.024780561343715903 0.03855078419145766 0 0.024793867065458434 0.038065794724101126 0 0.02638526418113888 0.030129276033035588 0 0.026176405304988198 0.02980360682509138 0 0.0268192580465259 0.02102328759755008 0 0.027374831884038546 0.021242869890346492 0 0.027178858904942347 0.021296135677285458 0 0.024793867065458434 0.038065794724101126 0 0.024352444501865595 0.038010254276769705 0 0.023965407621300918 0.037011708435989985 0 0.026176405304988198 0.02980360682509138 0 0.02436250229968253 0.026100397752205677 0 0.024789609799707936 0.03861597464150588 0 0.024793867065458434 0.038065794724101126 0 0.024352444501865595 0.038010254276769705 0 0.024352444501865595 0.038010254276769705 0 0.023977093793273025 0.038282105227563104 0 0.02387993909642953 0.037771331710882747 0 0.024352444501865595 0.038010254276769705 0 0.023965407621300918 0.037011708435989985 0 0.02387993909642953 0.037771331710882747 0 0.027494728448647116 0.021431926515080871 0 0.02733635422742731 0.021278606980706414 0 0.027399027465797577 0.02142962242117346 0 0.027151545579112132 0.021995014961803977 0 0.026350814617298473 0.022469966037383805 0 0.026391914403902577 0.023631939769917471 0 0.027374831884038546 0.021242869890346492 0 0.027494728448647116 0.021431926515080871 0 0.027399027465797577 0.02142962242117346 0 0.027646245210130413 0.020864148859302507 0 0.02436250229968253 0.026100397752205677 0 0.027646245210130413 0.020864148859302507 0 0.027575685732743264 0.020736088618951879 0 0.02733635422742731 0.021278606980706414 0 0.027764559467898239 0.020940526714731424 0 0.027742480588254945 0.020304262300123221 0 0.027151545579112132 0.021995014961803977 0 0.027742480588254945 0.020304262300123221 0 0.026372799157604303 0.020487668705333594 0 0.027494728448647116 0.021431926515080871 0 0.02733635422742731 0.021278606980706414 0 0.027764559467898239 0.020940526714731424 0 0.028571709908989933 0.020831527437237433 0 0.027764559467898239 0.020940526714731424 0 0.027742480588254945 0.020304262300123221 0 0.028571709908989933 0.020831527437237433 0 0.027742480588254945 0.020304262300123221 0 0.028552407413708205 0.019931258519563972 0 0.027583560325341077 0.021392812577458883 0 0.02786908267220756 0.021472657908074393 0 0.027494728448647116 0.021431926515080871 0 0.028571709908989933 0.020831527437237433 0 0.027764559467898239 0.020940526714731424 0 0.027494728448647116 0.021431926515080871 0 0.02706666669029785 0.021800646082725954 0 0.026994147024157582 0.021437521897911316 0 0.027494728448647116 0.021431926515080871 0 0.027178858904942347 0.021296135677285458 0 0.026994147024157582 0.021437521897911316 0 0.027374831884038546 0.021242869890346492 0 0.027494728448647116 0.021431926515080871 0 0.027178858904942347 0.021296135677285458 0 0.0268192580465259 0.02102328759755008 0 0.027178858904942347 0.021296135677285458 0 0.026994147024157582 0.021437521897911316 0 0.026994147024157582 0.021437521897911316 0 0.026551576795227551 0.021231021993391018 0 0.026542803411352189 0.021496287487098021 0 0.026994147024157582 0.021437521897911316 0 0.026542803411352189 0.021496287487098021 0 0.026702156117065036 0.021753528141516956 0 0.0268192580465259 0.02102328759755008 0 0.026994147024157582 0.021437521897911316 0 0.026551576795227551 0.021231021993391018 0 0.019799640692006553 0.015567393948929795 0 0.020594236474008105 0.015405153179178597 0 0.026103607306572789 0.021628495957870808 0 0.026187270544217323 0.021268278017964038 0 0.026542803411352189 0.021496287487098021 0 0.026187270544217323 0.021268278017964038 0 0.026551576795227551 0.021231021993391018 0 0.026542803411352189 0.021496287487098021 0 0.026103607306572789 0.021628495957870808 0 0.026542803411352189 0.021496287487098021 0 0.026702156117065036 0.021753528141516956 0 0.019799640692006553 0.015567393948929795 0 0.024263969815272519 0.016429347851895152 0 0.026103607306572789 0.021628495957870808 0 0.026702156117065036 0.021753528141516956 0 0.0266780787915731 0.022094729539359214 0 0.02035964007242606 0.013261548397869303 0 0.020305649691878612 0.013186771216194573 0 0.020339739024142042 0.013197603102922353 0 0.020367132772838876 0.013209454227507435 0 0.02035964007242606 0.013261548397869303 0 0.020339739024142042 0.013197603102922353 0 0.02706666669029785 0.021800646082725954 0 0.026994147024157582 0.021437521897911316 0 0.026702156117065036 0.021753528141516956 0 0.02706666669029785 0.021800646082725954 0 0.026702156117065036 0.021753528141516956 0 0.0266780787915731 0.022094729539359214 0 0.02786908267220756 0.021472657908074393 0 0.024263969815272519 0.016429347851895152 0 0.024263969815272519 0.016429347851895152 0 0.023202245599469117 0.012335768027869053 0 0.028571709908989933 0.020831527437237433 0 0.029579572951896418 0.019878890974815742 0 0.028552407413708205 0.019931258519563972 0 0.019332550259152276 0.00788099327679497 0 0.019922485005362631 0.007249023737535755 0 0.019098144579843351 0.0070131851727488282 0 0.024263969815272519 0.016429347851895152 0 0.019060816122935163 0.0085490739469393055 0 0.020367132772838876 0.013209454227507435 0 0.020339739024142042 0.013197603102922353 0 0.020326913092526804 0.013129169876038543 0 0.017604226609459397 0.011118747569121274 0 0.019060816122935163 0.0085490739469393055 0 0.018121976265291773 0.008589217758864209 0 0.017885770301424346 0.0099832390672423953 0 0.016860864411167114 0.0087205561710970679 0 0.020305649691878612 0.013186771216194573 0 0.020339739024142042 0.013197603102922353 0 0.020326913092526804 0.013129169876038543 0 0.017474686185232048 0.0054064524492077768 0 0.017122636451241138 0.0054601306540779555 0 0.017505988057579046 0.0051001898173778171 0 0.017046415011847484 0.0063438512254270097 0 0.019060816122935163 0.0085490739469393055 0 0.018145241321263248 0.0054049221724767329 0 0.019060816122935163 0.0085490739469393055 0 0.017734078678361298 0.0053478926642778818 0 0.017474686185232048 0.0054064524492077768 0 0.017505988057579046 0.0051001898173778171 0 0.019332550259152276 0.00788099327679497 0 0.019098144579843351 0.0070131851727488282 0 0.018247221801612083 0.0067811338006923336 0 0.018965981848328241 0.006221382731336017 0 0.019922485005362631 0.007249023737535755 0 0.019098144579843351 0.0070131851727488282 0 0.018965981848328241 0.006221382731336017 0 0.019098144579843351 0.0070131851727488282 0 0.018247221801612083 0.0067811338006923336 0 0.018254698089669404 0.006113273233126746 0 0.018965981848328241 0.006221382731336017 0 0.018247221801612083 0.0067811338006923336 0 0.022313456634629279 0.011557460714793187 0 0.023202245599469117 0.012335768027869053 0 0.026839479723796709 0.017123778819472545 0 0.028308750137373981 0.018619060746765562 0 0.026296559289634206 0.018742006035328631 0 0.028308750137373981 0.018619060746765562 0 0.027195851206577623 0.019527587975095326 0 0.026296559289634206 0.018742006035328631 0 0.028308750137373981 0.018619060746765562 0 0.027195851206577623 0.019527587975095326 0 0.027742480588254945 0.020304262300123221 0 0.027195851206577623 0.019527587975095326 0 0.026372799157604303 0.020487668705333594 0 0.026296559289634206 0.018742006035328631 0 0.027195851206577623 0.019527587975095326 0 0.027742480588254945 0.020304262300123221 0 0.026372799157604303 0.020487668705333594 0 0.029579572951896418 0.019878890974815742 0 0.028308750137373981 0.018619060746765562 0 0.028552407413708205 0.019931258519563972 0 0.028308750137373981 0.018619060746765562 0 0.027742480588254945 0.020304262300123221 0 0.028552407413708205 0.019931258519563972 0 0.024961517037483338 0.019860106630889308 0 0.024003124079718753 0.020321653789375872 0 0.023559545618335644 0.019240683308062424 0 0.024961517037483338 0.019860106630889308 0 0.024955497737909806 0.018479063686176904 0 0.023559545618335644 0.019240683308062424 0 0.024961517037483338 0.019860106630889308 0 0.024003124079718753 0.020321653789375872 0 0.02441967101489163 0.021304978646786325 0 0.024961517037483338 0.019860106630889308 0 0.026372799157604303 0.020487668705333594 0 0.026296559289634206 0.018742006035328631 0 0.024961517037483338 0.019860106630889308 0 0.026372799157604303 0.020487668705333594 0 0.025405011650997424 0.020901815457649464 0 0.024961517037483338 0.019860106630889308 0 0.026296559289634206 0.018742006035328631 0 0.024955497737909806 0.018479063686176904 0 0.025241683375267589 0.017110002820776789 0 0.026296559289634206 0.018742006035328631 0 0.024955497737909806 0.018479063686176904 0 0.024017280449587425 0.017609357428016833 0 0.025241683375267589 0.017110002820776789 0 0.024955497737909806 0.018479063686176904 0 0.024017280449587425 0.017609357428016833 0 0.024955497737909806 0.018479063686176904 0 0.023559545618335644 0.019240683308062424 0 0.022670783807976699 0.017401402698280281 0 0.022059210774237024 0.01888302184642085 0 0.023559545618335644 0.019240683308062424 0 0.022670783807976699 0.017401402698280281 0 0.024017280449587425 0.017609357428016833 0 0.023559545618335644 0.019240683308062424 0 0.036645431959434767 0.014617729685260908 0 0.035361099101641098 0.017052597198557975 0 0.021288006257607264 0.01779039347590242 0 0.022059210774237024 0.01888302184642085 0 0.020897393376356869 0.020238808765351803 0 0.036645431959434767 0.014617729685260908 0 0.022275600107236868 0.015927025264709772 0 0.022670783807976699 0.017401402698280281 0 0.021278251320566464 0.017777916356993627 0 0.022059210774237024 0.01888302184642085 0 0.022059210774237024 0.01888302184642085 0 0.022099422413980933 0.020171923637100554 0 0.020897393376356869 0.020238808765351803 0 0.022099422413980933 0.020171923637100554 0 0.020897393376356869 0.020238808765351803 0 0.021959847616409917 0.021632221261196852 0 0.022059210774237024 0.01888302184642085 0 0.022099422413980933 0.020171923637100554 0 0.023559545618335644 0.019240683308062424 0 0.022099422413980933 0.020171923637100554 0 0.023559545618335644 0.019240683308062424 0 0.023058559187144504 0.020881756715970069 0 0.024003124079718753 0.020321653789375872 0 0.023559545618335644 0.019240683308062424 0 0.023058559187144504 0.020881756715970069 0 0.023058559187144504 0.020881756715970069 0 0.023387238814037137 0.022203742499616371 0 0.02441967101489163 0.021304978646786325 0 0.022099422413980933 0.020171923637100554 0 0.023058559187144504 0.020881756715970069 0 0.021959847616409917 0.021632221261196852 0 0.023058559187144504 0.020881756715970069 0 0.023387238814037137 0.022203742499616371 0 0.021959847616409917 0.021632221261196852 0 0.023387238814037137 0.022203742499616371 0 0.021959847616409917 0.021632221261196852 0 0.022284267033282189 0.02336465572686728 0 0.020897393376356869 0.020238808765351803 0 0.021959847616409917 0.021632221261196852 0 0.020810423351908983 0.022784472573654211 0 0.022284267033282189 0.02336465572686728 0 0.020926071658765893 0.024459716903361121 0 0.020810423351908983 0.022784472573654211 0 0.021959847616409917 0.021632221261196852 0 0.022284267033282189 0.02336465572686728 0 0.020810423351908983 0.022784472573654211 0 0.022324873862151848 0.023493466902102345 0 0.023133925590322204 0.023850826196395728 0 0.023387238814037137 0.022203742499616371 0 0.022284267033282189 0.02336465572686728 0 0.024456219412919856 0.023374606911605342 0 0.024456219412919856 0.023374606911605342 0 0.02441967101489163 0.021304978646786325 0 0.025559176365361078 0.022207268003193999 0 0.023387238814037137 0.022203742499616371 0 0.024456219412919856 0.023374606911605342 0 0.02441967101489163 0.021304978646786325 0 0.02441967101489163 0.021304978646786325 0 0.025405011650997424 0.020901815457649464 0 0.025559176365361078 0.022207268003193999 0 0.024961517037483338 0.019860106630889308 0 0.02441967101489163 0.021304978646786325 0 0.025405011650997424 0.020901815457649464 0 0.024003124079718753 0.020321653789375872 0 0.023058559187144504 0.020881756715970069 0 0.02441967101489163 0.021304978646786325 0 0.027151545579112132 0.021995014961803977 0 0.026372799157604303 0.020487668705333594 0 0.026169790562528272 0.0216233747225692 0 0.026372799157604303 0.020487668705333594 0 0.025405011650997424 0.020901815457649464 0 0.026169790562528272 0.0216233747225692 0 0.025405011650997424 0.020901815457649464 0 0.026169790562528272 0.0216233747225692 0 0.025559176365361078 0.022207268003193999 0 0.027151545579112132 0.021995014961803977 0 0.026169790562528272 0.0216233747225692 0 0.026350814617298473 0.022469966037383805 0 0.023133925590322204 0.023850826196395728 0 0.02436250229968253 0.026100397752205677 0 0.026169790562528272 0.0216233747225692 0 0.026350814617298473 0.022469966037383805 0 0.025559176365361078 0.022207268003193999 0 0.026350814617298473 0.022469966037383805 0 0.025559176365361078 0.022207268003193999 0 0.026391914403902577 0.023631939769917471 0 0.024456219412919856 0.023374606911605342 0 0.025559176365361078 0.022207268003193999 0 0.026391914403902577 0.023631939769917471 0 0.022313131936661602 0.024651843192437607 0 0.021503634546490263 0.02546345499850957 0 0.021797468030824677 0.024994013621933139 0 0.02436250229968253 0.026100397752205677 0 0.023463179288365329 0.032227078479565158 0 0.023965407621300918 0.037011708435989985 0 0.023294857845425135 0.037947727441204691 0 0.02387993909642953 0.037771331710882747 0 0.023294857845425135 0.037947727441204691 0 0.023451468114211053 0.038061645984103984 0 0.02387993909642953 0.037771331710882747 0 0.023463179288365329 0.032227078479565158 0 0.023473568678777649 0.032502673169826059 0 0.023977093793273025 0.038282105227563104 0 0.023451468114211053 0.038061645984103984 0 0.02387993909642953 0.037771331710882747 0 0.023737828771979351 0.030505106255884887 0 0.024694485943374811 0.029949850963570859 0 0.028323615329345055 0.030494072549201303 0 0.022313131936661602 0.024651843192437607 0 0.021797468030824677 0.024994013621933139 0 0.022455792649144476 0.024445437641756586 0 0.023463179288365329 0.032227078479565158 0 0.023001759149809876 0.027532391894194021 0 0.024694485943374811 0.029949850963570859 0 0.027513998039923208 0.028174949029637845 0 0.028323615329345055 0.030494072549201303 0 0.024694485943374811 0.029949850963570859 0 0.024680745682767884 0.028672578688579732 0 0.027513998039923208 0.028174949029637845 0 0.023214438389765741 0.040195392928315893 0 0.022894435007748733 0.039187744769503902 0 0.023039527653567558 0.039990780712999982 0 0.023977093793273025 0.038282105227563104 0 0.023451468114211053 0.038061645984103984 0 0.022894435007748733 0.039187744769503902 0 0.023217451275620037 0.038097708496982526 0 0.022894435007748733 0.039187744769503902 0 0.022681651226775013 0.039530831143538288 0 0.023737828771979351 0.030505106255884887 0 0.024694485943374811 0.029949850963570859 0 0.024679816049062678 0.028710021420192806 0 0.024455794909018586 0.029641473441394988 0 0.024300384727167466 0.0327690268413919 0 0.023217451275620037 0.038097708496982526 0 0.023451468114211053 0.038061645984103984 0 0.022894435007748733 0.039187744769503902 0 0.023463179288365329 0.032227078479565158 0 0.024300384727167466 0.0327690268413919 0 0.022894435007748733 0.039187744769503902 0 0.022681651226775013 0.039530831143538288 0 0.023039527653567558 0.039990780712999982 0 0.023039527653567558 0.039990780712999982 0 0.022726879376521753 0.040159412990726104 0 0.023002071164117864 0.040318171046705105 0 0.022681651226775013 0.039530831143538288 0 0.023039527653567558 0.039990780712999982 0 0.022726879376521753 0.040159412990726104 0 0.024300384727167466 0.0327690268413919 0 0.023992194662395258 0.037901272711042162 0 0.024680745682767884 0.028672578688579732 0 0.026670813022218295 0.024853013503030798 0 0.027513998039923208 0.028174949029637845 0 0.024300384727167466 0.0327690268413919 0 0.02710071359378511 0.031630427076340263 0 0.025177168760635721 0.033719432073051496 0 0.025202401436400554 0.034609231364091782 0 0.024473593799938902 0.035138136711397219 0 0.023803473781062772 0.036547523453578 0 0.023274709301427284 0.037723835354689407 0 0.023937842971529597 0.03758681950907522 0 0.02710071359378511 0.031630427076340263 0 0.024001628442566796 0.038234276172156148 0 0.025202401436400554 0.034609231364091782 0 0.024473593799938902 0.035138136711397219 0 0.0252214556455338 0.035500951653746608 0 0.023803473781062772 0.036547523453578 0 0.024517230321456394 0.036945286637010646 0 0.023937842971529597 0.03758681950907522 0 0.022798603353592493 0.040454170044871944 0 0.023002071164117864 0.040318171046705105 0 0.023147575884304675 0.040552819340087407 0 0.024001628442566796 0.038234276172156148 0 0.023010949321249564 0.040954645595110251 0 0.022726879376521753 0.040159412990726104 0 0.022798603353592493 0.040454170044871944 0 0.023002071164117864 0.040318171046705105 0 0.023992194662395258 0.037901272711042162 0 0.024001628442566796 0.038234276172156148 0 0.03111273702090463 0.029178280371232185 0 0.031569122774867321 0.029005131738818336 0 0.03219381658901227 0.027559620312703141 0 0.031552183588919029 0.029095467132776564 0 0.032322058195135332 0.028621937722848826 0 0.031526362877183856 0.030011300588151962 0 0.03061730568839641 0.030423696927160467 0 0.031552183588919029 0.029095467132776564 0 0.032759976841775326 0.029826179793053249 0 0.031526362877183856 0.030011300588151962 0 0.031422691242511812 0.029118400674285189 0 0.02710071359378511 0.031630427076340263 0 0.027841094836113658 0.034559567980387215 0 0.032759976841775326 0.029826179793053249 0 0.031526362877183856 0.030011300588151962 0 0.032187690770135474 0.031129232091568183 0 0.026670813022218295 0.024853013503030798 0 0.029969911474289769 0.026264359829038957 0 0.027513998039923208 0.028174949029637845 0 0.02710071359378511 0.031630427076340263 0 0.030043653857535036 0.02747691538818612 0 0.031552183588919029 0.029095467132776564 0 0.032730080438058161 0.029571319126815709 0 0.032322058195135332 0.028621937722848826 0 0.031422691242511812 0.029118400674285189 0 0.031552183588919029 0.029095467132776564 0 0.032730080438058161 0.029571319126815709 0 0.030043653857535036 0.02747691538818612 0 0.039286534236189316 0.025021509895138076 0 0.029969911474289769 0.026264359829038957 0 0.030647046725218421 0.028755438329218962 0 0.033315835051937963 0.02766937199630172 0 0.031526362877183856 0.030011300588151962 0 0.031422691242511812 0.029118400674285189 0 0.031552183588919029 0.029095467132776564 0 0.030647046725218421 0.028755438329218962 0 0.028323615329345055 0.030494072549201303 0 0.032993782366589085 0.030447737104716585 0 0.029969911474289769 0.026264359829038957 0 0.030647046725218421 0.028755438329218962 0 0.027513998039923208 0.028174949029637845 0 0.030647046725218421 0.028755438329218962 0 0.027513998039923208 0.028174949029637845 0 0.028323615329345055 0.030494072549201303 0 0.022284267033282189 0.02336465572686728 0 0.022313131936661602 0.024651843192437607 0 0.022455792649144476 0.024445437641756586 0 0.023001759149809876 0.027532391894194021 0 0.037103407215810146 0.022599648051560756 0 0.022284267033282189 0.02336465572686728 0 0.022455792649144476 0.024445437641756586 0 0.020926071658765893 0.024459716903361121 0 0.037103407215810146 0.022599648051560756 0 0.035053996672206579 0.018977293250264669 0 0.037103407215810146 0.022599648051560756 0 0.049582561170102492 0.01850930475930759 0 0.049319158959075328 0.01784850716268423 0 0.047431783071246764 0.017789921888486378 0 0.048097287456702519 0.016278564618445342 0 0.049582561170102492 0.01850930475930759 0 0.049180509993556727 0.018483062431872435 0 0.047914774774517138 0.018175765405958673 0 0.04793495325802135 0.019861758442669835 0 0.048255176193735025 0.020270468899952418 0 0.047914774774517138 0.018175765405958673 0 0.04793495325802135 0.019861758442669835 0 0.047426992062070204 0.019128598369864788 0 0.048585064322802823 0.020908612357209731 0 0.048149701940166906 0.020441613184539065 0 0.048255176193735025 0.020270468899952418 0 0.047704586882366784 0.021009001594727253 0 0.048585064322802823 0.020908612357209731 0 0.048149701940166906 0.020441613184539065 0 0.049582561170102492 0.01850930475930759 0 0.048027740352565858 0.020465303178339556 0 0.047704586882366784 0.021009001594727253 0 0.048149701940166906 0.020441613184539065 0 0.047799636060324661 0.020323767074037897 0 0.037103407215810146 0.022599648051560756 0 0.039286534236189316 0.025021509895138076 0 0.030647046725218421 0.028755438329218962 0 0.032993782366589085 0.030447737104716585 0 0.033315835051937963 0.02766937199630172 0 0.046344368735899935 0.02409138721072333 0 0.039286534236189316 0.025021509895138076 0 0.048364909743268847 0.020362853921645628 0 0.048288130759441217 0.020480978714332135 0 0.048499374239352501 0.021028950503539451 0 0.032730080438058161 0.029571319126815709 0 0.032322058195135332 0.028621937722848826 0 0.033003469149216445 0.028382878763656902 0 0.039286534236189316 0.025021509895138076 0 0.040694957869625098 0.024737709320660942 0 0.048280522827523681 0.020689871500066782 0 0.048288130759441217 0.020480978714332135 0 0.048499374239352501 0.021028950503539451 0 0.048280522827523681 0.020689871500066782 0 0.048056838315036508 0.021061502268905644 0 0.048499374239352501 0.021028950503539451 0 0.048149701940166906 0.020441613184539065 0 0.048364909743268847 0.020362853921645628 0 0.048288130759441217 0.020480978714332135 0 0.048149701940166906 0.020441613184539065 0 0.048288130759441217 0.020480978714332135 0 0.048255176193735025 0.020270468899952418 0 0.047954829584829231 0.020020501365782737 0 0.048606395306243444 0.021139724001604812 0 0.04793495325802135 0.019861758442669835 0 0.047724816993978444 0.020789417233470747 0 0.048691428382543554 0.021323630160242329 0 0.04793495325802135 0.019861758442669835 0 0.048255176193735025 0.020270468899952418 0 0.048056838315036508 0.021061502268905644 0 0.048280522827523681 0.020689871500066782 0 0.048288130759441217 0.020480978714332135 0 0.048255176193735025 0.020270468899952418 0 0.04793495325802135 0.019861758442669835 0 0.047724816993978444 0.020789417233470747 0 0.047183110413243454 0.020112502293343368 0 0.048280522827523681 0.020689871500066782 0 0.048255176193735025 0.020270468899952418 0 0.048056838315036508 0.021061502268905644 0 0.048691428382543554 0.021323630160242329 0 0.048339393542384985 0.022481316494071587 0 0.049355334144678062 0.022958078214137798 0 0.047724816993978444 0.020789417233470747 0 0.048691428382543554 0.021323630160242329 0 0.047787643314293422 0.021718381019574184 0 0.048691428382543554 0.021323630160242329 0 0.047787643314293422 0.021718381019574184 0 0.048339393542384985 0.022481316494071587 0 0.047787643314293422 0.021718381019574184 0 0.048339393542384985 0.022481316494071587 0 0.04738945368898987 0.022793706433669021 0 0.048056838315036508 0.021061502268905644 0 0.048499374239352501 0.021028950503539451 0 0.048331961477558888 0.022040272017366868 0 0.03219381658901227 0.027559620312703141 0 0.033003469149216445 0.028382878763656902 0 0.033218514548696988 0.027034163419557531 0 0.048606395306243444 0.021139724001604812 0 0.043317106897028813 0.024433838086508671 0 0.040694957869625098 0.024737709320660942 0 0.043317106897028813 0.024433838086508671 0 0.03219381658901227 0.027559620312703141 0 0.032322058195135332 0.028621937722848826 0 0.033003469149216445 0.028382878763656902 0 0.046306385816837908 0.022078668162394569 0 0.044999956796249151 0.021209668448580982 0 0.044999937991765479 0.023626479145848086 0 0.046306385816837908 0.022078668162394569 0 0.044999956796249151 0.021209668448580982 0 0.046173340215485643 0.020391242554970188 0 0.047787643314293422 0.021718381019574184 0 0.046306385816837908 0.022078668162394569 0 0.04738945368898987 0.022793706433669021 0 0.046306385816837908 0.022078668162394569 0 0.047026274962631988 0.021015495925494444 0 0.046173340215485643 0.020391242554970188 0 0.047787643314293422 0.021718381019574184 0 0.046306385816837908 0.022078668162394569 0 0.047026274962631988 0.021015495925494444 0 0.047724816993978444 0.020789417233470747 0 0.047787643314293422 0.021718381019574184 0 0.047026274962631988 0.021015495925494444 0 0.047026274962631988 0.021015495925494444 0 0.047183110413243454 0.020112502293343368 0 0.046173340215485643 0.020391242554970188 0 0.047724816993978444 0.020789417233470747 0 0.047026274962631988 0.021015495925494444 0 0.047183110413243454 0.020112502293343368 0 0.047183110413243454 0.020112502293343368 0 0.046173340215485643 0.020391242554970188 0 0.046456488117509472 0.019117545900868581 0 0.044999956796249151 0.021209668448580982 0 0.046173340215485643 0.020391242554970188 0 0.04499995391764916 0.018792951158692638 0 0.04499995391764916 0.018792951158692638 0 0.046456488117509472 0.019117545900868581 0 0.046076706751618804 0.017829238430480343 0 0.046173340215485643 0.020391242554970188 0 0.04499995391764916 0.018792951158692638 0 0.046456488117509472 0.019117545900868581 0 0.04793495325802135 0.019861758442669835 0 0.047183110413243454 0.020112502293343368 0 0.047426992062070204 0.019128598369864788 0 0.047183110413243454 0.020112502293343368 0 0.046456488117509472 0.019117545900868581 0 0.047426992062070204 0.019128598369864788 0 0.046456488117509472 0.019117545900868581 0 0.046808445288623601 0.018445207813658847 0 0.046076706751618804 0.017829238430480343 0 0.046456488117509472 0.019117545900868581 0 0.046808445288623601 0.018445207813658847 0 0.047426992062070204 0.019128598369864788 0 0.046808445288623601 0.018445207813658847 0 0.047426992062070204 0.019128598369864788 0 0.047392365951145828 0.018391413438146476 0 0.047914774774517138 0.018175765405958673 0 0.047426992062070204 0.019128598369864788 0 0.047392365951145828 0.018391413438146476 0 0.049582561170102492 0.01850930475930759 0 0.046481305824680748 0.015617401702112942 0 0.047915441470992005 0.018127440610168282 0 0.046967247830091895 0.017533269497369223 0 0.046962574023876748 0.015848545552362606 0 0.047678866448882563 0.018129008449139224 0 0.04715725342895017 0.018069597275854714 0 0.046967247830091895 0.017533269497369223 0 0.047915441470992005 0.018127440610168282 0 0.047678866448882563 0.018129008449139224 0 0.046967247830091895 0.017533269497369223 0 0.047914774774517138 0.018175765405958673 0 0.047678866448882563 0.018129008449139224 0 0.047392365951145828 0.018391413438146476 0 0.047678866448882563 0.018129008449139224 0 0.047392365951145828 0.018391413438146476 0 0.04715725342895017 0.018069597275854714 0 0.046808445288623601 0.018445207813658847 0 0.047392365951145828 0.018391413438146476 0 0.04715725342895017 0.018069597275854714 0 0.046808445288623601 0.018445207813658847 0 0.046967247830091895 0.017533269497369223 0 0.046076706751618804 0.017829238430480343 0 0.046808445288623601 0.018445207813658847 0 0.04715725342895017 0.018069597275854714 0 0.046967247830091895 0.017533269497369223 0 0.046967247830091895 0.017533269497369223 0 0.046076706751618804 0.017829238430480343 0 0.046222280173018208 0.016632055641986446 0 0.04499995391764916 0.018792951158692638 0 0.046076706751618804 0.017829238430480343 0 0.044999947572630879 0.016375995479035205 0 0.046076706751618804 0.017829238430480343 0 0.044999947572630879 0.016375995479035205 0 0.046222280173018208 0.016632055641986446 0 0.044999947572630879 0.016375995479035205 0 0.046222280173018208 0.016632055641986446 0 0.045824042625357282 0.015066830423661746 0 0.046222280173018208 0.016632055641986446 0 0.045824042625357282 0.015066830423661746 0 0.046962574023876748 0.015848545552362606 0 0.045824042625357282 0.015066830423661746 0 0.046962574023876748 0.015848545552362606 0 0.045986748127435861 0.013686766997630296 0 0.044999947572630879 0.016375995479035205 0 0.045824042625357282 0.015066830423661746 0 0.044999993670382071 0.013959070243193546 0 0.045824042625357282 0.015066830423661746 0 0.044999993670382071 0.013959070243193546 0 0.045986748127435861 0.013686766997630296 0 0.046561182905628551 0.015758889183277808 0 0.048150742081762489 0.014514241533150458 0 0.045732994322753975 0.013639942020650888 0 0.046481305824680748 0.015617401702112942 0 0.045911283166029937 0.013719426753799314 0 0.046967247830091895 0.017533269497369223 0 0.046222280173018208 0.016632055641986446 0 0.046962574023876748 0.015848545552362606 0 0.046561182905628551 0.015758889183277808 0 0.048097287456702519 0.016278564618445342 0 0.048150742081762489 0.014514241533150458 0 0.047431783071246764 0.017789921888486378 0 0.046561182905628551 0.015758889183277808 0 0.048097287456702519 0.016278564618445342 0 0.048097287456702519 0.016278564618445342 0 0.049627446993333255 0.015822819842159178 0 0.048150742081762489 0.014514241533150458 0 0.049319158959075328 0.01784850716268423 0 0.048097287456702519 0.016278564618445342 0 0.049627446993333255 0.015822819842159178 0 0.035361099101641098 0.017052597198557975 0 0.035053996672206579 0.018977293250264669 0 0.049947633594398404 0.013702921340691294 0 0.049627446993333255 0.015822819842159178 0 0.048150742081762489 0.014514241533150458 0 0.049947633594398404 0.013702921340691294 0 0.048150742081762489 0.014514241533150458 0 0.047889525195928428 0.012299689286475839 0 0.050242638421046218 0.011563454577388535 0 0.049947633594398404 0.013702921340691294 0 0.047889525195928428 0.012299689286475839 0 0.047889525195928428 0.012299689286475839 0 0.046336040268549178 0.011897834555244676 0 0.045732994322753975 0.013639942020650888 0 0.046742529167095655 0.010116071669285973 0 0.047889525195928428 0.012299689286475839 0 0.046336040268549178 0.011897834555244676 0 0.045000108059662675 0.01154258179208081 0 0.045911283166029937 0.013719426753799314 0 0.046336040268549178 0.011897834555244676 0 0.044999585351998092 0.011542202463575259 0 0.045732994322753975 0.013639942020650888 0 0.044999998573671714 0.011542227082434936 0 0.044999993670382071 0.013959070243193546 0 0.045986748127435861 0.013686766997630296 0 0.048150742081762489 0.014514241533150458 0 0.047889525195928428 0.012299689286475839 0 0.045732994322753975 0.013639942020650888 0 0.046261967245313756 0.032237652272519998 0 0.045671418267179881 0.031856568482368022 0 0.04682328283823773 0.030913816463762553 0 0.046111632576864736 0.03444025507614408 0 0.04635541856065329 0.034397852550399274 0 0.046283438390390827 0.03420608805827742 0 0.046237544767792821 0.033333654793602084 0 0.045608525410019585 0.032367176228785592 0 0.046111632576864736 0.03444025507614408 0 0.04635541856065329 0.034397852550399274 0 0.046365753137348434 0.034603292814126996 0 0.045756469555420502 0.031529217010302917 0 0.044999999316819986 0.03329387979498806 0 0.044999992729562191 0.030877028236939386 0 0.046261967245313756 0.032237652272519998 0 0.045671418267179881 0.031856568482368022 0 0.045000023809678845 0.033294069126122934 0 0.045723669662053844 0.031686866311460754 0 0.045000160783858635 0.033293531081136467 0 0.046237544767792821 0.033333654793602084 0 0.045659270740160872 0.034306153822179559 0 0.046261967245313756 0.032237652272519998 0 0.045682673782791838 0.033684900957647881 0 0.045000023809678845 0.033294069126122934 0 0.045702280037142495 0.034854514875819226 0 0.046365753137348434 0.034603292814126996 0 0.046282174228043538 0.035231796743996104 0 0.046111632576864736 0.03444025507614408 0 0.045702280037142495 0.034854514875819226 0 0.046365753137348434 0.034603292814126996 0 0.046365753137348434 0.034603292814126996 0 0.046740842734547802 0.034857095438969754 0 0.046282174228043538 0.035231796743996104 0 0.032937304279352729 0.04196502963637741 0 0.033854492697081878 0.040923963873718425 0 0.033221989160610692 0.039138187954395068 0 0.046365753137348434 0.034603292814126996 0 0.046740842734547802 0.034857095438969754 0 0.04647184477960542 0.034452509731425614 0 0.03985251530174775 0.038510451700952943 0 0.039766000282102358 0.036431495119363569 0 0.032937304279352729 0.04196502963637741 0 0.033854492697081878 0.040923963873718425 0 0.034346603938334115 0.042517335566730402 0 0.033777332473190425 0.037815273868480645 0 0.03065334662967293 0.039433788340069248 0 0.033042508547966316 0.039388777728963313 0 0.03279050255300929 0.03907007360066423 0 0.033322609680686684 0.039554844412098965 0 0.035074590413307072 0.041040605603542279 0 0.034346603938334115 0.042517335566730402 0 0.035308647313163431 0.042589908139653451 0 0.035074590413307072 0.041040605603542279 0 0.036119885717233534 0.042424012071035945 0 0.035308647313163431 0.042589908139653451 0 0.033854492697081878 0.040923963873718425 0 0.035074590413307072 0.041040605603542279 0 0.034346603938334115 0.042517335566730402 0 0.033854492697081878 0.040923963873718425 0 0.035074590413307072 0.041040605603542279 0 0.033919811581591186 0.039486803737951222 0 0.03152755975543 0.037535751790549597 0 0.031624606243085954 0.037524002975526292 0 0.031474885907661218 0.037464102335872593 0 0.034187061570918754 0.040340494384984868 0 0.033777332473190425 0.037815273868480645 0 0.031624606243085954 0.037524002975526292 0 0.031660725398294669 0.037545422687725441 0 0.031558804143082229 0.037589084185980969 0 0.03152755975543 0.037535751790549597 0 0.031624606243085954 0.037524002975526292 0 0.031558804143082229 0.037589084185980969 0 0.04635541856065329 0.034397852550399274 0 0.046460383010160297 0.034445159574315688 0 0.046283438390390827 0.03420608805827742 0 0.046740842734547802 0.034857095438969754 0 0.04647184477960542 0.034452509731425614 0 0.046460150075190755 0.03442143460204089 0 0.04635541856065329 0.034397852550399274 0 0.046365753137348434 0.034603292814126996 0 0.04647184477960542 0.034452509731425614 0 0.033854492697081878 0.040923963873718425 0 0.033919811581591186 0.039486803737951222 0 0.033221989160610692 0.039138187954395068 0 0.033919811581591186 0.039486803737951222 0 0.033221989160610692 0.039138187954395068 0 0.033409240287981277 0.038771339383961517 0 0.040200420427947366 0.035961591500636304 0 0.039766000282102358 0.036431495119363569 0 0.039766000282102358 0.036431495119363569 0 0.038300782238500405 0.036322402026230723 0 0.033777332473190425 0.037815273868480645 0 0.038300782238500405 0.036322402026230723 0 0.04635541856065329 0.034397852550399274 0 0.046459426546157902 0.034462750655403579 0 0.046460383010160297 0.034445159574315688 0 0.038300782238500405 0.036322402026230723 0 0.040389081657240818 0.03495543150861527 0 0.04635541856065329 0.034397852550399274 0 0.04647184477960542 0.034452509731425614 0 0.046459426546157902 0.034462750655403579 0 0.041753693562361492 0.034416482707334689 0 0.04115524832493684 0.033748491499488477 0 0.040414902255939307 0.033464943119234744 0 0.035788728999082496 0.035672870691826189 0 0.036502980784786754 0.034155405004781897 0 0.035834325183531773 0.034408441494775427 0 0.04115524832493684 0.033748491499488477 0 0.041911281375800767 0.032582461261613085 0 0.040414902255939307 0.033464943119234744 0 0.038300782238500405 0.036322402026230723 0 0.045608525410019585 0.032367176228785592 0 0.0417637155749504 0.034419086358428906 0 0.04115524832493684 0.033748491499488477 0 0.041911281375800767 0.032582461261613085 0 0.038300782238500405 0.036322402026230723 0 0.038968839270887227 0.033163566606596764 0 0.031558804143082229 0.037589084185980969 0 0.031555482517105021 0.037656514434349232 0 0.031422803750696164 0.037663079753417102 0 0.038300782238500405 0.036322402026230723 0 0.033886709894997993 0.035839234529522875 0 0.031660725398294669 0.037545422687725441 0 0.031558804143082229 0.037589084185980969 0 0.031555482517105021 0.037656514434349232 0 0.036502980784786754 0.034155405004781897 0 0.035834325183531773 0.034408441494775427 0 0.035940028230560465 0.033165763376166613 0 0.038968839270887227 0.033163566606596764 0 0.038818576456140785 0.032446462978533146 0 0.041911281375800767 0.032582461261613085 0 0.042119490785384482 0.030819987035108992 0 0.04136419757870221 0.031264370669941595 0 0.041911281375800767 0.032582461261613085 0 0.040414902255939307 0.033464943119234744 0 0.04136419757870221 0.031264370669941595 0 0.045608525410019585 0.032367176228785592 0 0.044964381739938865 0.029365394450309515 0 0.047036305117913409 0.028376280158493413 0 0.046474230272377105 0.029726604725820258 0 0.045642020350079818 0.029099209515995639 0 0.046826782312428754 0.02855857243922863 0 0.046959978145968133 0.030793986903532414 0 0.048111039865728178 0.028126667996608321 0 0.046826782312428754 0.02855857243922863 0 0.046129461993128992 0.030159538501912133 0 0.046959978145968133 0.030793986903532414 0 0.046957379398500088 0.028416862785225025 0 0.046227866269599981 0.030134426894727111 0 0.045671418267179881 0.031856568482368022 0 0.046266289680181087 0.030490735409879708 0 0.04682328283823773 0.030913816463762553 0 0.046227866269599981 0.030134426894727111 0 0.045608525410019585 0.032367176228785592 0 0.045723669662053844 0.031686866311460754 0 0.046227866269599981 0.030134426894727111 0 0.044999992729562191 0.030877028236939386 0 0.045579615161769969 0.029944090686340272 0 0.044999972606750545 0.0284601384209296 0 0.045756469555420502 0.031529217010302917 0 0.046511803251872645 0.029761216028062747 0 0.045579615161769969 0.029944090686340272 0 0.045756469555420502 0.031529217010302917 0 0.044999992729562191 0.030877028236939386 0 0.045579615161769969 0.029944090686340272 0 0.046511803251872645 0.029761216028062747 0 0.045579615161769969 0.029944090686340272 0 0.045642020350079818 0.029099209515995639 0 0.047036305117913409 0.028376280158493413 0 0.045642020350079818 0.029099209515995639 0 0.046033361419443496 0.028069321357016681 0 0.045579615161769969 0.029944090686340272 0 0.045642020350079818 0.029099209515995639 0 0.044999972606750545 0.0284601384209296 0 0.046227866269599981 0.030134426894727111 0 0.045737828545123607 0.02932658520377289 0 0.045642020350079818 0.029099209515995639 0 0.044999972606750545 0.0284601384209296 0 0.046033361419443496 0.028069321357016681 0 0.044999972606750545 0.0284601384209296 0 0.046033361419443496 0.028069321357016681 0 0.045836953472918593 0.027179204161893185 0 0.044999972606750545 0.0284601384209296 0 0.045836953472918593 0.027179204161893185 0 0.044999947267574045 0.026043348937095187 0 0.046033361419443496 0.028069321357016681 0 0.045836953472918593 0.027179204161893185 0 0.046612903803252295 0.027369937621673359 0 0.046826782312428754 0.02855857243922863 0 0.047558182935055544 0.027052211369313624 0 0.048111039865728178 0.028126667996608321 0 0.047036305117913409 0.028376280158493413 0 0.046612903803252295 0.027369937621673359 0 0.047558182935055544 0.027052211369313624 0 0.046957379398500088 0.028416862785225025 0 0.047467533196683544 0.027248547090288219 0 0.047036305117913409 0.028376280158493413 0 0.046033361419443496 0.028069321357016681 0 0.046612903803252295 0.027369937621673359 0 0.046612903803252295 0.027369937621673359 0 0.047558182935055544 0.027052211369313624 0 0.046636463187990959 0.026369960435688934 0 0.045836953472918593 0.027179204161893185 0 0.046612903803252295 0.027369937621673359 0 0.046636463187990959 0.026369960435688934 0 0.046636463187990959 0.026369960435688934 0 0.047028159455671077 0.024904490366871691 0 0.047705100546674345 0.025764717407763114 0 0.047558182935055544 0.027052211369313624 0 0.046636463187990959 0.026369960435688934 0 0.047705100546674345 0.025764717407763114 0 0.045836953472918593 0.027179204161893185 0 0.046636463187990959 0.026369960435688934 0 0.044999947267574045 0.026043348937095187 0 0.046636463187990959 0.026369960435688934 0 0.044999947267574045 0.026043348937095187 0 0.047028159455671077 0.024904490366871691 0 0.044999947267574045 0.026043348937095187 0 0.046361115955106051 0.023684522009818482 0 0.044999937991765479 0.023626479145848086 0 0.044999947267574045 0.026043348937095187 0 0.047028159455671077 0.024904490366871691 0 0.046361115955106051 0.023684522009818482 0 0.047028159455671077 0.024904490366871691 0 0.046361115955106051 0.023684522009818482 0 0.048003452786214582 0.023835909703856052 0 0.046306385816837908 0.022078668162394569 0 0.046361115955106051 0.023684522009818482 0 0.04738945368898987 0.022793706433669021 0 0.046361115955106051 0.023684522009818482 0 0.04738945368898987 0.022793706433669021 0 0.048003452786214582 0.023835909703856052 0 0.046306385816837908 0.022078668162394569 0 0.046361115955106051 0.023684522009818482 0 0.044999937991765479 0.023626479145848086 0 0.03219381658901227 0.027559620312703141 0 0.033218514548696988 0.027034163419557531 0 0.032886453684544292 0.026148529689725745 0 0.03111273702090463 0.029178280371232185 0 0.035273774681075593 0.029211894657552556 0 0.043317106897028813 0.024433838086508671 0 0.045254296210896605 0.025416863648058414 0 0.04167819578588508 0.02580049711198644 0 0.041530632748511577 0.027144939383561131 0 0.042077309217979614 0.026858254634778839 0 0.043317106897028813 0.024433838086508671 0 0.035273774681075593 0.029211894657552556 0 0.049355334144678062 0.022958078214137798 0 0.048003452786214582 0.023835909703856052 0 0.049215358213141151 0.024357478554702636 0 0.048339393542384985 0.022481316494071587 0 0.049355334144678062 0.022958078214137798 0 0.048003452786214582 0.023835909703856052 0 0.048339393542384985 0.022481316494071587 0 0.04738945368898987 0.022793706433669021 0 0.048003452786214582 0.023835909703856052 0 0.04836835969323753 0.02495834239197715 0 0.049215358213141151 0.024357478554702636 0 0.049075012957839087 0.025760495558166126 0 0.048003452786214582 0.023835909703856052 0 0.04836835969323753 0.02495834239197715 0 0.049215358213141151 0.024357478554702636 0 0.047028159455671077 0.024904490366871691 0 0.048003452786214582 0.023835909703856052 0 0.04836835969323753 0.02495834239197715 0 0.047028159455671077 0.024904490366871691 0 0.04836835969323753 0.02495834239197715 0 0.047705100546674345 0.025764717407763114 0 0.036566840889469224 0.030654359545320278 0 0.036936454218112036 0.03162668006609777 0 0.036062959769477355 0.031881184304949989 0 0.045254296210896605 0.025416863648058414 0 0.042470796775646399 0.028621635793703963 0 0.041530632748511577 0.027144939383561131 0 0.042077309217979614 0.026858254634778839 0 0.041397068093601136 0.028482344104730987 0 0.035273774681075593 0.029211894657552556 0 0.042470796775646399 0.028621635793703963 0 0.035273774681075593 0.029211894657552556 0 0.03361753163430057 0.032264057260804418 0 0.029988655816643305 0.031817413287591606 0 0.030386113961839972 0.032920183174137183 0 0.030745433518099413 0.032185592949968596 0 0.036062959769477355 0.031881184304949989 0 0.035940028230560465 0.033165763376166613 0 0.036492904852209747 0.032593151198025257 0 0.036936454218112036 0.03162668006609777 0 0.036062959769477355 0.031881184304949989 0 0.036492904852209747 0.032593151198025257 0 0.036936454218112036 0.03162668006609777 0 0.036492904852209747 0.032593151198025257 0 0.037276321212547564 0.032587920254059183 0 0.042470796775646399 0.028621635793703963 0 0.038818576456140785 0.032446462978533146 0 0.047558182935055544 0.027052211369313624 0 0.049075012957839087 0.025760495558166126 0 0.047705100546674345 0.025764717407763114 0 0.04836835969323753 0.02495834239197715 0 0.049075012957839087 0.025760495558166126 0 0.047705100546674345 0.025764717407763114 0 0.042470796775646399 0.028621635793703963 0 0.044964381739938865 0.029365394450309515 0 0.047558182935055544 0.027052211369313624 0 0.049075012957839087 0.025760495558166126 0 0.048111039865728178 0.028126667996608321 0 0.04231223480489938 0.029048711766666933 0 0.042119490785384482 0.030819987035108992 0 0.04136419757870221 0.031264370669941595 0 0.036502980784786754 0.034155405004781897 0 0.036492904852209747 0.032593151198025257 0 0.037276321212547564 0.032587920254059183 0 0.036502980784786754 0.034155405004781897 0 0.035940028230560465 0.033165763376166613 0 0.036492904852209747 0.032593151198025257 0 0.033886709894997993 0.035839234529522875 0 0.030868648558719954 0.035967017066061459 0 0.023223164077695153 0.039746180932164851 0 0.022785495885329434 0.039453430953012646 0 0.023176659868218485 0.040270436911110936 0 0.030868648558719954 0.035967017066061459 0 0.025315047626801875 0.039811632415300863 0 0.023223164077695153 0.039746180932164851 0 0.023124198791126569 0.039354748599625185 0 0.022785495885329434 0.039453430953012646 0 0.023479969962466232 0.039863761832096757 0 0.023223164077695153 0.039746180932164851 0 0.023478298008713101 0.03934004307529651 0 0.023478298008713101 0.03934004307529651 0 0.023124198791126569 0.039354748599625185 0 0.02295212870537711 0.038755308502227713 0 0.023223164077695153 0.039746180932164851 0 0.023478298008713101 0.03934004307529651 0 0.023124198791126569 0.039354748599625185 0 0.030386113961839972 0.032920183174137183 0 0.030804393011903672 0.034037056057796826 0 0.031523121398743421 0.032561123182935914 0 0.023124198791126569 0.039354748599625185 0 0.022785495885329434 0.039453430953012646 0 0.02295212870537711 0.038755308502227713 0 0.030868648558719954 0.035967017066061459 0 0.026788462548193753 0.035960687970359291 0 0.03361753163430057 0.032264057260804418 0 0.030868648558719954 0.035967017066061459 0 0.030386113961839972 0.032920183174137183 0 0.030745433518099413 0.032185592949968596 0 0.031523121398743421 0.032561123182935914 0 0.029988655816643305 0.031817413287591606 0 0.030745433518099413 0.032185592949968596 0 0.031081756013399704 0.031447328118204255 0 0.030745433518099413 0.032185592949968596 0 0.031523121398743421 0.032561123182935914 0 0.031081756013399704 0.031447328118204255 0 0.023478298008713101 0.03934004307529651 0 0.02295212870537711 0.038755308502227713 0 0.02368637828393259 0.038470233360164849 0 0.02295212870537711 0.038755308502227713 0 0.023274709301427284 0.037723835354689407 0 0.02368637828393259 0.038470233360164849 0 0.026788462548193753 0.035960687970359291 0 0.027841094836113658 0.034559567980387215 0 0.031526362877183856 0.030011300588151962 0 0.032187690770135474 0.031129232091568183 0 0.031081756013399704 0.031447328118204255 0 0.031523121398743421 0.032561123182935914 0 0.032187690770135474 0.031129232091568183 0 0.031081756013399704 0.031447328118204255 0 0.03061730568839641 0.030423696927160467 0 0.029988655816643305 0.031817413287591606 0 0.031081756013399704 0.031447328118204255 0 0.031526362877183856 0.030011300588151962 0 0.03061730568839641 0.030423696927160467 0 0.031081756013399704 0.031447328118204255 0 0.023375265925456058 0.040649103783300874 0 0.023388493781209829 0.040486175947428461 0 0.023147575884304675 0.040552819340087407 0 0.024001628442566796 0.038234276172156148 0 0.023890853432304147 0.039408094427568097 0 0.023388493781209829 0.040486175947428461 0 0.023255366243872977 0.040480275008897865 0 0.023147575884304675 0.040552819340087407 0 0.024517230321456394 0.036945286637010646 0 0.024403806293362189 0.038141138430913019 0 0.023937842971529597 0.03758681950907522 0 0.024403806293362189 0.038141138430913019 0 0.023937842971529597 0.03758681950907522 0 0.02368637828393259 0.038470233360164849 0 0.023274709301427284 0.037723835354689407 0 0.023937842971529597 0.03758681950907522 0 0.02368637828393259 0.038470233360164849 0 0.024403806293362189 0.038141138430913019 0 0.02368637828393259 0.038470233360164849 0 0.024137968572324073 0.039151319422149798 0 0.023388493781209829 0.040486175947428461 0 0.023500121190380887 0.040363705480256591 0 0.023255366243872977 0.040480275008897865 0 0.023890853432304147 0.039408094427568097 0 0.023812436686615559 0.039696467910267028 0 0.023500121190380887 0.040363705480256591 0 0.023222750327252316 0.040403111073344398 0 0.023255366243872977 0.040480275008897865 0 0.023500121190380887 0.040363705480256591 0 0.023411486109522497 0.040223353320547148 0 0.023222750327252316 0.040403111073344398 0 0.023812436686615559 0.039696467910267028 0 0.023734568930006514 0.039925296699370914 0 0.023500121190380887 0.040363705480256591 0 0.023411486109522497 0.040223353320547148 0 0.023705082251030584 0.03997278033641298 0 0.023478298008713101 0.03934004307529651 0 0.024137968572324073 0.039151319422149798 0 0.023705082251030584 0.03997278033641298 0 0.023478298008713101 0.03934004307529651 0 0.02368637828393259 0.038470233360164849 0 0.024137968572324073 0.039151319422149798 0 0.023479969962466232 0.039863761832096757 0 0.023478298008713101 0.03934004307529651 0 0.023705082251030584 0.03997278033641298 0 0.023411486109522497 0.040223353320547148 0 0.023705082251030584 0.03997278033641298 0 0.023409521895170059 0.040060546589839957 0 0.023705082251030584 0.03997278033641298 0 0.023524413461018856 0.039997395733256481 0 0.023409521895170059 0.040060546589839957 0 0.023705082251030584 0.03997278033641298 0 0.023524413461018856 0.039997395733256481 0 0.023558152183530051 0.039987173345386116 0 0.023524413461018856 0.039997395733256481 0 0.023527205520793758 0.039975608782361539 0 0.023558152183530051 0.039987173345386116 0 0.023524413461018856 0.039997395733256481 0 0.023527205520793758 0.039975608782361539 0 0.023431092590740159 0.039984159076188734 0 0.023527205520793758 0.039975608782361539 0 0.023436581579303041 0.039948505331125296 0 0.023431092590740159 0.039984159076188734 0 0.023527205520793758 0.039975608782361539 0 0.023544439357143281 0.039999638339616048 0 0.023558152183530051 0.039987173345386116 0 0.023527205520793758 0.039975608782361539 0 0.023544439357143281 0.039999638339616048 0 0.023574462223390002 0.039962099842991476 0 0.023479969962466232 0.039863761832096757 0 0.023705082251030584 0.03997278033641298 0 0.023558152183530051 0.039987173345386116 0 0.023544439357143281 0.039999638339616048 0 0.023558152183530051 0.039987173345386116 0 0.023365589048844896 0.039975611057739953 0 0.023479969962466232 0.039863761832096757 0 0.023223164077695153 0.039746180932164851 0 0.023365589048844896 0.039975611057739953 0 0.023201211326626347 0.039990903109054343 0 0.025315047626801875 0.039811632415300863 0 0.023479969962466232 0.039863761832096757 0 0.023558152183530051 0.039987173345386116 0 0.023365589048844896 0.039975611057739953 0 0.031555482517105021 0.037656514434349232 0 0.031469180318401541 0.037742908072903807 0 0.031422803750696164 0.037663079753417102 0 0.031558804143082229 0.037589084185980969 0 0.031422803750696164 0.037663079753417102 0 0.031453517422262975 0.037564626967010045 0 0.025315047626801875 0.039811632415300863 0 0.028090875165520515 0.038727159211025861 0 0.024522923462490506 0.040924033233068938 0 0.024630668455111755 0.040414380631182495 0 0.024609424655872025 0.040446108719997272 0 0.025315047626801875 0.039811632415300863 0 0.023868699725724283 0.04029497224669408 0 0.024522923462490506 0.040924033233068938 0 0.0243497840749285 0.04051870488998479 0 0.024609424655872025 0.040446108719997272 0 0.023544439357143281 0.039999638339616048 0 0.023365589048844896 0.039975611057739953 0 0.023540069245193609 0.040003385912404564 0 0.023544439357143281 0.039999638339616048 0 0.023540069245193609 0.040003385912404564 0 0.023574462223390002 0.039962099842991476 0 0.0243497840749285 0.04051870488998479 0 0.024385232975887274 0.040257314791211439 0 0.024103392151370747 0.040120724417749123 0 0.023868699725724283 0.04029497224669408 0 0.023879431488376793 0.039977265027555144 0 0.023540069245193609 0.040003385912404564 0 0.023660425813861522 0.039899009961202429 0 0.023574462223390002 0.039962099842991476 0 0.0243497840749285 0.04051870488998479 0 0.024385232975887274 0.040257314791211439 0 0.024609424655872025 0.040446108719997272 0 0.028090875165520515 0.038727159211025861 0 0.03065334662967293 0.039433788340069248 0 0.03152755975543 0.037535751790549597 0 0.031558804143082229 0.037589084185980969 0 0.031453517422262975 0.037564626967010045 0 0.03152755975543 0.037535751790549597 0 0.031453517422262975 0.037564626967010045 0 0.031474885907661218 0.037464102335872593 0 0.024630668455111755 0.040414380631182495 0 0.024609424655872025 0.040446108719997272 0 0.02469054490159623 0.04012204757083794 0 0.024385232975887274 0.040257314791211439 0 0.024609424655872025 0.040446108719997272 0 0.024520055149067514 0.040127972202763436 0 0.024629115307564692 0.040456427376436385 0 0.024710575173236732 0.039985712451925316 0 0.024630668455111755 0.040414380631182495 0 0.02469054490159623 0.04012204757083794 0 0.024884724647701594 0.039910793770496451 0 0.02469054490159623 0.04012204757083794 0 0.024884724647701594 0.039910793770496451 0 0.024733492409987345 0.039791950951556847 0 0.030487203717876596 0.040465788630346479 0 0.030362694251317563 0.041212565440426514 0 0.031380307872081459 0.041151851122499729 0 0.024710575173236732 0.039985712451925316 0 0.027340927789178942 0.040508338517095344 0 0.03065334662967293 0.039433788340069248 0 0.027340927789178942 0.040508338517095344 0 0.034187061570918754 0.040340494384984868 0 0.033561358704263689 0.041463138030152655 0 0.033042508547966316 0.039388777728963313 0 0.033322609680686684 0.039554844412098965 0 0.03329699123727458 0.039706236126557305 0 0.03065334662967293 0.039433788340069248 0 0.033561358704263689 0.041463138030152655 0 0.024103392151370747 0.040120724417749123 0 0.024150477420601901 0.039802310803866946 0 0.023812616473311753 0.03965347356923183 0 0.024385232975887274 0.040257314791211439 0 0.024103392151370747 0.040120724417749123 0 0.024334838111636961 0.039968036291070493 0 0.024385232975887274 0.040257314791211439 0 0.024520055149067514 0.040127972202763436 0 0.024334838111636961 0.039968036291070493 0 0.024520055149067514 0.040127972202763436 0 0.024334838111636961 0.039968036291070493 0 0.024485558619442491 0.039767787885096856 0 0.024334838111636961 0.039968036291070493 0 0.024150477420601901 0.039802310803866946 0 0.024485558619442491 0.039767787885096856 0 0.024103392151370747 0.040120724417749123 0 0.024334838111636961 0.039968036291070493 0 0.024150477420601901 0.039802310803866946 0 0.023660425813861522 0.039899009961202429 0 0.023638099805261902 0.039803040697451601 0 0.023812616473311753 0.03965347356923183 0 0.023879431488376793 0.039977265027555144 0 0.02380056536793769 0.039672363686771232 0 0.023638099805261902 0.039803040697451601 0 0.023565843388413558 0.039892582804763613 0 0.023509160513649409 0.039735366083445224 0 0.023660425813861522 0.039899009961202429 0 0.023638099805261902 0.039803040697451601 0 0.023565843388413558 0.039892582804763613 0 0.023440445778214563 0.039887390860346761 0 0.023565843388413558 0.039892582804763613 0 0.023509160513649409 0.039735366083445224 0 0.025530171661907342 0.043257823205002002 0 0.025631317884590929 0.042950396325870721 0 0.023440445778214563 0.039887390860346761 0 0.023340135111693142 0.039800603609390917 0 0.023509160513649409 0.039735366083445224 0 0.023527205520793758 0.039975608782361539 0 0.023440445778214563 0.039887390860346761 0 0.023565843388413558 0.039892582804763613 0 0.023527205520793758 0.039975608782361539 0 0.023440445778214563 0.039887390860346761 0 0.023436581579303041 0.039948505331125296 0 0.023527205520793758 0.039975608782361539 0 0.023574462223390002 0.039962099842991476 0 0.023565843388413558 0.039892582804763613 0 0.023660425813861522 0.039899009961202429 0 0.023574462223390002 0.039962099842991476 0 0.023565843388413558 0.039892582804763613 0 0.02328358619285428 0.039886895226360838 0 0.023340135111693142 0.039800603609390917 0 0.023122045958258407 0.039862743056658753 0 0.023160232277478637 0.039901540017411204 0 0.02328358619285428 0.039886895226360838 0 0.023122045958258407 0.039862743056658753 0 0.023258796493758966 0.040191754621163867 0 0.024525747455160424 0.041535705692480905 0 0.023160232277478637 0.039901540017411204 0 0.02299495782481362 0.040030281004602868 0 0.023116566162145386 0.040015081170647386 0 0.023160232277478637 0.039901540017411204 0 0.023256527255947033 0.039940231589119302 0 0.023116566162145386 0.040015081170647386 0 0.023160232277478637 0.039901540017411204 0 0.023256527255947033 0.039940231589119302 0 0.02328358619285428 0.039886895226360838 0 0.023440445778214563 0.039887390860346761 0 0.023360737629785574 0.039936406484906761 0 0.02328358619285428 0.039886895226360838 0 0.023256527255947033 0.039940231589119302 0 0.023360737629785574 0.039936406484906761 0 0.02328358619285428 0.039886895226360838 0 0.023440445778214563 0.039887390860346761 0 0.02328358619285428 0.039886895226360838 0 0.023340135111693142 0.039800603609390917 0 0.023440445778214563 0.039887390860346761 0 0.023436581579303041 0.039948505331125296 0 0.023360737629785574 0.039936406484906761 0 0.025530171661907342 0.043257823205002002 0 0.024525747455160424 0.041535705692480905 0 0.027589173962539786 0.046381784640637844 0 0.027297632645852461 0.046475423235244014 0 0.027383557146727276 0.04625025448577269 0 0.027124180454855921 0.046324166151467977 0 0.027297632645852461 0.046475423235244014 0 0.027383557146727276 0.04625025448577269 0 0.024992701293044803 0.043247971915462584 0 0.024525747455160424 0.041535705692480905 0 0.022753232701036439 0.040082840029211926 0 0.02266274812839307 0.04008247620752993 0 0.022689968039445927 0.040036756473479457 0 0.022753232701036439 0.040082840029211926 0 0.02273282723924205 0.040098831661245296 0 0.02266274812839307 0.04008247620752993 0 0.02273282723924205 0.040098831661245296 0 0.023078478285913542 0.039829234055725457 0 0.02299495782481362 0.040030281004602868 0 0.022240853469316913 0.039768883959993673 0 0.024525747455160424 0.041535705692480905 0 0.022753232701036439 0.040082840029211926 0 0.02273282723924205 0.040098831661245296 0 0.022794854292020123 0.040110725779716055 0 0.023160232277478637 0.039901540017411204 0 0.023078478285913542 0.039829234055725457 0 0.02299495782481362 0.040030281004602868 0 0.02299495782481362 0.040030281004602868 0 0.02304587402990417 0.040118277699927429 0 0.023116566162145386 0.040015081170647386 0 0.02273282723924205 0.040098831661245296 0 0.02299495782481362 0.040030281004602868 0 0.022868655963730732 0.040161882253174123 0 0.02299495782481362 0.040030281004602868 0 0.022868655963730732 0.040161882253174123 0 0.02304587402990417 0.040118277699927429 0 0.02273282723924205 0.040098831661245296 0 0.022868655963730732 0.040161882253174123 0 0.022572696462334823 0.040263544810882214 0 0.022868655963730732 0.040161882253174123 0 0.022801913191803542 0.040295453106127574 0 0.022572696462334823 0.040263544810882214 0 0.022801913191803542 0.040295453106127574 0 0.022973129636154638 0.040210413530800584 0 0.023009437802952375 0.040290280863837347 0 0.022868655963730732 0.040161882253174123 0 0.022801913191803542 0.040295453106127574 0 0.022973129636154638 0.040210413530800584 0 0.022868655963730732 0.040161882253174123 0 0.02304587402990417 0.040118277699927429 0 0.022973129636154638 0.040210413530800584 0 0.022973129636154638 0.040210413530800584 0 0.023153977327206206 0.040154377585231618 0 0.023009437802952375 0.040290280863837347 0 0.023153977327206206 0.040154377585231618 0 0.023170864443664389 0.040085700890177843 0 0.023325296365402638 0.04004472492502674 0 0.02304587402990417 0.040118277699927429 0 0.022973129636154638 0.040210413530800584 0 0.023153977327206206 0.040154377585231618 0 0.02304587402990417 0.040118277699927429 0 0.023153977327206206 0.040154377585231618 0 0.023170864443664389 0.040085700890177843 0 0.023170864443664389 0.040085700890177843 0 0.023216744932708058 0.040009018570323844 0 0.023116566162145386 0.040015081170647386 0 0.02304587402990417 0.040118277699927429 0 0.023170864443664389 0.040085700890177843 0 0.023116566162145386 0.040015081170647386 0 0.023170864443664389 0.040085700890177843 0 0.023216744932708058 0.040009018570323844 0 0.023325296365402638 0.04004472492502674 0 0.023256527255947033 0.039940231589119302 0 0.023216744932708058 0.040009018570323844 0 0.023116566162145386 0.040015081170647386 0 0.023256527255947033 0.039940231589119302 0 0.023216744932708058 0.040009018570323844 0 0.023327699666178869 0.039991923638467153 0 0.023524413461018856 0.039997395733256481 0 0.023431092590740159 0.039984159076188734 0 0.023325296365402638 0.04004472492502674 0 0.023436581579303041 0.039948505331125296 0 0.023360737629785574 0.039936406484906761 0 0.023431092590740159 0.039984159076188734 0 0.023360737629785574 0.039936406484906761 0 0.023327699666178869 0.039991923638467153 0 0.023431092590740159 0.039984159076188734 0 0.023256527255947033 0.039940231589119302 0 0.023360737629785574 0.039936406484906761 0 0.023327699666178869 0.039991923638467153 0 0.023216744932708058 0.040009018570323844 0 0.023327699666178869 0.039991923638467153 0 0.023325296365402638 0.04004472492502674 0 0.023327699666178869 0.039991923638467153 0 0.023431092590740159 0.039984159076188734 0 0.023325296365402638 0.04004472492502674 0 0.023524413461018856 0.039997395733256481 0 0.023409521895170059 0.040060546589839957 0 0.023325296365402638 0.04004472492502674 0 0.023153977327206206 0.040154377585231618 0 0.023409521895170059 0.040060546589839957 0 0.023325296365402638 0.04004472492502674 0 0.023153977327206206 0.040154377585231618 0 0.023409521895170059 0.040060546589839957 0 0.023255634276821213 0.040221328403858302 0 0.023411486109522497 0.040223353320547148 0 0.023409521895170059 0.040060546589839957 0 0.023255634276821213 0.040221328403858302 0 0.023153977327206206 0.040154377585231618 0 0.023255634276821213 0.040221328403858302 0 0.023009437802952375 0.040290280863837347 0 0.023255634276821213 0.040221328403858302 0 0.023096539285316898 0.040356569695374538 0 0.023009437802952375 0.040290280863837347 0 0.023096539285316898 0.040356569695374538 0 0.023222750327252316 0.040403111073344398 0 0.02302180199693904 0.040467311433748647 0 0.023096539285316898 0.040356569695374538 0 0.022956150049606657 0.040400153328761838 0 0.023009437802952375 0.040290280863837347 0 0.023096539285316898 0.040356569695374538 0 0.02302180199693904 0.040467311433748647 0 0.022956150049606657 0.040400153328761838 0 0.023411486109522497 0.040223353320547148 0 0.023255634276821213 0.040221328403858302 0 0.023222750327252316 0.040403111073344398 0 0.023255634276821213 0.040221328403858302 0 0.023096539285316898 0.040356569695374538 0 0.023222750327252316 0.040403111073344398 0 0.023222750327252316 0.040403111073344398 0 0.023255366243872977 0.040480275008897865 0 0.023089971694596638 0.040524964545389203 0 0.023222750327252316 0.040403111073344398 0 0.02302180199693904 0.040467311433748647 0 0.023089971694596638 0.040524964545389203 0 0.02309866051231307 0.040481005504741936 0 0.023089971694596638 0.040524964545389203 0 0.022949522441942205 0.040542072773589677 0 0.02302180199693904 0.040467311433748647 0 0.023089971694596638 0.040524964545389203 0 0.022949522441942205 0.040542072773589677 0 0.02309866051231307 0.040481005504741936 0 0.023089971694596638 0.040524964545389203 0 0.023147575884304675 0.040552819340087407 0 0.023255366243872977 0.040480275008897865 0 0.023089971694596638 0.040524964545389203 0 0.023147575884304675 0.040552819340087407 0 0.022692756817574395 0.040618080799359635 0 0.022949522441942205 0.040542072773589677 0 0.022718456789643435 0.040564486161742949 0 0.02302180199693904 0.040467311433748647 0 0.022949522441942205 0.040542072773589677 0 0.022855443325029704 0.040488568652812335 0 0.022949522441942205 0.040542072773589677 0 0.022855443325029704 0.040488568652812335 0 0.022718456789643435 0.040564486161742949 0 0.022855443325029704 0.040488568652812335 0 0.022718456789643435 0.040564486161742949 0 0.022596721009686301 0.04054822803322939 0 0.022855443325029704 0.040488568652812335 0 0.022806344716059797 0.040401552386228758 0 0.022596721009686301 0.04054822803322939 0 0.02302180199693904 0.040467311433748647 0 0.022855443325029704 0.040488568652812335 0 0.022956150049606657 0.040400153328761838 0 0.022855443325029704 0.040488568652812335 0 0.022956150049606657 0.040400153328761838 0 0.022806344716059797 0.040401552386228758 0 0.022956150049606657 0.040400153328761838 0 0.023009437802952375 0.040290280863837347 0 0.022806344716059797 0.040401552386228758 0 0.022801913191803542 0.040295453106127574 0 0.023009437802952375 0.040290280863837347 0 0.022806344716059797 0.040401552386228758 0 0.022801913191803542 0.040295453106127574 0 0.022806344716059797 0.040401552386228758 0 0.022609657103388071 0.040414772868263699 0 0.022609657103388071 0.040414772868263699 0 0.022373200496540534 0.04058344529049554 0 0.022429320048799089 0.040438692813676153 0 0.022373200496540534 0.04058344529049554 0 0.022212788546570491 0.040469429039249681 0 0.022429320048799089 0.040438692813676153 0 0.022373200496540534 0.04058344529049554 0 0.022596721009686301 0.04054822803322939 0 0.022293705115997361 0.040696023613365377 0 0.022609657103388071 0.040414772868263699 0 0.022373200496540534 0.04058344529049554 0 0.022596721009686301 0.04054822803322939 0 0.022806344716059797 0.040401552386228758 0 0.022609657103388071 0.040414772868263699 0 0.022596721009686301 0.04054822803322939 0 0.022718456789643435 0.040564486161742949 0 0.022596721009686301 0.04054822803322939 0 0.022517151418802308 0.040654859557459372 0 0.022596721009686301 0.04054822803322939 0 0.022517151418802308 0.040654859557459372 0 0.022293705115997361 0.040696023613365377 0 0.022343109690077016 0.040752280576968301 0 0.022517151418802308 0.040654859557459372 0 0.022293705115997361 0.040696023613365377 0 0.022497392898600008 0.040706866728802513 0 0.022343109690077016 0.040752280576968301 0 0.022517151418802308 0.040654859557459372 0 0.022692756817574395 0.040618080799359635 0 0.022718456789643435 0.040564486161742949 0 0.022517151418802308 0.040654859557459372 0 0.022497392898600008 0.040706866728802513 0 0.022692756817574395 0.040618080799359635 0 0.022517151418802308 0.040654859557459372 0 0.021747684339624807 0.041070453200993867 0 0.022140803820603988 0.040825824260547629 0 0.022000029144811216 0.040804766790634439 0 0.022343109690077016 0.040752280576968301 0 0.022140803820603988 0.040825824260547629 0 0.022293705115997361 0.040696023613365377 0 0.022140803820603988 0.040825824260547629 0 0.022293705115997361 0.040696023613365377 0 0.022000029144811216 0.040804766790634439 0 0.022293705115997361 0.040696023613365377 0 0.022000029144811216 0.040804766790634439 0 0.022089754325024278 0.040736561715194824 0 0.014798777860270477 0.048735865081766853 0 0.01518678765629383 0.048728176560052433 0 0.014752516508877147 0.048832191268735392 0 0.018506531406733601 0.04439246622694807 0 0.018619986359360203 0.044788457827988369 0 0.022373200496540534 0.04058344529049554 0 0.022293705115997361 0.040696023613365377 0 0.022089754325024278 0.040736561715194824 0 0.022373200496540534 0.04058344529049554 0 0.022089754325024278 0.040736561715194824 0 0.022212788546570491 0.040469429039249681 0 0.018619986359360203 0.044788457827988369 0 0.018950089788062435 0.044570497683997228 0 0.01518678765629383 0.048728176560052433 0 0.015659423660279077 0.048657385794677835 0 0.014998635559345037 0.048819450383085591 0 0.015659423660279077 0.048657385794677835 0 0.014998635559345037 0.048819450383085591 0 0.015065169853380597 0.048750680878024144 0 0.015659423660279077 0.048657385794677835 0 0.015558435240622203 0.048534493655743638 0 0.015065169853380597 0.048750680878024144 0 0.015659423660279077 0.048657385794677835 0 0.016179660637147771 0.048371830867730253 0 0.015558435240622203 0.048534493655743638 0 0.018950089788062435 0.044570497683997228 0 0.019245910342165096 0.044055102830947254 0 0.022212788546570491 0.040469429039249681 0 0.022429320048799089 0.040438692813676153 0 0.022572696462334823 0.040263544810882214 0 0.022609657103388071 0.040414772868263699 0 0.022429320048799089 0.040438692813676153 0 0.022572696462334823 0.040263544810882214 0 0.022801913191803542 0.040295453106127574 0 0.022609657103388071 0.040414772868263699 0 0.022572696462334823 0.040263544810882214 0 0.02273282723924205 0.040098831661245296 0 0.022572696462334823 0.040263544810882214 0 0.022585001026061473 0.040126523723985091 0 0.022572696462334823 0.040263544810882214 0 0.022398256638764758 0.040169006612683578 0 0.022585001026061473 0.040126523723985091 0 0.022212788546570491 0.040469429039249681 0 0.022572696462334823 0.040263544810882214 0 0.022398256638764758 0.040169006612683578 0 0.022398256638764758 0.040169006612683578 0 0.022585001026061473 0.040126523723985091 0 0.02254034143587336 0.040055866581887346 0 0.02273282723924205 0.040098831661245296 0 0.022585001026061473 0.040126523723985091 0 0.02266274812839307 0.04008247620752993 0 0.02266274812839307 0.04008247620752993 0 0.02254034143587336 0.040055866581887346 0 0.022689968039445927 0.040036756473479457 0 0.022585001026061473 0.040126523723985091 0 0.02266274812839307 0.04008247620752993 0 0.02254034143587336 0.040055866581887346 0 0.016179660637147771 0.048371830867730253 0 0.016375819713588334 0.04809747740902607 0 0.016351594944016293 0.048121109596389197 0 0.016179660637147771 0.048371830867730253 0 0.016375819713588334 0.04809747740902607 0 0.016414194883783706 0.048084099594083302 0 0.019245910342165096 0.044055102830947254 0 0.019940936872046372 0.045131832673294299 0 0.019058380175031118 0.045611659154637003 0 0.019940936872046372 0.045131832673294299 0 0.016375819713588334 0.04809747740902607 0 0.016351594944016293 0.048121109596389197 0 0.016397168013531097 0.048166696957839011 0 0.016179660637147771 0.048371830867730253 0 0.016351594944016293 0.048121109596389197 0 0.01613860498733161 0.048110389774807895 0 0.01613860498733161 0.048110389774807895 0 0.015558435240622203 0.048534493655743638 0 0.015422146872911064 0.048235083503728328 0 0.016179660637147771 0.048371830867730253 0 0.01613860498733161 0.048110389774807895 0 0.015558435240622203 0.048534493655743638 0 0.016761689405892302 0.048833342260348793 0 0.017313370575877434 0.048969746217472854 0 0.016759899333865205 0.048315923298252857 0 0.016559132595109525 0.048465549425304295 0 0.016761689405892302 0.048833342260348793 0 0.016432934437146777 0.048646268658841162 0 0.016559132595109525 0.048465549425304295 0 0.016761689405892302 0.048833342260348793 0 0.016759899333865205 0.048315923298252857 0 0.017313370575877434 0.048969746217472854 0 0.017755221361653212 0.048406967952136476 0 0.018137691532876456 0.049570108709175234 0 0.017313370575877434 0.048969746217472854 0 0.017755221361653212 0.048406967952136476 0 0.016759899333865205 0.048315923298252857 0 0.016259545733463134 0.048173275409217418 0 0.016635711030222929 0.048142460369601438 0 0.01613860498733161 0.048110389774807895 0 0.017755221361653212 0.048406967952136476 0 0.016759899333865205 0.048315923298252857 0 0.01613860498733161 0.048110389774807895 0 0.015523284078672542 0.0477758901875475 0 0.015422146872911064 0.048235083503728328 0 0.016351594944016293 0.048121109596389197 0 0.01613860498733161 0.048110389774807895 0 0.016759899333865205 0.048315923298252857 0 0.016559132595109525 0.048465549425304295 0 0.016759899333865205 0.048315923298252857 0 0.016488848610246524 0.048244746697586341 0 0.016351594944016293 0.048121109596389197 0 0.016488848610246524 0.048244746697586341 0 0.016397168013531097 0.048166696957839011 0 0.016351594944016293 0.048121109596389197 0 0.016759899333865205 0.048315923298252857 0 0.016488848610246524 0.048244746697586341 0 0.016323555225769001 0.048094740292536874 0 0.016371326275043376 0.048257810634458151 0 0.015995411434568636 0.04854808085097588 0 0.016375819713588334 0.04809747740902607 0 0.016397168013531097 0.048166696957839011 0 0.016371326275043376 0.048257810634458151 0 0.016488848610246524 0.048244746697586341 0 0.016397168013531097 0.048166696957839011 0 0.016371326275043376 0.048257810634458151 0 0.016375819713588334 0.04809747740902607 0 0.016323555225769001 0.048094740292536874 0 0.016371326275043376 0.048257810634458151 0 0.016559132595109525 0.048465549425304295 0 0.016488848610246524 0.048244746697586341 0 0.016371326275043376 0.048257810634458151 0 0.019940936872046372 0.045131832673294299 0 0.02495907117527214 0.044677834147188324 0 0.019940936872046372 0.045131832673294299 0 0.02198819774816203 0.047724499826420436 0 0.021813553689134287 0.046294950707598537 0 0.022196234778408944 0.045377456406577733 0 0.022747178825521051 0.045892033900573656 0 0.02198819774816203 0.047724499826420436 0 0.02495907117527214 0.044677834147188324 0 0.02198819774816203 0.047724499826420436 0 0.025437254006380743 0.047035529486318901 0 0.026540600342845229 0.046320218476403593 0 0.026856728203045997 0.046211667934305638 0 0.026782827556323326 0.046537582673634267 0 0.026540600342845229 0.046320218476403593 0 0.026676566798682268 0.046046769343851303 0 0.026856728203045997 0.046211667934305638 0 0.02198819774816203 0.047724499826420436 0 0.019497650502369228 0.048829016216028934 0 0.015995411434568636 0.04854808085097588 0 0.016432934437146777 0.048646268658841162 0 0.016516821793517936 0.049325550308104468 0 0.016371326275043376 0.048257810634458151 0 0.015995411434568636 0.04854808085097588 0 0.016432934437146777 0.048646268658841162 0 0.016761689405892302 0.048833342260348793 0 0.016432934437146777 0.048646268658841162 0 0.016516821793517936 0.049325550308104468 0 0.016559132595109525 0.048465549425304295 0 0.016371326275043376 0.048257810634458151 0 0.016432934437146777 0.048646268658841162 0 0.022801599188848064 0.048270279014404165 0 0.023426889310913728 0.047689600029179387 0 0.022533409143907137 0.048020564199793121 0 0.023761703995209684 0.049170415552569041 0 0.022801599188848064 0.048270279014404165 0 0.023558933004643685 0.048297049290880203 0 0.022801599188848064 0.048270279014404165 0 0.023558933004643685 0.048297049290880203 0 0.023426889310913728 0.047689600029179387 0 0.025437254006380743 0.047035529486318901 0 0.026556605645492424 0.047124616556443191 0 0.023761703995209684 0.049170415552569041 0 0.024089757097652726 0.048400337144694584 0 0.023558933004643685 0.048297049290880203 0 0.024089757097652726 0.048400337144694584 0 0.023963823090410036 0.047877281156881106 0 0.024429401460586482 0.047618987226623465 0 0.024089757097652726 0.048400337144694584 0 0.023558933004643685 0.048297049290880203 0 0.023963823090410036 0.047877281156881106 0 0.023558933004643685 0.048297049290880203 0 0.023963823090410036 0.047877281156881106 0 0.023426889310913728 0.047689600029179387 0 0.023963823090410036 0.047877281156881106 0 0.024315988229024837 0.04737548504795671 0 0.023426889310913728 0.047689600029179387 0 0.026777469913400971 0.049546264457664302 0 0.025227662381468254 0.050736984075278456 0 0.028842728117436961 0.052999604878609385 0 0.026754558827104796 0.053782617333097124 0 0.027087436653211592 0.052362304881811379 0 0.023963823090410036 0.047877281156881106 0 0.024315988229024837 0.04737548504795671 0 0.024429401460586482 0.047618987226623465 0 0.025372748715012168 0.053270114458543218 0 0.025045184344108837 0.05184812492187843 0 0.027087436653211592 0.052362304881811379 0 0.025227662381468254 0.050736984075278456 0 0.021986601611501764 0.050316275677756456 0 0.026754558827104796 0.053782617333097124 0 0.025372748715012168 0.053270114458543218 0 0.024595804494616937 0.054596390626431568 0 0.026754558827104796 0.053782617333097124 0 0.025372748715012168 0.053270114458543218 0 0.027087436653211592 0.052362304881811379 0 0.025372748715012168 0.053270114458543218 0 0.022854787344102991 0.053032093463740229 0 0.025045184344108837 0.05184812492187843 0 0.025372748715012168 0.053270114458543218 0 0.024595804494616937 0.054596390626431568 0 0.022854787344102991 0.053032093463740229 0 0.021986601611501764 0.050316275677756456 0 0.020380836190483143 0.051720667067547139 0 0.016830683949263691 0.049674396519476589 0 0.017356713299083747 0.049575433939080524 0 0.017941409642333827 0.050426064318479791 0 0.016516821793517936 0.049325550308104468 0 0.016830683949263691 0.049674396519476589 0 0.017356713299083747 0.049575433939080524 0 0.016516821793517936 0.049325550308104468 0 0.017356713299083747 0.049575433939080524 0 0.016990956367852476 0.04916506472078578 0 0.019497650502369228 0.048829016216028934 0 0.021986601611501764 0.050316275677756456 0 0.016761689405892302 0.048833342260348793 0 0.017313370575877434 0.048969746217472854 0 0.016990956367852476 0.04916506472078578 0 0.017313370575877434 0.048969746217472854 0 0.017356713299083747 0.049575433939080524 0 0.016990956367852476 0.04916506472078578 0 0.016761689405892302 0.048833342260348793 0 0.016516821793517936 0.049325550308104468 0 0.016990956367852476 0.04916506472078578 0 0.017313370575877434 0.048969746217472854 0 0.017356713299083747 0.049575433939080524 0 0.018137691532876456 0.049570108709175234 0 0.018137691532876456 0.049570108709175234 0 0.017941409642333827 0.050426064318479791 0 0.019203020405647191 0.050376402815112506 0 0.017356713299083747 0.049575433939080524 0 0.018137691532876456 0.049570108709175234 0 0.017941409642333827 0.050426064318479791 0 0.023201141959141556 0.051329953712003967 0 0.022796813968998925 0.050004833198913141 0 0.020030717253618369 0.050513430918542088 0 0.020380836190483143 0.051720667067547139 0 0.019927964314639911 0.05056236158457264 0 0.017941409642333827 0.050426064318479791 0 0.019203020405647191 0.050376402815112506 0 0.020030717253618369 0.050513430918542088 0 0.022854787344102991 0.053032093463740229 0 0.023201141959141556 0.051329953712003967 0 0.020030717253618369 0.050513430918542088 0 0.022854787344102991 0.053032093463740229 0 0.025045184344108837 0.05184812492187843 0 0.023201141959141556 0.051329953712003967 0 0.023201141959141556 0.051329953712003967 0 0.02443768788071406 0.050375159365529693 0 0.022796813968998925 0.050004833198913141 0 0.025045184344108837 0.05184812492187843 0 0.023201141959141556 0.051329953712003967 0 0.02443768788071406 0.050375159365529693 0 0.02443768788071406 0.050375159365529693 0 0.023714007198667529 0.048925016248284027 0 0.025383486982804997 0.049229184799845387 0 0.02443768788071406 0.050375159365529693 0 0.023714007198667529 0.048925016248284027 0 0.022796813968998925 0.050004833198913141 0 0.023714007198667529 0.048925016248284027 0 0.024527642039401967 0.047776503371330617 0 0.025383486982804997 0.049229184799845387 0 0.022796813968998925 0.050004833198913141 0 0.021934469821898003 0.048843089941288137 0 0.020030717253618369 0.050513430918542088 0 0.023714007198667529 0.048925016248284027 0 0.022796813968998925 0.050004833198913141 0 0.021934469821898003 0.048843089941288137 0 0.021934469821898003 0.048843089941288137 0 0.021958166707033943 0.047384204898212857 0 0.023181588217672366 0.047555959878491212 0 0.021958166707033943 0.047384204898212857 0 0.023181588217672366 0.047555959878491212 0 0.022826289242159323 0.046366436630473511 0 0.023181588217672366 0.047555959878491212 0 0.02430081154740938 0.046287987970074392 0 0.022826289242159323 0.046366436630473511 0 0.023714007198667529 0.048925016248284027 0 0.021934469821898003 0.048843089941288137 0 0.023181588217672366 0.047555959878491212 0 0.023714007198667529 0.048925016248284027 0 0.023181588217672366 0.047555959878491212 0 0.024527642039401967 0.047776503371330617 0 0.024527642039401967 0.047776503371330617 0 0.02430081154740938 0.046287987970074392 0 0.026043323102561647 0.046958236940190884 0 0.023181588217672366 0.047555959878491212 0 0.024527642039401967 0.047776503371330617 0 0.02430081154740938 0.046287987970074392 0 0.02430081154740938 0.046287987970074392 0 0.025162543644480947 0.045000410678781862 0 0.02309563286379562 0.044999510634718104 0 0.02430081154740938 0.046287987970074392 0 0.025162543644480947 0.045000410678781862 0 0.026043323102561647 0.046958236940190884 0 0.021958166707033943 0.047384204898212857 0 0.022826289242159323 0.046366436630473511 0 0.021709419191374958 0.045344153836725257 0 0.023097985119648116 0.04499999751127641 0 0.02249536426264671 0.045000000393047995 0 0.022370294742392452 0.045352700872522717 0 0.023097109999512228 0.044999675306656751 0 0.020704393446345878 0.045308489307329398 0 0.02309563286379562 0.044999510634718104 0 0.022826289242159323 0.046366436630473511 0 0.021709419191374958 0.045344153836725257 0 0.02430081154740938 0.046287987970074392 0 0.02309563286379562 0.044999510634718104 0 0.022826289242159323 0.046366436630473511 0 0.027705558866748217 0.045000017251982077 0 0.027412718013195888 0.046922954475332963 0 0.028823624939210608 0.046902896382453541 0 0.027705558866748217 0.045000017251982077 0 0.025923824615268938 0.046610724462752502 0 0.027412718013195888 0.046922954475332963 0 0.025161794388741027 0.045000444031720696 0 0.025980134182675103 0.046785536598509807 0 0.02516162039465317 0.04499999215838784 0 0.027705558866748217 0.045000017251982077 0 0.025923824615268938 0.046610724462752502 0 0.026043323102561647 0.046958236940190884 0 0.025383486982804997 0.049229184799845387 0 0.02702838962372664 0.049090200301124952 0 0.025923824615268938 0.046610724462752502 0 0.027412718013195888 0.046922954475332963 0 0.026685111833510827 0.048219838712980065 0 0.024527642039401967 0.047776503371330617 0 0.026043323102561647 0.046958236940190884 0 0.025383486982804997 0.049229184799845387 0 0.025980134182675103 0.046785536598509807 0 0.026968523201359056 0.048615516810564342 0 0.027412718013195888 0.046922954475332963 0 0.026685111833510827 0.048219838712980065 0 0.028172674294708124 0.048094794794445866 0 0.027547973648602269 0.04840395468343698 0 0.027800643636640782 0.048934453295855732 0 0.028098555104552652 0.048353874979387181 0 0.027025379583151789 0.049103006935728881 0 0.026277360610449052 0.050601701148425729 0 0.027934655145161007 0.051055719705926643 0 0.026968523201359056 0.048615516810564342 0 0.028054669996482068 0.050373578413413521 0 0.026968523201359056 0.048615516810564342 0 0.028139713624878649 0.048223494429247706 0 0.025651876137368031 0.049129632568593304 0 0.026968523201359056 0.048615516810564342 0 0.025383486982804997 0.049229184799845387 0 0.027025379583151789 0.049103006935728881 0 0.026277360610449052 0.050601701148425729 0 0.02443768788071406 0.050375159365529693 0 0.025383486982804997 0.049229184799845387 0 0.026277360610449052 0.050601701148425729 0 0.025045184344108837 0.05184812492187843 0 0.026277360610449052 0.050601701148425729 0 0.027087436653211592 0.052362304881811379 0 0.025045184344108837 0.05184812492187843 0 0.02443768788071406 0.050375159365529693 0 0.026277360610449052 0.050601701148425729 0 0.02804477252630188 0.049455268470452306 0 0.027800643636640782 0.048934453295855732 0 0.028131986455323093 0.049054893973249129 0 0.027800643636640782 0.048934453295855732 0 0.028131986455323093 0.049054893973249129 0 0.028098555104552652 0.048353874979387181 0 0.026777469913400971 0.049546264457664302 0 0.028054669996482068 0.050373578413413521 0 0.028842728117436961 0.052999604878609385 0 0.027934655145161007 0.051055719705926643 0 0.027087436653211592 0.052362304881811379 0 0.026277360610449052 0.050601701148425729 0 0.027934655145161007 0.051055719705926643 0 0.027087436653211592 0.052362304881811379 0 0.028131986455323093 0.049054893973249129 0 0.028429724331457212 0.048854513194478651 0 0.028205961131254318 0.049396931172373496 0 0.028670650901675941 0.047893878228653042 0 0.029326161322891574 0.048233663001755654 0 0.028394773654612546 0.048563270581884428 0 0.028005804601780038 0.046754961502483039 0 0.02769536706571411 0.048149103443802112 0 0.028509042318015172 0.048486973669643899 0 0.02769536706571411 0.048149103443802112 0 0.028670650901675941 0.047893878228653042 0 0.029326161322891574 0.048233663001755654 0 0.029288343113599537 0.047670985622001678 0 0.028670650901675941 0.047893878228653042 0 0.029288343113599537 0.047670985622001678 0 0.028945882547719112 0.047224769911068484 0 0.029288343113599537 0.047670985622001678 0 0.028945882547719112 0.047224769911068484 0 0.029559991009042646 0.047172203791589637 0 0.029283791152195038 0.047789579340465481 0 0.031004375197188239 0.047465463270692843 0 0.029283791152195038 0.047789579340465481 0 0.028139713624878649 0.048223494429247706 0 0.028131986455323093 0.049054893973249129 0 0.028429724331457212 0.048854513194478651 0 0.028098555104552652 0.048353874979387181 0 0.028509042318015172 0.048486973669643899 0 0.029283791152195038 0.047789579340465481 0 0.028429724331457212 0.048854513194478651 0 0.028654075915906924 0.048301824003905348 0 0.028098555104552652 0.048353874979387181 0 0.027412718013195888 0.046922954475332963 0 0.028172674294708124 0.048094794794445866 0 0.028823624939210608 0.046902896382453541 0 0.029665697679010505 0.047972468742392665 0 0.028172674294708124 0.048094794794445866 0 0.028823624939210608 0.046902896382453541 0 0.028823624939210608 0.046902896382453541 0 0.030177750794237922 0.04670506897864872 0 0.02952444986918468 0.045801086117426372 0 0.029283791152195038 0.047789579340465481 0 0.030263148310754186 0.04655580406710904 0 0.029878273891893552 0.047727537410170488 0 0.030745334923356134 0.047178740756167944 0 0.030370932388450188 0.046515959589606581 0 0.029665697679010505 0.047972468742392665 0 0.028823624939210608 0.046902896382453541 0 0.030177750794237922 0.04670506897864872 0 0.029878273891893552 0.047727537410170488 0 0.030745334923356134 0.047178740756167944 0 0.031162592417149595 0.047618479481682525 0 0.030904631997613268 0.047355948995010985 0 0.031004375197188239 0.047465463270692843 0 0.030745334923356134 0.047178740756167944 0 0.031014141718846328 0.046601994311671238 0 0.030370932388450188 0.046515959589606581 0 0.031014141718846328 0.046601994311671238 0 0.030370932388450188 0.046515959589606581 0 0.030896711813917906 0.046181901627411939 0 0.030177750794237922 0.04670506897864872 0 0.0307159172386261 0.045398401970076857 0 0.02952444986918468 0.045801086117426372 0 0.030263148310754186 0.04655580406710904 0 0.030659278443057051 0.045572431420956204 0 0.030370932388450188 0.046515959589606581 0 0.030896711813917906 0.046181901627411939 0 0.0307159172386261 0.045398401970076857 0 0.030249765792147758 0.044999925445993731 0 0.0307159172386261 0.045398401970076857 0 0.02952444986918468 0.045801086117426372 0 0.027705558866748217 0.045000017251982077 0 0.028823624939210608 0.046902896382453541 0 0.02952444986918468 0.045801086117426372 0 0.027705558866748217 0.045000017251982077 0 0.030249765792147758 0.044999925445993731 0 0.02952444986918468 0.045801086117426372 0 0.032794012508587655 0.044999811562124008 0 0.032787126472378247 0.046275780315788856 0 0.034182390712611116 0.046228517569798303 0 0.032794012508587655 0.044999811562124008 0 0.031564809256482647 0.046210349035860972 0 0.032787126472378247 0.046275780315788856 0 0.030249765792147758 0.044999925445993731 0 0.0307159172386261 0.045398401970076857 0 0.032794012508587655 0.044999811562124008 0 0.0307159172386261 0.045398401970076857 0 0.032794012508587655 0.044999811562124008 0 0.031564809256482647 0.046210349035860972 0 0.030896711813917906 0.046181901627411939 0 0.0307159172386261 0.045398401970076857 0 0.031564809256482647 0.046210349035860972 0 0.031738144243419156 0.046859144736679383 0 0.033089966893380694 0.04733600486381407 0 0.032787126472378247 0.046275780315788856 0 0.033113829627550127 0.047357116492871457 0 0.031004375197188239 0.047465463270692843 0 0.031738144243419156 0.046859144736679383 0 0.033089966893380694 0.04733600486381407 0 0.031200954960855076 0.047672057042284596 0 0.031564809256482647 0.046210349035860972 0 0.031738144243419156 0.046859144736679383 0 0.032787126472378247 0.046275780315788856 0 0.030745334923356134 0.047178740756167944 0 0.031014141718846328 0.046601994311671238 0 0.031738144243419156 0.046859144736679383 0 0.031014141718846328 0.046601994311671238 0 0.031564809256482647 0.046210349035860972 0 0.031738144243419156 0.046859144736679383 0 0.031014141718846328 0.046601994311671238 0 0.030896711813917906 0.046181901627411939 0 0.031564809256482647 0.046210349035860972 0 0.030745334923356134 0.047178740756167944 0 0.031738144243419156 0.046859144736679383 0 0.031200954960855076 0.047672057042284596 0 0.033089966893380694 0.04733600486381407 0 0.032787126472378247 0.046275780315788856 0 0.034182390712611116 0.046228517569798303 0 0.033089966893380694 0.04733600486381407 0 0.034240256124998168 0.047525435023876864 0 0.034182390712611116 0.046228517569798303 0 0.033089966893380694 0.04733600486381407 0 0.033246922989959952 0.047842164179773231 0 0.034240256124998168 0.047525435023876864 0 0.033246922989959952 0.047842164179773231 0 0.034060472917134786 0.048282573125749073 0 0.03314327663179318 0.048612648733805247 0 0.033246922989959952 0.047842164179773231 0 0.034060472917134786 0.048282573125749073 0 0.034240256124998168 0.047525435023876864 0 0.033246922989959952 0.047842164179773231 0 0.031931477515290206 0.047377238748381199 0 0.03314327663179318 0.048612648733805247 0 0.031004375197188239 0.047465463270692843 0 0.030741145573177499 0.047631111890709663 0 0.033089966893380694 0.04733600486381407 0 0.033246922989959952 0.047842164179773231 0 0.031931477515290206 0.047377238748381199 0 0.029288343113599537 0.047670985622001678 0 0.029559991009042646 0.047172203791589637 0 0.030257769942989159 0.047902995388085685 0 0.029326161322891574 0.048233663001755654 0 0.029288343113599537 0.047670985622001678 0 0.030257769942989159 0.047902995388085685 0 0.027267401637737481 0.045569181154300746 0 0.027631941211322907 0.045477987777325014 0 0.027593206081954206 0.045804136190909436 0 0.028005804601780038 0.046754961502483039 0 0.030741145573177499 0.047631111890709663 0 0.030741145573177499 0.047631111890709663 0 0.031285714015080575 0.04718947464890047 0 0.033617557394288226 0.048448642840791908 0 0.034949492508339453 0.04906835959129844 0 0.034675400571912027 0.048561553653854575 0 0.034060472917134786 0.048282573125749073 0 0.033617557394288226 0.048448642840791908 0 0.034675400571912027 0.048561553653854575 0 0.033874564427663498 0.047646356854830242 0 0.030741145573177499 0.047631111890709663 0 0.027631941211322907 0.045477987777325014 0 0.027593206081954206 0.045804136190909436 0 0.027863119736163861 0.045754814530174666 0 0.027593206081954206 0.045804136190909436 0 0.027730184282763172 0.045993496859813236 0 0.027863119736163861 0.045754814530174666 0 0.027593206081954206 0.045804136190909436 0 0.027730184282763172 0.045993496859813236 0 0.027469230398388538 0.046186158441625977 0 0.027593206081954206 0.045804136190909436 0 0.027292085527528855 0.045883628532339245 0 0.027469230398388538 0.046186158441625977 0 0.027267401637737481 0.045569181154300746 0 0.027593206081954206 0.045804136190909436 0 0.027292085527528855 0.045883628532339245 0 0.027267401637737481 0.045569181154300746 0 0.027034637278050732 0.045816215893999035 0 0.027292085527528855 0.045883628532339245 0 0.027267401637737481 0.045569181154300746 0 0.026874095056127738 0.045690230251919393 0 0.027034637278050732 0.045816215893999035 0 0.02804477252630188 0.049455268470452306 0 0.028131986455323093 0.049054893973249129 0 0.028205961131254318 0.049396931172373496 0 0.026906175859431156 0.048502221500688107 0 0.026835282346727645 0.048527706187482957 0 0.026870547516221113 0.04842661567307259 0 0.026777469913400971 0.049546264457664302 0 0.02769536706571411 0.048149103443802112 0 0.026777469913400971 0.049546264457664302 0 0.026556605645492424 0.047124616556443191 0 0.02769536706571411 0.048149103443802112 0 0.026556605645492424 0.047124616556443191 0 0.026874095056127738 0.045690230251919393 0 0.027034637278050732 0.045816215893999035 0 0.026826500166917313 0.045795731845530083 0 0.026556605645492424 0.047124616556443191 0 0.026564985725360517 0.04587807173594316 0 0.027034637278050732 0.045816215893999035 0 0.026826500166917313 0.045795731845530083 0 0.026888926128375092 0.045948295450393709 0 0.026676566798682268 0.046046769343851303 0 0.026801196470348367 0.045776061751635802 0 0.026888926128375092 0.045948295450393709 0 0.027034637278050732 0.045816215893999035 0 0.026888926128375092 0.045948295450393709 0 0.027118686061393806 0.046067167351645052 0 0.026888926128375092 0.045948295450393709 0 0.027118686061393806 0.046067167351645052 0 0.026856728203045997 0.046211667934305638 0 0.026676566798682268 0.046046769343851303 0 0.026888926128375092 0.045948295450393709 0 0.026856728203045997 0.046211667934305638 0 0.027292085527528855 0.045883628532339245 0 0.027118686061393806 0.046067167351645052 0 0.027469230398388538 0.046186158441625977 0 0.027034637278050732 0.045816215893999035 0 0.027292085527528855 0.045883628532339245 0 0.027118686061393806 0.046067167351645052 0 0.027411602406383202 0.046257222344945836 0 0.027423094190590622 0.046111033840902114 0 0.027118686061393806 0.046067167351645052 0 0.027143312789465166 0.046373142903841591 0 0.027469230398388538 0.046186158441625977 0 0.027143312789465166 0.046373142903841591 0 0.026856728203045997 0.046211667934305638 0 0.026782827556323326 0.046537582673634267 0 0.027118686061393806 0.046067167351645052 0 0.027143312789465166 0.046373142903841591 0 0.026856728203045997 0.046211667934305638 0 0.027124180454855921 0.046324166151467977 0 0.02720127999703326 0.046067269039558108 0 0.026929135842852253 0.04614854898734079 0 0.027411602406383202 0.046257222344945836 0 0.02495907117527214 0.044677834147188324 0 0.024992701293044803 0.043247971915462584 0 0.02495907117527214 0.044677834147188324 0 0.027124180454855921 0.046324166151467977 0 0.02720127999703326 0.046067269039558108 0 0.027383557146727276 0.04625025448577269 0 0.02720127999703326 0.046067269039558108 0 0.027383557146727276 0.04625025448577269 0 0.027469940810428597 0.04601058080302764 0 0.027383557146727276 0.04625025448577269 0 0.027659705595572598 0.046169311822359844 0 0.027469940810428597 0.04601058080302764 0 0.027589173962539786 0.046381784640637844 0 0.027383557146727276 0.04625025448577269 0 0.027659705595572598 0.046169311822359844 0 0.027589173962539786 0.046381784640637844 0 0.027659705595572598 0.046169311822359844 0 0.027869880096043319 0.046291869592432262 0 0.027713516100764772 0.045998952858858098 0 0.027423094190590622 0.046111033840902114 0 0.027730184282763172 0.045993496859813236 0 0.027659705595572598 0.046169311822359844 0 0.027469940810428597 0.04601058080302764 0 0.027889423832174676 0.046116492620278296 0 0.02815126747355708 0.046196183414415774 0 0.028054219828572279 0.04596052426975885 0 0.027730184282763172 0.045993496859813236 0 0.027889423832174676 0.046116492620278296 0 0.028054219828572279 0.04596052426975885 0 0.027730184282763172 0.045993496859813236 0 0.027659705595572598 0.046169311822359844 0 0.027889423832174676 0.046116492620278296 0 0.027659705595572598 0.046169311822359844 0 0.027889423832174676 0.046116492620278296 0 0.027869880096043319 0.046291869592432262 0 0.025631317884590929 0.042950396325870721 0 0.026527503197562176 0.043364951835438759 0 0.023509160513649409 0.039735366083445224 0 0.023812616473311753 0.03965347356923183 0 0.024019337813122377 0.039495531075937819 0 0.027889423832174676 0.046116492620278296 0 0.027869880096043319 0.046291869592432262 0 0.02815126747355708 0.046196183414415774 0 0.023638099805261902 0.039803040697451601 0 0.023509160513649409 0.039735366083445224 0 0.023812616473311753 0.03965347356923183 0 0.024150477420601901 0.039802310803866946 0 0.023812616473311753 0.03965347356923183 0 0.024019337813122377 0.039495531075937819 0 0.026527503197562176 0.043364951835438759 0 0.027340927789178942 0.040508338517095344 0 0.024150477420601901 0.039802310803866946 0 0.024019337813122377 0.039495531075937819 0 0.024485558619442491 0.039767787885096856 0 0.029700749349535399 0.043307961540787636 0 0.028631565269545443 0.043204151913125682 0 0.029033822052225818 0.043634247526618083 0 0.029700749349535399 0.043307961540787636 0 0.028561529206243341 0.042422523706477991 0 0.028631565269545443 0.043204151913125682 0 0.03253759239562256 0.044693713676874434 0 0.033346621811520261 0.045551227706619041 0 0.032637871331511858 0.045865869379803019 0 0.032021886982263756 0.043673338796855456 0 0.032115164952530799 0.045970770959389229 0 0.026527503197562176 0.043364951835438759 0 0.032115164952530799 0.045970770959389229 0 0.036119885717233534 0.042424012071035945 0 0.035948654374642022 0.043098405719176495 0 0.035308647313163431 0.042589908139653451 0 0.033561358704263689 0.041463138030152655 0 0.034258208602232117 0.04235670048281745 0 0.036040377514361996 0.042501341061207655 0 0.035948654374642022 0.043098405719176495 0 0.036889340712802074 0.043449751272043959 0 0.030362694251317563 0.041212565440426514 0 0.031380307872081459 0.041151851122499729 0 0.031486679919900964 0.04241429084595863 0 0.027340927789178942 0.040508338517095344 0 0.032021886982263756 0.043673338796855456 0 0.033561358704263689 0.041463138030152655 0 0.032021886982263756 0.043673338796855456 0 0.036889340712802074 0.043449751272043959 0 0.035962838434155049 0.043713959654187229 0 0.035966749918667384 0.044523955220279764 0 0.035948654374642022 0.043098405719176495 0 0.036889340712802074 0.043449751272043959 0 0.035962838434155049 0.043713959654187229 0 0.032021886982263756 0.043673338796855456 0 0.033868141279720453 0.045942046430243424 0 0.035948654374642022 0.043098405719176495 0 0.035962838434155049 0.043713959654187229 0 0.035049420241268378 0.043783154571666996 0 0.035962838434155049 0.043713959654187229 0 0.035966749918667384 0.044523955220279764 0 0.035049420241268378 0.043783154571666996 0 0.036889340712802074 0.043449751272043959 0 0.035966749918667384 0.044523955220279764 0 0.03692774843127087 0.044243599034144591 0 0.035966749918667384 0.044523955220279764 0 0.036917270450256751 0.045732197157714816 0 0.035738967120975802 0.045664521093145956 0 0.035966749918667384 0.044523955220279764 0 0.03692774843127087 0.044243599034144591 0 0.036917270450256751 0.045732197157714816 0 0.035966749918667384 0.044523955220279764 0 0.035738967120975802 0.045664521093145956 0 0.034611016474320355 0.045486037473019346 0 0.02815126747355708 0.046196183414415774 0 0.028267170858019809 0.046151304134498507 0 0.028054219828572279 0.04596052426975885 0 0.036380885903112024 0.049775495612185069 0 0.036513605590437273 0.049712939553429709 0 0.036520329018922777 0.049330604198580742 0 0.032115164952530799 0.045970770959389229 0 0.032059327473321284 0.0479925195014861 0 0.036380885903112024 0.049775495612185069 0 0.036520329018922777 0.049330604198580742 0 0.03580155683062676 0.049243570114087969 0 0.032115164952530799 0.045970770959389229 0 0.033868141279720453 0.045942046430243424 0 0.033868141279720453 0.045942046430243424 0 0.036512608342832438 0.04767689790961005 0 0.036512608342832438 0.04767689790961005 0 0.036597958759160283 0.048098041479706893 0 0.036146129914077209 0.048905854232731805 0 0.036520329018922777 0.049330604198580742 0 0.03580155683062676 0.049243570114087969 0 0.036146129914077209 0.048905854232731805 0 0.036520329018922777 0.049330604198580742 0 0.036518546008740722 0.048263096809894185 0 0.036917270450256751 0.045732197157714816 0 0.035487372969079611 0.0469215108130338 0 0.036518546008740722 0.048263096809894185 0 0.036917270450256751 0.045732197157714816 0 0.035738967120975802 0.045664521093145956 0 0.035487372969079611 0.0469215108130338 0 0.036518546008740722 0.048263096809894185 0 0.035988989214931606 0.048708503544709271 0 0.035259257686013172 0.047972900486987408 0 0.035487372969079611 0.0469215108130338 0 0.036518546008740722 0.048263096809894185 0 0.035259257686013172 0.047972900486987408 0 0.036146129914077209 0.048905854232731805 0 0.036518546008740722 0.048263096809894185 0 0.035923441158956328 0.048819270019999278 0 0.036518546008740722 0.048263096809894185 0 0.035923441158956328 0.048819270019999278 0 0.036392098910189803 0.048709325476548986 0 0.035923441158956328 0.048819270019999278 0 0.03580155683062676 0.049243570114087969 0 0.034949492508339453 0.04906835959129844 0 0.035923441158956328 0.048819270019999278 0 0.034949492508339453 0.04906835959129844 0 0.035498621931619172 0.048729811268772183 0 0.036146129914077209 0.048905854232731805 0 0.035923441158956328 0.048819270019999278 0 0.03580155683062676 0.049243570114087969 0 0.027730184282763172 0.045993496859813236 0 0.028054219828572279 0.04596052426975885 0 0.027863119736163861 0.045754814530174666 0 0.032059327473321284 0.0479925195014861 0 0.031285714015080575 0.04718947464890047 0 0.034060472917134786 0.048282573125749073 0 0.034675400571912027 0.048561553653854575 0 0.035278696623253482 0.048161818054160706 0 0.034949492508339453 0.04906835959129844 0 0.034675400571912027 0.048561553653854575 0 0.035498621931619172 0.048729811268772183 0 0.034675400571912027 0.048561553653854575 0 0.035498621931619172 0.048729811268772183 0 0.035278696623253482 0.048161818054160706 0 0.035923441158956328 0.048819270019999278 0 0.035498621931619172 0.048729811268772183 0 0.036392098910189803 0.048709325476548986 0 0.035498621931619172 0.048729811268772183 0 0.035278696623253482 0.048161818054160706 0 0.036392098910189803 0.048709325476548986 0 0.036282673289206424 0.047729680585973287 0 0.035278696623253482 0.048161818054160706 0 0.035444007261662122 0.046999229938162856 0 0.036282673289206424 0.047729680585973287 0 0.035278696623253482 0.048161818054160706 0 0.036392098910189803 0.048709325476548986 0 0.035278696623253482 0.048161818054160706 0 0.034240256124998168 0.047525435023876864 0 0.035444007261662122 0.046999229938162856 0 0.034060472917134786 0.048282573125749073 0 0.035278696623253482 0.048161818054160706 0 0.034240256124998168 0.047525435023876864 0 0.034240256124998168 0.047525435023876864 0 0.034182390712611116 0.046228517569798303 0 0.035444007261662122 0.046999229938162856 0 0.036282673289206424 0.047729680585973287 0 0.035444007261662122 0.046999229938162856 0 0.036930372221548463 0.04639578922192996 0 0.035444007261662122 0.046999229938162856 0 0.035337721763831008 0.044999910354082392 0 0.036930372221548463 0.04639578922192996 0 0.034182390712611116 0.046228517569798303 0 0.035444007261662122 0.046999229938162856 0 0.035337721763831008 0.044999910354082392 0 0.032794012508587655 0.044999811562124008 0 0.034182390712611116 0.046228517569798303 0 0.035337721763831008 0.044999910354082392 0 0.037881446596403252 0.044999794987796549 0 0.039156204781646824 0.046685433580130699 0 0.040425517176187739 0.044999813121907914 0 0.037881446596403252 0.044999794987796549 0 0.036930372221548463 0.04639578922192996 0 0.039156204781646824 0.046685433580130699 0 0.035337721763831008 0.044999910354082392 0 0.037881446596403252 0.044999794987796549 0 0.036930372221548463 0.04639578922192996 0 0.036282673289206424 0.047729680585973287 0 0.036930372221548463 0.04639578922192996 0 0.037622679265905082 0.047759768617148167 0 0.036930372221548463 0.04639578922192996 0 0.039156204781646824 0.046685433580130699 0 0.037622679265905082 0.047759768617148167 0 0.037622679265905082 0.047759768617148167 0 0.038335235515361978 0.049286516057007422 0 0.039258503296577589 0.048247804293477886 0 0.039156204781646824 0.046685433580130699 0 0.037622679265905082 0.047759768617148167 0 0.039258503296577589 0.048247804293477886 0 0.036282673289206424 0.047729680585973287 0 0.037622679265905082 0.047759768617148167 0 0.036392098910189803 0.048709325476548986 0 0.037622679265905082 0.047759768617148167 0 0.036392098910189803 0.048709325476548986 0 0.038335235515361978 0.049286516057007422 0 0.036518546008740722 0.048263096809894185 0 0.036392098910189803 0.048709325476548986 0 0.035988989214931606 0.048708503544709271 0 0.036413732483152467 0.048776766960210001 0 0.03734682295987559 0.048958222598999082 0 0.035988989214931606 0.048708503544709271 0 0.034404309712801347 0.048513115584064591 0 0.035259257686013172 0.047972900486987408 0 0.03734682295987559 0.048958222598999082 0 0.036331195220350977 0.049261965713591649 0 0.038335235515361978 0.049286516057007422 0 0.040234679592320452 0.049520991118907079 0 0.039258503296577589 0.048247804293477886 0 0.036331195220350977 0.049261965713591649 0 0.042688656069801649 0.043819987071176576 0 0.040234679592320452 0.049520991118907079 0 0.040936383968201727 0.048059339153693294 0 0.042015745754029353 0.049603074100560134 0 0.040936383968201727 0.048059339153693294 0 0.042368931947658346 0.047274528014152432 0 0.042015745754029353 0.049603074100560134 0 0.040234679592320452 0.049520991118907079 0 0.040936383968201727 0.048059339153693294 0 0.039258503296577589 0.048247804293477886 0 0.039156204781646824 0.046685433580130699 0 0.040936383968201727 0.048059339153693294 0 0.039258503296577589 0.048247804293477886 0 0.039156204781646824 0.046685433580130699 0 0.040936383968201727 0.048059339153693294 0 0.041071957965034572 0.046394168793286686 0 0.040936383968201727 0.048059339153693294 0 0.041071957965034572 0.046394168793286686 0 0.042368931947658346 0.047274528014152432 0 0.041071957965034572 0.046394168793286686 0 0.040425517176187739 0.044999813121907914 0 0.042969092163743415 0.044999886056939289 0 0.039156204781646824 0.046685433580130699 0 0.041071957965034572 0.046394168793286686 0 0.040425517176187739 0.044999813121907914 0 0.044994574671137745 0.045000209282974588 0 0.04578158747366861 0.042915962592413155 0 0.04500041870096403 0.039521128173739276 0 0.044994574671137745 0.045000209282974588 0 0.04297996721190462 0.044996805748647319 0 0.04578158747366861 0.042915962592413155 0 0.04296999545780035 0.0449991411878152 0 0.044242553243203961 0.045202618740636837 0 0.041071957965034572 0.046394168793286686 0 0.042969092163743415 0.044999886056939289 0 0.042368931947658346 0.047274528014152432 0 0.04578158747366861 0.042915962592413155 0 0.046590887113079037 0.040212189114971569 0 0.04500041870096403 0.039521128173739276 0 0.044242553243203961 0.045202618740636837 0 0.042688656069801649 0.043819987071176576 0 0.042688656069801649 0.043819987071176576 0 0.045007328140995943 0.03951624067912976 0 0.044999832629085058 0.039518120940274064 0 0.046107686019051637 0.038331307989015011 0 0.044999617288332391 0.037456983809064127 0 0.047139284738511943 0.039797328998888055 0 0.044999832629085058 0.039518120940274064 0 0.046107686019051637 0.038331307989015011 0 0.046107686019051637 0.038331307989015011 0 0.044999617288332391 0.037456983809064127 0 0.046108672496231275 0.036569277158512964 0 0.046107686019051637 0.038331307989015011 0 0.047277344961102578 0.037865099724296324 0 0.046108672496231275 0.036569277158512964 0 0.042688656069801649 0.043819987071176576 0 0.039791181701885441 0.042177130093659303 0 0.047139284738511943 0.039797328998888055 0 0.046107686019051637 0.038331307989015011 0 0.047277344961102578 0.037865099724296324 0 0.032764099882225853 0.048132929433209133 0 0.034170550931720244 0.047094492451945601 0 0.032815910884769553 0.046354885955163058 0 0.034404309712801347 0.048513115584064591 0 0.032764099882225853 0.048132929433209133 0 0.034170550931720244 0.047094492451945601 0 0.034404309712801347 0.048513115584064591 0 0.034170550931720244 0.047094492451945601 0 0.035259257686013172 0.047972900486987408 0 0.035487372969079611 0.0469215108130338 0 0.034170550931720244 0.047094492451945601 0 0.035259257686013172 0.047972900486987408 0 0.035487372969079611 0.0469215108130338 0 0.034170550931720244 0.047094492451945601 0 0.034611016474320355 0.045486037473019346 0 0.035738967120975802 0.045664521093145956 0 0.035487372969079611 0.0469215108130338 0 0.034611016474320355 0.045486037473019346 0 0.039791181701885441 0.042177130093659303 0 0.039986706848592186 0.040158425534086342 0 0.034611016474320355 0.045486037473019346 0 0.032815910884769553 0.046354885955163058 0 0.032836412921838323 0.044344018264825272 0 0.034170550931720244 0.047094492451945601 0 0.034611016474320355 0.045486037473019346 0 0.032815910884769553 0.046354885955163058 0 0.034611016474320355 0.045486037473019346 0 0.032836412921838323 0.044344018264825272 0 0.035049420241268378 0.043783154571666996 0 0.035966749918667384 0.044523955220279764 0 0.034611016474320355 0.045486037473019346 0 0.035049420241268378 0.043783154571666996 0 0.032836412921838323 0.044344018264825272 0 0.035049420241268378 0.043783154571666996 0 0.034346603938334115 0.042517335566730402 0 0.035948654374642022 0.043098405719176495 0 0.035049420241268378 0.043783154571666996 0 0.035308647313163431 0.042589908139653451 0 0.035049420241268378 0.043783154571666996 0 0.034346603938334115 0.042517335566730402 0 0.035308647313163431 0.042589908139653451 0 0.03985251530174775 0.038510451700952943 0 0.039986706848592186 0.040158425534086342 0 0.032937304279352729 0.04196502963637741 0 0.032836412921838323 0.044344018264825272 0 0.034346603938334115 0.042517335566730402 0 0.046740842734547802 0.034857095438969754 0 0.047104982096862535 0.035996207914258206 0 0.046282174228043538 0.035231796743996104 0 0.045659270740160872 0.034306153822179559 0 0.045000182914840182 0.035395864346796146 0 0.045682673782791838 0.033684900957647881 0 0.045000023809678845 0.033294069126122934 0 0.044999960550734651 0.035395901882036368 0 0.045702280037142495 0.034854514875819226 0 0.046282174228043538 0.035231796743996104 0 0.04500037474827958 0.035397643088181836 0 0.046282174228043538 0.035231796743996104 0 0.04500037474827958 0.035397643088181836 0 0.046108672496231275 0.036569277158512964 0 0.044999617288332391 0.037456983809064127 0 0.04500037474827958 0.035397643088181836 0 0.046108672496231275 0.036569277158512964 0 0.047277344961102578 0.037865099724296324 0 0.047104982096862535 0.035996207914258206 0 0.046108672496231275 0.036569277158512964 0 0.047104982096862535 0.035996207914258206 0 0.046282174228043538 0.035231796743996104 0 0.046108672496231275 0.036569277158512964 0 0.0012160605182403657 0.035063051123832664 0 0.00099935751821881615 0.035484523571991368 0 0.0016190112212016564 0.035365859568216862 0 0.0012160605182403657 0.035063051123832664 0 0.00068094598941139718 0.035040760065343589 0 0.00064351133051553794 0.034664447483504078 0 0.0046859041257283126 0.04278706266505812 0 0.0042239609011472442 0.042577801245126883 0 0.0012160605182403657 0.035063051123832664 0 0.00068094598941139718 0.035040760065343589 0 0.00099935751821881615 0.035484523571991368 0 0.0046859041257283126 0.04278706266505812 0 0.005299150356674602 0.042703678201350202 0 0.0083175764144107472 0.05056312071953166 0 0.0088652353207123377 0.050233341900274002 0 0.0086465257977250271 0.050474285289366115 0 0.0083175764144107472 0.05056312071953166 0 0.0088652353207123377 0.050233341900274002 0 0.0088928723839846388 0.049964270467703686 0 0.0088928723839846388 0.049964270467703686 0 0.0090317448255291914 0.04952788391270823 0 0.0089457951409571222 0.049892654837669075 0 0.0088652353207123377 0.050233341900274002 0 0.0088928723839846388 0.049964270467703686 0 0.0089457951409571222 0.049892654837669075 0 0.0088652353207123377 0.050233341900274002 0 0.0086465257977250271 0.050474285289366115 0 0.0089424387673471446 0.050342344609763834 0 0.0086465257977250271 0.050474285289366115 0 0.0089424387673471446 0.050342344609763834 0 0.0092011192989697194 0.050141763667664409 0 0.0086465257977250271 0.050474285289366115 0 0.0078662038007400025 0.05070897506400357 0 0.0084495355096247046 0.050317831754838345 0 0.0083175764144107472 0.05056312071953166 0 0.0086465257977250271 0.050474285289366115 0 0.0078662038007400025 0.05070897506400357 0 0.0083175764144107472 0.05056312071953166 0 0.0078662038007400025 0.05070897506400357 0 0.007404533108562446 0.050781193741870956 0 0.0078662038007400025 0.05070897506400357 0 0.007404533108562446 0.050781193741870956 0 0.0068869968469111855 0.050918032859211308 0 0.0023645974581159102 0.04354008605175614 0 0.0075101105100550576 0.052813625043949659 0 0.007404533108562446 0.050781193741870956 0 0.0070726676120949749 0.050793356588280089 0 0.0068869968469111855 0.050918032859211308 0 0.00064351133051553794 0.034664447483504078 0 9.0861661933500508e-05 0.034295804143937389 0 -1.570054346910229e-05 0.034844800375633152 0 9.0861661933500508e-05 0.034295804143937389 0 -0.0003372359741619916 0.034453203097999784 0 -1.570054346910229e-05 0.034844800375633152 0 0.0042239609011472442 0.042577801245126883 0 0.0023645974581159102 0.04354008605175614 0 -0.0028224590987541028 0.036148779730705891 0 -0.0028647172821684489 0.036056042243826997 0 -0.0028875214597024008 0.03610004329567322 0 -0.0028647172821684489 0.036056042243826997 0 -0.0028059171039221758 0.036109840732134184 0 -0.0028402808900811994 0.036067043442249265 0 -0.0028224590987541028 0.036148779730705891 0 -0.0028647172821684489 0.036056042243826997 0 -0.0028059171039221758 0.036109840732134184 0 -0.0028224590987541028 0.036148779730705891 0 -0.0028059171039221758 0.036109840732134184 0 -0.002698347424646569 0.036221432063641319 0 0.0023645974581159102 0.04354008605175614 0 -0.00010455757694099863 0.043774327748036711 0 0.0023645974581159102 0.04354008605175614 0 -0.0016003609359718815 0.034908857095982175 0 -0.0028059171039221758 0.036109840732134184 0 -0.002698347424646569 0.036221432063641319 0 -0.0027317100762596115 0.036063790163686507 0 -0.0024864920857529333 0.036223334268473018 0 -0.002698347424646569 0.036221432063641319 0 -0.0027317100762596115 0.036063790163686507 0 -0.00040604556328290167 0.034728043788763992 0 -0.0003372359741619916 0.034453203097999784 0 -1.570054346910229e-05 0.034844800375633152 0 -0.0028224590987541028 0.036148779730705891 0 -0.002698347424646569 0.036221432063641319 0 -0.0028429574660702442 0.036224596326106945 0 -0.0016003609359718815 0.034908857095982175 0 -0.0020914181313024245 0.035316458490104959 0 -0.00040604556328290167 0.034728043788763992 0 -0.0003372359741619916 0.034453203097999784 0 -0.00074002713847993356 0.034625620576677354 0 -0.0028224590987541028 0.036148779730705891 0 -0.0028429574660702442 0.036224596326106945 0 -0.0028875214597024008 0.03610004329567322 0 -0.0017614803381320418 0.034788882292341068 0 -0.0014523074708892812 0.035085201627923827 0 -0.0019204038397619358 0.03511191208517675 0 -0.0020914181313024245 0.035316458490104959 0 -0.0009360266112945875 0.034995754904946823 0 -0.00040604556328290167 0.034728043788763992 0 -0.00074002713847993356 0.034625620576677354 0 -0.00052896192673823758 0.034990815010476961 0 -0.0014523074708892812 0.035085201627923827 0 -0.0019204038397619358 0.03511191208517675 0 -0.0018393585903128601 0.035179603663377114 0 -0.00040604556328290167 0.034728043788763992 0 -0.00052896192673823758 0.034990815010476961 0 -1.570054346910229e-05 0.034844800375633152 0 -0.00052896192673823758 0.034990815010476961 0 -0.00038072688145660878 0.035337322766779811 0 -1.570054346910229e-05 0.034844800375633152 0 -0.0009360266112945875 0.034995754904946823 0 -0.0006613035494480125 0.035353992678297551 0 -0.0014523074708892812 0.035085201627923827 0 -0.00096469390157024107 0.035277549847138781 0 -0.0014878621127358607 0.035277236619851902 0 -0.0014523074708892812 0.035085201627923827 0 -0.0014878621127358607 0.035277236619851902 0 -0.0018393585903128601 0.035179603663377114 0 0.00068094598941139718 0.035040760065343589 0 0.00064351133051553794 0.034664447483504078 0 -1.570054346910229e-05 0.034844800375633152 0 -0.00038072688145660878 0.035337322766779811 0 -1.570054346910229e-05 0.034844800375633152 0 0.00022222972313716346 0.035289226858207172 0 0.00068094598941139718 0.035040760065343589 0 0.00022222972313716346 0.035289226858207172 0 0.00099935751821881615 0.035484523571991368 0 0.00068094598941139718 0.035040760065343589 0 -1.570054346910229e-05 0.034844800375633152 0 0.00022222972313716346 0.035289226858207172 0 0.00022222972313716346 0.035289226858207172 0 0.0002838475704612847 0.035795966478724101 0 0.00099935751821881615 0.035484523571991368 0 -0.00038072688145660878 0.035337322766779811 0 0.00022222972313716346 0.035289226858207172 0 -0.00035939795975066069 0.035729840954573142 0 0.00022222972313716346 0.035289226858207172 0 -0.00035939795975066069 0.035729840954573142 0 0.0002838475704612847 0.035795966478724101 0 -0.00035939795975066069 0.035729840954573142 0 0.0002838475704612847 0.035795966478724101 0 -4.7798137073385207e-05 0.036393266060765345 0 -0.001330165103462711 0.035532216995609586 0 -0.001767683478062061 0.035698739263605221 0 -0.0017827481899189064 0.035369001535397342 0 -0.0014878621127358607 0.035277236619851902 0 -0.001330165103462711 0.035532216995609586 0 -0.0017827481899189064 0.035369001535397342 0 -0.00096469390157024107 0.035277549847138781 0 -0.0014878621127358607 0.035277236619851902 0 -0.001330165103462711 0.035532216995609586 0 -0.0006613035494480125 0.035353992678297551 0 -0.00038133471921277169 0.035719505822829449 0 -0.00096469390157024107 0.035277549847138781 0 -0.00035939795975066069 0.035729840954573142 0 -0.001330165103462711 0.035532216995609586 0 -0.00035939795975066069 0.035729840954573142 0 -0.0012952390147624321 0.036010388288468767 0 -0.00071125704760222584 0.036335150763801206 0 -0.00035939795975066069 0.035729840954573142 0 -0.001330165103462711 0.035532216995609586 0 -0.0012952390147624321 0.036010388288468767 0 -0.001330165103462711 0.035532216995609586 0 -0.0012952390147624321 0.036010388288468767 0 -0.001767683478062061 0.035698739263605221 0 -0.0012952390147624321 0.036010388288468767 0 -0.00071125704760222584 0.036335150763801206 0 -0.0014755872388174905 0.036677914300735422 0 -0.00071125704760222584 0.036335150763801206 0 -0.00055237562411371006 0.036881174728850309 0 -0.0014755872388174905 0.036677914300735422 0 -0.0018709136544038112 0.027195035830767267 0 -0.0028367563160701637 0.026943357210431257 0 0.00029369031598341157 0.036989758564690264 0 -4.7798137073385207e-05 0.036393266060765345 0 0.00057970405542793113 0.036291104455902279 0 0.0002838475704612847 0.035795966478724101 0 -4.7798137073385207e-05 0.036393266060765345 0 0.00057970405542793113 0.036291104455902279 0 -0.00071125704760222584 0.036335150763801206 0 -0.00055237562411371006 0.036881174728850309 0 -4.7798137073385207e-05 0.036393266060765345 0 -0.00035939795975066069 0.035729840954573142 0 -0.00071125704760222584 0.036335150763801206 0 -4.7798137073385207e-05 0.036393266060765345 0 -0.001012305932298473 0.02809503165102667 0 -0.0018709136544038112 0.027195035830767267 0 0.00029369031598341157 0.036989758564690264 0 -0.00055237562411371006 0.036881174728850309 0 -4.7798137073385207e-05 0.036393266060765345 0 -0.001012305932298473 0.02809503165102667 0 0.00095507427153590822 0.037775979741749448 0 0.0013093184259663317 0.035604161300217693 0 0.0012378442565434339 0.035568870036102124 0 0.0013380216313074618 0.03560211576698552 0 0.0012378442565434339 0.035568870036102124 0 0.0013380216313074618 0.03560211576698552 0 0.0012297588210679804 0.035578674267797192 0 0.0014253914961747099 0.03562088689371351 0 0.0013380216313074618 0.03560211576698552 0 0.0014554700851013276 0.035621423438644106 0 0.0013380216313074618 0.03560211576698552 0 0.0013654686251253533 0.035587722859826462 0 0.0014554700851013276 0.035621423438644106 0 0.0013380216313074618 0.03560211576698552 0 0.0013654686251253533 0.035587722859826462 0 0.0012297588210679804 0.035578674267797192 0 0.0013654686251253533 0.035587722859826462 0 0.0012297588210679804 0.035578674267797192 0 0.0012664719939085049 0.035553018105460077 0 0.0012664719939085049 0.035553018105460077 0 0.00099935751821881615 0.035484523571991368 0 0.0016190112212016564 0.035365859568216862 0 0.0012297588210679804 0.035578674267797192 0 0.0012664719939085049 0.035553018105460077 0 0.00099935751821881615 0.035484523571991368 0 0.0002838475704612847 0.035795966478724101 0 0.00057970405542793113 0.036291104455902279 0 0.00099935751821881615 0.035484523571991368 0 0.00095507427153590822 0.037775979741749448 0 0.0010682689523308 0.034701568024855613 0 0.0013654686251253533 0.035587722859826462 0 0.0012664719939085049 0.035553018105460077 0 0.0014873950235305986 0.035554677910146298 0 0.005299150356674602 0.042703678201350202 0 0.0051920642020469596 0.041989297275407636 0 0.0088928723839846388 0.049964270467703686 0 0.0090317448255291914 0.04952788391270823 0 0.0091425488133152124 0.049114468078729275 0 0.0012664719939085049 0.035553018105460077 0 0.0016190112212016564 0.035365859568216862 0 0.0014873950235305986 0.035554677910146298 0 0.0016190112212016564 0.035365859568216862 0 0.0014873950235305986 0.035554677910146298 0 0.0016947217615072073 0.035554342263331581 0 0.0016190112212016564 0.035365859568216862 0 0.0016947217615072073 0.035554342263331581 0 0.0018483467498281072 0.035495032650255942 0 0.0016947217615072073 0.035554342263331581 0 0.0017343340417706186 0.035623669654256972 0 0.0018697691277408501 0.035607156377163988 0 0.0016947217615072073 0.035554342263331581 0 0.0015565618895070146 0.035598956532783589 0 0.0017343340417706186 0.035623669654256972 0 0.0014873950235305986 0.035554677910146298 0 0.0016947217615072073 0.035554342263331581 0 0.0015565618895070146 0.035598956532783589 0 0.0013654686251253533 0.035587722859826462 0 0.0014873950235305986 0.035554677910146298 0 0.0015565618895070146 0.035598956532783589 0 0.0015565618895070146 0.035598956532783589 0 0.0014554700851013276 0.035621423438644106 0 0.0016437184827081158 0.035657470018737439 0 0.0013654686251253533 0.035587722859826462 0 0.0015565618895070146 0.035598956532783589 0 0.0014554700851013276 0.035621423438644106 0 0.0018603893778537373 0.035668211979133606 0 0.0016437184827081158 0.035657470018737439 0 0.0017343340417706186 0.035623669654256972 0 0.0015565618895070146 0.035598956532783589 0 0.0016437184827081158 0.035657470018737439 0 0.0017343340417706186 0.035623669654256972 0 0.0018603893778537373 0.035668211979133606 0 0.0018697691277408501 0.035607156377163988 0 0.0020023343345978743 0.035654666787401881 0 0.0018603893778537373 0.035668211979133606 0 0.0017343340417706186 0.035623669654256972 0 0.0018697691277408501 0.035607156377163988 0 0.0018697691277408501 0.035607156377163988 0 0.0020847251354050608 0.035604894728902159 0 0.0018483467498281072 0.035495032650255942 0 0.0016947217615072073 0.035554342263331581 0 0.0018697691277408501 0.035607156377163988 0 0.0018483467498281072 0.035495032650255942 0 0.0018697691277408501 0.035607156377163988 0 0.0020847251354050608 0.035604894728902159 0 0.0020023343345978743 0.035654666787401881 0 0.0065808647415285864 0.043343134976225224 0 0.010341516157056869 0.050044540916709727 0 0.0025229579182413754 0.036710494391718806 0 0.0017990126800052012 0.035264651121707492 0 0.0020847251354050608 0.035604894728902159 0 0.0020023343345978743 0.035654666787401881 0 0.0021948547872307324 0.035669653745908379 0 0.0022141742919140608 0.035630995504501335 0 0.0020023343345978743 0.035654666787401881 0 0.0021948547872307324 0.035669653745908379 0 0.0019083951635008585 0.035638660219355987 0 0.0019337326500409502 0.035655102769048881 0 0.0020023343345978743 0.035654666787401881 0 0.0019337326500409502 0.035655102769048881 0 0.0018603893778537373 0.035668211979133606 0 0.0020023343345978743 0.035654666787401881 0 0.010738994655297415 0.047537517301291896 0 0.010681500533776377 0.047270972437834617 0 0.012004747668325261 0.048408956149917658 0 0.008812924751459136 0.03553415231438091 0 0.0096038133094798594 0.040125557880381107 0 0.010464558597605138 0.04905380074455596 0 0.011093264370686648 0.049078217734686146 0 0.010750783462624197 0.048980310689130335 0 0.0096038133094798594 0.040125557880381107 0 0.01025697141804937 0.04666052749679761 0 0.013174794113815051 0.04398231303296702 0 0.0096038133094798594 0.040125557880381107 0 0.01025697141804937 0.04666052749679761 0 0.011993316386960769 0.049112564385555495 0 0.012157865166496929 0.049075946635753716 0 0.010738994655297415 0.047537517301291896 0 0.012004747668325261 0.048408956149917658 0 0.010464558597605138 0.04905380074455596 0 0.011722406873117633 0.049475180081862635 0 0.011093264370686648 0.049078217734686146 0 0.011722406873117633 0.049475180081862635 0 0.011532242309331633 0.049111156342014212 0 0.011928583069342689 0.048959828647280969 0 0.011722406873117633 0.049475180081862635 0 0.011928583069342689 0.048959828647280969 0 0.012474929937120321 0.049244094911616937 0 0.011722406873117633 0.049475180081862635 0 0.011093264370686648 0.049078217734686146 0 0.011532242309331633 0.049111156342014212 0 0.011093264370686648 0.049078217734686146 0 0.011005218577095726 0.048832581441506054 0 0.010750783462624197 0.048980310689130335 0 0.011093264370686648 0.049078217734686146 0 0.011389713782131416 0.048937742710553261 0 0.011532242309331633 0.049111156342014212 0 0.011093264370686648 0.049078217734686146 0 0.011389713782131416 0.048937742710553261 0 0.011005218577095726 0.048832581441506054 0 0.011389713782131416 0.048937742710553261 0 0.011928583069342689 0.048959828647280969 0 0.011451919296235518 0.048679973226857111 0 0.011389713782131416 0.048937742710553261 0 0.011532242309331633 0.049111156342014212 0 0.011928583069342689 0.048959828647280969 0 0.011928583069342689 0.048959828647280969 0 0.011451919296235518 0.048679973226857111 0 0.011891211061282873 0.048478688452095672 0 0.011451919296235518 0.048679973226857111 0 0.011005218577095726 0.048832581441506054 0 0.011079311840181932 0.048587903769443899 0 0.011389713782131416 0.048937742710553261 0 0.011451919296235518 0.048679973226857111 0 0.011005218577095726 0.048832581441506054 0 0.011005218577095726 0.048832581441506054 0 0.010703146647053706 0.048675698192954767 0 0.010644526413783838 0.048870027073023049 0 0.011005218577095726 0.048832581441506054 0 0.010703146647053706 0.048675698192954767 0 0.011079311840181932 0.048587903769443899 0 0.010703146647053706 0.048675698192954767 0 0.011079311840181932 0.048587903769443899 0 0.010793332241661145 0.048333035167236811 0 0.010432646244846302 0.048552332008339805 0 0.010472658615023991 0.048372998042750359 0 0.010793332241661145 0.048333035167236811 0 0.010703146647053706 0.048675698192954767 0 0.010432646244846302 0.048552332008339805 0 0.010793332241661145 0.048333035167236811 0 0.01129075496356198 0.048383560805646278 0 0.011109877590165292 0.048179665760997234 0 0.010793332241661145 0.048333035167236811 0 0.011079311840181932 0.048587903769443899 0 0.01129075496356198 0.048383560805646278 0 0.010793332241661145 0.048333035167236811 0 0.011451919296235518 0.048679973226857111 0 0.011079311840181932 0.048587903769443899 0 0.01129075496356198 0.048383560805646278 0 0.01129075496356198 0.048383560805646278 0 0.011356910426453213 0.048105492696601054 0 0.011891211061282873 0.048478688452095672 0 0.011451919296235518 0.048679973226857111 0 0.01129075496356198 0.048383560805646278 0 0.011891211061282873 0.048478688452095672 0 0.01129075496356198 0.048383560805646278 0 0.011356910426453213 0.048105492696601054 0 0.011109877590165292 0.048179665760997234 0 0.0092720630781255413 0.048908653151549839 0 0.0095077600951566105 0.049086141198149739 0 0.0094703762749289364 0.048608540461515762 0 0.010464558597605138 0.04905380074455596 0 0.010322453165258618 0.048735000094817453 0 0.0094703762749289364 0.048608540461515762 0 0.01025697141804937 0.04666052749679761 0 0.0096362522119419203 0.04946138572168611 0 0.0077817349039145276 0.042506382268813779 0 0.0094692484191278431 0.044185306105469606 0 0.0093519715891900879 0.043713552293362351 0 0.0065808647415285864 0.043343134976225224 0 0.01025697141804937 0.04666052749679761 0 0.0065808647415285864 0.043343134976225224 0 0.0096038133094798594 0.040125557880381107 0 0.010464558597605138 0.04905380074455596 0 0.010644526413783838 0.048870027073023049 0 0.010322453165258618 0.048735000094817453 0 0.010464558597605138 0.04905380074455596 0 0.010750783462624197 0.048980310689130335 0 0.010644526413783838 0.048870027073023049 0 0.011005218577095726 0.048832581441506054 0 0.010750783462624197 0.048980310689130335 0 0.010644526413783838 0.048870027073023049 0 0.010703146647053706 0.048675698192954767 0 0.010644526413783838 0.048870027073023049 0 0.010322453165258618 0.048735000094817453 0 0.010322453165258618 0.048735000094817453 0 0.0094703762749289364 0.048608540461515762 0 0.010126581116629632 0.04855027984363082 0 0.010703146647053706 0.048675698192954767 0 0.010322453165258618 0.048735000094817453 0 0.010432646244846302 0.048552332008339805 0 0.010322453165258618 0.048735000094817453 0 0.010432646244846302 0.048552332008339805 0 0.010126581116629632 0.04855027984363082 0 0.0099820134355286944 0.048435077406332766 0 0.009129803384810049 0.048611620079870431 0 0.011108716964079283 0.047915025131017371 0 0.0086661995244515806 0.04824739826166264 0 0.011317244056565224 0.048698982566864543 0 0.0094703762749289364 0.048608540461515762 0 0.0099820134355286944 0.048435077406332766 0 0.009129803384810049 0.048611620079870431 0 0.0094703762749289364 0.048608540461515762 0 0.010126581116629632 0.04855027984363082 0 0.0099820134355286944 0.048435077406332766 0 0.010432646244846302 0.048552332008339805 0 0.010126581116629632 0.04855027984363082 0 0.010472658615023991 0.048372998042750359 0 0.010126581116629632 0.04855027984363082 0 0.010472658615023991 0.048372998042750359 0 0.0099820134355286944 0.048435077406332766 0 0.0094703762749289364 0.048608540461515762 0 0.009129803384810049 0.048611620079870431 0 0.0091398148405483787 0.04870903576804915 0 0.014117925839473636 0.049206382143679187 0 0.014111214919734929 0.049137032005496351 0 0.014323141718593294 0.049099869934439613 0 0.011228856367430914 0.04842366613774815 0 0.011317244056565224 0.048698982566864543 0 0.010472658615023991 0.048372998042750359 0 0.0099820134355286944 0.048435077406332766 0 0.011108716964079283 0.047915025131017371 0 0.011356910426453213 0.048105492696601054 0 0.011108716964079283 0.047915025131017371 0 0.011109877590165292 0.048179665760997234 0 0.011108716964079283 0.047915025131017371 0 0.011109877590165292 0.048179665760997234 0 0.010793332241661145 0.048333035167236811 0 0.010472658615023991 0.048372998042750359 0 0.011108716964079283 0.047915025131017371 0 0.010793332241661145 0.048333035167236811 0 0.014117925839473636 0.049206382143679187 0 0.014111214919734929 0.049137032005496351 0 0.013800485494287621 0.049143295367695176 0 0.014111214919734929 0.049137032005496351 0 0.013800485494287621 0.049143295367695176 0 0.014179949648458395 0.049084001735541352 0 0.011317244056565224 0.048698982566864543 0 0.011197510815419316 0.049287276447926014 0 0.009129803384810049 0.048611620079870431 0 0.0082058057906488017 0.048218519975229447 0 0.0086699164758916453 0.049455404728473165 0 0.009129803384810049 0.048611620079870431 0 0.0086699164758916453 0.049455404728473165 0 0.0089684549777237221 0.049185989031020026 0 0.0090564216554961559 0.049028973756556009 0 0.0090317448255291914 0.04952788391270823 0 0.0089588697279884364 0.049569664440225723 0 0.0089684549777237221 0.049185989031020026 0 0.0090564216554961559 0.049028973756556009 0 0.0089588697279884364 0.049569664440225723 0 0.0086699164758916453 0.049455404728473165 0 0.0089684549777237221 0.049185989031020026 0 0.0089588697279884364 0.049569664440225723 0 0.009129803384810049 0.048611620079870431 0 0.0089684549777237221 0.049185989031020026 0 0.0090564216554961559 0.049028973756556009 0 0.0090564216554961559 0.049028973756556009 0 0.0090317448255291914 0.04952788391270823 0 0.0091425488133152124 0.049114468078729275 0 0.0090564216554961559 0.049028973756556009 0 0.0091425488133152124 0.049114468078729275 0 0.0090323469295549297 0.048779542192596462 0 0.0092720630781255413 0.048908653151549839 0 0.0090323469295549297 0.048779542192596462 0 0.0091398148405483787 0.04870903576804915 0 0.0092720630781255413 0.048908653151549839 0 0.0094703762749289364 0.048608540461515762 0 0.0091398148405483787 0.04870903576804915 0 0.0065808647415285864 0.043343134976225224 0 0.0051920642020469596 0.041989297275407636 0 0.00893485034392528 0.048226915116591933 0 0.0091425488133152124 0.049114468078729275 0 0.0090323469295549297 0.048779542192596462 0 0.009129803384810049 0.048611620079870431 0 0.0090564216554961559 0.049028973756556009 0 0.0091398148405483787 0.04870903576804915 0 0.0090564216554961559 0.049028973756556009 0 0.0090323469295549297 0.048779542192596462 0 0.0091398148405483787 0.04870903576804915 0 0.014798777860270477 0.048735865081766853 0 0.014434002859924392 0.0487241996072569 0 0.014752516508877147 0.048832191268735392 0 0.017855948927839885 0.046749303661269941 0 0.018506531406733601 0.04439246622694807 0 0.014588351769610871 0.048960428095097493 0 0.014798777860270477 0.048735865081766853 0 0.014434002859924392 0.0487241996072569 0 0.014588351769610871 0.048960428095097493 0 0.014434002859924392 0.0487241996072569 0 0.013677813233693234 0.049011888045203955 0 0.014434002859924392 0.0487241996072569 0 0.014559748492810921 0.048949403754408052 0 0.014752516508877147 0.048832191268735392 0 0.014434002859924392 0.0487241996072569 0 0.014473439996553565 0.049077918964741646 0 0.014559748492810921 0.048949403754408052 0 0.01425934621297454 0.048701757565571206 0 0.014037146000484649 0.048664313463779009 0 0.013029474492225837 0.048169830765830084 0 0.013677813233693234 0.049011888045203955 0 0.012646535212287308 0.048916643325697 0 0.014434002859924392 0.0487241996072569 0 0.013029474492225837 0.048169830765830084 0 0.013677813233693234 0.049011888045203955 0 0.013079518015867474 0.049236080569871284 0 0.013677813233693234 0.049011888045203955 0 0.012646535212287308 0.048916643325697 0 0.013079518015867474 0.049236080569871284 0 0.012646535212287308 0.048916643325697 0 0.012474929937120321 0.049244094911616937 0 0.011928583069342689 0.048959828647280969 0 0.012646535212287308 0.048916643325697 0 0.012474929937120321 0.049244094911616937 0 0.011928583069342689 0.048959828647280969 0 0.012646535212287308 0.048916643325697 0 0.011891211061282873 0.048478688452095672 0 0.011317244056565224 0.048698982566864543 0 0.014037146000484649 0.048664313463779009 0 0.011356910426453213 0.048105492696601054 0 0.011212269621560276 0.04789579936012741 0 0.013029474492225837 0.048169830765830084 0 0.011356910426453213 0.048105492696601054 0 0.013029474492225837 0.048169830765830084 0 0.011891211061282873 0.048478688452095672 0 0.013029474492225837 0.048169830765830084 0 0.012646535212287308 0.048916643325697 0 0.011891211061282873 0.048478688452095672 0 0.014117925839473636 0.049206382143679187 0 0.014473439996553565 0.049077918964741646 0 0.014323141718593294 0.049099869934439613 0 0.014111214919734929 0.049137032005496351 0 0.014323141718593294 0.049099869934439613 0 0.014179949648458395 0.049084001735541352 0 0.014323141718593294 0.049099869934439613 0 0.014179949648458395 0.049084001735541352 0 0.014492283175031749 0.04901942224237793 0 0.014179949648458395 0.049084001735541352 0 0.014492283175031749 0.04901942224237793 0 0.014300364600809584 0.048992124413144281 0 0.014492283175031749 0.04901942224237793 0 0.014684351662943688 0.048912419364429367 0 0.014300364600809584 0.048992124413144281 0 0.014473439996553565 0.049077918964741646 0 0.014492283175031749 0.04901942224237793 0 0.014559748492810921 0.048949403754408052 0 0.014473439996553565 0.049077918964741646 0 0.014323141718593294 0.049099869934439613 0 0.014492283175031749 0.04901942224237793 0 0.014559748492810921 0.048949403754408052 0 0.014688463504420596 0.04891971506306457 0 0.014752516508877147 0.048832191268735392 0 0.014492283175031749 0.04901942224237793 0 0.014559748492810921 0.048949403754408052 0 0.014688463504420596 0.04891971506306457 0 0.014688463504420596 0.04891971506306457 0 0.014998635559345037 0.048819450383085591 0 0.014684351662943688 0.048912419364429367 0 0.014492283175031749 0.04901942224237793 0 0.014688463504420596 0.04891971506306457 0 0.014684351662943688 0.048912419364429367 0 0.01518678765629383 0.048728176560052433 0 0.014998635559345037 0.048819450383085591 0 0.014752516508877147 0.048832191268735392 0 0.014688463504420596 0.04891971506306457 0 0.014998635559345037 0.048819450383085591 0 0.014752516508877147 0.048832191268735392 0 0.015558435240622203 0.048534493655743638 0 0.015065169853380597 0.048750680878024144 0 0.014850737490979923 0.048572905608010496 0 0.014998635559345037 0.048819450383085591 0 0.015065169853380597 0.048750680878024144 0 0.014684351662943688 0.048912419364429367 0 0.015065169853380597 0.048750680878024144 0 0.014684351662943688 0.048912419364429367 0 0.014525718230796717 0.048821595566818678 0 0.015065169853380597 0.048750680878024144 0 0.014525718230796717 0.048821595566818678 0 0.014850737490979923 0.048572905608010496 0 0.014684351662943688 0.048912419364429367 0 0.014525718230796717 0.048821595566818678 0 0.014300364600809584 0.048992124413144281 0 0.014300364600809584 0.048992124413144281 0 0.013939133272846018 0.049063421334457361 0 0.013970179808639372 0.048936148952292167 0 0.014179949648458395 0.049084001735541352 0 0.014300364600809584 0.048992124413144281 0 0.013939133272846018 0.049063421334457361 0 0.014525718230796717 0.048821595566818678 0 0.014300364600809584 0.048992124413144281 0 0.013970179808639372 0.048936148952292167 0 0.014525718230796717 0.048821595566818678 0 0.014266100939713745 0.048681795745120889 0 0.013970179808639372 0.048936148952292167 0 0.014266100939713745 0.048681795745120889 0 0.014565807162578957 0.04839083971382737 0 0.0140512855971278 0.048423769120093753 0 0.014266100939713745 0.048681795745120889 0 0.01353316330497064 0.048840289706260732 0 0.0140512855971278 0.048423769120093753 0 0.014266100939713745 0.048681795745120889 0 0.014565807162578957 0.04839083971382737 0 0.014850737490979923 0.048572905608010496 0 0.014525718230796717 0.048821595566818678 0 0.014266100939713745 0.048681795745120889 0 0.014850737490979923 0.048572905608010496 0 0.014850737490979923 0.048572905608010496 0 0.015422146872911064 0.048235083503728328 0 0.015030055263848777 0.048140192079927452 0 0.014565807162578957 0.04839083971382737 0 0.014850737490979923 0.048572905608010496 0 0.015030055263848777 0.048140192079927452 0 0.015558435240622203 0.048534493655743638 0 0.014850737490979923 0.048572905608010496 0 0.015422146872911064 0.048235083503728328 0 0.0088652353207123377 0.050233341900274002 0 0.0088064455312906447 0.050089490944908735 0 0.0089457951409571222 0.049892654837669075 0 0.0090317448255291914 0.04952788391270823 0 0.0089457951409571222 0.049892654837669075 0 0.0089588697279884364 0.049569664440225723 0 0.0088064455312906447 0.050089490944908735 0 0.0089457951409571222 0.049892654837669075 0 0.0089588697279884364 0.049569664440225723 0 0.0086699164758916453 0.049455404728473165 0 0.0088064455312906447 0.050089490944908735 0 0.0089588697279884364 0.049569664440225723 0 0.011197510815419316 0.049287276447926014 0 0.011047433960502059 0.049580733715423375 0 0.013297015192315959 0.049108379189658935 0 0.013939133272846018 0.049063421334457361 0 0.013970179808639372 0.048936148952292167 0 0.013800485494287621 0.049143295367695176 0 0.013297015192315959 0.049108379189658935 0 0.013939133272846018 0.049063421334457361 0 0.013800485494287621 0.049143295367695176 0 0.014179949648458395 0.049084001735541352 0 0.013939133272846018 0.049063421334457361 0 0.01353316330497064 0.048840289706260732 0 0.012602175268960151 0.049024685350157637 0 0.013140347972673595 0.048585411398836008 0 0.013297015192315959 0.049108379189658935 0 0.013970179808639372 0.048936148952292167 0 0.01353316330497064 0.048840289706260732 0 0.014266100939713745 0.048681795745120889 0 0.013970179808639372 0.048936148952292167 0 0.01353316330497064 0.048840289706260732 0 0.01353316330497064 0.048840289706260732 0 0.013140347972673595 0.048585411398836008 0 0.0140512855971278 0.048423769120093753 0 0.013297015192315959 0.049108379189658935 0 0.01353316330497064 0.048840289706260732 0 0.012602175268960151 0.049024685350157637 0 0.011047433960502059 0.049580733715423375 0 0.010761312941223079 0.049655670646302726 0 0.0088652353207123377 0.050233341900274002 0 0.0088064455312906447 0.050089490944908735 0 0.0089424387673471446 0.050342344609763834 0 0.012602175268960151 0.049024685350157637 0 0.011663441294020051 0.048940855297545868 0 0.013140347972673595 0.048585411398836008 0 0.011663441294020051 0.048940855297545868 0 0.013140347972673595 0.048585411398836008 0 0.012610695279116351 0.048262860433902315 0 0.010761312941223079 0.049655670646302726 0 0.010385840665853791 0.049448079896305709 0 0.011663441294020051 0.048940855297545868 0 0.011777491908427081 0.048259313743093259 0 0.012610695279116351 0.048262860433902315 0 0.013140347972673595 0.048585411398836008 0 0.0140512855971278 0.048423769120093753 0 0.013949798400046841 0.048066417462228207 0 0.013140347972673595 0.048585411398836008 0 0.013481574822908302 0.047817210886138412 0 0.013949798400046841 0.048066417462228207 0 0.013140347972673595 0.048585411398836008 0 0.013481574822908302 0.047817210886138412 0 0.012610695279116351 0.048262860433902315 0 0.013481574822908302 0.047817210886138412 0 0.012719242109134421 0.047515181855798332 0 0.012610695279116351 0.048262860433902315 0 0.013481574822908302 0.047817210886138412 0 0.014368053526369218 0.047512106640921252 0 0.013627753293600704 0.046994589470026903 0 0.013481574822908302 0.047817210886138412 0 0.012719242109134421 0.047515181855798332 0 0.013627753293600704 0.046994589470026903 0 0.012719242109134421 0.047515181855798332 0 0.011777491908427081 0.048259313743093259 0 0.01142661759158132 0.047068133394068179 0 0.011777491908427081 0.048259313743093259 0 0.01142661759158132 0.047068133394068179 0 0.009884061837782853 0.048845313361381801 0 0.012719242109134421 0.047515181855798332 0 0.011777491908427081 0.048259313743093259 0 0.012610695279116351 0.048262860433902315 0 0.015523284078672542 0.0477758901875475 0 0.015100283742245091 0.04778307475119966 0 0.015258181330834434 0.047427878266585892 0 0.015523284078672542 0.0477758901875475 0 0.015422146872911064 0.048235083503728328 0 0.015030055263848777 0.048140192079927452 0 0.015523284078672542 0.0477758901875475 0 0.015030055263848777 0.048140192079927452 0 0.015100283742245091 0.04778307475119966 0 0.014565807162578957 0.04839083971382737 0 0.015030055263848777 0.048140192079927452 0 0.014651696659427173 0.047958504576108042 0 0.015030055263848777 0.048140192079927452 0 0.015100283742245091 0.04778307475119966 0 0.014651696659427173 0.047958504576108042 0 0.015100283742245091 0.04778307475119966 0 0.014651696659427173 0.047958504576108042 0 0.014921041154245258 0.047595689363447102 0 0.014565807162578957 0.04839083971382737 0 0.014651696659427173 0.047958504576108042 0 0.0140512855971278 0.048423769120093753 0 0.014651696659427173 0.047958504576108042 0 0.0140512855971278 0.048423769120093753 0 0.013949798400046841 0.048066417462228207 0 0.014651696659427173 0.047958504576108042 0 0.013949798400046841 0.048066417462228207 0 0.014368053526369218 0.047512106640921252 0 0.013481574822908302 0.047817210886138412 0 0.013949798400046841 0.048066417462228207 0 0.014368053526369218 0.047512106640921252 0 0.014368053526369218 0.047512106640921252 0 0.014384563104223905 0.046747129460150513 0 0.013627753293600704 0.046994589470026903 0 0.014368053526369218 0.047512106640921252 0 0.015057921289602469 0.047269988932651379 0 0.014384563104223905 0.046747129460150513 0 0.015124461668769591 0.047318257568696537 0 0.014429481015989126 0.046750205751417882 0 0.014368053526369218 0.047512106640921252 0 0.014921041154245258 0.047595689363447102 0 0.015057921289602469 0.047269988932651379 0 0.014651696659427173 0.047958504576108042 0 0.014368053526369218 0.047512106640921252 0 0.014921041154245258 0.047595689363447102 0 0.015100283742245091 0.04778307475119966 0 0.014921041154245258 0.047595689363447102 0 0.015258181330834434 0.047427878266585892 0 0.014921041154245258 0.047595689363447102 0 0.015057921289602469 0.047269988932651379 0 0.015258181330834434 0.047427878266585892 0 0.015057921289602469 0.047269988932651379 0 0.015258181330834434 0.047427878266585892 0 0.015168218859657369 0.047064575210295549 0 0.018137691532876456 0.049570108709175234 0 0.019203020405647191 0.050376402815112506 0 0.019139210977061553 0.049685834389808732 0 0.017266000992463625 0.04867802017571872 0 0.016581174194746692 0.048592321042062472 0 0.019203020405647191 0.050376402815112506 0 0.019139210977061553 0.049685834389808732 0 0.01940718605559983 0.05077724055959669 0 0.017755221361653212 0.048406967952136476 0 0.018137691532876456 0.049570108709175234 0 0.019139210977061553 0.049685834389808732 0 0.016635711030222929 0.048142460369601438 0 0.017266000992463625 0.04867802017571872 0 0.016581174194746692 0.048592321042062472 0 0.018108496917543439 0.047817274089832003 0 0.021934469821898003 0.048843089941288137 0 0.020030717253618369 0.050513430918542088 0 0.01992303115503535 0.04866934028685458 0 0.020030717253618369 0.050513430918542088 0 0.01940718605559983 0.05077724055959669 0 0.01992303115503535 0.04866934028685458 0 0.019203020405647191 0.050376402815112506 0 0.020030717253618369 0.050513430918542088 0 0.01940718605559983 0.05077724055959669 0 0.015057921289602469 0.047269988932651379 0 0.015168218859657369 0.047064575210295549 0 0.014846426914425531 0.047057267404509606 0 0.015821985470867626 0.047314318713522305 0 0.015222809157386663 0.046657314023376618 0 0.016355007897142847 0.046618163666755558 0 0.016581174194746692 0.048592321042062472 0 0.014838930568687899 0.046197486316153336 0 0.015891026756257025 0.047982730742533668 0 0.015821985470867626 0.047314318713522305 0 0.016355007897142847 0.046618163666755558 0 0.015891026756257025 0.047982730742533668 0 0.015821985470867626 0.047314318713522305 0 0.015222809157386663 0.046657314023376618 0 0.015168218859657369 0.047064575210295549 0 0.015222809157386663 0.046657314023376618 0 0.015034451272084175 0.046905700653171456 0 0.014822662319045646 0.04677902909794409 0 0.015034451272084175 0.046905700653171456 0 0.014846426914425531 0.047057267404509606 0 0.015222809157386663 0.046657314023376618 0 0.014822662319045646 0.04677902909794409 0 0.015034451272084175 0.046905700653171456 0 0.015222809157386663 0.046657314023376618 0 0.014822662319045646 0.04677902909794409 0 0.014767900386743998 0.046470413555378877 0 0.015168218859657369 0.047064575210295549 0 0.015034451272084175 0.046905700653171456 0 0.014846426914425531 0.047057267404509606 0 0.014384563104223905 0.046747129460150513 0 0.013627753293600704 0.046994589470026903 0 0.013629227571320001 0.04611672828250192 0 0.014822662319045646 0.04677902909794409 0 0.014846426914425531 0.047057267404509606 0 0.014348116609044162 0.046742577287447483 0 0.014822662319045646 0.04677902909794409 0 0.014767900386743998 0.046470413555378877 0 0.014348116609044162 0.046742577287447483 0 0.014429481015989126 0.046750205751417882 0 0.01472668596102392 0.04709239281348522 0 0.016659009487740666 0.046903838173412787 0 0.01472668596102392 0.04709239281348522 0 0.018912102326996218 0.0460225853788509 0 0.018280715408659685 0.047313608873202205 0 0.016821723440388774 0.046339182692857292 0 0.018280715408659685 0.047313608873202205 0 0.016160388085267891 0.048352597947381684 0 0.016821723440388774 0.046339182692857292 0 0.017916080951674573 0.044999999819313991 0 0.018912102326996218 0.0460225853788509 0 0.016821723440388774 0.046339182692857292 0 0.017916080951674573 0.044999999819313991 0 0.018912102326996218 0.0460225853788509 0 0.020205688768732355 0.044999982528596286 0 0.016659009487740666 0.046903838173412787 0 0.017758423779273304 0.046150521879445967 0 0.015222809157386663 0.046657314023376618 0 0.014767900386743998 0.046470413555378877 0 0.015625369862545032 0.045866820324117492 0 0.018912102326996218 0.0460225853788509 0 0.018280715408659685 0.047313608873202205 0 0.020317441919125653 0.046338333852037332 0 0.015222809157386663 0.046657314023376618 0 0.015625369862545032 0.045866820324117492 0 0.016355007897142847 0.046618163666755558 0 0.020317441919125653 0.046338333852037332 0 0.020205688768732355 0.044999982528596286 0 0.022368816991839176 0.04535323571012452 0 0.018912102326996218 0.0460225853788509 0 0.020317441919125653 0.046338333852037332 0 0.020205688768732355 0.044999982528596286 0 0.017758423779273304 0.046150521879445967 0 0.020704393446345878 0.045308489307329398 0 0.020205688768732355 0.044999982528596286 0 0.022495349005932388 0.045000006571210054 0 0.022368816991839176 0.04535323571012452 0 0.022491671925782379 0.04499968719102667 0 0.020704393446345878 0.045308489307329398 0 0.020704393446345878 0.045308489307329398 0 0.018108496917543439 0.047817274089832003 0 0.021934469821898003 0.048843089941288137 0 0.021958166707033943 0.047384204898212857 0 0.01992303115503535 0.04866934028685458 0 0.015625369862545032 0.045866820324117492 0 0.016891272947134189 0.045252735042989128 0 0.016355007897142847 0.046618163666755558 0 0.021958166707033943 0.047384204898212857 0 0.021709419191374958 0.045344153836725257 0 0.01992303115503535 0.04866934028685458 0 0.012023901332826147 0.047138349620532906 0 0.013456887967568831 0.048037125584498366 0 0.013787329701614243 0.046440475405872483 0 0.012023901332826147 0.047138349620532906 0 0.011534703471817761 0.04853218362209636 0 0.010778094281789444 0.047372015208691678 0 0.012719242109134421 0.047515181855798332 0 0.01142661759158132 0.047068133394068179 0 0.012690711742768637 0.046504040328021558 0 0.012023901332826147 0.047138349620532906 0 0.011534703471817761 0.04853218362209636 0 0.013456887967568831 0.048037125584498366 0 0.011505502532534597 0.047800398390015118 0 0.012984553211140969 0.047227049726150723 0 0.012719242109134421 0.047515181855798332 0 0.012690711742768637 0.046504040328021558 0 0.013627753293600704 0.046994589470026903 0 0.012690711742768637 0.046504040328021558 0 0.013627753293600704 0.046994589470026903 0 0.013629227571320001 0.04611672828250192 0 0.013456887967568831 0.048037125584498366 0 0.014888313074715245 0.047396197381627592 0 0.013787329701614243 0.046440475405872483 0 0.012984553211140969 0.047227049726150723 0 0.01472668596102392 0.04709239281348522 0 0.01472668596102392 0.04709239281348522 0 0.014215133551372052 0.046832207256078583 0 0.016160388085267891 0.048352597947381684 0 0.013787329701614243 0.046440475405872483 0 0.016821723440388774 0.046339182692857292 0 0.013787329701614243 0.046440475405872483 0 0.016821723440388774 0.046339182692857292 0 0.015626198422953364 0.044999785535789739 0 0.017916080951674573 0.044999999819313991 0 0.016821723440388774 0.046339182692857292 0 0.015626198422953364 0.044999785535789739 0 0.013787329701614243 0.046440475405872483 0 0.015626198422953364 0.044999785535789739 0 0.013336146746414052 0.044999840043729755 0 0.013787329701614243 0.046440475405872483 0 0.013336146746414052 0.044999840043729755 0 0.012074952091730045 0.046066895093155404 0 0.012023901332826147 0.047138349620532906 0 0.013787329701614243 0.046440475405872483 0 0.012074952091730045 0.046066895093155404 0 0.012023901332826147 0.047138349620532906 0 0.012074952091730045 0.046066895093155404 0 0.010425487377088443 0.046465465594102813 0 0.013336146746414052 0.044999840043729755 0 0.012074952091730045 0.046066895093155404 0 0.011047937134154117 0.044999760858406963 0 0.011046403338511972 0.044999837893370857 0 0.0096836262649377496 0.046688043240220328 0 0.0084191418038667646 0.044999760250950864 0 0.012074952091730045 0.046066895093155404 0 0.011047937134154117 0.044999760858406963 0 0.010425487377088443 0.046465465594102813 0 0.011046948795393032 0.045000202285412981 0 0.010061989711567968 0.046535267751345172 0 0.0096836262649377496 0.046688043240220328 0 0.0084191418038667646 0.044999760250950864 0 0.0080092643840197382 0.046909527605448843 0 0.0057915442960841564 0.044999650501441696 0 0.0084191418038667646 0.044999760250950864 0 0.0068595555022819086 0.046030890571253043 0 0.0057915442960841564 0.044999650501441696 0 0.0068595555022819086 0.046030890571253043 0 0.0046902455651413244 0.046343296513465602 0 0.0084191418038667646 0.044999760250950864 0 0.0080092643840197382 0.046909527605448843 0 0.0068595555022819086 0.046030890571253043 0 0.0080092643840197382 0.046909527605448843 0 0.0068595555022819086 0.046030890571253043 0 0.0063256509494246113 0.047057690946472601 0 0.0068595555022819086 0.046030890571253043 0 0.0063256509494246113 0.047057690946472601 0 0.0046902455651413244 0.046343296513465602 0 0.0063256509494246113 0.047057690946472601 0 0.0070034356059368646 0.048136077919539492 0 0.0052872517924020925 0.047599317779850756 0 0.0080092643840197382 0.046909527605448843 0 0.0063256509494246113 0.047057690946472601 0 0.0070034356059368646 0.048136077919539492 0 0.0080092643840197382 0.046909527605448843 0 0.0070034356059368646 0.048136077919539492 0 0.0086125722709251597 0.047939328279805078 0 0.0070034356059368646 0.048136077919539492 0 0.0086125722709251597 0.047939328279805078 0 0.0081983641423885745 0.048760996162949578 0 0.010425487377088443 0.046465465594102813 0 0.010778094281789444 0.047372015208691678 0 0.0095882589457748479 0.047568654173372367 0 0.012023901332826147 0.047138349620532906 0 0.010425487377088443 0.046465465594102813 0 0.010778094281789444 0.047372015208691678 0 0.0096836262649377496 0.046688043240220328 0 0.0080092643840197382 0.046909527605448843 0 0.0086125722709251597 0.047939328279805078 0 0.010061989711567968 0.046535267751345172 0 0.0090794973540249489 0.047777400863682228 0 0.0090794973540249489 0.047777400863682228 0 0.0082786016172838803 0.048765871766575833 0 0.0095882589457748479 0.047568654173372367 0 0.010336581786337989 0.048027098093824411 0 0.0095753964062085632 0.048542333645508536 0 0.010778094281789444 0.047372015208691678 0 0.0095882589457748479 0.047568654173372367 0 0.010336581786337989 0.048027098093824411 0 0.011534703471817761 0.04853218362209636 0 0.010778094281789444 0.047372015208691678 0 0.010336581786337989 0.048027098093824411 0 0.011505502532534597 0.047800398390015118 0 0.0097458695960356834 0.048487482079017707 0 0.011534703471817761 0.04853218362209636 0 0.010336581786337989 0.048027098093824411 0 0.0095753964062085632 0.048542333645508536 0 0.01142661759158132 0.047068133394068179 0 0.009884061837782853 0.048845313361381801 0 0.0095753964062085632 0.048542333645508536 0 0.011663441294020051 0.048940855297545868 0 0.011777491908427081 0.048259313743093259 0 0.009884061837782853 0.048845313361381801 0 0.009884061837782853 0.048845313361381801 0 0.0086398818283094942 0.04930682766439775 0 0.0089456902984535978 0.049895475823457908 0 0.009884061837782853 0.048845313361381801 0 0.0086398818283094942 0.04930682766439775 0 0.0095753964062085632 0.048542333645508536 0 0.0095882589457748479 0.047568654173372367 0 0.0095753964062085632 0.048542333645508536 0 0.0081983641423885745 0.048760996162949578 0 0.0086398818283094942 0.04930682766439775 0 0.0095753964062085632 0.048542333645508536 0 0.0081983641423885745 0.048760996162949578 0 0.0070034356059368646 0.048136077919539492 0 0.006778133316555056 0.04954629008458656 0 0.0053093794118024961 0.048808128864656609 0 0.0070034356059368646 0.048136077919539492 0 0.0081983641423885745 0.048760996162949578 0 0.006778133316555056 0.04954629008458656 0 0.006778133316555056 0.04954629008458656 0 0.0078015720966048809 0.049452321482242011 0 0.007813767265181213 0.050122780062830004 0 0.0086398818283094942 0.04930682766439775 0 0.0078015720966048809 0.049452321482242011 0 0.007813767265181213 0.050122780062830004 0 0.0081983641423885745 0.048760996162949578 0 0.006778133316555056 0.04954629008458656 0 0.0078015720966048809 0.049452321482242011 0 0.0086398818283094942 0.04930682766439775 0 0.0081983641423885745 0.048760996162949578 0 0.0078015720966048809 0.049452321482242011 0 0.0063545937635273346 0.049000584841051659 0 0.007813767265181213 0.050122780062830004 0 0.0062319844677232823 0.050052280259223279 0 0.0065682034788285383 0.049296920839244938 0 0.0077031069216132305 0.050105844313721455 0 0.007813767265181213 0.050122780062830004 0 0.0068869968469111855 0.050918032859211308 0 0.0062319844677232823 0.050052280259223279 0 0.0078662038007400025 0.05070897506400357 0 0.007813767265181213 0.050122780062830004 0 0.0068869968469111855 0.050918032859211308 0 0.0078662038007400025 0.05070897506400357 0 0.007813767265181213 0.050122780062830004 0 0.0084495355096247046 0.050317831754838345 0 0.0086465257977250271 0.050474285289366115 0 0.0092011192989697194 0.050141763667664409 0 0.0084495355096247046 0.050317831754838345 0 0.010385840665853791 0.049448079896305709 0 0.0098678166831988445 0.048758095564931381 0 0.0092011192989697194 0.050141763667664409 0 0.0084495355096247046 0.050317831754838345 0 0.0089456902984535978 0.049895475823457908 0 0.0092011192989697194 0.050141763667664409 0 0.009884061837782853 0.048845313361381801 0 0.0089456902984535978 0.049895475823457908 0 0.0086398818283094942 0.04930682766439775 0 0.007813767265181213 0.050122780062830004 0 0.0089456902984535978 0.049895475823457908 0 0.007813767265181213 0.050122780062830004 0 0.0084495355096247046 0.050317831754838345 0 0.0089456902984535978 0.049895475823457908 0 0.0028505743951267749 0.050026616021320497 0 0.0028754864492043573 0.051272332463488529 0 0.004568373309239147 0.049955944340490596 0 0.0028505743951267749 0.050026616021320497 0 0.0014091974262545948 0.050450254359030389 0 0.0028754864492043573 0.051272332463488529 0 0.0028505743951267749 0.050026616021320497 0 0.0014091974262545948 0.050450254359030389 0 0.001465554249198346 0.049472347261448724 0 -0.0029925329011160845 0.03617167772309697 0 -0.0028838346371890477 0.036076438566194677 0 -0.002876663206255342 0.03611015878149286 0 -0.0029925329011160845 0.03617167772309697 0 -0.0028064675935505108 0.036170045678001368 0 -0.002876663206255342 0.03611015878149286 0 -0.0029925329011160845 0.03617167772309697 0 -0.0028402808900811994 0.036067043442249265 0 -0.0027317100762596115 0.036063790163686507 0 -0.0029925329011160845 0.03617167772309697 0 -0.0028838346371890477 0.036076438566194677 0 -0.0028402808900811994 0.036067043442249265 0 -0.00075298950808292829 0.042949743188415782 0 -0.00010455757694099863 0.043774327748036711 0 -0.0028838346371890477 0.036076438566194677 0 -0.0028402808900811994 0.036067043442249265 0 -0.0028942322677728929 0.036037397179724914 0 -0.0028647172821684489 0.036056042243826997 0 -0.0028402808900811994 0.036067043442249265 0 -0.0028942322677728929 0.036037397179724914 0 -0.0028059171039221758 0.036109840732134184 0 -0.0028402808900811994 0.036067043442249265 0 -0.0027317100762596115 0.036063790163686507 0 0.0028754864492043573 0.051272332463488529 0 0.005083558883050697 0.050933389818466374 0 0.004568373309239147 0.049955944340490596 0 0.0045055036731133473 0.052436805802138477 0 0.0028754864492043573 0.051272332463488529 0 0.005083558883050697 0.050933389818466374 0 0.0045055036731133473 0.052436805802138477 0 0.0068869968469111855 0.050918032859211308 0 0.005083558883050697 0.050933389818466374 0 0.0068869968469111855 0.050918032859211308 0 0.005083558883050697 0.050933389818466374 0 0.0062319844677232823 0.050052280259223279 0 0.0063545937635273346 0.049000584841051659 0 0.0062319844677232823 0.050052280259223279 0 0.004568373309239147 0.049955944340490596 0 0.005083558883050697 0.050933389818466374 0 0.0062319844677232823 0.050052280259223279 0 0.004568373309239147 0.049955944340490596 0 0.0028505743951267749 0.050026616021320497 0 0.004568373309239147 0.049955944340490596 0 0.0042495737057947651 0.048964102577477867 0 0.0063545937635273346 0.049000584841051659 0 0.004568373309239147 0.049955944340490596 0 0.0042495737057947651 0.048964102577477867 0 0.0065682034788285383 0.049296920839244938 0 0.0049843538586655705 0.04841630394523809 0 0.0063545937635273346 0.049000584841051659 0 0.0042495737057947651 0.048964102577477867 0 0.0047007419366443485 0.048067485302549923 0 0.0042495737057947651 0.048964102577477867 0 0.0047007419366443485 0.048067485302549923 0 0.0030353696287802254 0.048243695573930517 0 0.0042495737057947651 0.048964102577477867 0 0.0027552936777252594 0.049042701940931729 0 0.0030353696287802254 0.048243695573930517 0 0.0027552936777252594 0.049042701940931729 0 0.0030353696287802254 0.048243695573930517 0 0.0015054726041847382 0.048546050906459019 0 0.0028505743951267749 0.050026616021320497 0 0.0042495737057947651 0.048964102577477867 0 0.0027552936777252594 0.049042701940931729 0 0.0028505743951267749 0.050026616021320497 0 0.0027552936777252594 0.049042701940931729 0 0.001465554249198346 0.049472347261448724 0 0.001465554249198346 0.049472347261448724 0 0.0015054726041847382 0.048546050906459019 0 0.00043692922521528464 0.04900120361547413 0 0.0027552936777252594 0.049042701940931729 0 0.001465554249198346 0.049472347261448724 0 0.0015054726041847382 0.048546050906459019 0 0.0015054726041847382 0.048546050906459019 0 0.0012608352605951629 0.047336475885542177 0 0.00038300419399390676 0.048042557375357078 0 0.0030353696287802254 0.048243695573930517 0 0.0015054726041847382 0.048546050906459019 0 0.0012608352605951629 0.047336475885542177 0 0.0030353696287802254 0.048243695573930517 0 0.0012608352605951629 0.047336475885542177 0 0.0034166045015074139 0.047416260334179706 0 0.0012608352605951629 0.047336475885542177 0 0.0034166045015074139 0.047416260334179706 0 0.0020415719319757889 0.04621625238561694 0 0.0070034356059368646 0.048136077919539492 0 0.0053093794118024961 0.048808128864656609 0 0.0052872517924020925 0.047599317779850756 0 0.0049843538586655705 0.04841630394523809 0 0.0035649985986164084 0.047429235607166928 0 0.0053093794118024961 0.048808128864656609 0 0.0034166045015074139 0.047416260334179706 0 0.0052872517924020925 0.047599317779850756 0 0.0047007419366443485 0.048067485302549923 0 0.0030353696287802254 0.048243695573930517 0 0.0034166045015074139 0.047416260334179706 0 0.0034166045015074139 0.047416260334179706 0 0.0052872517924020925 0.047599317779850756 0 0.0046902455651413244 0.046343296513465602 0 0.0063256509494246113 0.047057690946472601 0 0.0052872517924020925 0.047599317779850756 0 0.0046902455651413244 0.046343296513465602 0 0.0034166045015074139 0.047416260334179706 0 0.0046902455651413244 0.046343296513465602 0 0.0020415719319757889 0.04621625238561694 0 0.0046902455651413244 0.046343296513465602 0 0.0031639902219275646 0.044999452841334893 0 0.0020415719319757889 0.04621625238561694 0 0.0057915442960841564 0.044999650501441696 0 0.0046902455651413244 0.046343296513465602 0 0.0031639902219275646 0.044999452841334893 0 0.0012608352605951629 0.047336475885542177 0 0.0020415719319757889 0.04621625238561694 0 -0.0004650015550186332 0.046131899690712373 0 0.0031639902219275646 0.044999452841334893 0 0.0020415719319757889 0.04621625238561694 0 0.00053564705765743849 0.044999736011186744 0 0.0020415719319757889 0.04621625238561694 0 0.00053564705765743849 0.044999736011186744 0 -0.0004650015550186332 0.046131899690712373 0 0.00053564705765743849 0.044999736011186744 0 -0.0004650015550186332 0.046131899690712373 0 -0.0020899068838847543 0.044998461208094552 0 -0.0004650015550186332 0.046131899690712373 0 -0.0024310501554894995 0.045654647755402657 0 -0.0015958558457150314 0.046561172379481382 0 -0.0004650015550186332 0.046131899690712373 0 -0.0020899068838847543 0.044998461208094552 0 -0.0024310501554894995 0.045654647755402657 0 -0.0020924614967861286 0.044999969408672062 0 -0.0035165269317585595 0.045044021070732111 0 -0.0020899068838847543 0.044998461208094552 0 -0.0030133424322533334 0.044764772472671813 0 -0.0024310501554894995 0.045654647755402657 0 -0.0020920803504730786 0.044999998955748639 0 -0.0039459341899405901 0.044999996450939821 0 -0.0039353964928856349 0.04530822766885944 0 -0.0030133424322533334 0.044764772472671813 0 -0.0037601618006760282 0.045365651875978928 0 -0.0024310501554894995 0.045654647755402657 0 -0.0035165269317585595 0.045044021070732111 0 -0.0049773732152019285 0.045365928530723638 0 -0.0039459341899405901 0.044999996450939821 0 -0.0039353964928856349 0.04530822766885944 0 -0.0057998027880468653 0.044999997675013337 0 -0.0039353964928856349 0.04530822766885944 0 -0.0057998027880468653 0.044999997675013337 0 -0.0057788080746961693 0.045613499560631189 0 -0.0030133424322533334 0.044764772472671813 0 -0.0037601618006760282 0.045365651875978928 0 -0.004339421167355687 0.044772539486026872 0 -0.0037601618006760282 0.045365651875978928 0 -0.0034444215167894017 0.046034487259280971 0 -0.0043105905060971689 0.045838764289474566 0 -0.0034444215167894017 0.046034487259280971 0 -0.0024310501554894995 0.045654647755402657 0 -0.0025440073629658332 0.046618603229124297 0 -0.0037601618006760282 0.045365651875978928 0 -0.0034444215167894017 0.046034487259280971 0 -0.0024310501554894995 0.045654647755402657 0 -0.0024310501554894995 0.045654647755402657 0 -0.0025440073629658332 0.046618603229124297 0 -0.0015958558457150314 0.046561172379481382 0 -0.0034444215167894017 0.046034487259280971 0 -0.0025440073629658332 0.046618603229124297 0 -0.0033929700915128723 0.046790338895297552 0 -0.0025440073629658332 0.046618603229124297 0 -0.0033929700915128723 0.046790338895297552 0 -0.0025594085193542792 0.047247254204479811 0 -0.0025440073629658332 0.046618603229124297 0 -0.0025594085193542792 0.047247254204479811 0 -0.0016452632724744296 0.04729486250668434 0 -0.0034444215167894017 0.046034487259280971 0 -0.0043105905060971689 0.045838764289474566 0 -0.0040956030014721433 0.046369718943635514 0 -0.0034444215167894017 0.046034487259280971 0 -0.0040956030014721433 0.046369718943635514 0 -0.0033929700915128723 0.046790338895297552 0 -0.0040956030014721433 0.046369718943635514 0 -0.0041596924894856981 0.047274080648495538 0 -0.0051115217923191781 0.046126587759485298 0 -0.0040956030014721433 0.046369718943635514 0 -0.0033929700915128723 0.046790338895297552 0 -0.0041596924894856981 0.047274080648495538 0 -0.0041596924894856981 0.047274080648495538 0 -0.0042011908807805714 0.047609848666591036 0 -0.0042378564942815245 0.047550328121769979 0 -0.0041501587893358364 0.047247963865030003 0 -0.0033387643424214698 0.048561809729062315 0 -0.0033929700915128723 0.046790338895297552 0 -0.0041596924894856981 0.047274080648495538 0 -0.002885762468038199 0.047661627424729937 0 -0.0041596924894856981 0.047274080648495538 0 -0.002885762468038199 0.047661627424729937 0 -0.0023527516089989595 0.048982130990431721 0 -0.0025594085193542792 0.047247254204479811 0 -0.0018779203550527603 0.048016317430995603 0 -0.0016452632724744296 0.04729486250668434 0 -0.002885762468038199 0.047661627424729937 0 -0.0025594085193542792 0.047247254204479811 0 -0.0018779203550527603 0.048016317430995603 0 -0.0033929700915128723 0.046790338895297552 0 -0.002885762468038199 0.047661627424729937 0 -0.0025594085193542792 0.047247254204479811 0 -0.002885762468038199 0.047661627424729937 0 -0.0018779203550527603 0.048016317430995603 0 -0.0023527516089989595 0.048982130990431721 0 -0.0018779203550527603 0.048016317430995603 0 -0.0008309869779737786 0.048108219282378947 0 -0.0010365101152470971 0.04891586405522963 0 -0.0018779203550527603 0.048016317430995603 0 -0.0016452632724744296 0.04729486250668434 0 -0.0008309869779737786 0.048108219282378947 0 -0.0016452632724744296 0.04729486250668434 0 -0.0008309869779737786 0.048108219282378947 0 -0.00042177119764501937 0.047219430218230315 0 0.0012608352605951629 0.047336475885542177 0 0.00038300419399390676 0.048042557375357078 0 -0.00042177119764501937 0.047219430218230315 0 -0.0008309869779737786 0.048108219282378947 0 0.00038300419399390676 0.048042557375357078 0 0.00043692922521528464 0.04900120361547413 0 -0.0008309869779737786 0.048108219282378947 0 0.00038300419399390676 0.048042557375357078 0 -0.00042177119764501937 0.047219430218230315 0 0.0012608352605951629 0.047336475885542177 0 -0.0004650015550186332 0.046131899690712373 0 -0.00042177119764501937 0.047219430218230315 0 -0.0004650015550186332 0.046131899690712373 0 -0.00042177119764501937 0.047219430218230315 0 -0.0015958558457150314 0.046561172379481382 0 -0.0025440073629658332 0.046618603229124297 0 -0.0016452632724744296 0.04729486250668434 0 -0.0015958558457150314 0.046561172379481382 0 -0.0016452632724744296 0.04729486250668434 0 -0.00042177119764501937 0.047219430218230315 0 -0.0015958558457150314 0.046561172379481382 0 -0.014262085889116401 0.038308086493401027 0 -0.012253380292154075 0.035741383855256853 0 -0.018065356454727472 0.036827005053283027 0 -0.014262085889116401 0.038308086493401027 0 -0.011600166804326838 0.038737701252276942 0 -0.013354071322692524 0.040461809255641024 0 -0.014262085889116401 0.038308086493401027 0 -0.012253380292154075 0.035741383855256853 0 -0.011600166804326838 0.038737701252276942 0 -0.010421588789922942 0.044999957689590961 0 -0.010061386875409464 0.046302960466592658 0 -0.012506604931764004 0.046702981834519035 0 -0.010061386875409464 0.046302960466592658 0 -0.0076536993611080332 0.044999955964809685 0 -0.0076282435284083646 0.045901687264325072 0 -0.010421588789922942 0.044999957689590961 0 -0.010061386875409464 0.046302960466592658 0 -0.0076536993611080332 0.044999955964809685 0 -0.011036566942824271 0.040730149640592385 0 -0.0072462733567253499 0.042535536728598819 0 -0.012253380292154075 0.035741383855256853 0 -0.0090735879757192321 0.037795536854674405 0 -0.0061363214055496678 0.034722379205954175 0 -0.0090735879757192321 0.037795536854674405 0 -0.0058671903168005029 0.039571221103796135 0 -0.0096132197697518258 0.040566009807177533 0 -0.012253380292154075 0.035741383855256853 0 -0.011600166804326838 0.038737701252276942 0 -0.0090735879757192321 0.037795536854674405 0 -0.011600166804326838 0.038737701252276942 0 -0.0090735879757192321 0.037795536854674405 0 -0.0096132197697518258 0.040566009807177533 0 -0.0090735879757192321 0.037795536854674405 0 -0.0061363214055496678 0.034722379205954175 0 -0.0058671903168005029 0.039571221103796135 0 -0.0054061233209302664 0.044982857026374383 0 -0.00483034452094009 0.045490732287696387 0 -0.0052557163334237588 0.045935867338931159 0 -0.0072462733567253499 0.042535536728598819 0 -0.0054954724464113128 0.042227599067977455 0 -0.007653316576395802 0.045001103701238838 0 -0.0072462733567253499 0.042535536728598819 0 -0.0076536375001449502 0.044999969189472272 0 -0.0057998027880468653 0.044999997675013337 0 -0.0057788080746961693 0.045613499560631189 0 -0.0072462733567253499 0.042535536728598819 0 -0.0049773732152019285 0.045365928530723638 0 -0.0076536375001449502 0.044999969189472272 0 -0.0076183826702804023 0.045908131085537339 0 -0.0057788080746961693 0.045613499560631189 0 -0.0054061233209302664 0.044982857026374383 0 -0.004339421167355687 0.044772539486026872 0 -0.00483034452094009 0.045490732287696387 0 -0.0037601618006760282 0.045365651875978928 0 -0.004339421167355687 0.044772539486026872 0 -0.00483034452094009 0.045490732287696387 0 -0.0037601618006760282 0.045365651875978928 0 -0.0043105905060971689 0.045838764289474566 0 -0.00483034452094009 0.045490732287696387 0 -0.0043105905060971689 0.045838764289474566 0 -0.00483034452094009 0.045490732287696387 0 -0.0051115217923191781 0.046126587759485298 0 -0.00483034452094009 0.045490732287696387 0 -0.0051115217923191781 0.046126587759485298 0 -0.0052557163334237588 0.045935867338931159 0 -0.0051115217923191781 0.046126587759485298 0 -0.005282327564289843 0.045726009514653346 0 -0.0052557163334237588 0.045935867338931159 0 -0.0043105905060971689 0.045838764289474566 0 -0.0040956030014721433 0.046369718943635514 0 -0.0051115217923191781 0.046126587759485298 0 -0.0056438366793394763 0.045732895948057406 0 -0.0054004842198347178 0.045751689343497236 0 -0.005282327564289843 0.045726009514653346 0 -0.0038296623233358509 0.047944152929329589 0 -0.0055163290193537698 0.045602706262290967 0 -0.0056438366793394763 0.045732895948057406 0 -0.0051115217923191781 0.046126587759485298 0 -0.005282327564289843 0.045726009514653346 0 -0.0041596924894856981 0.047274080648495538 0 -0.0042011908807805714 0.047609848666591036 0 -0.0051115217923191781 0.046126587759485298 0 -0.0056438366793394763 0.045732895948057406 0 -0.0054004842198347178 0.045751689343497236 0 -0.005460856095731193 0.045707562465050741 0 -0.0054132908241613566 0.045817277102339862 0 -0.0054004842198347178 0.045751689343497236 0 -0.005282327564289843 0.045726009514653346 0 -0.0054132908241613566 0.045817277102339862 0 -0.005282327564289843 0.045726009514653346 0 -0.0055626325506767009 0.045225401957291904 0 -0.0054132908241613566 0.045817277102339862 0 -0.0055626325506767009 0.045225401957291904 0 -0.0058815630665996514 0.04642606896231577 0 -0.0055626325506767009 0.045225401957291904 0 -0.0058815630665996514 0.04642606896231577 0 -0.0082061025049948999 0.043253448469494436 0 -0.0058671903168005029 0.039571221103796135 0 -0.0096132197697518258 0.040566009807177533 0 -0.0082061025049948999 0.043253448469494436 0 -0.0055523788008626871 0.045278900505334986 0 -0.0054954724464113128 0.042227599067977455 0 -0.0055626325506767009 0.045225401957291904 0 -0.0058671903168005029 0.039571221103796135 0 -0.0082061025049948999 0.043253448469494436 0 -0.005282327564289843 0.045726009514653346 0 -0.0055626325506767009 0.045225401957291904 0 -0.0052557163334237588 0.045935867338931159 0 -0.011600166804326838 0.038737701252276942 0 -0.0096132197697518258 0.040566009807177533 0 -0.011523177918526511 0.040561533722922989 0 -0.0096132197697518258 0.040566009807177533 0 -0.011523177918526511 0.040561533722922989 0 -0.011508430644413021 0.042437489876975147 0 -0.0096132197697518258 0.040566009807177533 0 -0.011508430644413021 0.042437489876975147 0 -0.0082061025049948999 0.043253448469494436 0 -0.0058381394149814364 0.046598468781392989 0 -0.010455684922858127 0.044442366935032063 0 -0.012083410366965608 0.044300879963530493 0 -0.014250798762728605 0.045166847301615687 0 -0.0091550243095701953 0.046195128347727328 0 -0.0058815630665996514 0.04642606896231577 0 -0.0082061025049948999 0.043253448469494436 0 -0.010356872058584432 0.044478382405808807 0 -0.0079952016097748612 0.045860989905845084 0 -0.010356872058584432 0.044478382405808807 0 -0.0091550243095701953 0.046195128347727328 0 -0.010356872058584432 0.044478382405808807 0 -0.012083410366965608 0.044300879963530493 0 -0.0091550243095701953 0.046195128347727328 0 -0.011508430644413021 0.042437489876975147 0 -0.0082061025049948999 0.043253448469494436 0 -0.010356872058584432 0.044478382405808807 0 -0.021922993719870484 0.038275865185513382 0 -0.017749377233989647 0.039957461665136515 0 -0.011508430644413021 0.042437489876975147 0 -0.010356872058584432 0.044478382405808807 0 -0.012083410366965608 0.044300879963530493 0 -0.012083410366965608 0.044300879963530493 0 -0.013907725803302497 0.043804936777417224 0 -0.013583303245328847 0.042766137609072795 0 -0.011508430644413021 0.042437489876975147 0 -0.012083410366965608 0.044300879963530493 0 -0.013583303245328847 0.042766137609072795 0 -0.021922993719870484 0.038275865185513382 0 -0.026802411411274603 0.033793909622909506 0 -0.012083410366965608 0.044300879963530493 0 -0.014250798762728605 0.045166847301615687 0 -0.013907725803302497 0.043804936777417224 0 -0.013907725803302497 0.043804936777417224 0 -0.013583303245328847 0.042766137609072795 0 -0.015650879151426138 0.042653516830438692 0 -0.014250798762728605 0.045166847301615687 0 -0.013907725803302497 0.043804936777417224 0 -0.015650879151426138 0.042653516830438692 0 -0.013583303245328847 0.042766137609072795 0 -0.014794445687327702 0.041404904771952813 0 -0.013354071322692524 0.040461809255641024 0 -0.013583303245328847 0.042766137609072795 0 -0.014794445687327702 0.041404904771952813 0 -0.015650879151426138 0.042653516830438692 0 -0.011523177918526511 0.040561533722922989 0 -0.011508430644413021 0.042437489876975147 0 -0.013354071322692524 0.040461809255641024 0 -0.011508430644413021 0.042437489876975147 0 -0.013583303245328847 0.042766137609072795 0 -0.013354071322692524 0.040461809255641024 0 -0.011600166804326838 0.038737701252276942 0 -0.011523177918526511 0.040561533722922989 0 -0.013354071322692524 0.040461809255641024 0 -0.014262085889116401 0.038308086493401027 0 -0.013354071322692524 0.040461809255641024 0 -0.015896013282737948 0.039815593336945967 0 -0.014794445687327702 0.041404904771952813 0 -0.013354071322692524 0.040461809255641024 0 -0.015896013282737948 0.039815593336945967 0 -0.026967244269359394 0.034430580552332432 0 -0.02684726741358923 0.034243547239327904 0 -0.027117416305603874 0.034286880417922168 0 -0.026967244269359394 0.034430580552332432 0 -0.027280218258417074 0.034505484259138894 0 -0.027117416305603874 0.034286880417922168 0 -0.026967244269359394 0.034430580552332432 0 -0.02684726741358923 0.034243547239327904 0 -0.026651781459786188 0.034460929159559187 0 -0.02684726741358923 0.034243547239327904 0 -0.027006864255095107 0.034175142005942183 0 -0.027117416305603874 0.034286880417922168 0 -0.02684726741358923 0.034243547239327904 0 -0.027006864255095107 0.034175142005942183 0 -0.026882010239327788 0.034122519313761042 0 -0.027006864255095107 0.034175142005942183 0 -0.026940006817989467 0.034196593623156128 0 -0.026882010239327788 0.034122519313761042 0 -0.026940006817989467 0.034196593623156128 0 -0.026835780367321663 0.034355526140233926 0 -0.027146107976655363 0.034136660148221025 0 -0.026940006817989467 0.034196593623156128 0 -0.026835780367321663 0.034355526140233926 0 -0.026882010239327788 0.034122519313761042 0 -0.026815878078767025 0.034930852282944583 0 -0.026835780367321663 0.034355526140233926 0 -0.026830499695330676 0.033964359830163021 0 -0.026835780367321663 0.034355526140233926 0 -0.026882010239327788 0.034122519313761042 0 -0.026830499695330676 0.033964359830163021 0 -0.026882010239327788 0.034122519313761042 0 -0.02670554200859674 0.034112255176332866 0 -0.026830499695330676 0.033964359830163021 0 -0.02684726741358923 0.034243547239327904 0 -0.026882010239327788 0.034122519313761042 0 -0.02670554200859674 0.034112255176332866 0 -0.02670554200859674 0.034112255176332866 0 -0.026489000136256442 0.034052011674934518 0 -0.026441295141227474 0.034233819838322625 0 -0.02670554200859674 0.034112255176332866 0 -0.026489000136256442 0.034052011674934518 0 -0.026830499695330676 0.033964359830163021 0 -0.024783303971243596 0.034404208537935924 0 -0.025420710949938773 0.033974307677740317 0 -0.025936061886176493 0.033924671110427372 0 -0.026802411411274603 0.033793909622909506 0 -0.025766813833450582 0.034060944180840387 0 -0.025420710949938773 0.033974307677740317 0 -0.025936061886176493 0.033924671110427372 0 -0.02597534034588201 0.033905175298459281 0 -0.026489000136256442 0.034052011674934518 0 -0.026830499695330676 0.033964359830163021 0 -0.02597534034588201 0.033905175298459281 0 -0.026489000136256442 0.034052011674934518 0 -0.026441295141227474 0.034233819838322625 0 -0.02597534034588201 0.033905175298459281 0 -0.026441295141227474 0.034233819838322625 0 -0.025959854848907213 0.034199761466198499 0 -0.02597534034588201 0.033905175298459281 0 -0.02684726741358923 0.034243547239327904 0 -0.02670554200859674 0.034112255176332866 0 -0.026441295141227474 0.034233819838322625 0 -0.026441295141227474 0.034233819838322625 0 -0.026651781459786188 0.034460929159559187 0 -0.026199610835669788 0.03449156713701558 0 -0.02684726741358923 0.034243547239327904 0 -0.026441295141227474 0.034233819838322625 0 -0.026651781459786188 0.034460929159559187 0 -0.026441295141227474 0.034233819838322625 0 -0.025959854848907213 0.034199761466198499 0 -0.026199610835669788 0.03449156713701558 0 -0.025959854848907213 0.034199761466198499 0 -0.025758709185206619 0.03449178938537547 0 -0.026199610835669788 0.03449156713701558 0 -0.025575702050589823 0.034201058214424734 0 -0.025959854848907213 0.034199761466198499 0 -0.025758709185206619 0.03449178938537547 0 -0.025575702050589823 0.034201058214424734 0 -0.025333410883094088 0.034479482458860032 0 -0.025758709185206619 0.03449178938537547 0 -0.025575702050589823 0.034201058214424734 0 -0.025776404053510341 0.034058503415658817 0 -0.025589291600991625 0.033934242538061862 0 -0.025575702050589823 0.034201058214424734 0 -0.025959854848907213 0.034199761466198499 0 -0.025776404053510341 0.034058503415658817 0 -0.025959854848907213 0.034199761466198499 0 -0.025776404053510341 0.034058503415658817 0 -0.02597534034588201 0.033905175298459281 0 -0.025776404053510341 0.034058503415658817 0 -0.02597534034588201 0.033905175298459281 0 -0.025589291600991625 0.033934242538061862 0 -0.0079952016097748612 0.045860989905845084 0 -0.0091550243095701953 0.046195128347727328 0 -0.0060583055215334917 0.046613023045640245 0 -0.025936061886176493 0.033924671110427372 0 -0.025589291600991625 0.033934242538061862 0 -0.025113505203572528 0.033762290349130766 0 -0.017749377233989647 0.039957461665136515 0 -0.012223336515693638 0.042273225011808142 0 -0.025936061886176493 0.033924671110427372 0 -0.02597534034588201 0.033905175298459281 0 -0.025589291600991625 0.033934242538061862 0 -0.025589291600991625 0.033934242538061862 0 -0.025113505203572528 0.033762290349130766 0 -0.025213459366868574 0.034122028316199947 0 -0.0054132908241613566 0.045817277102339862 0 -0.0058815630665996514 0.04642606896231577 0 -0.0053662811681075935 0.045616504354151079 0 -0.0058381394149814364 0.046598468781392989 0 -0.012223336515693638 0.042273225011808142 0 -0.0054132908241613566 0.045817277102339862 0 -0.0054004842198347178 0.045751689343497236 0 -0.0053662811681075935 0.045616504354151079 0 -0.0054004842198347178 0.045751689343497236 0 -0.005460856095731193 0.045707562465050741 0 -0.0053662811681075935 0.045616504354151079 0 -0.025113505203572528 0.033762290349130766 0 -0.025213459366868574 0.034122028316199947 0 -0.02478247687860682 0.034159175738151977 0 -0.025575702050589823 0.034201058214424734 0 -0.025589291600991625 0.033934242538061862 0 -0.025213459366868574 0.034122028316199947 0 -0.025575702050589823 0.034201058214424734 0 -0.025213459366868574 0.034122028316199947 0 -0.025333410883094088 0.034479482458860032 0 -0.025213459366868574 0.034122028316199947 0 -0.02478247687860682 0.034159175738151977 0 -0.024881331167104219 0.034486492268247376 0 -0.025213459366868574 0.034122028316199947 0 -0.025333410883094088 0.034479482458860032 0 -0.024881331167104219 0.034486492268247376 0 -0.025333410883094088 0.034479482458860032 0 -0.025052536583792955 0.034797568692111501 0 -0.024881331167104219 0.034486492268247376 0 -0.025333410883094088 0.034479482458860032 0 -0.02550457835477523 0.034817125217427913 0 -0.025052536583792955 0.034797568692111501 0 -0.02550457835477523 0.034817125217427913 0 -0.025052536583792955 0.034797568692111501 0 -0.025033035202195714 0.035164793691772479 0 -0.025033035202195714 0.035164793691772479 0 -0.025763946819316326 0.035108082958775058 0 -0.025566582477470116 0.035522304803885546 0 -0.02550457835477523 0.034817125217427913 0 -0.025033035202195714 0.035164793691772479 0 -0.025763946819316326 0.035108082958775058 0 -0.02550457835477523 0.034817125217427913 0 -0.025763946819316326 0.035108082958775058 0 -0.026007765573196714 0.03480217465160694 0 -0.025763946819316326 0.035108082958775058 0 -0.026347612217580568 0.035176130943604174 0 -0.025566582477470116 0.035522304803885546 0 -0.025763946819316326 0.035108082958775058 0 -0.026007765573196714 0.03480217465160694 0 -0.026347612217580568 0.035176130943604174 0 -0.02550457835477523 0.034817125217427913 0 -0.026007765573196714 0.03480217465160694 0 -0.025758709185206619 0.03449178938537547 0 -0.025333410883094088 0.034479482458860032 0 -0.02550457835477523 0.034817125217427913 0 -0.025758709185206619 0.03449178938537547 0 -0.026007765573196714 0.03480217465160694 0 -0.025758709185206619 0.03449178938537547 0 -0.026199610835669788 0.03449156713701558 0 -0.026651781459786188 0.034460929159559187 0 -0.026199610835669788 0.03449156713701558 0 -0.026492426123224836 0.034751727452562928 0 -0.026007765573196714 0.03480217465160694 0 -0.026199610835669788 0.03449156713701558 0 -0.026492426123224836 0.034751727452562928 0 -0.026007765573196714 0.03480217465160694 0 -0.026492426123224836 0.034751727452562928 0 -0.026347612217580568 0.035176130943604174 0 -0.026492426123224836 0.034751727452562928 0 -0.026347612217580568 0.035176130943604174 0 -0.026841113723349509 0.035033145191041032 0 -0.026841113723349509 0.035033145191041032 0 -0.027288645971231346 0.035320427598525023 0 -0.02726832233271646 0.034859746329494047 0 -0.026841113723349509 0.035033145191041032 0 -0.02692554719833648 0.034654937699889664 0 -0.02726832233271646 0.034859746329494047 0 -0.02692554719833648 0.034654937699889664 0 -0.027280218258417074 0.034505484259138894 0 -0.02726832233271646 0.034859746329494047 0 -0.026492426123224836 0.034751727452562928 0 -0.026841113723349509 0.035033145191041032 0 -0.02692554719833648 0.034654937699889664 0 -0.026651781459786188 0.034460929159559187 0 -0.026492426123224836 0.034751727452562928 0 -0.02692554719833648 0.034654937699889664 0 -0.026967244269359394 0.034430580552332432 0 -0.026651781459786188 0.034460929159559187 0 -0.02692554719833648 0.034654937699889664 0 -0.026967244269359394 0.034430580552332432 0 -0.02692554719833648 0.034654937699889664 0 -0.027280218258417074 0.034505484259138894 0 -0.0045211211816074959 0.047076318194935199 0 -0.0045860335837851311 0.047201594477583902 0 -0.0042378564942815245 0.047550328121769979 0 -0.0036962448380673291 0.039418928501201746 0 -0.0016679379117789672 0.046589073798495167 0 0.001465554249198346 0.049472347261448724 0 0.00012394475258927691 0.04966497698705033 0 0.00043692922521528464 0.04900120361547413 0 0.0014091974262545948 0.050450254359030389 0 0.001465554249198346 0.049472347261448724 0 0.00012394475258927691 0.04966497698705033 0 -0.0016679379117789672 0.046589073798495167 0 -3.0628500277366109e-05 0.04972671463470385 0 0.0015054726041847382 0.048546050906459019 0 0.00038300419399390676 0.048042557375357078 0 0.00043692922521528464 0.04900120361547413 0 -0.00043102183211917079 0.050448597154701166 0 -0.0010365101152470971 0.04891586405522963 0 -0.0023527516089989595 0.048982130990431721 0 -0.0008309869779737786 0.048108219282378947 0 0.00043692922521528464 0.04900120361547413 0 -0.0010365101152470971 0.04891586405522963 0 -0.00043102183211917079 0.050448597154701166 0 0.00043692922521528464 0.04900120361547413 0 -0.0010365101152470971 0.04891586405522963 0 -0.0016679379117789672 0.046589073798495167 0 -0.0033387643424214698 0.048561809729062315 0 -0.0018779203550527603 0.048016317430995603 0 -0.0010365101152470971 0.04891586405522963 0 -0.0023527516089989595 0.048982130990431721 0 -0.0038296623233358509 0.047944152929329589 0 -0.011485760954457467 0.041078681887490899 0 -0.005460856095731193 0.045707562465050741 0 -0.0053662811681075935 0.045616504354151079 0 -0.0059116235174053889 0.045343824335120811 0 -0.012223336515693638 0.042273225011808142 0 -0.0035463651485273329 0.045866284495269923 0 -0.0056438366793394763 0.045732895948057406 0 -0.0059116235174053889 0.045343824335120811 0 -0.0060845032713402868 0.045147944635486166 0 -0.012223336515693638 0.042273225011808142 0 -0.011485760954457467 0.041078681887490899 0 -0.0055552650236622703 0.045437435740213292 0 -0.0059116235174053889 0.045343824335120811 0 -0.0060845032713402868 0.045147944635486166 0 -0.0042011908807805714 0.047609848666591036 0 -0.0042378564942815245 0.047550328121769979 0 -0.0041725395528018402 0.04737969174968553 0 -0.0056438366793394763 0.045732895948057406 0 -0.005460856095731193 0.045707562465050741 0 -0.0059116235174053889 0.045343824335120811 0 -0.025113505203572528 0.033762290349130766 0 -0.02478247687860682 0.034159175738151977 0 -0.024278876830931242 0.03405721118864273 0 -0.02478247687860682 0.034159175738151977 0 -0.024448729558818976 0.034397426641844871 0 -0.024278876830931242 0.03405721118864273 0 -0.02478247687860682 0.034159175738151977 0 -0.024448729558818976 0.034397426641844871 0 -0.024881331167104219 0.034486492268247376 0 -0.0045211211816074959 0.047076318194935199 0 -0.0042378564942815245 0.047550328121769979 0 -0.0041725395528018402 0.04737969174968553 0 -0.0036962448380673291 0.039418928501201746 0 -0.011485760954457467 0.041078681887490899 0 -0.0091423920619102695 0.037624023775594075 0 -0.010262558315455299 0.037147448745503152 0 -0.0098975785380310544 0.037689678671990218 0 -0.024448729558818976 0.034397426641844871 0 -0.024278876830931242 0.03405721118864273 0 -0.024022635519522113 0.034455910234505567 0 -0.011485760954457467 0.041078681887490899 0 -0.017740236682135622 0.034484945848386198 0 -0.024022635519522113 0.034455910234505567 0 -0.024463637977851293 0.03484523998905515 0 -0.023706067096036249 0.034870372872887266 0 -0.024448729558818976 0.034397426641844871 0 -0.024022635519522113 0.034455910234505567 0 -0.024463637977851293 0.03484523998905515 0 -0.017740236682135622 0.034484945848386198 0 -0.0089838677394383434 0.035943782234149742 0 -0.025052536583792955 0.034797568692111501 0 -0.024463637977851293 0.03484523998905515 0 -0.024881331167104219 0.034486492268247376 0 -0.024448729558818976 0.034397426641844871 0 -0.024463637977851293 0.03484523998905515 0 -0.024881331167104219 0.034486492268247376 0 -0.025052536583792955 0.034797568692111501 0 -0.025033035202195714 0.035164793691772479 0 -0.024463637977851293 0.03484523998905515 0 -0.025033035202195714 0.035164793691772479 0 -0.024463637977851293 0.03484523998905515 0 -0.024160138978945783 0.035502272390028761 0 -0.0038059962742007978 0.034646289082352809 0 -0.0037091134545678348 0.035784487963503357 0 -0.0043521645586490319 0.035655894773140705 0 -0.024463637977851293 0.03484523998905515 0 -0.023706067096036249 0.034870372872887266 0 -0.024160138978945783 0.035502272390028761 0 -0.0089838677394383434 0.035943782234149742 0 -0.014880030281227198 0.035621110214140682 0 -0.0027918936292817219 0.036114245482156811 0 -0.0029287357210358448 0.036003350855730872 0 -0.0030005024898767871 0.035845740011966373 0 -0.0038059962742007978 0.034646289082352809 0 -0.0037091134545678348 0.035784487963503357 0 -0.0030005024898767871 0.035845740011966373 0 -0.0089838677394383434 0.035943782234149742 0 -0.0014154393573420664 0.036083279060233509 0 -0.0027918936292817219 0.036114245482156811 0 -0.002880567242654339 0.036089292821624264 0 -0.0029287357210358448 0.036003350855730872 0 -0.0091423920619102695 0.037624023775594075 0 -0.0098975785380310544 0.037689678671990218 0 -0.0095329285871920758 0.038245524041133939 0 -0.0028685191387415529 0.036154778928921022 0 -0.0027918936292817219 0.036114245482156811 0 -0.0028534002082827282 0.036133159034922264 0 -0.0036962448380673291 0.039418928501201746 0 -0.0089838677394383434 0.035943782234149742 0 -0.0027918936292817219 0.036114245482156811 0 -0.0028534002082827282 0.036133159034922264 0 -0.002880567242654339 0.036089292821624264 0 -0.0028685191387415529 0.036154778928921022 0 -0.0028534002082827282 0.036133159034922264 0 -0.0028508385504094976 0.036140429858646891 0 -0.0036962448380673291 0.039418928501201746 0 -0.0025195948149928874 0.035859903933030859 0 -0.0013780839005578264 0.037053808687037421 0 -0.0016952251897019875 0.037600558408434306 0 -0.0028064675935505108 0.036170045678001368 0 -0.00075298950808292829 0.042949743188415782 0 -0.0016679379117789672 0.046589073798495167 0 -0.0028685191387415529 0.036154778928921022 0 -0.0028508385504094976 0.036140429858646891 0 -0.0028064675935505108 0.036170045678001368 0 -0.0029925329011160845 0.03617167772309697 0 -0.0016952251897019875 0.037600558408434306 0 -0.0028064675935505108 0.036170045678001368 0 -0.0028508385504094976 0.036140429858646891 0 -0.0028780261326166257 0.036083543478437473 0 -0.002880567242654339 0.036089292821624264 0 -0.0028534002082827282 0.036133159034922264 0 -0.0028508385504094976 0.036140429858646891 0 -0.002880567242654339 0.036089292821624264 0 -0.0028508385504094976 0.036140429858646891 0 -0.0028512970698140686 0.036124693758027709 0 -0.0028064675935505108 0.036170045678001368 0 -0.0028508385504094976 0.036140429858646891 0 -0.0028512970698140686 0.036124693758027709 0 -0.0028780261326166257 0.036083543478437473 0 -0.0028512970698140686 0.036124693758027709 0 -0.0028064675935505108 0.036170045678001368 0 -0.002876663206255342 0.03611015878149286 0 -0.0028512970698140686 0.036124693758027709 0 -0.002876663206255342 0.03611015878149286 0 -0.0028780261326166257 0.036083543478437473 0 -0.0028838346371890477 0.036076438566194677 0 -0.0028780261326166257 0.036083543478437473 0 -0.0028942322677728929 0.036037397179724914 0 -0.0028838346371890477 0.036076438566194677 0 -0.002876663206255342 0.03611015878149286 0 -0.0028780261326166257 0.036083543478437473 0 -0.0028780261326166257 0.036083543478437473 0 -0.0029004257638290472 0.036049014174925648 0 -0.0028942322677728929 0.036037397179724914 0 -0.002880567242654339 0.036089292821624264 0 -0.0029004257638290472 0.036049014174925648 0 -0.0029287357210358448 0.036003350855730872 0 -0.0028780261326166257 0.036083543478437473 0 -0.002880567242654339 0.036089292821624264 0 -0.0029004257638290472 0.036049014174925648 0 -0.0029004257638290472 0.036049014174925648 0 -0.0029287357210358448 0.036003350855730872 0 -0.0028942322677728929 0.036037397179724914 0 -0.0029287357210358448 0.036003350855730872 0 -0.0028942322677728929 0.036037397179724914 0 -0.0029218191293446456 0.035983251383505263 0 -0.0028647172821684489 0.036056042243826997 0 -0.0029218191293446456 0.035983251383505263 0 -0.0028875214597024008 0.03610004329567322 0 -0.0028647172821684489 0.036056042243826997 0 -0.0028942322677728929 0.036037397179724914 0 -0.0029218191293446456 0.035983251383505263 0 -0.0029287357210358448 0.036003350855730872 0 -0.0029218191293446456 0.035983251383505263 0 -0.0030005024898767871 0.035845740011966373 0 -0.0029218191293446456 0.035983251383505263 0 -0.0029049327513699682 0.035996558685212371 0 -0.0030005024898767871 0.035845740011966373 0 -0.0029218191293446456 0.035983251383505263 0 -0.0029049327513699682 0.035996558685212371 0 -0.0028875214597024008 0.03610004329567322 0 -0.0037091134545678348 0.035784487963503357 0 -0.0030005024898767871 0.035845740011966373 0 -0.0032629284136859796 0.036080106730123039 0 -0.0029049327513699682 0.035996558685212371 0 -0.0030005024898767871 0.035845740011966373 0 -0.0032629284136859796 0.036080106730123039 0 -0.0037091134545678348 0.035784487963503357 0 -0.0032629284136859796 0.036080106730123039 0 -0.0038997343078966923 0.036220044226358834 0 -0.0034400681024920284 0.036429283577512329 0 -0.0027331458681145475 0.036029977604431038 0 -0.0034385224649528374 0.03709959053695179 0 -0.0032629284136859796 0.036080106730123039 0 -0.0034400681024920284 0.036429283577512329 0 -0.0038997343078966923 0.036220044226358834 0 -0.0032629284136859796 0.036080106730123039 0 -0.0034400681024920284 0.036429283577512329 0 -0.0027331458681145475 0.036029977604431038 0 -0.0034400681024920284 0.036429283577512329 0 -0.0040225552469571324 0.036765994995499776 0 -0.0038997343078966923 0.036220044226358834 0 -0.0032270099302834877 0.035839702763590046 0 -0.0027331458681145475 0.036029977604431038 0 -0.0023039936271573667 0.035346209589238252 0 -0.0020914181313024245 0.035316458490104959 0 -0.002431861917533439 0.035356637820350895 0 -0.0020914181313024245 0.035316458490104959 0 -0.002781015287744098 0.036041132648085131 0 -0.0032270099302834877 0.035839702763590046 0 -0.0028875214597024008 0.03610004329567322 0 -0.0027331458681145475 0.036029977604431038 0 -0.0029049327513699682 0.035996558685212371 0 -0.0028875214597024008 0.03610004329567322 0 -0.0027331458681145475 0.036029977604431038 0 -0.0029049327513699682 0.035996558685212371 0 -0.0032629284136859796 0.036080106730123039 0 -0.0027331458681145475 0.036029977604431038 0 -0.0017614803381320418 0.034788882292341068 0 -0.0019204038397619358 0.03511191208517675 0 -0.0023039936271573667 0.035346209589238252 0 -0.0027042208156986018 0.036002571887687775 0 -0.0027404332522658194 0.036074389266796049 0 -0.0027331458681145475 0.036029977604431038 0 -0.0023039936271573667 0.035346209589238252 0 -0.001962659415204026 0.034998994195298075 0 -0.0019204038397619358 0.03511191208517675 0 -0.0020442065766337232 0.035121285375108578 0 -0.0018393585903128601 0.035179603663377114 0 -0.0020442065766337232 0.035121285375108578 0 -0.0023039936271573667 0.035346209589238252 0 -0.001962659415204026 0.034998994195298075 0 -0.0019204038397619358 0.03511191208517675 0 -0.0020442065766337232 0.035121285375108578 0 -0.0023039936271573667 0.035346209589238252 0 -0.0034400681024920284 0.036429283577512329 0 -0.0034385224649528374 0.03709959053695179 0 -0.0040225552469571324 0.036765994995499776 0 -0.0034385224649528374 0.03709959053695179 0 -0.0040003762475533267 0.03721435439286689 0 -0.0040225552469571324 0.036765994995499776 0 -0.0020442065766337232 0.035121285375108578 0 -0.001962659415204026 0.034998994195298075 0 -0.0020038807259490986 0.035217404849184425 0 -0.001962659415204026 0.034998994195298075 0 -0.0020038807259490986 0.035217404849184425 0 -0.0023489017975347201 0.03534257316235289 0 -0.0027404332522658194 0.036074389266796049 0 -0.003215438422458691 0.036433176363989551 0 -0.0034385224649528374 0.03709959053695179 0 -0.0040986264860046499 0.037789764515920379 0 -0.0040003762475533267 0.03721435439286689 0 -0.0020038807259490986 0.035217404849184425 0 -0.0023489017975347201 0.03534257316235289 0 -0.0020494091997473327 0.035500342572960829 0 -0.0020038807259490986 0.035217404849184425 0 -0.0018393585903128601 0.035179603663377114 0 -0.0017827481899189064 0.035369001535397342 0 -0.0020038807259490986 0.035217404849184425 0 -0.0017827481899189064 0.035369001535397342 0 -0.0020494091997473327 0.035500342572960829 0 -0.0014878621127358607 0.035277236619851902 0 -0.0018393585903128601 0.035179603663377114 0 -0.0017827481899189064 0.035369001535397342 0 -0.0020442065766337232 0.035121285375108578 0 -0.0020038807259490986 0.035217404849184425 0 -0.0018393585903128601 0.035179603663377114 0 -0.004712041088389532 0.03762602466046977 0 -0.0044352985496029498 0.037162596736668767 0 -0.0054070233324468066 0.037267195649324673 0 -0.004712041088389532 0.03762602466046977 0 -0.0054070233324468066 0.037267195649324673 0 -0.005199601131005223 0.037913499107302309 0 -0.0040986264860046499 0.037789764515920379 0 -0.0044352985496029498 0.037162596736668767 0 -0.0040003762475533267 0.03721435439286689 0 -0.004712041088389532 0.03762602466046977 0 -0.0040986264860046499 0.037789764515920379 0 -0.0044352985496029498 0.037162596736668767 0 -0.0044352985496029498 0.037162596736668767 0 -0.0040225552469571324 0.036765994995499776 0 -0.0049158738899986992 0.036480635691957392 0 -0.0044352985496029498 0.037162596736668767 0 -0.0040003762475533267 0.03721435439286689 0 -0.0040225552469571324 0.036765994995499776 0 -0.0044352985496029498 0.037162596736668767 0 -0.0049158738899986992 0.036480635691957392 0 -0.0054070233324468066 0.037267195649324673 0 -0.014258254292928199 0.036197648915760848 0 -0.018518951580212658 0.036726442300615246 0 -0.014258254292928199 0.036197648915760848 0 -0.014880030281227198 0.035621110214140682 0 -0.0049158738899986992 0.036480635691957392 0 -0.0038997343078966923 0.036220044226358834 0 -0.0043521645586490319 0.035655894773140705 0 -0.0040225552469571324 0.036765994995499776 0 -0.0049158738899986992 0.036480635691957392 0 -0.0038997343078966923 0.036220044226358834 0 -0.0037091134545678348 0.035784487963503357 0 -0.0038997343078966923 0.036220044226358834 0 -0.0043521645586490319 0.035655894773140705 0 -0.025033035202195714 0.035164793691772479 0 -0.024160138978945783 0.035502272390028761 0 -0.024930458642954529 0.035683010926250383 0 -0.024587328813084692 0.036148520210035326 0 -0.024160138978945783 0.035502272390028761 0 -0.024930458642954529 0.035683010926250383 0 -0.024930458642954529 0.035683010926250383 0 -0.025566582477470116 0.035522304803885546 0 -0.025242327975863232 0.036138200928459228 0 -0.025033035202195714 0.035164793691772479 0 -0.024930458642954529 0.035683010926250383 0 -0.025566582477470116 0.035522304803885546 0 -0.026347612217580568 0.035176130943604174 0 -0.025566582477470116 0.035522304803885546 0 -0.026065541744557819 0.035816950814524344 0 -0.026065541744557819 0.035816950814524344 0 -0.025242327975863232 0.036138200928459228 0 -0.025836582441530427 0.036593093030153609 0 -0.025566582477470116 0.035522304803885546 0 -0.026065541744557819 0.035816950814524344 0 -0.025242327975863232 0.036138200928459228 0 -0.024587328813084692 0.036148520210035326 0 -0.024930458642954529 0.035683010926250383 0 -0.025242327975863232 0.036138200928459228 0 -0.026841113723349509 0.035033145191041032 0 -0.026723364327864065 0.03551020236037903 0 -0.027288645971231346 0.035320427598525023 0 -0.026723364327864065 0.03551020236037903 0 -0.027134439813735471 0.035737695002631881 0 -0.027288645971231346 0.035320427598525023 0 -0.026347612217580568 0.035176130943604174 0 -0.026065541744557819 0.035816950814524344 0 -0.026723364327864065 0.03551020236037903 0 -0.026347612217580568 0.035176130943604174 0 -0.026841113723349509 0.035033145191041032 0 -0.026723364327864065 0.03551020236037903 0 -0.026065541744557819 0.035816950814524344 0 -0.02666437125967162 0.036111147059781884 0 -0.025836582441530427 0.036593093030153609 0 -0.026065541744557819 0.035816950814524344 0 -0.026723364327864065 0.03551020236037903 0 -0.02666437125967162 0.036111147059781884 0 -0.026723364327864065 0.03551020236037903 0 -0.02666437125967162 0.036111147059781884 0 -0.027134439813735471 0.035737695002631881 0 -0.02666437125967162 0.036111147059781884 0 -0.027134439813735471 0.035737695002631881 0 -0.027260981386838634 0.036132939887608344 0 -0.02666437125967162 0.036111147059781884 0 -0.026548808244954293 0.036842195325508621 0 -0.02716142764194426 0.037006419917994832 0 -0.027260981386838634 0.036132939887608344 0 -0.027252623738740475 0.036673213506759554 0 -0.02754175135725314 0.036444007921953694 0 -0.026376320400859205 0.036886714515056866 0 -0.028960950746399941 0.034491728768726811 0 -0.02666437125967162 0.036111147059781884 0 -0.027260981386838634 0.036132939887608344 0 -0.027252623738740475 0.036673213506759554 0 -0.02666437125967162 0.036111147059781884 0 -0.026548808244954293 0.036842195325508621 0 -0.025836582441530427 0.036593093030153609 0 -0.026155738294926695 0.037312169104950541 0 -0.026548808244954293 0.036842195325508621 0 -0.025836582441530427 0.036593093030153609 0 -0.025812236253281974 0.034035263077309606 0 -0.027882058501397619 0.031245192814729299 0 -0.026155738294926695 0.037312169104950541 0 -0.026548808244954293 0.036842195325508621 0 -0.026926172097775238 0.037179890500771591 0 -0.026548808244954293 0.036842195325508621 0 -0.026926172097775238 0.037179890500771591 0 -0.02716142764194426 0.037006419917994832 0 -0.028216539689178109 0.031218089804573329 0 -0.030524430018677488 0.03083397275087103 0 -0.029994533426911829 0.029895681338862175 0 -0.028343230894830374 0.02520470093461568 0 -0.029068410172950965 0.025088124834188517 0 -0.02880648643203176 0.026237250006627754 0 -0.027882058501397619 0.031245192814729299 0 -0.031736574861697515 0.029586117467137379 0 -0.027882058501397619 0.031245192814729299 0 -0.028960950746399941 0.034491728768726811 0 -0.031736574861697515 0.029586117467137379 0 -0.028960950746399941 0.034491728768726811 0 -0.027349207068987896 0.036714821406983823 0 -0.02729914079145563 0.036623054626661454 0 -0.02754175135725314 0.036444007921953694 0 -0.028960950746399941 0.034491728768726811 0 -0.027028151902912082 0.036537657547399981 0 -0.024587328813084692 0.036148520210035326 0 -0.025242327975863232 0.036138200928459228 0 -0.024977977207673505 0.036904432362578586 0 -0.02616540685809976 0.035878963798631175 0 -0.018518951580212658 0.036726442300615246 0 -0.025242327975863232 0.036138200928459228 0 -0.025836582441530427 0.036593093030153609 0 -0.025061122019987097 0.036824513651481455 0 -0.026155738294926695 0.037312169104950541 0 -0.025836582441530427 0.036593093030153609 0 -0.025405263326500015 0.037420582357775421 0 -0.018518951580212658 0.036726442300615246 0 -0.0099662838435078081 0.036199338024079417 0 -0.018518951580212658 0.036726442300615246 0 -0.021047054866972371 0.034287747602474536 0 -0.025836582441530427 0.036593093030153609 0 -0.025061122019987097 0.036824513651481455 0 -0.025405263326500015 0.037420582357775421 0 -0.016439625688673468 0.034976051695760776 0 -0.017075036849475062 0.036057569400541237 0 -0.016125629040287193 0.036217119918482102 0 -0.015405725154052906 0.032514002171576226 0 -0.01562642389385235 0.032001891194416869 0 -0.015034333147485111 0.032110631607811219 0 -0.021047054866972371 0.034287747602474536 0 -0.0099662838435078081 0.036199338024079417 0 -0.015405725154052906 0.032514002171576226 0 -0.015034333147485111 0.032110631607811219 0 -0.014862697770153668 0.032800042955858436 0 -0.015405725154052906 0.032514002171576226 0 -0.01562642389385235 0.032001891194416869 0 -0.015999216679486557 0.032594150226905802 0 -0.024839532651473175 0.030665516511798895 0 -0.02241395217983258 0.031083458548376838 0 -0.02405427625019568 0.031765824400429535 0 -0.025812236253281974 0.034035263077309606 0 -0.021047054866972371 0.034287747602474536 0 -0.02151493493301097 0.029364630555251989 0 -0.026754657543949768 0.028482034433101513 0 -0.02405427625019568 0.031765824400429535 0 -0.023546092487471259 0.033003520940675615 0 -0.025411856614940827 0.031640285396594588 0 -0.021047054866972371 0.034287747602474536 0 -0.02151493493301097 0.029364630555251989 0 -0.02241395217983258 0.031083458548376838 0 -0.02405427625019568 0.031765824400429535 0 -0.023546092487471259 0.033003520940675615 0 -0.020768230626021233 0.023641065508522456 0 -0.020049981494218577 0.025634837704877705 0 -0.022587668793406603 0.026716084292957465 0 -0.02151493493301097 0.029364630555251989 0 -0.024528033532751854 0.023720283906801649 0 -0.020768230626021233 0.023641065508522456 0 -0.020049981494218577 0.025634837704877705 0 -0.017882134417665157 0.025735466146528118 0 -0.015405725154052906 0.032514002171576226 0 -0.01532379690726067 0.033042451067658948 0 -0.014862697770153668 0.032800042955858436 0 -0.015405725154052906 0.032514002171576226 0 -0.015999216679486557 0.032594150226905802 0 -0.01532379690726067 0.033042451067658948 0 -0.02151493493301097 0.029364630555251989 0 -0.016366512363936412 0.029921972198035086 0 -0.02880648643203176 0.026237250006627754 0 -0.028437715560828331 0.027292069341898491 0 -0.030259168577034073 0.027135025051525423 0 -0.028343230894830374 0.02520470093461568 0 -0.02880648643203176 0.026237250006627754 0 -0.0279831245771783 0.026453917667862509 0 -0.02880648643203176 0.026237250006627754 0 -0.0279831245771783 0.026453917667862509 0 -0.028437715560828331 0.027292069341898491 0 -0.024839532651473175 0.030665516511798895 0 -0.027289656467343007 0.030264732460719482 0 -0.025411856614940827 0.031640285396594588 0 -0.02559689008622601 0.027179879050221675 0 -0.026974974072424426 0.026181052636994957 0 -0.027345719465193433 0.027362053889945209 0 -0.0279831245771783 0.026453917667862509 0 -0.026974974072424426 0.026181052636994957 0 -0.027345719465193433 0.027362053889945209 0 -0.027882058501397619 0.031245192814729299 0 -0.026754657543949768 0.028482034433101513 0 -0.028343230894830374 0.02520470093461568 0 -0.0279831245771783 0.026453917667862509 0 -0.026974974072424426 0.026181052636994957 0 -0.024839532651473175 0.030665516511798895 0 -0.02405427625019568 0.031765824400429535 0 -0.025411856614940827 0.031640285396594588 0 -0.027345719465193433 0.027362053889945209 0 -0.028624829907575571 0.028337526060434621 0 -0.026514244083105518 0.028725047396914595 0 -0.02559689008622601 0.027179879050221675 0 -0.027345719465193433 0.027362053889945209 0 -0.026514244083105518 0.028725047396914595 0 -0.0279831245771783 0.026453917667862509 0 -0.027345719465193433 0.027362053889945209 0 -0.028437715560828331 0.027292069341898491 0 -0.027345719465193433 0.027362053889945209 0 -0.028437715560828331 0.027292069341898491 0 -0.028624829907575571 0.028337526060434621 0 -0.028437715560828331 0.027292069341898491 0 -0.028624829907575571 0.028337526060434621 0 -0.029541925101928285 0.027646501021627235 0 -0.026576686778383041 0.020861300099964123 0 -0.026675116693029136 0.021796159760293542 0 -0.027824765502698284 0.021594465212315284 0 -0.026576686778383041 0.020861300099964123 0 -0.026675116693029136 0.021796159760293542 0 -0.025233575723998296 0.021131461320816326 0 -0.026675116693029136 0.021796159760293542 0 -0.025233575723998296 0.021131461320816326 0 -0.025836219003926058 0.022304910045545249 0 -0.02766938780048073 0.024749698276694296 0 -0.024528033532751854 0.023720283906801649 0 -0.024528033532751854 0.023720283906801649 0 -0.02560758146799031 0.020872827060704782 0 -0.024247766041520905 0.019396640843834568 0 -0.025836219003926058 0.022304910045545249 0 -0.023129483599939826 0.021860564892749394 0 -0.026675116693029136 0.021796159760293542 0 -0.025836219003926058 0.022304910045545249 0 -0.027431609777568464 0.022897264229562554 0 -0.021550908149575151 0.023429879651922114 0 -0.010726025992385783 0.023971296876711536 0 -0.017882134417665157 0.025735466146528118 0 -0.018875596413917627 0.027426628037520964 0 -0.015057632143020685 0.028104258368740427 0 -0.022099558314392868 0.019772449973993727 0 -0.021619938336075523 0.020992646930249229 0 -0.020042958536005441 0.020200099408265913 0 -0.020049981494218577 0.025634837704877705 0 -0.017882134417665157 0.025735466146528118 0 -0.018875596413917627 0.027426628037520964 0 -0.024528033532751854 0.023720283906801649 0 -0.021550908149575151 0.023429879651922114 0 -0.020049981494218577 0.025634837704877705 0 -0.022587668793406603 0.026716084292957465 0 -0.018875596413917627 0.027426628037520964 0 -0.024247766041520905 0.019396640843834568 0 -0.022099558314392868 0.019772449973993727 0 -0.023129483599939826 0.021860564892749394 0 -0.023129483599939826 0.021860564892749394 0 -0.021619938336075523 0.020992646930249229 0 -0.021272352573017347 0.022139089514885153 0 -0.022099558314392868 0.019772449973993727 0 -0.023129483599939826 0.021860564892749394 0 -0.021619938336075523 0.020992646930249229 0 -0.021619938336075523 0.020992646930249229 0 -0.020042958536005441 0.020200099408265913 0 -0.021272352573017347 0.022139089514885153 0 -0.0075727310804828887 0.015958687758548168 0 -0.0073217278575355626 0.015998463330985358 0 -0.0070788596103767438 0.017755077957610402 0 -0.0078704088740612632 0.016663268521790908 0 -0.0070788596103767438 0.017755077957610402 0 -0.0088808326748609067 0.017518691787834811 0 -0.0078704088740612632 0.016663268521790908 0 -0.0078241583574513926 0.015681791336150167 0 -0.0070788596103767438 0.017755077957610402 0 -0.010726025992385783 0.023971296876711536 0 -0.015192970593651678 0.018876549096469908 0 -0.010726025992385783 0.023971296876711536 0 -0.006813375335458058 0.014512974179488491 0 -0.0078704088740612632 0.016663268521790908 0 -0.0078241583574513926 0.015681791336150167 0 -0.0088808326748609067 0.017518691787834811 0 -0.0029575539051696119 0.036217317602843073 0 -0.0030182239610701453 0.036164095131416378 0 -0.0025456605870278143 0.036110752382097211 0 -0.01532379690726067 0.033042451067658948 0 -0.014702453881957282 0.033485036467738476 0 -0.014671619180830863 0.033429951463849007 0 -0.0095979891147780078 0.03132178849778447 0 -0.0097011626311597869 0.035974072326922589 0 -0.0030459343280326832 0.036188813215353319 0 -0.0029575539051696119 0.036217317602843073 0 -0.0030182239610701453 0.036164095131416378 0 -0.010726025992385783 0.023971296876711536 0 -0.0065482247030388512 0.022659683509792434 0 -0.010726025992385783 0.023971296876711536 0 -0.0095979891147780078 0.03132178849778447 0 -0.016366512363936412 0.029921972198035086 0 -0.010726025992385783 0.023971296876711536 0 -0.0030182239610701453 0.036164095131416378 0 -0.0025456605870278143 0.036110752382097211 0 -0.0026835184850258699 0.035768536404169902 0 -0.0029575539051696119 0.036217317602843073 0 -0.0025456605870278143 0.036110752382097211 0 -0.0022517992632523527 0.036436200844652177 0 -0.0065482247030388512 0.022659683509792434 0 -0.0032045336077709059 0.027275213164174625 0 -0.0065482247030388512 0.022659683509792434 0 -0.0060897175375120164 0.015277515781631655 0 -0.0073217278575355626 0.015998463330985358 0 -0.0054665569307557503 0.017304008418973151 0 -0.0070788596103767438 0.017755077957610402 0 -0.0060502277590470579 0.016965178753041658 0 -0.0054665569307557503 0.017304008418973151 0 -0.0052304389772393732 0.016961592491837048 0 -0.0054665569307557503 0.017304008418973151 0 -0.0047933682661165109 0.017525071880344887 0 -0.0052304389772393732 0.016961592491837048 0 -0.0028367563160701637 0.026943357210431257 0 -0.0032045336077709059 0.027275213164174625 0 -0.0039329576981445482 0.017362568873132981 0 -0.0047933682661165109 0.017525071880344887 0 -0.0052304389772393732 0.016961592491837048 0 -0.0014755872388174905 0.036677914300735422 0 -0.0022517992632523527 0.036436200844652177 0 -0.0019904831494835813 0.036078206442386504 0 -0.0012952390147624321 0.036010388288468767 0 -0.0014755872388174905 0.036677914300735422 0 -0.0019904831494835813 0.036078206442386504 0 -0.0025456605870278143 0.036110752382097211 0 -0.0022517992632523527 0.036436200844652177 0 -0.0019904831494835813 0.036078206442386504 0 -0.0025456605870278143 0.036110752382097211 0 -0.0019904831494835813 0.036078206442386504 0 -0.0023339092730538442 0.035873144632136769 0 -0.0019904831494835813 0.036078206442386504 0 -0.0023339092730538442 0.035873144632136769 0 -0.0020964291262707724 0.035778117510887018 0 -0.0023339092730538442 0.035873144632136769 0 -0.0020964291262707724 0.035778117510887018 0 -0.0023351876073613481 0.035645654021775469 0 -0.0012952390147624321 0.036010388288468767 0 -0.0019904831494835813 0.036078206442386504 0 -0.001767683478062061 0.035698739263605221 0 -0.0019904831494835813 0.036078206442386504 0 -0.0020964291262707724 0.035778117510887018 0 -0.001767683478062061 0.035698739263605221 0 -0.0020964291262707724 0.035778117510887018 0 -0.001767683478062061 0.035698739263605221 0 -0.0020494091997473327 0.035500342572960829 0 -0.001767683478062061 0.035698739263605221 0 -0.0017827481899189064 0.035369001535397342 0 -0.0020494091997473327 0.035500342572960829 0 -0.0020964291262707724 0.035778117510887018 0 -0.0023351876073613481 0.035645654021775469 0 -0.0020494091997473327 0.035500342572960829 0 -0.0023489017975347201 0.03534257316235289 0 -0.0023351876073613481 0.035645654021775469 0 -0.0020494091997473327 0.035500342572960829 0 -0.0023489017975347201 0.03534257316235289 0 -0.0023351876073613481 0.035645654021775469 0 -0.0026835184850258699 0.035768536404169902 0 -0.003215438422458691 0.036433176363989551 0 -0.0032557959392151867 0.037693980724612927 0 -0.004712041088389532 0.03762602466046977 0 -0.0040986264860046499 0.037789764515920379 0 -0.0045108272152657872 0.037934521875822136 0 -0.0040986264860046499 0.037789764515920379 0 -0.0045108272152657872 0.037934521875822136 0 -0.0045914482285415769 0.038108526568799678 0 -0.0045108272152657872 0.037934521875822136 0 -0.0046713468995952991 0.038014855736673354 0 -0.0045914482285415769 0.038108526568799678 0 -0.0099662838435078081 0.036199338024079417 0 -0.0097011626311597869 0.035974072326922589 0 -0.0045108272152657872 0.037934521875822136 0 -0.0048626512655363116 0.03785966937505976 0 -0.0046713468995952991 0.038014855736673354 0 -0.004712041088389532 0.03762602466046977 0 -0.0045108272152657872 0.037934521875822136 0 -0.005199601131005223 0.037913499107302309 0 -0.0027378947716794853 0.03830271509743792 0 -0.0099662838435078081 0.036199338024079417 0 -0.0048626512655363116 0.03785966937505976 0 -0.0046713468995952991 0.038014855736673354 0 -0.004737980501863118 0.038082942138575285 0 -0.0047523430563387514 0.038074999513363024 0 -0.004737980501863118 0.038082942138575285 0 -0.0045914482285415769 0.038108526568799678 0 -0.0095979891147780078 0.03132178849778447 0 -0.0032557959392151867 0.037693980724612927 0 -0.0046713468995952991 0.038014855736673354 0 -0.004737980501863118 0.038082942138575285 0 -0.0045914482285415769 0.038108526568799678 0 -0.01532379690726067 0.033042451067658948 0 -0.014671619180830863 0.033429951463849007 0 -0.014862697770153668 0.032800042955858436 0 -0.0025456605870278143 0.036110752382097211 0 -0.0023339092730538442 0.035873144632136769 0 -0.0026835184850258699 0.035768536404169902 0 -0.0023339092730538442 0.035873144632136769 0 -0.0023351876073613481 0.035645654021775469 0 -0.0026835184850258699 0.035768536404169902 0 -0.032083622177052407 0.023410843164699005 0 -0.032048570542855197 0.02314757062953484 0 -0.032252408778216689 0.023562741230801643 0 -0.032083622177052407 0.023410843164699005 0 -0.032052115229269387 0.023308709680297503 0 -0.032014076706837799 0.023481274727362229 0 -0.032083622177052407 0.023410843164699005 0 -0.032051180065755677 0.023798975742497012 0 -0.032014076706837799 0.023481274727362229 0 -0.032083622177052407 0.023410843164699005 0 -0.032052115229269387 0.023308709680297503 0 -0.032048570542855197 0.02314757062953484 0 -0.032052115229269387 0.023308709680297503 0 -0.032048570542855197 0.02314757062953484 0 -0.031989774559222445 0.023169688793509249 0 -0.032048570542855197 0.02314757062953484 0 -0.031846467368971551 0.022895228257668071 0 -0.031989774559222445 0.023169688793509249 0 -0.032048570542855197 0.02314757062953484 0 -0.031846467368971551 0.022895228257668071 0 -0.031889334685544023 0.022885692009681508 0 -0.031889334685544023 0.022885692009681508 0 -0.032252408778216689 0.023562741230801643 0 -0.031466397357376046 0.022184544323684587 0 -0.031846467368971551 0.022895228257668071 0 -0.031622009362966975 0.022595888460416255 0 -0.031508510253346278 0.022637577705792104 0 -0.031846467368971551 0.022895228257668071 0 -0.031622009362966975 0.022595888460416255 0 -0.031889334685544023 0.022885692009681508 0 -0.031622009362966975 0.022595888460416255 0 -0.031889334685544023 0.022885692009681508 0 -0.031466397357376046 0.022184544323684587 0 -0.032048570542855197 0.02314757062953484 0 -0.031889334685544023 0.022885692009681508 0 -0.032252408778216689 0.023562741230801643 0 -0.032702279170366423 0.023957967116542866 0 -0.033811376429304811 0.02406824058888142 0 -0.032577028500377241 0.023888330174574385 0 -0.032252408778216689 0.023562741230801643 0 -0.033310168368378489 0.023687311449557651 0 -0.032166003215247256 0.023435571543844347 0 -0.032237718594592416 0.022999517455407823 0 -0.032577028500377241 0.023888330174574385 0 -0.033370460128271079 0.024551477364132098 0 -0.034468078312592493 0.024317301106419519 0 -0.032577028500377241 0.023888330174574385 0 -0.033310168368378489 0.023687311449557651 0 -0.03348206505583156 0.023843070624115819 0 -0.033541892558731363 0.02488516051274281 0 -0.033370460128271079 0.024551477364132098 0 -0.034000634243713447 0.024819309938898134 0 -0.033370460128271079 0.024551477364132098 0 -0.032770963363584697 0.024555013711029441 0 -0.03314091850513784 0.025126579693829733 0 -0.033541892558731363 0.02488516051274281 0 -0.033542448411151671 0.025299106895945254 0 -0.03314091850513784 0.025126579693829733 0 -0.033541892558731363 0.02488516051274281 0 -0.033370460128271079 0.024551477364132098 0 -0.03314091850513784 0.025126579693829733 0 -0.032770963363584697 0.024555013711029441 0 -0.032611164684367665 0.024843053268079389 0 -0.03314091850513784 0.025126579693829733 0 -0.032577028500377241 0.023888330174574385 0 -0.033370460128271079 0.024551477364132098 0 -0.032770963363584697 0.024555013711029441 0 -0.032577028500377241 0.023888330174574385 0 -0.032770963363584697 0.024555013711029441 0 -0.032364468695509643 0.024225206305978901 0 -0.032770963363584697 0.024555013711029441 0 -0.032364468695509643 0.024225206305978901 0 -0.032611164684367665 0.024843053268079389 0 -0.032364468695509643 0.024225206305978901 0 -0.032051180065755677 0.023798975742497012 0 -0.032267584577219038 0.024521177013700671 0 -0.032364468695509643 0.024225206305978901 0 -0.032267584577219038 0.024521177013700671 0 -0.032611164684367665 0.024843053268079389 0 -0.032577028500377241 0.023888330174574385 0 -0.032364468695509643 0.024225206305978901 0 -0.032252408778216689 0.023562741230801643 0 -0.032083622177052407 0.023410843164699005 0 -0.032252408778216689 0.023562741230801643 0 -0.032051180065755677 0.023798975742497012 0 -0.032364468695509643 0.024225206305978901 0 -0.032252408778216689 0.023562741230801643 0 -0.032051180065755677 0.023798975742497012 0 -0.032051180065755677 0.023798975742497012 0 -0.032267584577219038 0.024521177013700671 0 -0.03199744640204423 0.024076623946467625 0 -0.03194834360233692 0.023692876541404319 0 -0.032100780618446928 0.023611277672316806 0 -0.031770830767001816 0.023713104131585064 0 -0.032051180065755677 0.023798975742497012 0 -0.03194834360233692 0.023692876541404319 0 -0.03199744640204423 0.024076623946467625 0 -0.03194834360233692 0.023692876541404319 0 -0.031770830767001816 0.023713104131585064 0 -0.03199744640204423 0.024076623946467625 0 -0.032051180065755677 0.023798975742497012 0 -0.03194834360233692 0.023692876541404319 0 -0.032014076706837799 0.023481274727362229 0 -0.031770830767001816 0.023713104131585064 0 -0.032494522507078606 0.02337593120048467 0 -0.032442304467936355 0.023617802543688282 0 -0.032100780618446928 0.023611277672316806 0 -0.031770830767001816 0.023713104131585064 0 -0.032442304467936355 0.023617802543688282 0 -0.032100780618446928 0.023611277672316806 0 -0.03222562058545668 0.023683266351027889 0 -0.032442304467936355 0.023617802543688282 0 -0.03194834360233692 0.023692876541404319 0 -0.032100780618446928 0.023611277672316806 0 -0.032014076706837799 0.023481274727362229 0 -0.032100780618446928 0.023611277672316806 0 -0.032014076706837799 0.023481274727362229 0 -0.032093760189468537 0.023512843257754656 0 -0.032100780618446928 0.023611277672316806 0 -0.032093760189468537 0.023512843257754656 0 -0.03222562058545668 0.023683266351027889 0 -0.032052115229269387 0.023308709680297503 0 -0.032014076706837799 0.023481274727362229 0 -0.032093760189468537 0.023512843257754656 0 -0.032093760189468537 0.023512843257754656 0 -0.03222562058545668 0.023683266351027889 0 -0.032178051594452396 0.02372143136612306 0 -0.032093760189468537 0.023512843257754656 0 -0.03213497632112166 0.023565316961877671 0 -0.032178051594452396 0.02372143136612306 0 -0.032093760189468537 0.023512843257754656 0 -0.03213497632112166 0.023565316961877671 0 -0.032073856572645137 0.02337486164923034 0 -0.03222562058545668 0.023683266351027889 0 -0.032178051594452396 0.02372143136612306 0 -0.032483735757965745 0.023872044026752835 0 -0.03222562058545668 0.023683266351027889 0 -0.032442304467936355 0.023617802543688282 0 -0.032483735757965745 0.023872044026752835 0 -0.03219577770174583 0.023899970241119471 0 -0.032178051594452396 0.02372143136612306 0 -0.032483735757965745 0.023872044026752835 0 -0.03219577770174583 0.023899970241119471 0 -0.032401242333575053 0.024013720144725755 0 -0.032128638287300483 0.024006808598859675 0 -0.03219577770174583 0.023899970241119471 0 -0.032178051594452396 0.02372143136612306 0 -0.032187463081090016 0.023714149930890636 0 -0.03213497632112166 0.023565316961877671 0 -0.032187463081090016 0.023714149930890636 0 -0.032089381248376583 0.023488713600951183 0 -0.03213497632112166 0.023565316961877671 0 -0.032178051594452396 0.02372143136612306 0 -0.032187463081090016 0.023714149930890636 0 -0.032187463081090016 0.023714149930890636 0 -0.032089381248376583 0.023488713600951183 0 -0.03216470034253105 0.023624350780274452 0 -0.032089381248376583 0.023488713600951183 0 -0.031882445494100103 0.023410014222013505 0 -0.03216470034253105 0.023624350780274452 0 -0.03213497632112166 0.023565316961877671 0 -0.032089381248376583 0.023488713600951183 0 -0.032073856572645137 0.02337486164923034 0 -0.032089381248376583 0.023488713600951183 0 -0.032073856572645137 0.02337486164923034 0 -0.03189982917130909 0.023214875486021077 0 -0.032073856572645137 0.02337486164923034 0 -0.031989774559222445 0.023169688793509249 0 -0.03189982917130909 0.023214875486021077 0 -0.032052115229269387 0.023308709680297503 0 -0.032073856572645137 0.02337486164923034 0 -0.031989774559222445 0.023169688793509249 0 -0.032052115229269387 0.023308709680297503 0 -0.032093760189468537 0.023512843257754656 0 -0.032073856572645137 0.02337486164923034 0 -0.031846467368971551 0.022895228257668071 0 -0.031802636563650254 0.023012139038928254 0 -0.031508510253346278 0.022637577705792104 0 -0.031802636563650254 0.023012139038928254 0 -0.03151084507557509 0.022876804589190097 0 -0.031508510253346278 0.022637577705792104 0 -0.031989774559222445 0.023169688793509249 0 -0.031802636563650254 0.023012139038928254 0 -0.03189982917130909 0.023214875486021077 0 -0.031846467368971551 0.022895228257668071 0 -0.031989774559222445 0.023169688793509249 0 -0.031802636563650254 0.023012139038928254 0 -0.03189982917130909 0.023214875486021077 0 -0.03151084507557509 0.022876804589190097 0 -0.031414889238490319 0.023166041799173739 0 -0.031802636563650254 0.023012139038928254 0 -0.03189982917130909 0.023214875486021077 0 -0.03151084507557509 0.022876804589190097 0 -0.03189982917130909 0.023214875486021077 0 -0.031882445494100103 0.023410014222013505 0 -0.031414889238490319 0.023166041799173739 0 -0.031882445494100103 0.023410014222013505 0 -0.031414889238490319 0.023166041799173739 0 -0.031649402670915476 0.023800430904606353 0 -0.032089381248376583 0.023488713600951183 0 -0.03189982917130909 0.023214875486021077 0 -0.031882445494100103 0.023410014222013505 0 -0.031414889238490319 0.023166041799173739 0 -0.030725466908495362 0.022908224291423147 0 -0.031046367467282003 0.022751305080353806 0 -0.031414889238490319 0.023166041799173739 0 -0.030725466908495362 0.022908224291423147 0 -0.03084231554643958 0.023374025020038807 0 -0.030110619979084954 0.023010745913280117 0 -0.030044980232341267 0.023539238479287076 0 -0.03084231554643958 0.023374025020038807 0 -0.030725466908495362 0.022908224291423147 0 -0.030110619979084954 0.023010745913280117 0 -0.03084231554643958 0.023374025020038807 0 -0.030110619979084954 0.023010745913280117 0 -0.029324609122253882 0.023253728625222042 0 -0.030044980232341267 0.023539238479287076 0 -0.030110619979084954 0.023010745913280117 0 -0.030058263565452596 0.02255912424289221 0 -0.029412257590092916 0.022676273670221819 0 -0.030725466908495362 0.022908224291423147 0 -0.030110619979084954 0.023010745913280117 0 -0.030058263565452596 0.02255912424289221 0 -0.030725466908495362 0.022908224291423147 0 -0.030519045703163161 0.022465178541825323 0 -0.030058263565452596 0.02255912424289221 0 -0.030519045703163161 0.022465178541825323 0 -0.030058263565452596 0.02255912424289221 0 -0.029982074033792723 0.022152324542416474 0 -0.030058263565452596 0.02255912424289221 0 -0.029982074033792723 0.022152324542416474 0 -0.029474904793075365 0.022157406423566242 0 -0.029982074033792723 0.022152324542416474 0 -0.02956314381613406 0.021779455969409025 0 -0.030282610989426657 0.022021473595033036 0 -0.030519045703163161 0.022465178541825323 0 -0.030919693015593396 0.022386909253400318 0 -0.030282610989426657 0.022021473595033036 0 -0.030519045703163161 0.022465178541825323 0 -0.029982074033792723 0.022152324542416474 0 -0.030282610989426657 0.022021473595033036 0 -0.030519045703163161 0.022465178541825323 0 -0.030919693015593396 0.022386909253400318 0 -0.031046367467282003 0.022751305080353806 0 -0.03151084507557509 0.022876804589190097 0 -0.030919693015593396 0.022386909253400318 0 -0.031508510253346278 0.022637577705792104 0 -0.03151084507557509 0.022876804589190097 0 -0.030919693015593396 0.022386909253400318 0 -0.031046367467282003 0.022751305080353806 0 -0.03151084507557509 0.022876804589190097 0 -0.031414889238490319 0.023166041799173739 0 -0.031046367467282003 0.022751305080353806 0 -0.030725466908495362 0.022908224291423147 0 -0.030519045703163161 0.022465178541825323 0 -0.031046367467282003 0.022751305080353806 0 -0.026675116693029136 0.021796159760293542 0 -0.027431609777568464 0.022897264229562554 0 -0.027833213079089248 0.022272704184262547 0 -0.027431609777568464 0.022897264229562554 0 -0.027833213079089248 0.022272704184262547 0 -0.028552884510862003 0.02279103245222892 0 -0.027833213079089248 0.022272704184262547 0 -0.028552884510862003 0.02279103245222892 0 -0.028722135291208685 0.022207272666067902 0 -0.028552884510862003 0.02279103245222892 0 -0.029412257590092916 0.022676273670221819 0 -0.028722135291208685 0.022207272666067902 0 -0.028552884510862003 0.02279103245222892 0 -0.029412257590092916 0.022676273670221819 0 -0.029324609122253882 0.023253728625222042 0 -0.030110619979084954 0.023010745913280117 0 -0.029412257590092916 0.022676273670221819 0 -0.029324609122253882 0.023253728625222042 0 -0.029412257590092916 0.022676273670221819 0 -0.029474904793075365 0.022157406423566242 0 -0.028722135291208685 0.022207272666067902 0 -0.030058263565452596 0.02255912424289221 0 -0.029412257590092916 0.022676273670221819 0 -0.029474904793075365 0.022157406423566242 0 -0.029982074033792723 0.022152324542416474 0 -0.029474904793075365 0.022157406423566242 0 -0.02956314381613406 0.021779455969409025 0 -0.029474904793075365 0.022157406423566242 0 -0.02956314381613406 0.021779455969409025 0 -0.029025496478985779 0.02168201144676388 0 -0.02956314381613406 0.021779455969409025 0 -0.029025496478985779 0.02168201144676388 0 -0.028844225160803472 0.021367336382222307 0 -0.029474904793075365 0.022157406423566242 0 -0.029025496478985779 0.02168201144676388 0 -0.028722135291208685 0.022207272666067902 0 -0.029025496478985779 0.02168201144676388 0 -0.028722135291208685 0.022207272666067902 0 -0.027824765502698284 0.021594465212315284 0 -0.026576686778383041 0.020861300099964123 0 -0.027824765502698284 0.021594465212315284 0 -0.028436244581895014 0.020608540190918744 0 -0.027833213079089248 0.022272704184262547 0 -0.028722135291208685 0.022207272666067902 0 -0.027824765502698284 0.021594465212315284 0 -0.029025496478985779 0.02168201144676388 0 -0.027824765502698284 0.021594465212315284 0 -0.028436244581895014 0.020608540190918744 0 -0.026675116693029136 0.021796159760293542 0 -0.027833213079089248 0.022272704184262547 0 -0.027824765502698284 0.021594465212315284 0 -0.02707794681671994 0.027495682927951803 0 -0.034394354413639187 0.025681730107302968 0 -0.028437715560828331 0.027292069341898491 0 -0.029541925101928285 0.027646501021627235 0 -0.030317736832766951 0.02705418505059767 0 -0.02766938780048073 0.024749698276694296 0 -0.030445355128502397 0.02364042737376602 0 -0.028624829907575571 0.028337526060434621 0 -0.029541925101928285 0.027646501021627235 0 -0.030795564453952786 0.027904773722349775 0 -0.029541925101928285 0.027646501021627235 0 -0.030795564453952786 0.027904773722349775 0 -0.030317736832766951 0.02705418505059767 0 -0.030445355128502397 0.02364042737376602 0 -0.034394354413639187 0.025681730107302968 0 -0.034394354413639187 0.025681730107302968 0 -0.036425390112746314 0.023830462608775877 0 -0.030445355128502397 0.02364042737376602 0 -0.032145038943024833 0.022511971498731742 0 -0.034029015529430912 0.023676505711734956 0 -0.033808401866508325 0.023674929543961883 0 -0.033884469759618473 0.023776124626986153 0 -0.034029015529430912 0.023676505711734956 0 -0.034078719333918199 0.023766912859136742 0 -0.033884469759618473 0.023776124626986153 0 -0.02956314381613406 0.021779455969409025 0 -0.028844225160803472 0.021367336382222307 0 -0.030093291178974128 0.021514053328268695 0 -0.028747131711462429 0.021014158285448396 0 -0.030445355128502397 0.02364042737376602 0 -0.040803612605080287 0.024106303334345498 0 -0.039510894424593865 0.02584551127237578 0 -0.037723395672468761 0.024201634829645807 0 -0.039510894424593865 0.02584551127237578 0 -0.037723149064808635 0.025821775240678059 0 -0.038665555157586691 0.026713678980245889 0 -0.039510894424593865 0.02584551127237578 0 -0.037723395672468761 0.024201634829645807 0 -0.037723149064808635 0.025821775240678059 0 -0.042435147367967462 0.02724381673891503 0 -0.040803612605080287 0.024106303334345498 0 -0.039510894424593865 0.02584551127237578 0 -0.029068410172950965 0.025088124834188517 0 -0.02880648643203176 0.026237250006627754 0 -0.030259168577034073 0.027135025051525423 0 -0.031736574861697515 0.029586117467137379 0 -0.034394354413639187 0.025681730107302968 0 -0.032237718594592416 0.022999517455407823 0 -0.032145038943024833 0.022511971498731742 0 -0.033310168368378489 0.023687311449557651 0 -0.033808401866508325 0.023674929543961883 0 -0.03348206505583156 0.023843070624115819 0 -0.031466397357376046 0.022184544323684587 0 -0.030784790392885685 0.02206624499586499 0 -0.030093291178974128 0.021514053328268695 0 -0.031466397357376046 0.022184544323684587 0 -0.031241826594930681 0.022346261939637513 0 -0.030784790392885685 0.02206624499586499 0 -0.031622009362966975 0.022595888460416255 0 -0.031466397357376046 0.022184544323684587 0 -0.031241826594930681 0.022346261939637513 0 -0.030919693015593396 0.022386909253400318 0 -0.031241826594930681 0.022346261939637513 0 -0.031508510253346278 0.022637577705792104 0 -0.031622009362966975 0.022595888460416255 0 -0.031241826594930681 0.022346261939637513 0 -0.031508510253346278 0.022637577705792104 0 -0.030919693015593396 0.022386909253400318 0 -0.031241826594930681 0.022346261939637513 0 -0.030784790392885685 0.02206624499586499 0 -0.033808401866508325 0.023674929543961883 0 -0.033884469759618473 0.023776124626986153 0 -0.03348206505583156 0.023843070624115819 0 -0.030784790392885685 0.02206624499586499 0 -0.030282610989426657 0.022021473595033036 0 -0.030093291178974128 0.021514053328268695 0 -0.030919693015593396 0.022386909253400318 0 -0.030784790392885685 0.02206624499586499 0 -0.030282610989426657 0.022021473595033036 0 -0.02956314381613406 0.021779455969409025 0 -0.030282610989426657 0.022021473595033036 0 -0.030093291178974128 0.021514053328268695 0 -0.036336111604967525 0.025054026459218299 0 -0.037723395672468761 0.024201634829645807 0 -0.034468078312592493 0.024317301106419519 0 -0.036425390112746314 0.023830462608775877 0 -0.033811376429304811 0.02406824058888142 0 -0.036336111604967525 0.025054026459218299 0 -0.037723395672468761 0.024201634829645807 0 -0.037723149064808635 0.025821775240678059 0 -0.037723149064808635 0.025821775240678059 0 -0.036441853637212668 0.025683560516021962 0 -0.036744981350880175 0.026546115953424161 0 -0.036336111604967525 0.025054026459218299 0 -0.037723149064808635 0.025821775240678059 0 -0.036441853637212668 0.025683560516021962 0 -0.036336111604967525 0.025054026459218299 0 -0.035415552269625741 0.025318303378917703 0 -0.036441853637212668 0.025683560516021962 0 -0.036441853637212668 0.025683560516021962 0 -0.035614252165395814 0.02639179612546947 0 -0.036744981350880175 0.026546115953424161 0 -0.035415552269625741 0.025318303378917703 0 -0.036441853637212668 0.025683560516021962 0 -0.035614252165395814 0.02639179612546947 0 -0.035415552269625741 0.025318303378917703 0 -0.034625033611524594 0.025693828841556268 0 -0.035614252165395814 0.02639179612546947 0 -0.035415552269625741 0.025318303378917703 0 -0.034625033611524594 0.025693828841556268 0 -0.03452191361027146 0.025006170558147526 0 -0.036336111604967525 0.025054026459218299 0 -0.035415552269625741 0.025318303378917703 0 -0.034468078312592493 0.024317301106419519 0 -0.035415552269625741 0.025318303378917703 0 -0.03452191361027146 0.025006170558147526 0 -0.034468078312592493 0.024317301106419519 0 -0.033370460128271079 0.024551477364132098 0 -0.034468078312592493 0.024317301106419519 0 -0.034000634243713447 0.024819309938898134 0 -0.03452191361027146 0.025006170558147526 0 -0.034468078312592493 0.024317301106419519 0 -0.034000634243713447 0.024819309938898134 0 -0.033541892558731363 0.02488516051274281 0 -0.033542448411151671 0.025299106895945254 0 -0.034000634243713447 0.024819309938898134 0 -0.034625033611524594 0.025693828841556268 0 -0.03452191361027146 0.025006170558147526 0 -0.034000634243713447 0.024819309938898134 0 -0.034625033611524594 0.025693828841556268 0 -0.034000634243713447 0.024819309938898134 0 -0.034020423204527563 0.02571453264590972 0 -0.033542448411151671 0.025299106895945254 0 -0.034000634243713447 0.024819309938898134 0 -0.034020423204527563 0.02571453264590972 0 -0.035252610528212269 0.027739931735945723 0 -0.0299633359718544 0.034930009280275051 0 -0.029143607168248698 0.034406969349977543 0 -0.033894227751544902 0.026180450122576197 0 -0.035252610528212269 0.027739931735945723 0 -0.032781625804761794 0.0255320893988564 0 -0.034020423204527563 0.02571453264590972 0 -0.033894227751544902 0.026180450122576197 0 -0.03354983073624597 0.025639057795741941 0 -0.03214806222851288 0.033036291610855431 0 -0.029831471181416363 0.034573058455311952 0 -0.035360497948623407 0.027977220057216642 0 -0.031486888836545886 0.029716742575560125 0 -0.033542448411151671 0.025299106895945254 0 -0.034020423204527563 0.02571453264590972 0 -0.03354983073624597 0.025639057795741941 0 -0.035252610528212269 0.027739931735945723 0 -0.035974680650369621 0.029427411085030927 0 -0.0299633359718544 0.034930009280275051 0 -0.034020423204527563 0.02571453264590972 0 -0.033894227751544902 0.026180450122576197 0 -0.034639982792394712 0.026441928441396235 0 -0.033894227751544902 0.026180450122576197 0 -0.034639982792394712 0.026441928441396235 0 -0.035252610528212269 0.027739931735945723 0 -0.034625033611524594 0.025693828841556268 0 -0.034020423204527563 0.02571453264590972 0 -0.034639982792394712 0.026441928441396235 0 -0.034625033611524594 0.025693828841556268 0 -0.034639982792394712 0.026441928441396235 0 -0.035614252165395814 0.02639179612546947 0 -0.034639982792394712 0.026441928441396235 0 -0.035614252165395814 0.02639179612546947 0 -0.035252610528212269 0.027739931735945723 0 -0.03759766212805607 0.027418747893506505 0 -0.035974680650369621 0.029427411085030927 0 -0.039449268643346073 0.027820661274582447 0 -0.029069630118699275 0.036240893233326403 0 -0.028544806188176258 0.036164164728100037 0 -0.028112903918717833 0.036573912109486975 0 -0.03214806222851288 0.033036291610855431 0 -0.034399223783515717 0.03238812335556928 0 -0.035614252165395814 0.02639179612546947 0 -0.036255983516202968 0.027455209103702083 0 -0.036744981350880175 0.026546115953424161 0 -0.035614252165395814 0.02639179612546947 0 -0.036255983516202968 0.027455209103702083 0 -0.035252610528212269 0.027739931735945723 0 -0.036255983516202968 0.027455209103702083 0 -0.03759766212805607 0.027418747893506505 0 -0.036744981350880175 0.026546115953424161 0 -0.037723149064808635 0.025821775240678059 0 -0.03759766212805607 0.027418747893506505 0 -0.036744981350880175 0.026546115953424161 0 -0.036255983516202968 0.027455209103702083 0 -0.03759766212805607 0.027418747893506505 0 -0.035974680650369621 0.029427411085030927 0 -0.036255983516202968 0.027455209103702083 0 -0.035252610528212269 0.027739931735945723 0 -0.035974680650369621 0.029427411085030927 0 -0.029069630118699275 0.036240893233326403 0 -0.028925629675436576 0.035982624655804853 0 -0.029180824911920929 0.03575585017892334 0 -0.028925629675436576 0.035982624655804853 0 -0.028876880260564685 0.035785615952665405 0 -0.029180824911920929 0.03575585017892334 0 -0.028925629675436576 0.035982624655804853 0 -0.028544806188176258 0.036164164728100037 0 -0.028876880260564685 0.035785615952665405 0 -0.029069630118699275 0.036240893233326403 0 -0.028925629675436576 0.035982624655804853 0 -0.028544806188176258 0.036164164728100037 0 -0.028876880260564685 0.035785615952665405 0 -0.028456916748226015 0.035843420394376747 0 -0.028657619218819225 0.035581021482537833 0 -0.028544806188176258 0.036164164728100037 0 -0.028876880260564685 0.035785615952665405 0 -0.028456916748226015 0.035843420394376747 0 -0.028876880260564685 0.035785615952665405 0 -0.02915168973752514 0.035630879795323922 0 -0.028997986947932271 0.035545168389395233 0 -0.028876880260564685 0.035785615952665405 0 -0.02915168973752514 0.035630879795323922 0 -0.029180824911920929 0.03575585017892334 0 -0.029069630118699275 0.036240893233326403 0 -0.029494366737888158 0.035543841980071426 0 -0.0299633359718544 0.034930009280275051 0 -0.02915168973752514 0.035630879795323922 0 -0.029401014756723763 0.035540378772103379 0 -0.029180824911920929 0.03575585017892334 0 -0.029401014756723763 0.035540378772103379 0 -0.029180824911920929 0.03575585017892334 0 -0.029494366737888158 0.035543841980071426 0 -0.02915168973752514 0.035630879795323922 0 -0.029401014756723763 0.035540378772103379 0 -0.029275499931413047 0.035501673462036129 0 -0.029401014756723763 0.035540378772103379 0 -0.029677262286962682 0.035385879545877338 0 -0.029494366737888158 0.035543841980071426 0 -0.029401014756723763 0.035540378772103379 0 -0.029677262286962682 0.035385879545877338 0 -0.029500130991013482 0.035469045452216408 0 -0.029401014756723763 0.035540378772103379 0 -0.029500130991013482 0.035469045452216408 0 -0.029275499931413047 0.035501673462036129 0 -0.029677262286962682 0.035385879545877338 0 -0.029500130991013482 0.035469045452216408 0 -0.029595350116517229 0.0354597016058762 0 -0.029677262286962682 0.035385879545877338 0 -0.029494366737888158 0.035543841980071426 0 -0.0299633359718544 0.034930009280275051 0 -0.029069630118699275 0.036240893233326403 0 -0.029180824911920929 0.03575585017892334 0 -0.029494366737888158 0.035543841980071426 0 -0.042435147367967462 0.02724381673891503 0 -0.039510894424593865 0.02584551127237578 0 -0.039449268643346073 0.027820661274582447 0 -0.027349207068987896 0.036714821406983823 0 -0.02754175135725314 0.036444007921953694 0 -0.028112903918717833 0.036573912109486975 0 -0.031736574861697515 0.029586117467137379 0 -0.034399223783515717 0.03238812335556928 0 -0.039510894424593865 0.02584551127237578 0 -0.039449268643346073 0.027820661274582447 0 -0.038665555157586691 0.026713678980245889 0 -0.037723149064808635 0.025821775240678059 0 -0.03759766212805607 0.027418747893506505 0 -0.038665555157586691 0.026713678980245889 0 -0.03759766212805607 0.027418747893506505 0 -0.039449268643346073 0.027820661274582447 0 -0.038665555157586691 0.026713678980245889 0 -0.028544806188176258 0.036164164728100037 0 -0.028456916748226015 0.035843420394376747 0 -0.027955876481117907 0.036114986079985457 0 -0.028544806188176258 0.036164164728100037 0 -0.028112903918717833 0.036573912109486975 0 -0.027955876481117907 0.036114986079985457 0 -0.02754175135725314 0.036444007921953694 0 -0.028112903918717833 0.036573912109486975 0 -0.027955876481117907 0.036114986079985457 0 -0.027260981386838634 0.036132939887608344 0 -0.027955876481117907 0.036114986079985457 0 -0.02761378191186472 0.035694000390581071 0 -0.027260981386838634 0.036132939887608344 0 -0.02754175135725314 0.036444007921953694 0 -0.027955876481117907 0.036114986079985457 0 -0.027134439813735471 0.035737695002631881 0 -0.02761378191186472 0.035694000390581071 0 -0.027288645971231346 0.035320427598525023 0 -0.027134439813735471 0.035737695002631881 0 -0.027260981386838634 0.036132939887608344 0 -0.02761378191186472 0.035694000390581071 0 -0.02761378191186472 0.035694000390581071 0 -0.028201340518473401 0.035572447760104972 0 -0.02782075063006471 0.03531663602051819 0 -0.027955876481117907 0.036114986079985457 0 -0.02761378191186472 0.035694000390581071 0 -0.028201340518473401 0.035572447760104972 0 -0.028456916748226015 0.035843420394376747 0 -0.027955876481117907 0.036114986079985457 0 -0.028201340518473401 0.035572447760104972 0 -0.028456916748226015 0.035843420394376747 0 -0.028201340518473401 0.035572447760104972 0 -0.028657619218819225 0.035581021482537833 0 -0.028201340518473401 0.035572447760104972 0 -0.028211470805795249 0.035231531035324219 0 -0.02854194233271351 0.035345007630345544 0 -0.028211470805795249 0.035231531035324219 0 -0.028522961063881896 0.035127713785017022 0 -0.028159928393744215 0.034993730174642433 0 -0.028211470805795249 0.035231531035324219 0 -0.027945452193913339 0.035103880274074593 0 -0.028159928393744215 0.034993730174642433 0 -0.028211470805795249 0.035231531035324219 0 -0.02782075063006471 0.03531663602051819 0 -0.027945452193913339 0.035103880274074593 0 -0.028201340518473401 0.035572447760104972 0 -0.028211470805795249 0.035231531035324219 0 -0.02782075063006471 0.03531663602051819 0 -0.02761378191186472 0.035694000390581071 0 -0.02782075063006471 0.03531663602051819 0 -0.027288645971231346 0.035320427598525023 0 -0.02782075063006471 0.03531663602051819 0 -0.027639904823778254 0.035036540513345107 0 -0.027945452193913339 0.035103880274074593 0 -0.02782075063006471 0.03531663602051819 0 -0.027288645971231346 0.035320427598525023 0 -0.027639904823778254 0.035036540513345107 0 -0.029105925060648335 0.035379787342790063 0 -0.029411109632808137 0.035435982137414446 0 -0.029275499931413047 0.035501673462036129 0 -0.029105925060648335 0.035379787342790063 0 -0.029411109632808137 0.035435982137414446 0 -0.02929232195523384 0.035314862706049895 0 -0.029411109632808137 0.035435982137414446 0 -0.02929232195523384 0.035314862706049895 0 -0.029455086573105773 0.035358712045060005 0 -0.029411109632808137 0.035435982137414446 0 -0.029500130991013482 0.035469045452216408 0 -0.029595350116517229 0.0354597016058762 0 -0.029411109632808137 0.035435982137414446 0 -0.029500130991013482 0.035469045452216408 0 -0.029275499931413047 0.035501673462036129 0 -0.029105925060648335 0.035379787342790063 0 -0.029275499931413047 0.035501673462036129 0 -0.028997986947932271 0.035545168389395233 0 -0.02915168973752514 0.035630879795323922 0 -0.029275499931413047 0.035501673462036129 0 -0.028997986947932271 0.035545168389395233 0 -0.028997986947932271 0.035545168389395233 0 -0.028657619218819225 0.035581021482537833 0 -0.028844131204938814 0.035423830381615194 0 -0.028876880260564685 0.035785615952665405 0 -0.028997986947932271 0.035545168389395233 0 -0.028657619218819225 0.035581021482537833 0 -0.028201340518473401 0.035572447760104972 0 -0.028657619218819225 0.035581021482537833 0 -0.02854194233271351 0.035345007630345544 0 -0.028657619218819225 0.035581021482537833 0 -0.028844131204938814 0.035423830381615194 0 -0.02854194233271351 0.035345007630345544 0 -0.029105925060648335 0.035379787342790063 0 -0.028997986947932271 0.035545168389395233 0 -0.028844131204938814 0.035423830381615194 0 -0.028844131204938814 0.035423830381615194 0 -0.028825688769615401 0.035248975498701679 0 -0.02854194233271351 0.035345007630345544 0 -0.029105925060648335 0.035379787342790063 0 -0.028844131204938814 0.035423830381615194 0 -0.028825688769615401 0.035248975498701679 0 -0.028825688769615401 0.035248975498701679 0 -0.02854194233271351 0.035345007630345544 0 -0.028522961063881896 0.035127713785017022 0 -0.028211470805795249 0.035231531035324219 0 -0.02854194233271351 0.035345007630345544 0 -0.028522961063881896 0.035127713785017022 0 -0.028825688769615401 0.035248975498701679 0 -0.028522961063881896 0.035127713785017022 0 -0.028800855372225573 0.035052498748579838 0 -0.028800855372225573 0.035052498748579838 0 -0.029127604577835819 0.035166451250555425 0 -0.029027318438567078 0.034992547529610715 0 -0.028825688769615401 0.035248975498701679 0 -0.028800855372225573 0.035052498748579838 0 -0.029127604577835819 0.035166451250555425 0 -0.029105925060648335 0.035379787342790063 0 -0.028825688769615401 0.035248975498701679 0 -0.029127604577835819 0.035166451250555425 0 -0.029105925060648335 0.035379787342790063 0 -0.029127604577835819 0.035166451250555425 0 -0.02929232195523384 0.035314862706049895 0 -0.029127604577835819 0.035166451250555425 0 -0.02929232195523384 0.035314862706049895 0 -0.029419334837766611 0.035228321140140476 0 -0.02929232195523384 0.035314862706049895 0 -0.029419334837766611 0.035228321140140476 0 -0.029455086573105773 0.035358712045060005 0 -0.029127604577835819 0.035166451250555425 0 -0.029419334837766611 0.035228321140140476 0 -0.029342780114359743 0.035005078086660604 0 -0.029127604577835819 0.035166451250555425 0 -0.029342780114359743 0.035005078086660604 0 -0.029027318438567078 0.034992547529610715 0 -0.02973776917794721 0.035149727250191901 0 -0.029419334837766611 0.035228321140140476 0 -0.029342780114359743 0.035005078086660604 0 -0.02973776917794721 0.035149727250191901 0 -0.029342780114359743 0.035005078086660604 0 -0.029599780255600072 0.034894644755379262 0 -0.02973776917794721 0.035149727250191901 0 -0.029639003926851197 0.035336197242409294 0 -0.02993659655518708 0.035349564575193462 0 -0.02973776917794721 0.035149727250191901 0 -0.029639003926851197 0.035336197242409294 0 -0.029419334837766611 0.035228321140140476 0 -0.029639003926851197 0.035336197242409294 0 -0.029419334837766611 0.035228321140140476 0 -0.029455086573105773 0.035358712045060005 0 -0.030109259150041916 0.035171569426940788 0 -0.030643841122657545 0.035079675924552564 0 -0.029984113226302195 0.034799758282555618 0 -0.02973776917794721 0.035149727250191901 0 -0.030109259150041916 0.035171569426940788 0 -0.029984113226302195 0.034799758282555618 0 -0.02973776917794721 0.035149727250191901 0 -0.030109259150041916 0.035171569426940788 0 -0.02993659655518708 0.035349564575193462 0 -0.030109259150041916 0.035171569426940788 0 -0.02993659655518708 0.035349564575193462 0 -0.030423719685018155 0.035408689250159164 0 -0.02993659655518708 0.035349564575193462 0 -0.03004933076914398 0.03557035725224917 0 -0.030423719685018155 0.035408689250159164 0 -0.02993659655518708 0.035349564575193462 0 -0.03004933076914398 0.03557035725224917 0 -0.029755859921787933 0.035427174723858611 0 -0.03004933076914398 0.03557035725224917 0 -0.02968190954567702 0.035478615338563661 0 -0.029699914404029921 0.035460500365954599 0 -0.03004933076914398 0.03557035725224917 0 -0.029755859921787933 0.035427174723858611 0 -0.02968190954567702 0.035478615338563661 0 -0.029639003926851197 0.035336197242409294 0 -0.029599581604654139 0.035436766001881601 0 -0.029455086573105773 0.035358712045060005 0 -0.029411109632808137 0.035435982137414446 0 -0.029599581604654139 0.035436766001881601 0 -0.029455086573105773 0.035358712045060005 0 -0.029639003926851197 0.035336197242409294 0 -0.02993659655518708 0.035349564575193462 0 -0.029755859921787933 0.035427174723858611 0 -0.029639003926851197 0.035336197242409294 0 -0.029599581604654139 0.035436766001881601 0 -0.029755859921787933 0.035427174723858611 0 -0.029599581604654139 0.035436766001881601 0 -0.02968190954567702 0.035478615338563661 0 -0.029595350116517229 0.0354597016058762 0 -0.029599581604654139 0.035436766001881601 0 -0.029755859921787933 0.035427174723858611 0 -0.02968190954567702 0.035478615338563661 0 -0.029411109632808137 0.035435982137414446 0 -0.029599581604654139 0.035436766001881601 0 -0.029595350116517229 0.0354597016058762 0 -0.029677262286962682 0.035385879545877338 0 -0.029595350116517229 0.0354597016058762 0 -0.029624647080702005 0.035377635889948557 0 -0.029677262286962682 0.035385879545877338 0 -0.0299633359718544 0.034930009280275051 0 -0.029624647080702005 0.035377635889948557 0 -0.0299633359718544 0.034930009280275051 0 -0.029443470207942458 0.035096669978948267 0 -0.029624647080702005 0.035377635889948557 0 -0.0299633359718544 0.034930009280275051 0 -0.029443470207942458 0.035096669978948267 0 -0.029143607168248698 0.034406969349977543 0 -0.029443470207942458 0.035096669978948267 0 -0.029624647080702005 0.035377635889948557 0 -0.029699914404029921 0.035460500365954599 0 -0.02968190954567702 0.035478615338563661 0 -0.029624647080702005 0.035377635889948557 0 -0.029699914404029921 0.035460500365954599 0 -0.02968190954567702 0.035478615338563661 0 -0.029595350116517229 0.0354597016058762 0 -0.029624647080702005 0.035377635889948557 0 -0.031486888836545886 0.029716742575560125 0 -0.03082231186475437 0.030715222009718615 0 -0.03004933076914398 0.03557035725224917 0 -0.029699914404029921 0.035460500365954599 0 -0.030211681608092233 0.03595176616188589 0 -0.029443470207942458 0.035096669978948267 0 -0.029699914404029921 0.035460500365954599 0 -0.030211681608092233 0.03595176616188589 0 -0.029443470207942458 0.035096669978948267 0 -0.029143607168248698 0.034406969349977543 0 -0.030211681608092233 0.03595176616188589 0 -0.032508350988447135 0.025019020956596208 0 -0.032781625804761794 0.0255320893988564 0 -0.032128498041324768 0.024786531982138954 0 -0.032508350988447135 0.025019020956596208 0 -0.032267584577219038 0.024521177013700671 0 -0.032128498041324768 0.024786531982138954 0 -0.032267584577219038 0.024521177013700671 0 -0.03199744640204423 0.024076623946467625 0 -0.032128498041324768 0.024786531982138954 0 -0.032508350988447135 0.025019020956596208 0 -0.032267584577219038 0.024521177013700671 0 -0.032611164684367665 0.024843053268079389 0 -0.032611164684367665 0.024843053268079389 0 -0.032810888584205888 0.02526541098554828 0 -0.03314091850513784 0.025126579693829733 0 -0.032508350988447135 0.025019020956596208 0 -0.032611164684367665 0.024843053268079389 0 -0.032810888584205888 0.02526541098554828 0 -0.033542448411151671 0.025299106895945254 0 -0.03314091850513784 0.025126579693829733 0 -0.03354983073624597 0.025639057795741941 0 -0.03314091850513784 0.025126579693829733 0 -0.03354983073624597 0.025639057795741941 0 -0.033213411999144342 0.025613321637858587 0 -0.033894227751544902 0.026180450122576197 0 -0.03354983073624597 0.025639057795741941 0 -0.033213411999144342 0.025613321637858587 0 -0.032810888584205888 0.02526541098554828 0 -0.03314091850513784 0.025126579693829733 0 -0.033213411999144342 0.025613321637858587 0 -0.033894227751544902 0.026180450122576197 0 -0.033213411999144342 0.025613321637858587 0 -0.032781625804761794 0.0255320893988564 0 -0.032508350988447135 0.025019020956596208 0 -0.032810888584205888 0.02526541098554828 0 -0.032781625804761794 0.0255320893988564 0 -0.032810888584205888 0.02526541098554828 0 -0.033213411999144342 0.025613321637858587 0 -0.032781625804761794 0.0255320893988564 0 -0.031770830767001816 0.023713104131585064 0 -0.032214772570052855 0.022321226086903685 0 -0.032473416079949129 0.022780501719155355 0 -0.031892374446775659 0.022241767255048107 0 -0.032334710667274252 0.027637132904984395 0 -0.031770830767001816 0.023713104131585064 0 -0.032473416079949129 0.022780501719155355 0 -0.032494522507078606 0.02337593120048467 0 -0.031770830767001816 0.023713104131585064 0 -0.032128498041324768 0.024786531982138954 0 -0.031066920973685117 0.024982943352761931 0 -0.031770830767001816 0.023713104131585064 0 -0.03199744640204423 0.024076623946467625 0 -0.032128498041324768 0.024786531982138954 0 -0.03082231186475437 0.030715222009718615 0 -0.032334710667274252 0.027637132904984395 0 -0.030211681608092233 0.03595176616188589 0 -0.031075436575629438 0.036003707247289567 0 -0.030810193320376288 0.035868277063137687 0 -0.03004933076914398 0.03557035725224917 0 -0.030211681608092233 0.03595176616188589 0 -0.030810193320376288 0.035868277063137687 0 -0.031075436575629438 0.036003707247289567 0 -0.031098792199893234 0.035957304507276876 0 -0.030810193320376288 0.035868277063137687 0 -0.033390426304742579 0.030131395986286908 0 -0.031198782786895373 0.03623595810300536 0 -0.032214772570052855 0.022321226086903685 0 -0.032473416079949129 0.022780501719155355 0 -0.032418286990057825 0.022310583757214827 0 -0.032334710667274252 0.027637132904984395 0 -0.034922984962771159 0.026680692671908483 0 -0.032276333544150576 0.027324103427410575 0 -0.032791969623233747 0.026293061855823661 0 -0.033973116329585426 0.026937158665734665 0 -0.032334710667274252 0.027637132904984395 0 -0.033390426304742579 0.030131395986286908 0 -0.033390426304742579 0.030131395986286908 0 -0.034922984962771159 0.026680692671908483 0 -0.031827480926907674 0.036510616369490247 0 -0.031467864577067343 0.035990595636349293 0 -0.030810193320376288 0.035868277063137687 0 -0.031827480926907674 0.036510616369490247 0 -0.031467864577067343 0.035990595636349293 0 -0.031889985706500278 0.035792540867773837 0 -0.031467864577067343 0.035990595636349293 0 -0.031889985706500278 0.035792540867773837 0 -0.03122968810257316 0.035476806001079705 0 -0.031467864577067343 0.035990595636349293 0 -0.030810193320376288 0.035868277063137687 0 -0.03122968810257316 0.035476806001079705 0 -0.03004933076914398 0.03557035725224917 0 -0.030810193320376288 0.035868277063137687 0 -0.030423719685018155 0.035408689250159164 0 -0.030810193320376288 0.035868277063137687 0 -0.030423719685018155 0.035408689250159164 0 -0.03122968810257316 0.035476806001079705 0 -0.030643841122657545 0.035079675924552564 0 -0.03122968810257316 0.035476806001079705 0 -0.031335126909286692 0.034904141703135487 0 -0.030423719685018155 0.035408689250159164 0 -0.030643841122657545 0.035079675924552564 0 -0.03122968810257316 0.035476806001079705 0 -0.030109259150041916 0.035171569426940788 0 -0.030423719685018155 0.035408689250159164 0 -0.030643841122657545 0.035079675924552564 0 -0.03122968810257316 0.035476806001079705 0 -0.03229189051517678 0.035156470980913047 0 -0.031335126909286692 0.034904141703135487 0 -0.031889985706500278 0.035792540867773837 0 -0.03122968810257316 0.035476806001079705 0 -0.03229189051517678 0.035156470980913047 0 -0.03229189051517678 0.035156470980913047 0 -0.03207456405335949 0.034034466419555778 0 -0.031335126909286692 0.034904141703135487 0 -0.03207456405335949 0.034034466419555778 0 -0.030847594821952286 0.034580726429280971 0 -0.031335126909286692 0.034904141703135487 0 -0.029966616492633751 0.034583615606078678 0 -0.029878195204857606 0.034321562740388015 0 -0.030138358656271454 0.034152667833593733 0 -0.035682084940964719 0.037593231687009454 0 -0.036400509149273223 0.037501112862498902 0 -0.03617115408443141 0.038105477111040453 0 -0.03207456405335949 0.034034466419555778 0 -0.030847594821952286 0.034580726429280971 0 -0.030352175323281144 0.034048057564938797 0 -0.034104268992078045 0.035810536104854879 0 -0.032341126444837019 0.035909656612281279 0 -0.032341126444837019 0.035909656612281279 0 -0.033690055594582997 0.035701413031009155 0 -0.030643841122657545 0.035079675924552564 0 -0.030847594821952286 0.034580726429280971 0 -0.031335126909286692 0.034904141703135487 0 -0.030643841122657545 0.035079675924552564 0 -0.030847594821952286 0.034580726429280971 0 -0.029984113226302195 0.034799758282555618 0 -0.029984113226302195 0.034799758282555618 0 -0.029599780255600072 0.034894644755379262 0 -0.029647909612765179 0.03473246474327648 0 -0.02973776917794721 0.035149727250191901 0 -0.029984113226302195 0.034799758282555618 0 -0.029599780255600072 0.034894644755379262 0 -0.029984113226302195 0.034799758282555618 0 -0.029871908988845786 0.034642440952335249 0 -0.02975157887682477 0.034627550780203027 0 -0.029984113226302195 0.034799758282555618 0 -0.029647909612765179 0.03473246474327648 0 -0.02975157887682477 0.034627550780203027 0 -0.029984113226302195 0.034799758282555618 0 -0.029871908988845786 0.034642440952335249 0 -0.029922282942976827 0.034585931099537247 0 -0.029984113226302195 0.034799758282555618 0 -0.029922282942976827 0.034585931099537247 0 -0.029951185261215714 0.034579671794399171 0 -0.030377464259110264 0.034757290398093443 0 -0.032341126444837019 0.035909656612281279 0 -0.030847594821952286 0.034580726429280971 0 -0.029984113226302195 0.034799758282555618 0 -0.030352175323281144 0.034048057564938797 0 -0.029342780114359743 0.035005078086660604 0 -0.029387060335566727 0.034775831521166874 0 -0.029076812143801801 0.034804394639344663 0 -0.029342780114359743 0.035005078086660604 0 -0.029599780255600072 0.034894644755379262 0 -0.029387060335566727 0.034775831521166874 0 -0.029647909612765179 0.03473246474327648 0 -0.029387060335566727 0.034775831521166874 0 -0.029511114301170351 0.03459450966919074 0 -0.029599780255600072 0.034894644755379262 0 -0.029647909612765179 0.03473246474327648 0 -0.029387060335566727 0.034775831521166874 0 -0.029647909612765179 0.03473246474327648 0 -0.029511114301170351 0.03459450966919074 0 -0.02975157887682477 0.034627550780203027 0 -0.029387060335566727 0.034775831521166874 0 -0.02926902157836558 0.034621790253413047 0 -0.029511114301170351 0.03459450966919074 0 -0.029387060335566727 0.034775831521166874 0 -0.02926902157836558 0.034621790253413047 0 -0.029076812143801801 0.034804394639344663 0 -0.02926902157836558 0.034621790253413047 0 -0.029511114301170351 0.03459450966919074 0 -0.029345419753092728 0.034375355870563229 0 -0.02926902157836558 0.034621790253413047 0 -0.029345419753092728 0.034375355870563229 0 -0.029022399032092944 0.034555719682231374 0 -0.029511114301170351 0.03459450966919074 0 -0.02975157887682477 0.034627550780203027 0 -0.029695141599259716 0.03445502427817787 0 -0.029345419753092728 0.034375355870563229 0 -0.029695141599259716 0.03445502427817787 0 -0.02965998101044201 0.034151296110653845 0 -0.029511114301170351 0.03459450966919074 0 -0.029345419753092728 0.034375355870563229 0 -0.029695141599259716 0.03445502427817787 0 -0.029922282942976827 0.034585931099537247 0 -0.029828380820141318 0.03455165644198939 0 -0.02987234612552252 0.034479688605003077 0 -0.029922282942976827 0.034585931099537247 0 -0.029966616492633751 0.034583615606078678 0 -0.02987234612552252 0.034479688605003077 0 -0.031877926640761264 0.035878250664884183 0 -0.032341126444837019 0.035909656612281279 0 -0.029871908988845786 0.034642440952335249 0 -0.029922282942976827 0.034585931099537247 0 -0.029828380820141318 0.03455165644198939 0 -0.02975157887682477 0.034627550780203027 0 -0.029828380820141318 0.03455165644198939 0 -0.029695141599259716 0.03445502427817787 0 -0.029871908988845786 0.034642440952335249 0 -0.02975157887682477 0.034627550780203027 0 -0.029828380820141318 0.03455165644198939 0 -0.029828380820141318 0.03455165644198939 0 -0.029695141599259716 0.03445502427817787 0 -0.02987234612552252 0.034479688605003077 0 -0.029695141599259716 0.03445502427817787 0 -0.029878195204857606 0.034321562740388015 0 -0.02965998101044201 0.034151296110653845 0 -0.029695141599259716 0.03445502427817787 0 -0.029878195204857606 0.034321562740388015 0 -0.02987234612552252 0.034479688605003077 0 -0.029966616492633751 0.034583615606078678 0 -0.029878195204857606 0.034321562740388015 0 -0.02987234612552252 0.034479688605003077 0 -0.029878195204857606 0.034321562740388015 0 -0.02965998101044201 0.034151296110653845 0 -0.030138358656271454 0.034152667833593733 0 -0.02965998101044201 0.034151296110653845 0 -0.029656422775171991 0.033646880149276463 0 -0.030138358656271454 0.034152667833593733 0 -0.029345419753092728 0.034375355870563229 0 -0.02965998101044201 0.034151296110653845 0 -0.029223698917774911 0.03401846512340112 0 -0.02965998101044201 0.034151296110653845 0 -0.029223698917774911 0.03401846512340112 0 -0.029656422775171991 0.033646880149276463 0 -0.029345419753092728 0.034375355870563229 0 -0.029223698917774911 0.03401846512340112 0 -0.028997354452702729 0.034295111356524063 0 -0.025157078594517698 0.035343153601487313 0 -0.025872132055897088 0.035384644702620156 0 -0.029223698917774911 0.03401846512340112 0 -0.029656422775171991 0.033646880149276463 0 -0.028858204946950728 0.033560261176201464 0 -0.029656422775171991 0.033646880149276463 0 -0.030316455798551592 0.033720686033922365 0 -0.030138358656271454 0.034152667833593733 0 -0.025157078594517698 0.035343153601487313 0 -0.028704863453789645 0.037408894465693482 0 -0.028704863453789645 0.037408894465693482 0 -0.033690055594582997 0.035701413031009155 0 -0.035875218078265506 0.038732526696240874 0 -0.035515344835452635 0.038395288321716507 0 -0.03617115408443141 0.038105477111040453 0 -0.035875218078265506 0.038732526696240874 0 -0.035515344835452635 0.038395288321716507 0 -0.035275150927228036 0.038736479922808591 0 -0.028704863453789645 0.037408894465693482 0 -0.034154336465686518 0.039319994098006315 0 -0.029245921466650789 0.039895585226501808 0 -0.029334546551901305 0.03985998644134689 0 -0.029375838353778019 0.039915196184091103 0 -0.035682084940964719 0.037593231687009454 0 -0.035506381103315034 0.037955604783410153 0 -0.03617115408443141 0.038105477111040453 0 -0.035515344835452635 0.038395288321716507 0 -0.035506381103315034 0.037955604783410153 0 -0.03617115408443141 0.038105477111040453 0 -0.027280218258417074 0.034505484259138894 0 -0.027642591797109421 0.034729217197324296 0 -0.027762047209778675 0.03443032882735074 0 -0.027280218258417074 0.034505484259138894 0 -0.027642591797109421 0.034729217197324296 0 -0.02726832233271646 0.034859746329494047 0 -0.027288645971231346 0.035320427598525023 0 -0.02726832233271646 0.034859746329494047 0 -0.027639904823778254 0.035036540513345107 0 -0.027642591797109421 0.034729217197324296 0 -0.027639904823778254 0.035036540513345107 0 -0.027910037568263935 0.034887028130034282 0 -0.027642591797109421 0.034729217197324296 0 -0.02726832233271646 0.034859746329494047 0 -0.027639904823778254 0.035036540513345107 0 -0.027642591797109421 0.034729217197324296 0 -0.027910037568263935 0.034887028130034282 0 -0.028007862004266436 0.034657829659800375 0 -0.027639904823778254 0.035036540513345107 0 -0.027910037568263935 0.034887028130034282 0 -0.027945452193913339 0.035103880274074593 0 -0.027910037568263935 0.034887028130034282 0 -0.027945452193913339 0.035103880274074593 0 -0.028159928393744215 0.034993730174642433 0 -0.027910037568263935 0.034887028130034282 0 -0.028253399889381713 0.034798688170786025 0 -0.028007862004266436 0.034657829659800375 0 -0.027910037568263935 0.034887028130034282 0 -0.028159928393744215 0.034993730174642433 0 -0.028253399889381713 0.034798688170786025 0 -0.028253399889381713 0.034798688170786025 0 -0.028007862004266436 0.034657829659800375 0 -0.028337164485846965 0.034619456315907134 0 -0.028007862004266436 0.034657829659800375 0 -0.028215917923777745 0.034443702686476591 0 -0.028337164485846965 0.034619456315907134 0 -0.027642591797109421 0.034729217197324296 0 -0.028007862004266436 0.034657829659800375 0 -0.027762047209778675 0.03443032882735074 0 -0.028007862004266436 0.034657829659800375 0 -0.027762047209778675 0.03443032882735074 0 -0.028215917923777745 0.034443702686476591 0 -0.028215917923777745 0.034443702686476591 0 -0.028633806076059608 0.034452445855387703 0 -0.028337164485846965 0.034619456315907134 0 -0.028633806076059608 0.034452445855387703 0 -0.028583184238749899 0.034706479201831911 0 -0.028844271745242345 0.034697364149286973 0 -0.028633806076059608 0.034452445855387703 0 -0.028583184238749899 0.034706479201831911 0 -0.028337164485846965 0.034619456315907134 0 -0.028253399889381713 0.034798688170786025 0 -0.028583184238749899 0.034706479201831911 0 -0.028337164485846965 0.034619456315907134 0 -0.028253399889381713 0.034798688170786025 0 -0.028583184238749899 0.034706479201831911 0 -0.028513549805470394 0.034928303488549139 0 -0.028159928393744215 0.034993730174642433 0 -0.028253399889381713 0.034798688170786025 0 -0.028513549805470394 0.034928303488549139 0 -0.028522961063881896 0.035127713785017022 0 -0.028159928393744215 0.034993730174642433 0 -0.028513549805470394 0.034928303488549139 0 -0.028522961063881896 0.035127713785017022 0 -0.028800855372225573 0.035052498748579838 0 -0.028513549805470394 0.034928303488549139 0 -0.028800855372225573 0.035052498748579838 0 -0.028513549805470394 0.034928303488549139 0 -0.02881005453614709 0.034864221588165628 0 -0.028583184238749899 0.034706479201831911 0 -0.028513549805470394 0.034928303488549139 0 -0.02881005453614709 0.034864221588165628 0 -0.028583184238749899 0.034706479201831911 0 -0.02881005453614709 0.034864221588165628 0 -0.028844271745242345 0.034697364149286973 0 -0.02881005453614709 0.034864221588165628 0 -0.029076812143801801 0.034804394639344663 0 -0.028844271745242345 0.034697364149286973 0 -0.02881005453614709 0.034864221588165628 0 -0.029027318438567078 0.034992547529610715 0 -0.029076812143801801 0.034804394639344663 0 -0.028800855372225573 0.035052498748579838 0 -0.02881005453614709 0.034864221588165628 0 -0.029027318438567078 0.034992547529610715 0 -0.029342780114359743 0.035005078086660604 0 -0.029027318438567078 0.034992547529610715 0 -0.029076812143801801 0.034804394639344663 0 -0.02926902157836558 0.034621790253413047 0 -0.029076812143801801 0.034804394639344663 0 -0.029022399032092944 0.034555719682231374 0 -0.029076812143801801 0.034804394639344663 0 -0.029022399032092944 0.034555719682231374 0 -0.028844271745242345 0.034697364149286973 0 -0.028633806076059608 0.034452445855387703 0 -0.029022399032092944 0.034555719682231374 0 -0.028844271745242345 0.034697364149286973 0 -0.028633806076059608 0.034452445855387703 0 -0.029022399032092944 0.034555719682231374 0 -0.028997354452702729 0.034295111356524063 0 -0.029345419753092728 0.034375355870563229 0 -0.029022399032092944 0.034555719682231374 0 -0.028997354452702729 0.034295111356524063 0 -0.028633806076059608 0.034452445855387703 0 -0.028997354452702729 0.034295111356524063 0 -0.028740810571441389 0.034050201729234522 0 -0.029223698917774911 0.03401846512340112 0 -0.028997354452702729 0.034295111356524063 0 -0.028740810571441389 0.034050201729234522 0 -0.029223698917774911 0.03401846512340112 0 -0.028740810571441389 0.034050201729234522 0 -0.028858204946950728 0.033560261176201464 0 -0.028740810571441389 0.034050201729234522 0 -0.028858204946950728 0.033560261176201464 0 -0.028348206034195692 0.03389555705911055 0 -0.028858204946950728 0.033560261176201464 0 -0.028348206034195692 0.03389555705911055 0 -0.027826456389000373 0.033600869741496654 0 -0.025872132055897088 0.035384644702620156 0 -0.026041394553165217 0.034861366207627913 0 -0.028348206034195692 0.03389555705911055 0 -0.028320579843345132 0.034196749378452122 0 -0.027962611232487836 0.034058714532921246 0 -0.028633806076059608 0.034452445855387703 0 -0.028740810571441389 0.034050201729234522 0 -0.028320579843345132 0.034196749378452122 0 -0.028740810571441389 0.034050201729234522 0 -0.028348206034195692 0.03389555705911055 0 -0.028320579843345132 0.034196749378452122 0 -0.028215917923777745 0.034443702686476591 0 -0.028320579843345132 0.034196749378452122 0 -0.027989782620965131 0.034279001802927096 0 -0.028215917923777745 0.034443702686476591 0 -0.028633806076059608 0.034452445855387703 0 -0.028320579843345132 0.034196749378452122 0 -0.027762047209778675 0.03443032882735074 0 -0.028215917923777745 0.034443702686476591 0 -0.027989782620965131 0.034279001802927096 0 -0.027762047209778675 0.03443032882735074 0 -0.027989782620965131 0.034279001802927096 0 -0.027728643276071222 0.034236527665918705 0 -0.027762047209778675 0.03443032882735074 0 -0.027728643276071222 0.034236527665918705 0 -0.027438418552723835 0.03428174561750167 0 -0.027728643276071222 0.034236527665918705 0 -0.027962611232487836 0.034058714532921246 0 -0.027583342463858195 0.034092858135217875 0 -0.027728643276071222 0.034236527665918705 0 -0.027583342463858195 0.034092858135217875 0 -0.027438418552723835 0.03428174561750167 0 -0.027989782620965131 0.034279001802927096 0 -0.027728643276071222 0.034236527665918705 0 -0.027962611232487836 0.034058714532921246 0 -0.028320579843345132 0.034196749378452122 0 -0.027989782620965131 0.034279001802927096 0 -0.027962611232487836 0.034058714532921246 0 -0.028348206034195692 0.03389555705911055 0 -0.027962611232487836 0.034058714532921246 0 -0.027826456389000373 0.033600869741496654 0 -0.027962611232487836 0.034058714532921246 0 -0.027826456389000373 0.033600869741496654 0 -0.027583342463858195 0.034092858135217875 0 -0.027826456389000373 0.033600869741496654 0 -0.027583342463858195 0.034092858135217875 0 -0.027419786876594882 0.034015010474785064 0 -0.027826456389000373 0.033600869741496654 0 -0.027419786876594882 0.034015010474785064 0 -0.027146107976655363 0.034136660148221025 0 -0.026835780367321663 0.034355526140233926 0 -0.027826456389000373 0.033600869741496654 0 -0.027146107976655363 0.034136660148221025 0 -0.027583342463858195 0.034092858135217875 0 -0.027419786876594882 0.034015010474785064 0 -0.027273570919221172 0.034152797129813589 0 -0.027419786876594882 0.034015010474785064 0 -0.027146107976655363 0.034136660148221025 0 -0.027273570919221172 0.034152797129813589 0 -0.026930412902423411 0.034445442792334434 0 -0.026041394553165217 0.034861366207627913 0 -0.027006864255095107 0.034175142005942183 0 -0.026940006817989467 0.034196593623156128 0 -0.027146107976655363 0.034136660148221025 0 -0.027006864255095107 0.034175142005942183 0 -0.027146107976655363 0.034136660148221025 0 -0.027273570919221172 0.034152797129813589 0 -0.027273570919221172 0.034152797129813589 0 -0.027117416305603874 0.034286880417922168 0 -0.027438418552723835 0.03428174561750167 0 -0.027006864255095107 0.034175142005942183 0 -0.027273570919221172 0.034152797129813589 0 -0.027117416305603874 0.034286880417922168 0 -0.027583342463858195 0.034092858135217875 0 -0.027273570919221172 0.034152797129813589 0 -0.027438418552723835 0.03428174561750167 0 -0.027280218258417074 0.034505484259138894 0 -0.027762047209778675 0.03443032882735074 0 -0.027438418552723835 0.03428174561750167 0 -0.027280218258417074 0.034505484259138894 0 -0.027117416305603874 0.034286880417922168 0 -0.027438418552723835 0.03428174561750167 0 -0.017716032591591602 0.041352159913123215 0 -0.015650879151426138 0.042653516830438692 0 -0.019359948216869566 0.042181225579734749 0 -0.015896013282737948 0.039815593336945967 0 -0.018291491094781721 0.039593422834536325 0 -0.017716032591591602 0.041352159913123215 0 -0.018291491094781721 0.039593422834536325 0 -0.017716032591591602 0.041352159913123215 0 -0.019013607371461232 0.040579272391306473 0 -0.015896013282737948 0.039815593336945967 0 -0.017716032591591602 0.041352159913123215 0 -0.015908073314910821 0.04168173803506442 0 -0.014794445687327702 0.041404904771952813 0 -0.015896013282737948 0.039815593336945967 0 -0.015908073314910821 0.04168173803506442 0 -0.017716032591591602 0.041352159913123215 0 -0.015908073314910821 0.04168173803506442 0 -0.015650879151426138 0.042653516830438692 0 -0.014794445687327702 0.041404904771952813 0 -0.015908073314910821 0.04168173803506442 0 -0.015650879151426138 0.042653516830438692 0 -0.024926324045254616 0.037383575883557001 0 -0.024173975614663192 0.037836495881600478 0 -0.024316690108789448 0.037573238030678698 0 -0.014250798762728605 0.045166847301615687 0 -0.015650879151426138 0.042653516830438692 0 -0.019359948216869566 0.042181225579734749 0 -0.026815878078767025 0.034930852282944583 0 -0.026835780367321663 0.034355526140233926 0 -0.024886516481060383 0.036689186583793339 0 -0.021922993719870484 0.038275865185513382 0 -0.025327581669586905 0.036858222997826609 0 -0.021922993719870484 0.038275865185513382 0 -0.02104465327500183 0.040494164096775864 0 -0.026835780367321663 0.034355526140233926 0 -0.024114000059596161 0.036152493125202703 0 -0.024886516481060383 0.036689186583793339 0 -0.025327581669586905 0.036858222997826609 0 -0.023063909336876576 0.03768931335252753 0 -0.024173975614663192 0.037836495881600478 0 -0.024316690108789448 0.037573238030678698 0 -0.023305232341378414 0.037701009085192014 0 -0.024114000059596161 0.036152493125202703 0 -0.024886516481060383 0.036689186583793339 0 -0.023305232341378414 0.037701009085192014 0 -0.019359948216869566 0.042181225579734749 0 -0.020597758924331196 0.0392406950338096 0 -0.02277407472525057 0.038687904268524725 0 -0.017716032591591602 0.041352159913123215 0 -0.019359948216869566 0.042181225579734749 0 -0.019013607371461232 0.040579272391306473 0 -0.019359948216869566 0.042181225579734749 0 -0.019013607371461232 0.040579272391306473 0 -0.020597758924331196 0.0392406950338096 0 -0.018291491094781721 0.039593422834536325 0 -0.019013607371461232 0.040579272391306473 0 -0.020597758924331196 0.0392406950338096 0 -0.02104465327500183 0.040494164096775864 0 -0.022959730997949009 0.038722507222541433 0 -0.020597758924331196 0.0392406950338096 0 -0.02277407472525057 0.038687904268524725 0 -0.022523847170755774 0.038028226716359539 0 -0.024173975614663192 0.037836495881600478 0 -0.02277407472525057 0.038687904268524725 0 -0.023305232341378414 0.037701009085192014 0 -0.02277407472525057 0.038687904268524725 0 -0.023305232341378414 0.037701009085192014 0 -0.022334092140409038 0.03796083754327606 0 -0.022533044288516196 0.037175307016182914 0 -0.024114000059596161 0.036152493125202703 0 -0.023305232341378414 0.037701009085192014 0 -0.022533044288516196 0.037175307016182914 0 -0.023305232341378414 0.037701009085192014 0 -0.022334092140409038 0.03796083754327606 0 -0.02277407472525057 0.038687904268524725 0 -0.022334092140409038 0.03796083754327606 0 -0.022357297862637193 0.038482740074481381 0 -0.014157183667720596 0.044999962604496076 0 -0.014946869206144842 0.047104604660510682 0 -0.017376084829422423 0.047506557410204264 0 -0.02277407472525057 0.038687904268524725 0 -0.022523847170755774 0.038028226716359539 0 -0.022357297862637193 0.038482740074481381 0 -0.018645512755450927 0.042549635304803921 0 -0.019872990407112226 0.042971197615496115 0 -0.010421588789922942 0.044999957689590961 0 -0.014157183667720596 0.044999962604496076 0 -0.012506604931764004 0.046702981834519035 0 -0.018645512755450927 0.042549635304803921 0 -0.015298819972963262 0.041815717781987047 0 -0.020597758924331196 0.0392406950338096 0 -0.022523847170755774 0.038028226716359539 0 -0.018065356454727472 0.036827005053283027 0 -0.018291491094781721 0.039593422834536325 0 -0.020597758924331196 0.0392406950338096 0 -0.018065356454727472 0.036827005053283027 0 -0.014157183667720596 0.044999962604496076 0 -0.014946869206144842 0.047104604660510682 0 -0.012506604931764004 0.046702981834519035 0 -0.014262085889116401 0.038308086493401027 0 -0.015896013282737948 0.039815593336945967 0 -0.018065356454727472 0.036827005053283027 0 -0.011036566942824271 0.040730149640592385 0 -0.015298819972963262 0.041815717781987047 0 -0.015896013282737948 0.039815593336945967 0 -0.018291491094781721 0.039593422834536325 0 -0.018065356454727472 0.036827005053283027 0 -0.021619998026454507 0.038088740547468164 0 -0.021700243786310084 0.038281721990481313 0 -0.02170889199113514 0.037928296042549506 0 -0.021508669721502605 0.038064371444789934 0 -0.021619998026454507 0.038088740547468164 0 -0.021620028923558608 0.038239666534323931 0 -0.021508669721502605 0.038064371444789934 0 -0.021619998026454507 0.038088740547468164 0 -0.021550727505870879 0.037953776641570271 0 -0.021619998026454507 0.038088740547468164 0 -0.021550727505870879 0.037953776641570271 0 -0.02170889199113514 0.037928296042549506 0 -0.021619998026454507 0.038088740547468164 0 -0.021700243786310084 0.038281721990481313 0 -0.021620028923558608 0.038239666534323931 0 -0.020734441523062735 0.043101015478502216 0 -0.020707842532809089 0.043092222913783812 0 -0.021508669721502605 0.038064371444789934 0 -0.021620028923558608 0.038239666534323931 0 -0.021315080000353204 0.038048643151130546 0 -0.020707842532809089 0.043092222913783812 0 -0.023301920036669751 0.045892792268903207 0 -0.020707842532809089 0.043092222913783812 0 -0.024782983581042594 0.040078122108256793 0 -0.021178939032887669 0.042960283484543421 0 -0.024046251245680238 0.043444541834653481 0 -0.024002868617719223 0.044244753425859193 0 -0.021508669721502605 0.038064371444789934 0 -0.021429051729730843 0.037999664322172444 0 -0.021550727505870879 0.037953776641570271 0 -0.021508669721502605 0.038064371444789934 0 -0.021315080000353204 0.038048643151130546 0 -0.021429051729730843 0.037999664322172444 0 -0.021505674617923545 0.037631257706831386 0 -0.021315080000353204 0.038048643151130546 0 -0.021429051729730843 0.037999664322172444 0 -0.028704863453789645 0.037408894465693482 0 -0.024782983581042594 0.040078122108256793 0 -0.029245921466650789 0.039895585226501808 0 -0.029281594106549621 0.039796720783388501 0 -0.029334546551901305 0.03985998644134689 0 -0.021505674617923545 0.037631257706831386 0 -0.021429051729730843 0.037999664322172444 0 -0.021550727505870879 0.037953776641570271 0 -0.021931361185428079 0.03754165670307439 0 -0.021505674617923545 0.037631257706831386 0 -0.02170889199113514 0.037928296042549506 0 -0.021505674617923545 0.037631257706831386 0 -0.021550727505870879 0.037953776641570271 0 -0.02170889199113514 0.037928296042549506 0 -0.021931361185428079 0.03754165670307439 0 -0.02170889199113514 0.037928296042549506 0 -0.022005826884962543 0.038025249757152567 0 -0.021931361185428079 0.03754165670307439 0 -0.022334092140409038 0.03796083754327606 0 -0.022005826884962543 0.038025249757152567 0 -0.021931361185428079 0.03754165670307439 0 -0.022533044288516196 0.037175307016182914 0 -0.022334092140409038 0.03796083754327606 0 -0.022334092140409038 0.03796083754327606 0 -0.022005826884962543 0.038025249757152567 0 -0.022357297862637193 0.038482740074481381 0 -0.021700243786310084 0.038281721990481313 0 -0.022005826884962543 0.038025249757152567 0 -0.022357297862637193 0.038482740074481381 0 -0.021700243786310084 0.038281721990481313 0 -0.02170889199113514 0.037928296042549506 0 -0.022005826884962543 0.038025249757152567 0 -0.019796457360374296 0.047909655298842134 0 -0.019200825874752442 0.0449999076396519 0 -0.017376084829422423 0.047506557410204264 0 -0.020734441523062735 0.043101015478502216 0 -0.019872990407112226 0.042971197615496115 0 -0.014157183667720596 0.044999962604496076 0 -0.019200825874752442 0.0449999076396519 0 -0.017376084829422423 0.047506557410204264 0 -0.022224910780155115 0.048320805681760975 0 -0.019200825874752442 0.0449999076396519 0 -0.023526413201771356 0.046882379026286919 0 -0.019796457360374296 0.047909655298842134 0 -0.020313176133879077 0.047997230615390428 0 -0.019200825874752442 0.0449999076396519 0 -0.020313176133879077 0.047997230615390428 0 -0.022224910780155115 0.048320805681760975 0 -0.019200825874752442 0.0449999076396519 0 -0.019200825874752442 0.0449999076396519 0 -0.023526413201771356 0.046882379026286919 0 -0.026012072055314986 0.045000102475887399 0 -0.023526413201771356 0.046882379026286919 0 -0.025544529546849475 0.047364314288014235 0 -0.026012072055314986 0.045000102475887399 0 -0.023526413201771356 0.046882379026286919 0 -0.024657895160017096 0.04873556363717059 0 -0.025544529546849475 0.047364314288014235 0 -0.024046251245680238 0.043444541834653481 0 -0.027638775729876868 0.044076118601229231 0 -0.026786965839003758 0.045408984237771469 0 -0.022224910780155115 0.048320805681760975 0 -0.023526413201771356 0.046882379026286919 0 -0.024657895160017096 0.04873556363717059 0 -0.024046251245680238 0.043444541834653481 0 -0.024002868617719223 0.044244753425859193 0 -0.026786965839003758 0.045408984237771469 0 -0.023301920036669751 0.045892792268903207 0 -0.025561591307471928 0.047554318048919152 0 -0.025561591307471928 0.047554318048919152 0 -0.025634239351276678 0.047430609869592646 0 -0.02620643547178712 0.048435096730590842 0 -0.026042499484440453 0.048726444786677953 0 -0.026306075964052003 0.048710548510150185 0 -0.02983127595584404 0.043272364627059495 0 -0.031941078951495942 0.043937806954381264 0 -0.034855172688455532 0.040364444490916911 0 -0.034661345901856433 0.039809394763336711 0 -0.03378521339655037 0.039923520970791798 0 -0.026042499484440453 0.048726444786677953 0 -0.026306075964052003 0.048710548510150185 0 -0.026508369948231445 0.049003953035022266 0 -0.025561591307471928 0.047554318048919152 0 -0.02983127595584404 0.043272364627059495 0 -0.026306075964052003 0.048710548510150185 0 -0.026508369948231445 0.049003953035022266 0 -0.026464184537821761 0.048675243811994756 0 -0.02620643547178712 0.048435096730590842 0 -0.026306075964052003 0.048710548510150185 0 -0.026464184537821761 0.048675243811994756 0 -0.034661345901856433 0.039809394763336711 0 -0.03378521339655037 0.039923520970791798 0 -0.034233139078931885 0.039576391238816892 0 -0.031941078951495942 0.043937806954381264 0 -0.034670657599733992 0.040603495934709175 0 -0.024782983581042594 0.040078122108256793 0 -0.02983127595584404 0.043272364627059495 0 -0.02983127595584404 0.043272364627059495 0 -0.034154336465686518 0.039319994098006315 0 -0.029281594106549621 0.039796720783388501 0 -0.029414002849436526 0.039856313026415811 0 -0.029334546551901305 0.03985998644134689 0 -0.034855172688455532 0.040364444490916911 0 -0.034661345901856433 0.039809394763336711 0 -0.035459760668738391 0.039411314689364631 0 -0.029414002849436526 0.039856313026415811 0 -0.029334546551901305 0.03985998644134689 0 -0.029375838353778019 0.039915196184091103 0 -0.034309190908711096 0.045281282058035104 0 -0.035569540064672667 0.045127497433255628 0 -0.033959406838420671 0.044079470152996424 0 -0.033365265548231021 0.0454268826227473 0 -0.033871709854313647 0.046341538094529185 0 -0.032748019362542929 0.046221229633433947 0 -0.033365265548231021 0.0454268826227473 0 -0.034309190908711096 0.045281282058035104 0 -0.033871709854313647 0.046341538094529185 0 -0.033365265548231021 0.0454268826227473 0 -0.034309190908711096 0.045281282058035104 0 -0.033959406838420671 0.044079470152996424 0 -0.026508369948231445 0.049003953035022266 0 -0.026883101387838778 0.048567921229176116 0 -0.027370984521075 0.048596888566542859 0 -0.031941078951495942 0.043937806954381264 0 -0.030307367932641365 0.047896319783836037 0 -0.034309190908711096 0.045281282058035104 0 -0.035569540064672667 0.045127497433255628 0 -0.033871709854313647 0.046341538094529185 0 -0.026508369948231445 0.049003953035022266 0 -0.026464184537821761 0.048675243811994756 0 -0.026883101387838778 0.048567921229176116 0 -0.025561591307471928 0.047554318048919152 0 -0.026874377445918782 0.048666969701546381 0 -0.025226556433056688 0.048378080950289344 0 -0.026883101387838778 0.048567921229176116 0 -0.026198966422243425 0.048033370224656147 0 -0.026883101387838778 0.048567921229176116 0 -0.026198966422243425 0.048033370224656147 0 -0.026723295362145467 0.04796952498918753 0 -0.02620643547178712 0.048435096730590842 0 -0.026464184537821761 0.048675243811994756 0 -0.026883101387838778 0.048567921229176116 0 -0.025226556433056688 0.048378080950289344 0 -0.026198966422243425 0.048033370224656147 0 -0.025938769054967961 0.047203128370058876 0 -0.026198966422243425 0.048033370224656147 0 -0.026723295362145467 0.04796952498918753 0 -0.025938769054967961 0.047203128370058876 0 -0.026723295362145467 0.04796952498918753 0 -0.027370984521075 0.048596888566542859 0 -0.027226856424187759 0.047323853729110209 0 -0.027370984521075 0.048596888566542859 0 -0.027226856424187759 0.047323853729110209 0 -0.029147916269833755 0.047534599922322868 0 -0.026883101387838778 0.048567921229176116 0 -0.026723295362145467 0.04796952498918753 0 -0.027370984521075 0.048596888566542859 0 -0.027226856424187759 0.047323853729110209 0 -0.026472444107570256 0.045981472910171475 0 -0.029147916269833755 0.047534599922322868 0 -0.026012072055314986 0.045000102475887399 0 -0.026472444107570256 0.045981472910171475 0 -0.030985400238305399 0.04618454325284474 0 -0.027226856424187759 0.047323853729110209 0 -0.025938769054967961 0.047203128370058876 0 -0.026472444107570256 0.045981472910171475 0 -0.026723295362145467 0.04796952498918753 0 -0.027226856424187759 0.047323853729110209 0 -0.025938769054967961 0.047203128370058876 0 -0.025634239351276678 0.047430609869592646 0 -0.026460163336936075 0.046050004413254873 0 -0.025544529546849475 0.047364314288014235 0 -0.026012072055314986 0.045000102475887399 0 -0.026472444107570256 0.045981472910171475 0 -0.026472444107570256 0.045981472910171475 0 -0.030985400238305399 0.04618454325284474 0 -0.029147916269833755 0.047534599922322868 0 -0.026012072055314986 0.045000102475887399 0 -0.030985400238305399 0.04618454325284474 0 -0.035113186902910522 0.04499817248644996 0 -0.030983129600994568 0.046309778431229041 0 -0.030655703146256628 0.04695840385896774 0 -0.030985400238305399 0.04618454325284474 0 -0.031849208577268251 0.046707483271577997 0 -0.03144020329743747 0.046478572592956763 0 -0.030985400238305399 0.04618454325284474 0 -0.032674763501569462 0.046537568729742115 0 -0.035113186902910522 0.04499817248644996 0 -0.030985400238305399 0.04618454325284474 0 -0.032674763501569462 0.046537568729742115 0 -0.03144020329743747 0.046478572592956763 0 -0.032674763501569462 0.046537568729742115 0 -0.03144020329743747 0.046478572592956763 0 -0.03280453273058969 0.046993325046094478 0 -0.032674763501569462 0.046537568729742115 0 -0.03280453273058969 0.046993325046094478 0 -0.034365650639678835 0.046714006970833014 0 -0.03144020329743747 0.046478572592956763 0 -0.031701120857797839 0.046639592309899586 0 -0.03280453273058969 0.046993325046094478 0 -0.03144020329743747 0.046478572592956763 0 -0.031356838221511044 0.0457995447886086 0 -0.031701120857797839 0.046639592309899586 0 -0.031701120857797839 0.046639592309899586 0 -0.03280453273058969 0.046993325046094478 0 -0.03358021919338991 0.047815872319633412 0 -0.031849208577268251 0.046707483271577997 0 -0.032748019362542929 0.046221229633433947 0 -0.031997953945802897 0.046115929234520056 0 -0.033871709854313647 0.046341538094529185 0 -0.031849208577268251 0.046707483271577997 0 -0.032748019362542929 0.046221229633433947 0 -0.030307367932641365 0.047896319783836037 0 -0.030655703146256628 0.04695840385896774 0 -0.031849208577268251 0.046707483271577997 0 -0.03144020329743747 0.046478572592956763 0 -0.031997953945802897 0.046115929234520056 0 -0.03144020329743747 0.046478572592956763 0 -0.031356838221511044 0.0457995447886086 0 -0.031366601132036639 0.04570611382915378 0 -0.03144020329743747 0.046478572592956763 0 -0.031366601132036639 0.04570611382915378 0 -0.031997953945802897 0.046115929234520056 0 -0.031356838221511044 0.0457995447886086 0 -0.031366601132036639 0.04570611382915378 0 -0.030722656576555121 0.044664300381619303 0 -0.031366601132036639 0.04570611382915378 0 -0.03222653189740609 0.045005348846964104 0 -0.030722656576555121 0.044664300381619303 0 -0.031366601132036639 0.04570611382915378 0 -0.031997953945802897 0.046115929234520056 0 -0.03222653189740609 0.045005348846964104 0 -0.033365265548231021 0.0454268826227473 0 -0.032748019362542929 0.046221229633433947 0 -0.031997953945802897 0.046115929234520056 0 -0.033365265548231021 0.0454268826227473 0 -0.031997953945802897 0.046115929234520056 0 -0.03222653189740609 0.045005348846964104 0 -0.03000502349491958 0.040621367379882867 0 -0.033416131221751612 0.041706263297116346 0 -0.03222653189740609 0.045005348846964104 0 -0.030217998422196964 0.040628016935370145 0 -0.033959406838420671 0.044079470152996424 0 -0.033365265548231021 0.0454268826227473 0 -0.03222653189740609 0.045005348846964104 0 -0.033959406838420671 0.044079470152996424 0 -0.030722656576555121 0.044664300381619303 0 -0.029461472084873805 0.039797887386799798 0 -0.030217998422196964 0.040628016935370145 0 -0.03222653189740609 0.045005348846964104 0 -0.030722656576555121 0.044664300381619303 0 -0.030217998422196964 0.040628016935370145 0 -0.030598445005109151 0.044011325004542537 0 -0.030632540704151643 0.043733718742453846 0 -0.030722656576555121 0.044664300381619303 0 -0.031310860009755581 0.045381688265748045 0 -0.031229306023979584 0.045752952312486952 0 -0.031356838221511044 0.0457995447886086 0 -0.030722656576555121 0.044664300381619303 0 -0.031310860009755581 0.045381688265748045 0 -0.029461472084873805 0.039797887386799798 0 -0.030217998422196964 0.040628016935370145 0 -0.030714437558539288 0.039146580455877274 0 -0.030632540704151643 0.043733718742453846 0 -0.034425896579378376 0.035242710676192751 0 -0.029461472084873805 0.039797887386799798 0 -0.030714437558539288 0.039146580455877274 0 -0.029154992415750997 0.03746063810505805 0 -0.031229306023979584 0.045752952312486952 0 -0.031496904772898002 0.045639860450219456 0 -0.031330478386964414 0.045775339301239823 0 -0.031310860009755581 0.045381688265748045 0 -0.031229306023979584 0.045752952312486952 0 -0.031458407803695181 0.045641410452327433 0 -0.031229306023979584 0.045752952312486952 0 -0.031458407803695181 0.045641410452327433 0 -0.031496904772898002 0.045639860450219456 0 -0.030790557503722137 0.037881338819066378 0 -0.030714437558539288 0.039146580455877274 0 -0.029154992415750997 0.03746063810505805 0 -0.030217998422196964 0.040628016935370145 0 -0.030714437558539288 0.039146580455877274 0 -0.032089853209024757 0.039638930795773547 0 -0.030714437558539288 0.039146580455877274 0 -0.032089853209024757 0.039638930795773547 0 -0.031810420062891802 0.038194583669850825 0 -0.030790557503722137 0.037881338819066378 0 -0.030714437558539288 0.039146580455877274 0 -0.031810420062891802 0.038194583669850825 0 -0.031701120857797839 0.046639592309899586 0 -0.033012774883970544 0.048589179935056695 0 -0.03358021919338991 0.047815872319633412 0 -0.031701120857797839 0.046639592309899586 0 -0.031092671822760876 0.045833058784160656 0 -0.031435138698810206 0.045691070389890592 0 -0.031677138760694848 0.046616793890851493 0 -0.032068169164401368 0.047629296365065833 0 -0.031701120857797839 0.046639592309899586 0 -0.031492948414694522 0.045711303849334271 0 -0.031435138698810206 0.045691070389890592 0 -0.031356838221511044 0.0457995447886086 0 -0.031701120857797839 0.046639592309899586 0 -0.031492948414694522 0.045711303849334271 0 -0.031356838221511044 0.0457995447886086 0 -0.031310860009755581 0.045381688265748045 0 -0.031492948414694522 0.045711303849334271 0 -0.031492948414694522 0.045711303849334271 0 -0.031458407803695181 0.045641410452327433 0 -0.031435138698810206 0.045691070389890592 0 -0.031310860009755581 0.045381688265748045 0 -0.031492948414694522 0.045711303849334271 0 -0.031458407803695181 0.045641410452327433 0 -0.031496904772898002 0.045639860450219456 0 -0.031810753174825783 0.045649447387961624 0 -0.031330478386964414 0.045775339301239823 0 -0.031496904772898002 0.045639860450219456 0 -0.031435138698810206 0.045691070389890592 0 -0.031259934669997547 0.045432987858967419 0 -0.030504545313957718 0.045631553409808477 0 -0.036585022703533955 0.038485232786573467 0 -0.031458407803695181 0.045641410452327433 0 -0.031496904772898002 0.045639860450219456 0 -0.031435138698810206 0.045691070389890592 0 -0.031092671822760876 0.045833058784160656 0 -0.031435138698810206 0.045691070389890592 0 -0.031259934669997547 0.045432987858967419 0 -0.031092671822760876 0.045833058784160656 0 -0.031259934669997547 0.045432987858967419 0 -0.030928470861816451 0.045490618925640026 0 -0.042882327081417974 0.027254632594893888 0 -0.043041785399396446 0.026818917066332628 0 -0.042762668882530955 0.026837632311762498 0 -0.036585022703533955 0.038485232786573467 0 -0.034425896579378376 0.035242710676192751 0 -0.042882327081417974 0.027254632594893888 0 -0.043323292631506388 0.026892924656628826 0 -0.043041785399396446 0.026818917066332628 0 -0.042882327081417974 0.027254632594893888 0 -0.043323292631506388 0.026892924656628826 0 -0.043555289663818941 0.0272204397271586 0 -0.043323292631506388 0.026892924656628826 0 -0.04325041556782519 0.02656997491909353 0 -0.043598276244563305 0.026525176864101673 0 -0.043323292631506388 0.026892924656628826 0 -0.04325041556782519 0.02656997491909353 0 -0.043041785399396446 0.026818917066332628 0 -0.04325041556782519 0.02656997491909353 0 -0.043041785399396446 0.026818917066332628 0 -0.042892466216938901 0.026567773707038219 0 -0.043041785399396446 0.026818917066332628 0 -0.042892466216938901 0.026567773707038219 0 -0.042762668882530955 0.026837632311762498 0 -0.028970225078511602 0.03696153879459517 0 -0.034425896579378376 0.035242710676192751 0 -0.030790557503722137 0.037881338819066378 0 -0.031464314885507952 0.03628761367913267 0 -0.029154992415750997 0.03746063810505805 0 -0.031464314885507952 0.03628761367913267 0 -0.02823138862018142 0.036680403749887826 0 -0.029344789343397779 0.035360787203872 0 -0.031464314885507952 0.03628761367913267 0 -0.029344789343397779 0.035360787203872 0 -0.030694202975984859 0.034766892172995209 0 -0.030790557503722137 0.037881338819066378 0 -0.031464314885507952 0.03628761367913267 0 -0.031810420062891802 0.038194583669850825 0 -0.034425896579378376 0.035242710676192751 0 -0.035858782955589009 0.029763345967788395 0 -0.02823138862018142 0.036680403749887826 0 -0.029344789343397779 0.035360787203872 0 -0.0279444969047224 0.033637428954300407 0 -0.029344789343397779 0.035360787203872 0 -0.0279444969047224 0.033637428954300407 0 -0.029081282151327784 0.033967509966827195 0 -0.043323292631506388 0.026892924656628826 0 -0.043555289663818941 0.0272204397271586 0 -0.043598276244563305 0.026525176864101673 0 -0.02874377171611249 0.03382068864773121 0 -0.032056543761373041 0.030929279486165036 0 -0.029081282151327784 0.033967509966827195 0 -0.030010079033352243 0.034186894049293773 0 -0.030381316282211364 0.033311876234036614 0 -0.029344789343397779 0.035360787203872 0 -0.029081282151327784 0.033967509966827195 0 -0.030010079033352243 0.034186894049293773 0 -0.029344789343397779 0.035360787203872 0 -0.030010079033352243 0.034186894049293773 0 -0.030694202975984859 0.034766892172995209 0 -0.030694202975984859 0.034766892172995209 0 -0.030757076250509264 0.033639537265600775 0 -0.031792125351021716 0.03452573724112637 0 -0.031464314885507952 0.03628761367913267 0 -0.030694202975984859 0.034766892172995209 0 -0.031792125351021716 0.03452573724112637 0 -0.030010079033352243 0.034186894049293773 0 -0.030694202975984859 0.034766892172995209 0 -0.030757076250509264 0.033639537265600775 0 -0.030757076250509264 0.033639537265600775 0 -0.031790570915599566 0.033096157430326893 0 -0.03038804305967719 0.033322705069555619 0 -0.030010079033352243 0.034186894049293773 0 -0.030757076250509264 0.033639537265600775 0 -0.030381316282211364 0.033311876234036614 0 -0.031953965921526953 0.031576794499783317 0 -0.032056543761373041 0.030929279486165036 0 -0.030757076250509264 0.033639537265600775 0 -0.031792125351021716 0.03452573724112637 0 -0.031790570915599566 0.033096157430326893 0 -0.032682084986023083 0.034073576099186813 0 -0.033045109672000521 0.032916237554776295 0 -0.031790570915599566 0.033096157430326893 0 -0.032682084986023083 0.034073576099186813 0 -0.031792125351021716 0.03452573724112637 0 -0.031790570915599566 0.033096157430326893 0 -0.032682084986023083 0.034073576099186813 0 -0.031792125351021716 0.03452573724112637 0 -0.032979225270262827 0.035189030882439909 0 -0.031464314885507952 0.03628761367913267 0 -0.033054163957624685 0.0369824052925335 0 -0.031810420062891802 0.038194583669850825 0 -0.031464314885507952 0.03628761367913267 0 -0.033054163957624685 0.0369824052925335 0 -0.032979225270262827 0.035189030882439909 0 -0.031464314885507952 0.03628761367913267 0 -0.031792125351021716 0.03452573724112637 0 -0.032979225270262827 0.035189030882439909 0 -0.033054163957624685 0.0369824052925335 0 -0.034764013463883893 0.037508453599007174 0 -0.033870977015331163 0.037709835227044818 0 -0.033054163957624685 0.0369824052925335 0 -0.032979225270262827 0.035189030882439909 0 -0.034450570208409942 0.034958068025698744 0 -0.03303975248181247 0.036874141044609995 0 -0.034328564756154367 0.03622582418400612 0 -0.032979225270262827 0.035189030882439909 0 -0.033731686208624642 0.034087252443191225 0 -0.034450570208409942 0.034958068025698744 0 -0.032682084986023083 0.034073576099186813 0 -0.032979225270262827 0.035189030882439909 0 -0.033731686208624642 0.034087252443191225 0 -0.032682084986023083 0.034073576099186813 0 -0.033731686208624642 0.034087252443191225 0 -0.033045109672000521 0.032916237554776295 0 -0.033731686208624642 0.034087252443191225 0 -0.034255082334679665 0.032837930654513084 0 -0.033045109672000521 0.032916237554776295 0 -0.033731686208624642 0.034087252443191225 0 -0.03446789235339047 0.033692552834701232 0 -0.034255082334679665 0.032837930654513084 0 -0.03446789235339047 0.033692552834701232 0 -0.035298253422473141 0.032855133672721082 0 -0.034450570208409942 0.034958068025698744 0 -0.035298253422473141 0.032855133672721082 0 -0.034450570208409942 0.034958068025698744 0 -0.037447825525802579 0.03166159262688395 0 -0.034439039376390701 0.034750521571808239 0 -0.035482305449884913 0.033721835262115973 0 -0.03446789235339047 0.033692552834701232 0 -0.035298253422473141 0.032855133672721082 0 -0.034255082334679665 0.032837930654513084 0 -0.033731686208624642 0.034087252443191225 0 -0.03446789235339047 0.033692552834701232 0 -0.034450570208409942 0.034958068025698744 0 -0.03229189051517678 0.035156470980913047 0 -0.033196531450102575 0.034811613791666536 0 -0.032820363068343399 0.03555326790313354 0 -0.033196531450102575 0.034811613791666536 0 -0.034450570208409942 0.034958068025698744 0 -0.032820363068343399 0.03555326790313354 0 -0.03229189051517678 0.035156470980913047 0 -0.03207456405335949 0.034034466419555778 0 -0.033196531450102575 0.034811613791666536 0 -0.034104268992078045 0.035810536104854879 0 -0.034328564756154367 0.03622582418400612 0 -0.03207456405335949 0.034034466419555778 0 -0.033196531450102575 0.034811613791666536 0 -0.034357421089623218 0.034832813850536666 0 -0.035682084940964719 0.037593231687009454 0 -0.035506381103315034 0.037955604783410153 0 -0.034764013463883893 0.037508453599007174 0 -0.033196531450102575 0.034811613791666536 0 -0.034450570208409942 0.034958068025698744 0 -0.034357421089623218 0.034832813850536666 0 -0.033054163957624685 0.0369824052925335 0 -0.034450570208409942 0.034958068025698744 0 -0.034357421089623218 0.034832813850536666 0 -0.034468033180743679 0.037840551365612624 0 -0.034417969812823843 0.038194010687599575 0 -0.033870977015331163 0.037709835227044818 0 -0.034764013463883893 0.037508453599007174 0 -0.034468033180743679 0.037840551365612624 0 -0.033870977015331163 0.037709835227044818 0 -0.034744898572458487 0.037977830082171558 0 -0.034836929651929284 0.038350395288345558 0 -0.035112833739885982 0.038074371046914454 0 -0.034764013463883893 0.037508453599007174 0 -0.034468033180743679 0.037840551365612624 0 -0.034744898572458487 0.037977830082171558 0 -0.034764013463883893 0.037508453599007174 0 -0.034744898572458487 0.037977830082171558 0 -0.035112833739885982 0.038074371046914454 0 -0.034468033180743679 0.037840551365612624 0 -0.034744898572458487 0.037977830082171558 0 -0.034417969812823843 0.038194010687599575 0 -0.034836929651929284 0.038350395288345558 0 -0.034417969812823843 0.038194010687599575 0 -0.034462757824504336 0.038709470722913891 0 -0.034744898572458487 0.037977830082171558 0 -0.034836929651929284 0.038350395288345558 0 -0.034417969812823843 0.038194010687599575 0 -0.034417969812823843 0.038194010687599575 0 -0.033870977015331163 0.037709835227044818 0 -0.034039281554838069 0.038514200313072587 0 -0.034417969812823843 0.038194010687599575 0 -0.034462757824504336 0.038709470722913891 0 -0.034039281554838069 0.038514200313072587 0 -0.035506381103315034 0.037955604783410153 0 -0.034764013463883893 0.037508453599007174 0 -0.035112833739885982 0.038074371046914454 0 -0.035515344835452635 0.038395288321716507 0 -0.035506381103315034 0.037955604783410153 0 -0.035112833739885982 0.038074371046914454 0 -0.034836929651929284 0.038350395288345558 0 -0.035172741752741335 0.038474500440680612 0 -0.034880411890637883 0.038746932997726115 0 -0.034836929651929284 0.038350395288345558 0 -0.035112833739885982 0.038074371046914454 0 -0.035172741752741335 0.038474500440680612 0 -0.035515344835452635 0.038395288321716507 0 -0.035112833739885982 0.038074371046914454 0 -0.035172741752741335 0.038474500440680612 0 -0.03555652739486876 0.03824126268358214 0 -0.034154336465686518 0.039319994098006315 0 -0.035515344835452635 0.038395288321716507 0 -0.035172741752741335 0.038474500440680612 0 -0.035280709417364463 0.039121963427625368 0 -0.035172741752741335 0.038474500440680612 0 -0.035280709417364463 0.039121963427625368 0 -0.034880411890637883 0.038746932997726115 0 -0.035280709417364463 0.039121963427625368 0 -0.034880411890637883 0.038746932997726115 0 -0.034683242006913959 0.039010020617818608 0 -0.034661345901856433 0.039809394763336711 0 -0.035459760668738391 0.039411314689364631 0 -0.034414712644158303 0.039347039114596576 0 -0.035280709417364463 0.039121963427625368 0 -0.034683242006913959 0.039010020617818608 0 -0.034414712644158303 0.039347039114596576 0 -0.034154336465686518 0.039319994098006315 0 -0.034891882882577455 0.039323934011933619 0 -0.034462757824504336 0.038709470722913891 0 -0.033932905997697063 0.039107069865596665 0 -0.034039281554838069 0.038514200313072587 0 -0.034334917407765883 0.039102655066938038 0 -0.034462757824504336 0.038709470722913891 0 -0.033932905997697063 0.039107069865596665 0 -0.034334917407765883 0.039102655066938038 0 -0.034142040937353721 0.039341521622994029 0 -0.033932905997697063 0.039107069865596665 0 -0.034462757824504336 0.038709470722913891 0 -0.034880411890637883 0.038746932997726115 0 -0.034683242006913959 0.039010020617818608 0 -0.034836929651929284 0.038350395288345558 0 -0.034462757824504336 0.038709470722913891 0 -0.034880411890637883 0.038746932997726115 0 -0.034334917407765883 0.039102655066938038 0 -0.034462757824504336 0.038709470722913891 0 -0.034683242006913959 0.039010020617818608 0 -0.033832102165342298 0.039987411851757894 0 -0.034142040937353721 0.039341521622994029 0 -0.034233139078931885 0.039576391238816892 0 -0.034661345901856433 0.039809394763336711 0 -0.034414712644158303 0.039347039114596576 0 -0.034233139078931885 0.039576391238816892 0 -0.034334917407765883 0.039102655066938038 0 -0.034683242006913959 0.039010020617818608 0 -0.034414712644158303 0.039347039114596576 0 -0.034414712644158303 0.039347039114596576 0 -0.034142040937353721 0.039341521622994029 0 -0.034233139078931885 0.039576391238816892 0 -0.034334917407765883 0.039102655066938038 0 -0.034414712644158303 0.039347039114596576 0 -0.034142040937353721 0.039341521622994029 0 -0.033832102165342298 0.039987411851757894 0 -0.033431918908599936 0.038911134156479031 0 -0.032089853209024757 0.039638930795773547 0 -0.033832102165342298 0.039987411851757894 0 -0.033932905997697063 0.039107069865596665 0 -0.033431918908599936 0.038911134156479031 0 -0.031941078951495942 0.043937806954381264 0 -0.033416131221751612 0.041706263297116346 0 -0.033832102165342298 0.039987411851757894 0 -0.034142040937353721 0.039341521622994029 0 -0.033932905997697063 0.039107069865596665 0 -0.033932905997697063 0.039107069865596665 0 -0.033431918908599936 0.038911134156479031 0 -0.034039281554838069 0.038514200313072587 0 -0.033431918908599936 0.038911134156479031 0 -0.032089853209024757 0.039638930795773547 0 -0.032772387094389115 0.038345732040877954 0 -0.032089853209024757 0.039638930795773547 0 -0.032772387094389115 0.038345732040877954 0 -0.031810420062891802 0.038194583669850825 0 -0.033054163957624685 0.0369824052925335 0 -0.032772387094389115 0.038345732040877954 0 -0.031810420062891802 0.038194583669850825 0 -0.033054163957624685 0.0369824052925335 0 -0.032772387094389115 0.038345732040877954 0 -0.033870977015331163 0.037709835227044818 0 -0.033431918908599936 0.038911134156479031 0 -0.033870977015331163 0.037709835227044818 0 -0.034039281554838069 0.038514200313072587 0 -0.033431918908599936 0.038911134156479031 0 -0.032772387094389115 0.038345732040877954 0 -0.033870977015331163 0.037709835227044818 0 -0.045001600105763637 0.044997216954814893 0 -0.044619890108193366 0.044851643132595265 0 -0.035113186902910522 0.04499817248644996 0 -0.044619890108193366 0.044851643132595265 0 -0.042504524590071015 0.046511075712663372 0 -0.035113186902910522 0.04499817248644996 0 -0.04500018108771487 0.041496267061676348 0 -0.046347335085759292 0.03925948020694648 0 -0.045000015930191914 0.041496576251407964 0 -0.046404743040291366 0.039181502223306311 0 -0.044999955345480479 0.039077446855877281 0 -0.046868274660906074 0.040886827259478134 0 -0.044995666539920057 0.041502083732196958 0 -0.04626255772946547 0.03938325717317627 0 -0.046868274660906074 0.040886827259478134 0 -0.04799484648926914 0.039715734467471939 0 -0.04626255772946547 0.03938325717317627 0 -0.046868274660906074 0.040886827259478134 0 -0.044995666539920057 0.041502083732196958 0 -0.047457076497488829 0.042529120625341095 0 -0.044995666539920057 0.041502083732196958 0 -0.045001600105763637 0.044997216954814893 0 -0.044619890108193366 0.044851643132595265 0 -0.044995666539920057 0.041502083732196958 0 -0.044619890108193366 0.044851643132595265 0 -0.047457076497488829 0.042529120625341095 0 -0.044627876921024753 0.044837377062944356 0 -0.04499040016731716 0.044512230785870084 0 -0.042504524590071015 0.046511075712663372 0 -0.040462621678763605 0.04803419495315589 0 -0.038576220519714891 0.04735005602698885 0 -0.046868274660906074 0.040886827259478134 0 -0.047457076497488829 0.042529120625341095 0 -0.049277785012890443 0.040908595905094124 0 -0.04499040016731716 0.044512230785870084 0 -0.044720959661152485 0.044535884112241873 0 -0.049277785012890443 0.040908595905094124 0 -0.04799484648926914 0.039715734467471939 0 -0.049499770688024768 0.038593126934941026 0 -0.046868274660906074 0.040886827259478134 0 -0.049277785012890443 0.040908595905094124 0 -0.04799484648926914 0.039715734467471939 0 -0.044720959661152485 0.044535884112241873 0 -0.045488530546832245 0.044150466554260318 0 -0.049277785012890443 0.040908595905094124 0 -0.050986350933591121 0.039370219394946629 0 -0.049499770688024768 0.038593126934941026 0 -0.042504524590071015 0.046511075712663372 0 -0.038576220519714891 0.04735005602698885 0 -0.035113186902910522 0.04499817248644996 0 -0.040462621678763605 0.04803419495315589 0 -0.038576220519714891 0.04735005602698885 0 -0.038482796553463101 0.049353080138967609 0 -0.036481351655177588 0.047588704397797311 0 -0.038576220519714891 0.04735005602698885 0 -0.038482796553463101 0.049353080138967609 0 -0.036481351655177588 0.047588704397797311 0 -0.036782333441646629 0.049320595185422991 0 -0.038482796553463101 0.049353080138967609 0 -0.036481351655177588 0.047588704397797311 0 -0.038576220519714891 0.04735005602698885 0 -0.035113186902910522 0.04499817248644996 0 -0.036481351655177588 0.047588704397797311 0 -0.035113186902910522 0.04499817248644996 0 -0.034365650639678835 0.046714006970833014 0 -0.032674763501569462 0.046537568729742115 0 -0.035113186902910522 0.04499817248644996 0 -0.034365650639678835 0.046714006970833014 0 -0.03280453273058969 0.046993325046094478 0 -0.034365650639678835 0.046714006970833014 0 -0.034137325450143086 0.047688228219383746 0 -0.036481351655177588 0.047588704397797311 0 -0.034365650639678835 0.046714006970833014 0 -0.034137325450143086 0.047688228219383746 0 -0.036481351655177588 0.047588704397797311 0 -0.034137325450143086 0.047688228219383746 0 -0.035394879700720229 0.049441492467350433 0 -0.036481351655177588 0.047588704397797311 0 -0.035394879700720229 0.049441492467350433 0 -0.036782333441646629 0.049320595185422991 0 -0.034201282288058202 0.047742610735220133 0 -0.035106669409806064 0.048970493372505572 0 -0.034137325450143086 0.047688228219383746 0 -0.03358021919338991 0.047815872319633412 0 -0.034630532038127389 0.048019630285354491 0 -0.03280453273058969 0.046993325046094478 0 -0.034137325450143086 0.047688228219383746 0 -0.03358021919338991 0.047815872319633412 0 -0.033012774883970544 0.048589179935056695 0 -0.03358021919338991 0.047815872319633412 0 -0.034203672066235896 0.048629176565705465 0 -0.03358021919338991 0.047815872319633412 0 -0.034203672066235896 0.048629176565705465 0 -0.034630532038127389 0.048019630285354491 0 -0.034203672066235896 0.048629176565705465 0 -0.034630532038127389 0.048019630285354491 0 -0.035219898874041179 0.048948963935678116 0 -0.034630532038127389 0.048019630285354491 0 -0.035219898874041179 0.048948963935678116 0 -0.035420410723860596 0.048789145433674456 0 -0.035394879700720229 0.049441492467350433 0 -0.036494396630267649 0.050779265324981539 0 -0.036782333441646629 0.049320595185422991 0 -0.035106669409806064 0.048970493372505572 0 -0.040384395129203159 0.04454691607574246 0 -0.035452804762827465 0.042571647224181969 0 -0.044501895974702083 0.041484490415683396 0 -0.034203672066235896 0.048629176565705465 0 -0.035219898874041179 0.048948963935678116 0 -0.033941500522940364 0.049447348358237407 0 -0.035219898874041179 0.048948963935678116 0 -0.033941500522940364 0.049447348358237407 0 -0.035711797921912022 0.049080794617014756 0 -0.040698698584123838 0.036782987065616182 0 -0.041894196881372602 0.038035365609742716 0 -0.043638660965286583 0.036238638538832919 0 -0.03781017756727649 0.046632279996097516 0 -0.040384395129203159 0.04454691607574246 0 -0.036585022703533955 0.038485232786573467 0 -0.035452804762827465 0.042571647224181969 0 -0.033012774883970544 0.048589179935056695 0 -0.034203672066235896 0.048629176565705465 0 -0.033941500522940364 0.049447348358237407 0 -0.032068169164401368 0.047629296365065833 0 -0.035452804762827465 0.042571647224181969 0 -0.037147906189056647 0.036836473847671504 0 -0.038570548906315338 0.036557361295108413 0 -0.039474856530851012 0.037499748256441402 0 -0.042882327081417974 0.027254632594893888 0 -0.042762668882530955 0.026837632311762498 0 -0.042497284706293388 0.026950108421731834 0 -0.036585022703533955 0.038485232786573467 0 -0.042626777722862282 0.032210838634318825 0 -0.035452804762827465 0.042571647224181969 0 -0.042626777722862282 0.032210838634318825 0 -0.042591652233203416 0.026641502211921332 0 -0.042762668882530955 0.026837632311762498 0 -0.042497284706293388 0.026950108421731834 0 -0.042892466216938901 0.026567773707038219 0 -0.042591652233203416 0.026641502211921332 0 -0.042762668882530955 0.026837632311762498 0 -0.042626777722862282 0.032210838634318825 0 -0.044557145437238072 0.027823213641661709 0 -0.042591652233203416 0.026641502211921332 0 -0.042445562056949139 0.026659256534622401 0 -0.042498586253883697 0.026555874141004687 0 -0.042591652233203416 0.026641502211921332 0 -0.042497284706293388 0.026950108421731834 0 -0.042445562056949139 0.026659256534622401 0 -0.041894196881372602 0.038035365609742716 0 -0.043622674893725545 0.037571737697025223 0 -0.043638660965286583 0.036238638538832919 0 -0.042626777722862282 0.032210838634318825 0 -0.045434940305177293 0.034246015483214425 0 -0.041894196881372602 0.038035365609742716 0 -0.043622674893725545 0.037571737697025223 0 -0.044016375141378926 0.038641595533056662 0 -0.043622674893725545 0.037571737697025223 0 -0.0448660562461798 0.037754098074308434 0 -0.043638660965286583 0.036238638538832919 0 -0.043622674893725545 0.037571737697025223 0 -0.044016375141378926 0.038641595533056662 0 -0.0448660562461798 0.037754098074308434 0 -0.04614602863223187 0.029508814933209223 0 -0.046807212476084686 0.0296704421006511 0 -0.046682173290714751 0.029967532695556458 0 -0.046807212476084686 0.0296704421006511 0 -0.046682173290714751 0.029967532695556458 0 -0.047074548421136682 0.029996313777608318 0 -0.046807212476084686 0.0296704421006511 0 -0.047074548421136682 0.029996313777608318 0 -0.047341852022423629 0.029859763480636538 0 -0.045434940305177293 0.034246015483214425 0 -0.048238771528289086 0.034668606397364625 0 -0.047074548421136682 0.029996313777608318 0 -0.047341852022423629 0.029859763480636538 0 -0.047347624904647174 0.03016819374630491 0 -0.044016375141378926 0.038641595533056662 0 -0.046082070087755181 0.039216998723270426 0 -0.0448660562461798 0.037754098074308434 0 -0.050603649617162502 0.034884869999582825 0 -0.05152659381801427 0.036236938035934953 0 -0.049800828126535225 0.036713818864789596 0 -0.048238771528289086 0.034668606397364625 0 -0.048335741889227367 0.036999465916608326 0 -0.05152659381801427 0.036236938035934953 0 -0.051057090744884993 0.037849321955215856 0 -0.049800828126535225 0.036713818864789596 0 -0.051057090744884993 0.037849321955215856 0 -0.052126788474001894 0.037724518896438949 0 -0.052395981349088482 0.038075137341761843 0 -0.05152659381801427 0.036236938035934953 0 -0.051057090744884993 0.037849321955215856 0 -0.052479726742904242 0.037588484807956256 0 -0.053859388774957183 0.037407562742092282 0 -0.044501895974702083 0.041484490415683396 0 -0.048335741889227367 0.036999465916608326 0 -0.044501895974702083 0.041484490415683396 0 -0.035219898874041179 0.048948963935678116 0 -0.035711797921912022 0.049080794617014756 0 -0.035455555622090573 0.048753374849239806 0 -0.044501895974702083 0.041484490415683396 0 -0.040384395129203159 0.04454691607574246 0 -0.040384395129203159 0.04454691607574246 0 -0.045488530546832245 0.044150466554260318 0 -0.051057090744884993 0.037849321955215856 0 -0.052395981349088482 0.038075137341761843 0 -0.050986350933591121 0.039370219394946629 0 -0.036494396630267649 0.050779265324981539 0 -0.036782333441646629 0.049320595185422991 0 -0.038482796553463101 0.049353080138967609 0 -0.051057090744884993 0.037849321955215856 0 -0.050986350933591121 0.039370219394946629 0 -0.049499770688024768 0.038593126934941026 0 -0.04799484648926914 0.039715734467471939 0 -0.049499770688024768 0.038593126934941026 0 -0.047714277447181194 0.037004898864016145 0 -0.049499770688024768 0.038593126934941026 0 -0.047714277447181194 0.037004898864016145 0 -0.049800828126535225 0.036713818864789596 0 -0.051057090744884993 0.037849321955215856 0 -0.049499770688024768 0.038593126934941026 0 -0.049800828126535225 0.036713818864789596 0 -0.050603649617162502 0.034884869999582825 0 -0.049800828126535225 0.036713818864789596 0 -0.048570504021270257 0.035757800175181771 0 -0.048238771528289086 0.034668606397364625 0 -0.050027255579345752 0.034536932367562785 0 -0.050764222468107453 0.034809423813550497 0 -0.049042981008857421 0.034257744753726616 0 -0.049247104616200604 0.0327142504901227 0 -0.050603649617162502 0.034884869999582825 0 -0.049042981008857421 0.034257744753726616 0 -0.048570504021270257 0.035757800175181771 0 -0.049042981008857421 0.034257744753726616 0 -0.047148314678202762 0.034913485131475588 0 -0.048054199477874329 0.033413738840447106 0 -0.049042981008857421 0.034257744753726616 0 -0.048570504021270257 0.035757800175181771 0 -0.047148314678202762 0.034913485131475588 0 -0.047714277447181194 0.037004898864016145 0 -0.048570504021270257 0.035757800175181771 0 -0.047148314678202762 0.034913485131475588 0 -0.047714277447181194 0.037004898864016145 0 -0.049800828126535225 0.036713818864789596 0 -0.048570504021270257 0.035757800175181771 0 -0.047714277447181194 0.037004898864016145 0 -0.047148314678202762 0.034913485131475588 0 -0.044999962575978311 0.036658477607384277 0 -0.047148314678202762 0.034913485131475588 0 -0.046721135397810858 0.033026511533957623 0 -0.048054199477874329 0.033413738840447106 0 -0.047148314678202762 0.034913485131475588 0 -0.044999906496482084 0.03423935348127892 0 -0.046721135397810858 0.033026511533957623 0 -0.047148314678202762 0.034913485131475588 0 -0.044999906496482084 0.03423935348127892 0 -0.044999962575978311 0.036658477607384277 0 -0.045865138677781303 0.037902270906426748 0 -0.044999962575978311 0.036658477607384277 0 -0.044999955345480479 0.039077446855877281 0 -0.047714277447181194 0.037004898864016145 0 -0.045865138677781303 0.037902270906426748 0 -0.044999962575978311 0.036658477607384277 0 -0.047657021237475027 0.037108620909449011 0 -0.046347335085759292 0.03925948020694648 0 -0.047714277447181194 0.037004898864016145 0 -0.045865138677781303 0.037902270906426748 0 -0.046404743040291366 0.039181502223306311 0 -0.04799484648926914 0.039715734467471939 0 -0.047714277447181194 0.037004898864016145 0 -0.04626255772946547 0.03938325717317627 0 -0.045865138677781303 0.037902270906426748 0 -0.046404743040291366 0.039181502223306311 0 -0.044999955345480479 0.039077446855877281 0 -0.044999697416990204 0.029400440383181532 0 -0.045692521441413156 0.028183433210312386 0 -0.045000035490956387 0.026981512487601004 0 -0.045692521441413156 0.028183433210312386 0 -0.046321203829091183 0.029043639952166644 0 -0.046425498915059295 0.027324742629769559 0 -0.044999697416990204 0.029400440383181532 0 -0.045692521441413156 0.028183433210312386 0 -0.046321203829091183 0.029043639952166644 0 -0.046681289245507608 0.029225193498085146 0 -0.047147664291450821 0.027590380941711169 0 -0.046321203829091183 0.029043639952166644 0 -0.047386019610998309 0.027506279818671226 0 -0.046425498915059295 0.027324742629769559 0 -0.046321203829091183 0.029043639952166644 0 -0.047284116200295323 0.029851664254940468 0 -0.046881572851706778 0.030341581423458053 0 -0.046321203829091183 0.029043639952166644 0 -0.047284116200295323 0.029851664254940468 0 -0.048178932482080439 0.029509720569066967 0 -0.047284116200295323 0.029851664254940468 0 -0.047646625327503314 0.03045167657707901 0 -0.046881572851706778 0.030341581423458053 0 -0.046321203829091183 0.029043639952166644 0 -0.046881572851706778 0.030341581423458053 0 -0.046086186122136663 0.030689102028674465 0 -0.044999697416990204 0.029400440383181532 0 -0.046321203829091183 0.029043639952166644 0 -0.046086186122136663 0.030689102028674465 0 -0.044999697416990204 0.029400440383181532 0 -0.046086186122136663 0.030689102028674465 0 -0.044999844330899978 0.031820153594610059 0 -0.044999844330899978 0.031820153594610059 0 -0.046721135397810858 0.033026511533957623 0 -0.047042377715676861 0.031632264791851369 0 -0.046086186122136663 0.030689102028674465 0 -0.044999844330899978 0.031820153594610059 0 -0.047042377715676861 0.031632264791851369 0 -0.044999906496482084 0.03423935348127892 0 -0.044999844330899978 0.031820153594610059 0 -0.046721135397810858 0.033026511533957623 0 -0.046721135397810858 0.033026511533957623 0 -0.047731654520202865 0.032264366778257635 0 -0.048054199477874329 0.033413738840447106 0 -0.046721135397810858 0.033026511533957623 0 -0.047042377715676861 0.031632264791851369 0 -0.047731654520202865 0.032264366778257635 0 -0.047646625327503314 0.03045167657707901 0 -0.047042377715676861 0.031632264791851369 0 -0.047731654520202865 0.032264366778257635 0 -0.046881572851706778 0.030341581423458053 0 -0.046086186122136663 0.030689102028674465 0 -0.047042377715676861 0.031632264791851369 0 -0.047646625327503314 0.03045167657707901 0 -0.046881572851706778 0.030341581423458053 0 -0.047042377715676861 0.031632264791851369 0 -0.047646625327503314 0.03045167657707901 0 -0.047731654520202865 0.032264366778257635 0 -0.049247104616200604 0.0327142504901227 0 -0.047646625327503314 0.03045167657707901 0 -0.047681426052118066 0.030320478632825103 0 -0.047753886613343066 0.030414683845143689 0 -0.047708953484962818 0.030652759931560313 0 -0.04846824037754538 0.031069616722825509 0 -0.049042981008857421 0.034257744753726616 0 -0.048054199477874329 0.033413738840447106 0 -0.049247104616200604 0.0327142504901227 0 -0.047731654520202865 0.032264366778257635 0 -0.048054199477874329 0.033413738840447106 0 -0.049247104616200604 0.0327142504901227 0 -0.048238771528289086 0.034668606397364625 0 -0.04846824037754538 0.031069616722825509 0 -0.047341852022423629 0.029859763480636538 0 -0.047681426052118066 0.030320478632825103 0 -0.047347624904647174 0.03016819374630491 0 -0.047681426052118066 0.030320478632825103 0 -0.047435467286481077 0.030334041447636333 0 -0.047347624904647174 0.03016819374630491 0 -0.047681426052118066 0.030320478632825103 0 -0.047508998500454008 0.03048788384304919 0 -0.047753886613343066 0.030414683845143689 0 -0.047681426052118066 0.030320478632825103 0 -0.047435467286481077 0.030334041447636333 0 -0.047508998500454008 0.03048788384304919 0 -0.04561333161647068 0.028241014278847842 0 -0.048923954614122203 0.030958221728568675 0 -0.044450689872824703 0.025442940848552788 0 -0.044921629407378906 0.025908514029838816 0 -0.044372654866029433 0.025863983309453522 0 -0.04561333161647068 0.028241014278847842 0 -0.047147664291450821 0.027590380941711169 0 -0.04905919507612283 0.030669879931615518 0 -0.047753886613343066 0.030414683845143689 0 -0.048178932482080439 0.029509720569066967 0 -0.047284116200295323 0.029851664254940468 0 -0.047646625327503314 0.03045167657707901 0 -0.04773116754844349 0.030021091977986462 0 -0.047646625327503314 0.03045167657707901 0 -0.047753886613343066 0.030414683845143689 0 -0.04773116754844349 0.030021091977986462 0 -0.047753886613343066 0.030414683845143689 0 -0.04773116754844349 0.030021091977986462 0 -0.048178932482080439 0.029509720569066967 0 -0.047284116200295323 0.029851664254940468 0 -0.04773116754844349 0.030021091977986462 0 -0.048178932482080439 0.029509720569066967 0 -0.046321203829091183 0.029043639952166644 0 -0.047881737190218425 0.027962345057950911 0 -0.047386019610998309 0.027506279818671226 0 -0.047376966720765502 0.026676388739650732 0 -0.047386019610998309 0.027506279818671226 0 -0.047255799040363131 0.026708026184248404 0 -0.047147664291450821 0.027590380941711169 0 -0.047343956032586829 0.027486005165659584 0 -0.047386019610998309 0.027506279818671226 0 -0.047255799040363131 0.026708026184248404 0 -0.047307157748189659 0.026919576237307223 0 -0.047255799040363131 0.026708026184248404 0 -0.046961048611554188 0.026395224430580226 0 -0.047242155269034372 0.026625465132155971 0 -0.047376966720765502 0.026676388739650732 0 -0.047255799040363131 0.026708026184248404 0 -0.046758262718075518 0.025745759011919184 0 -0.047147664291450821 0.027590380941711169 0 -0.045292927763321486 0.02573184001638169 0 -0.047255799040363131 0.026708026184248404 0 -0.046961048611554188 0.026395224430580226 0 -0.046758262718075518 0.025745759011919184 0 -0.046961048611554188 0.026395224430580226 0 -0.046758262718075518 0.025745759011919184 0 -0.046194740114168444 0.02618960035524074 0 -0.045304206915616485 0.025170988923517785 0 -0.046758262718075518 0.025745759011919184 0 -0.046194740114168444 0.02618960035524074 0 -0.04524190071194778 0.025861631729993364 0 -0.045304206915616485 0.025170988923517785 0 -0.046194740114168444 0.02618960035524074 0 -0.04524190071194778 0.025861631729993364 0 -0.044453002498272907 0.025703830450040963 0 -0.044835725788824617 0.025991811671448047 0 -0.04524190071194778 0.025861631729993364 0 -0.045304206915616485 0.025170988923517785 0 -0.044453002498272907 0.025703830450040963 0 -0.044047903225990864 0.025603032937764843 0 -0.043850247584436147 0.025402702106514134 0 -0.043795150684139111 0.025584730336764692 0 -0.043922329198357389 0.025744249525782133 0 -0.044047903225990864 0.025603032937764843 0 -0.043795150684139111 0.025584730336764692 0 -0.044657821910195655 0.025513050985105309 0 -0.045292927763321486 0.02573184001638169 0 -0.044450689872824703 0.025442940848552788 0 -0.044047903225990864 0.025603032937764843 0 -0.044372654866029433 0.025863983309453522 0 -0.043922329198357389 0.025744249525782133 0 -0.044047903225990864 0.025603032937764843 0 -0.044372654866029433 0.025863983309453522 0 -0.04561333161647068 0.028241014278847842 0 -0.044809533527031306 0.02852548706354183 0 -0.04561333161647068 0.028241014278847842 0 -0.042668027256260073 0.025619965002666275 0 -0.047435467286481077 0.030334041447636333 0 -0.047508998500454008 0.03048788384304919 0 -0.04714955521206899 0.030305296736797743 0 -0.042655533336597024 0.026681156925916029 0 -0.042524551867320445 0.026564939633317304 0 -0.042476106101914997 0.026564236791473333 0 -0.044450689872824703 0.025442940848552788 0 -0.044047903225990864 0.025603032937764843 0 -0.043850247584436147 0.025402702106514134 0 -0.047435467286481077 0.030334041447636333 0 -0.04714955521206899 0.030305296736797743 0 -0.047347624904647174 0.03016819374630491 0 -0.047074548421136682 0.029996313777608318 0 -0.04714955521206899 0.030305296736797743 0 -0.047347624904647174 0.03016819374630491 0 -0.044557145437238072 0.027823213641661709 0 -0.044809533527031306 0.02852548706354183 0 -0.042445562056949139 0.026659256534622401 0 -0.042524551867320445 0.026564939633317304 0 -0.042498586253883697 0.026555874141004687 0 -0.046682173290714751 0.029967532695556458 0 -0.047074548421136682 0.029996313777608318 0 -0.04714955521206899 0.030305296736797743 0 -0.042524551867320445 0.026564939633317304 0 -0.042476106101914997 0.026564236791473333 0 -0.042498586253883697 0.026555874141004687 0 -0.043850247584436147 0.025402702106514134 0 -0.043633056123496466 0.025566423725459236 0 -0.043795150684139111 0.025584730336764692 0 -0.042668027256260073 0.025619965002666275 0 -0.043234519551711065 0.026052378963844009 0 -0.043850247584436147 0.025402702106514134 0 -0.043487988201570453 0.025559927377893251 0 -0.043633056123496466 0.025566423725459236 0 -0.042476106101914997 0.026564236791473333 0 -0.042498586253883697 0.026555874141004687 0 -0.042646581438798355 0.026376412751278333 0 -0.042892466216938901 0.026567773707038219 0 -0.042591652233203416 0.026641502211921332 0 -0.042646581438798355 0.026376412751278333 0 -0.042591652233203416 0.026641502211921332 0 -0.042498586253883697 0.026555874141004687 0 -0.042646581438798355 0.026376412751278333 0 -0.043487988201570453 0.025559927377893251 0 -0.043633056123496466 0.025566423725459236 0 -0.043469586389830756 0.025628122087294345 0 -0.043542730604717993 0.025598631109834021 0 -0.04376900284768763 0.025505999051474226 0 -0.043584716658254419 0.025678923301549788 0 -0.043633056123496466 0.025566423725459236 0 -0.043542730604717993 0.025598631109834021 0 -0.043469586389830756 0.025628122087294345 0 -0.043633056123496466 0.025566423725459236 0 -0.043542730604717993 0.025598631109834021 0 -0.04376900284768763 0.025505999051474226 0 -0.043633056123496466 0.025566423725459236 0 -0.043795150684139111 0.025584730336764692 0 -0.04376900284768763 0.025505999051474226 0 -0.044657821910195655 0.025513050985105309 0 -0.043864649545431011 0.025484700546239181 0 -0.043922329198357389 0.025744249525782133 0 -0.043795150684139111 0.025584730336764692 0 -0.04376900284768763 0.025505999051474226 0 -0.04376900284768763 0.025505999051474226 0 -0.044453002498272907 0.025703830450040963 0 -0.043992654550311899 0.025824705717175562 0 -0.043992654550311899 0.025824705717175562 0 -0.043584716658254419 0.025678923301549788 0 -0.043928388120443113 0.026368753618852273 0 -0.04376900284768763 0.025505999051474226 0 -0.043992654550311899 0.025824705717175562 0 -0.043584716658254419 0.025678923301549788 0 -0.045304206915616485 0.025170988923517785 0 -0.04376900284768763 0.025505999051474226 0 -0.044453002498272907 0.025703830450040963 0 -0.044453002498272907 0.025703830450040963 0 -0.043992654550311899 0.025824705717175562 0 -0.044281418939869414 0.025968127648747539 0 -0.044453002498272907 0.025703830450040963 0 -0.044281418939869414 0.025968127648747539 0 -0.044835725788824617 0.025991811671448047 0 -0.039498453698729875 0.023923546786693711 0 -0.038918797519849002 0.025743292631050709 0 -0.041043961097230908 0.025920273029767914 0 -0.038918797519849002 0.025743292631050709 0 -0.041043961097230908 0.025920273029767914 0 -0.041924872740653069 0.028074159657334383 0 -0.041530301761652226 0.024867056528559837 0 -0.043842028609784311 0.026363760573433901 0 -0.039498453698729875 0.023923546786693711 0 -0.041043961097230908 0.025920273029767914 0 -0.043928388120443113 0.026368753618852273 0 -0.043992654550311899 0.025824705717175562 0 -0.044281418939869414 0.025968127648747539 0 -0.043928388120443113 0.026368753618852273 0 -0.044281418939869414 0.025968127648747539 0 -0.043928388120443113 0.026368753618852273 0 -0.044755143436474853 0.026191721244387782 0 -0.041043961097230908 0.025920273029767914 0 -0.043928388120443113 0.026368753618852273 0 -0.041924872740653069 0.028074159657334383 0 -0.043928388120443113 0.026368753618852273 0 -0.041924872740653069 0.028074159657334383 0 -0.044786582254449404 0.030066454632424345 0 -0.041924872740653069 0.028074159657334383 0 -0.042088160112118793 0.030302412962447501 0 -0.044786582254449404 0.030066454632424345 0 -0.038918797519849002 0.025743292631050709 0 -0.037988452374099195 0.025309825240972385 0 -0.038129176975737727 0.025273602061865897 0 -0.041924872740653069 0.028074159657334383 0 -0.039845171060803035 0.029342050789759419 0 -0.042088160112118793 0.030302412962447501 0 -0.038918797519849002 0.025743292631050709 0 -0.041924872740653069 0.028074159657334383 0 -0.039845171060803035 0.029342050789759419 0 -0.038814115538000939 0.025754799897841067 0 -0.038995067362356334 0.027559774078596052 0 -0.037988452374099195 0.025309825240972385 0 -0.037842056515226319 0.025064445154375708 0 -0.038129176975737727 0.025273602061865897 0 -0.039845171060803035 0.029342050789759419 0 -0.040603594513295503 0.032219393446992151 0 -0.042088160112118793 0.030302412962447501 0 -0.037988452374099195 0.025309825240972385 0 -0.037842056515226319 0.025064445154375708 0 -0.037464980967345296 0.0248509826588168 0 -0.038995067362356334 0.027559774078596052 0 -0.039245296229068263 0.026435698916189413 0 -0.037715136331640912 0.024871947272672869 0 -0.037648095724117925 0.024705619849747042 0 -0.037849144530164774 0.024822864285180709 0 -0.037842056515226319 0.025064445154375708 0 -0.037715136331640912 0.024871947272672869 0 -0.037849144530164774 0.024822864285180709 0 -0.037842056515226319 0.025064445154375708 0 -0.037464980967345296 0.0248509826588168 0 -0.037715136331640912 0.024871947272672869 0 -0.037464980967345296 0.0248509826588168 0 -0.037715136331640912 0.024871947272672869 0 -0.037648095724117925 0.024705619849747042 0 -0.037464980967345296 0.0248509826588168 0 -0.037554503034611067 0.024395709607335506 0 -0.037190085733860088 0.023944258943376456 0 -0.037648095724117925 0.024705619849747042 0 -0.037554503034611067 0.024395709607335506 0 -0.037801008971854462 0.024369513431780284 0 -0.037464980967345296 0.0248509826588168 0 -0.037648095724117925 0.024705619849747042 0 -0.037554503034611067 0.024395709607335506 0 -0.039245296229068263 0.026435698916189413 0 -0.03708496187775346 0.02240421878916634 0 -0.037554503034611067 0.024395709607335506 0 -0.037801008971854462 0.024369513431780284 0 -0.037634129331952759 0.023875138873375168 0 -0.037469712370061463 0.022046468250175304 0 -0.037577541614564149 0.022139986151121983 0 -0.037440010322448605 0.022232607573487235 0 -0.037469712370061463 0.022046468250175304 0 -0.037577541614564149 0.022139986151121983 0 -0.037749470562371289 0.022102124704958984 0 -0.039245296229068263 0.026435698916189413 0 -0.041471877352131051 0.026645550345946699 0 -0.037577541614564149 0.022139986151121983 0 -0.037749470562371289 0.022102124704958984 0 -0.037615468492810139 0.022235294464765687 0 -0.040603594513295503 0.032219393446992151 0 -0.043081796307820115 0.031684716811494436 0 -0.04502983455511135 0.033976837416351657 0 -0.040603594513295503 0.032219393446992151 0 -0.043081796307820115 0.031684716811494436 0 -0.042088160112118793 0.030302412962447501 0 -0.043081796307820115 0.031684716811494436 0 -0.042088160112118793 0.030302412962447501 0 -0.044786582254449404 0.030066454632424345 0 -0.041471877352131051 0.026645550345946699 0 -0.045473609350787009 0.029701294659130306 0 -0.045543288345750992 0.028438566706207265 0 -0.046270177723489833 0.027751054163976118 0 -0.045389408301893558 0.027368788133905347 0 -0.043081796307820115 0.031684716811494436 0 -0.04502983455511135 0.033976837416351657 0 -0.044786582254449404 0.030066454632424345 0 -0.038023873409322728 0.020576750373652572 0 -0.038851538647483613 0.02087126140492012 0 -0.038018048183642572 0.021363620403010247 0 -0.041471877352131051 0.026645550345946699 0 -0.042648313440466275 0.024824959881891075 0 -0.045543288345750992 0.028438566706207265 0 -0.046422650938448176 0.028764290813369335 0 -0.046270177723489833 0.027751054163976118 0 -0.046422650938448176 0.028764290813369335 0 -0.046270177723489833 0.027751054163976118 0 -0.047275094112077164 0.028058612191246075 0 -0.046270177723489833 0.027751054163976118 0 -0.047457873543635037 0.026622807745285373 0 -0.047275094112077164 0.028058612191246075 0 -0.046270177723489833 0.027751054163976118 0 -0.046019366815189922 0.026705678570038784 0 -0.047457873543635037 0.026622807745285373 0 -0.046019366815189922 0.026705678570038784 0 -0.046991198431794542 0.026516013789655447 0 -0.047457873543635037 0.026622807745285373 0 -0.046270177723489833 0.027751054163976118 0 -0.045389408301893558 0.027368788133905347 0 -0.046019366815189922 0.026705678570038784 0 -0.043928388120443113 0.026368753618852273 0 -0.044786582254449404 0.030066454632424345 0 -0.044755143436474853 0.026191721244387782 0 -0.045389408301893558 0.027368788133905347 0 -0.046019366815189922 0.026705678570038784 0 -0.044755143436474853 0.026191721244387782 0 -0.045473609350787009 0.029701294659130306 0 -0.044697097925050701 0.025882957182305232 0 -0.046019366815189922 0.026705678570038784 0 -0.044755143436474853 0.026191721244387782 0 -0.045566186115602071 0.02624374977322888 0 -0.046019366815189922 0.026705678570038784 0 -0.045566186115602071 0.02624374977322888 0 -0.046194740114168444 0.02618960035524074 0 -0.04524190071194778 0.025861631729993364 0 -0.044835725788824617 0.025991811671448047 0 -0.045566186115602071 0.02624374977322888 0 -0.044755143436474853 0.026191721244387782 0 -0.044835725788824617 0.025991811671448047 0 -0.045566186115602071 0.02624374977322888 0 -0.044281418939869414 0.025968127648747539 0 -0.044755143436474853 0.026191721244387782 0 -0.044835725788824617 0.025991811671448047 0 -0.04524190071194778 0.025861631729993364 0 -0.045566186115602071 0.02624374977322888 0 -0.046194740114168444 0.02618960035524074 0 -0.046019366815189922 0.026705678570038784 0 -0.046194740114168444 0.02618960035524074 0 -0.046991198431794542 0.026516013789655447 0 -0.046961048611554188 0.026395224430580226 0 -0.046194740114168444 0.02618960035524074 0 -0.046991198431794542 0.026516013789655447 0 -0.046991198431794542 0.026516013789655447 0 -0.047242155269034372 0.026625465132155971 0 -0.047418423228385839 0.026541941659189945 0 -0.046961048611554188 0.026395224430580226 0 -0.046991198431794542 0.026516013789655447 0 -0.047242155269034372 0.026625465132155971 0 -0.047255799040363131 0.026708026184248404 0 -0.047242155269034372 0.026625465132155971 0 -0.047307157748189659 0.026919576237307223 0 -0.047307157748189659 0.026919576237307223 0 -0.047418423228385839 0.026541941659189945 0 -0.046851312177434316 0.026196665093782788 0 -0.047242155269034372 0.026625465132155971 0 -0.047307157748189659 0.026919576237307223 0 -0.047418423228385839 0.026541941659189945 0 -0.047418423228385839 0.026541941659189945 0 -0.047414299313552982 0.025526320770679553 0 -0.046851312177434316 0.026196665093782788 0 -0.047418423228385839 0.026541941659189945 0 -0.047457873543635037 0.026622807745285373 0 -0.047414299313552982 0.025526320770679553 0 -0.046991198431794542 0.026516013789655447 0 -0.047418423228385839 0.026541941659189945 0 -0.047457873543635037 0.026622807745285373 0 -0.047457873543635037 0.026622807745285373 0 -0.048453625023809545 0.024592921419718961 0 -0.047414299313552982 0.025526320770679553 0 -0.048453625023809545 0.024592921419718961 0 -0.047693390663490001 0.023612383516891652 0 -0.047414299313552982 0.025526320770679553 0 -0.047483800798618199 0.026213313963185363 0 -0.04816212371146443 0.026966663632252134 0 -0.046422650938448176 0.028764290813369335 0 -0.047275094112077164 0.028058612191246075 0 -0.04721850591337199 0.02902994796687557 0 -0.048453625023809545 0.024592921419718961 0 -0.047693390663490001 0.023612383516891652 0 -0.048548239438545665 0.022660920818762132 0 -0.04816212371146443 0.026966663632252134 0 -0.043727918532425289 0.022819894500948276 0 -0.047693390663490001 0.023612383516891652 0 -0.047414299313552982 0.025526320770679553 0 -0.046710083065806846 0.023525192879860168 0 -0.047414299313552982 0.025526320770679553 0 -0.046180849335696252 0.024961279619500943 0 -0.046710083065806846 0.023525192879860168 0 -0.046180849335696252 0.024961279619500943 0 -0.046710083065806846 0.023525192879860168 0 -0.045779492251522495 0.023456920489782984 0 -0.046710083065806846 0.023525192879860168 0 -0.045779492251522495 0.023456920489782984 0 -0.045951669965938635 0.0221201803154168 0 -0.045779492251522495 0.023456920489782984 0 -0.044999704205416366 0.024563483252318642 0 -0.044999186335189879 0.02214360617825227 0 -0.046180849335696252 0.024961279619500943 0 -0.045779492251522495 0.023456920489782984 0 -0.044999704205416366 0.024563483252318642 0 -0.046180849335696252 0.024961279619500943 0 -0.044999704205416366 0.024563483252318642 0 -0.045000035490956387 0.026981512487601004 0 -0.046180849335696252 0.024961279619500943 0 -0.046851312177434316 0.026196665093782788 0 -0.045000035490956387 0.026981512487601004 0 -0.047414299313552982 0.025526320770679553 0 -0.046180849335696252 0.024961279619500943 0 -0.046851312177434316 0.026196665093782788 0 -0.047307157748189659 0.026919576237307223 0 -0.046851312177434316 0.026196665093782788 0 -0.046425498915059295 0.027324742629769559 0 -0.046851312177434316 0.026196665093782788 0 -0.046425498915059295 0.027324742629769559 0 -0.045000035490956387 0.026981512487601004 0 -0.047386019610998309 0.027506279818671226 0 -0.047307157748189659 0.026919576237307223 0 -0.046425498915059295 0.027324742629769559 0 -0.045692521441413156 0.028183433210312386 0 -0.046425498915059295 0.027324742629769559 0 -0.045000035490956387 0.026981512487601004 0 -0.036153761812615218 0.024498297169685816 0 -0.03638833409117545 0.024998365265188532 0 -0.03604653273748095 0.024654948881039727 0 -0.036346063327419013 0.024215099675136235 0 -0.035896678577131955 0.024087669764456889 0 -0.035998953295835592 0.023798278949439786 0 -0.036346063327419013 0.024215099675136235 0 -0.036153761812615218 0.024498297169685816 0 -0.035896678577131955 0.024087669764456889 0 -0.036346063327419013 0.024215099675136235 0 -0.036748484395602653 0.024431492516795675 0 -0.03638833409117545 0.024998365265188532 0 -0.036346063327419013 0.024215099675136235 0 -0.036153761812615218 0.024498297169685816 0 -0.03638833409117545 0.024998365265188532 0 -0.035896678577131955 0.024087669764456889 0 -0.035598305981883592 0.024292452420302073 0 -0.035718603744429873 0.023694860749424652 0 -0.035896678577131955 0.024087669764456889 0 -0.03604653273748095 0.024654948881039727 0 -0.035598305981883592 0.024292452420302073 0 -0.036153761812615218 0.024498297169685816 0 -0.035896678577131955 0.024087669764456889 0 -0.03604653273748095 0.024654948881039727 0 -0.035896678577131955 0.024087669764456889 0 -0.035683680280366642 0.023593554522597884 0 -0.035998953295835592 0.023798278949439786 0 -0.035896678577131955 0.024087669764456889 0 -0.035683680280366642 0.023593554522597884 0 -0.035718603744429873 0.023694860749424652 0 -0.035683680280366642 0.023593554522597884 0 -0.035718603744429873 0.023694860749424652 0 -0.035692917974328109 0.023379879203517077 0 -0.035683680280366642 0.023593554522597884 0 -0.035382269726652954 0.023217855656033577 0 -0.035692917974328109 0.023379879203517077 0 -0.035683680280366642 0.023593554522597884 0 -0.035998953295835592 0.023798278949439786 0 -0.035382269726652954 0.023217855656033577 0 -0.035998953295835592 0.023798278949439786 0 -0.036931265697847417 0.02381960513250973 0 -0.035382269726652954 0.023217855656033577 0 -0.033481849994060175 0.022579996264053298 0 -0.035382269726652954 0.023217855656033577 0 -0.033773879518259504 0.023351257066373185 0 -0.035166713663553319 0.022694063497120456 0 -0.035452410112274332 0.023401473810738368 0 -0.036346063327419013 0.024215099675136235 0 -0.035998953295835592 0.023798278949439786 0 -0.036931265697847417 0.02381960513250973 0 -0.033481849994060175 0.022579996264053298 0 -0.03300778228111529 0.023116383968198279 0 -0.033773879518259504 0.023351257066373185 0 -0.03300778228111529 0.023116383968198279 0 -0.032473416079949129 0.022780501719155355 0 -0.032494522507078606 0.02337593120048467 0 -0.033481849994060175 0.022579996264053298 0 -0.03300778228111529 0.023116383968198279 0 -0.032473416079949129 0.022780501719155355 0 -0.036931265697847417 0.02381960513250973 0 -0.038108144041463281 0.02455959442853891 0 -0.037309609542299678 0.024730101116298652 0 -0.033481849994060175 0.022579996264053298 0 -0.032473416079949129 0.022780501719155355 0 -0.032418286990057825 0.022310583757214827 0 -0.035166713663553319 0.022694063497120456 0 -0.034922984962771159 0.026680692671908483 0 -0.037622051829829507 0.026810675029841163 0 -0.039125969127762797 0.025902930102192856 0 -0.036890263117704374 0.026189751965277983 0 -0.034922984962771159 0.026680692671908483 0 -0.037767340102559568 0.025217486706666611 0 -0.039717129907972624 0.026085745821866742 0 -0.037622051829829507 0.026810675029841163 0 -0.039125969127762797 0.025902930102192856 0 -0.036931265697847417 0.02381960513250973 0 -0.037309609542299678 0.024730101116298652 0 -0.036748484395602653 0.024431492516795675 0 -0.037309609542299678 0.024730101116298652 0 -0.036748484395602653 0.024431492516795675 0 -0.03638833409117545 0.024998365265188532 0 -0.036346063327419013 0.024215099675136235 0 -0.036931265697847417 0.02381960513250973 0 -0.036748484395602653 0.024431492516795675 0 -0.037589389178870627 0.026691539664029304 0 -0.035476664611321602 0.027515237349176849 0 -0.037622051829829507 0.026810675029841163 0 -0.036890263117704374 0.026189751965277983 0 -0.036412117721411549 0.025277356828271008 0 -0.036890263117704374 0.026189751965277983 0 -0.036412117721411549 0.025277356828271008 0 -0.03638833409117545 0.024998365265188532 0 -0.037622051829829507 0.026810675029841163 0 -0.03618792277250539 0.029742620669170355 0 -0.034273633025355174 0.02967122113551025 0 -0.037767340102559568 0.025217486706666611 0 -0.036134087275608573 0.025256341234663818 0 -0.03618792277250539 0.029742620669170355 0 -0.034273633025355174 0.02967122113551025 0 -0.035226235418208254 0.03136087350686699 0 -0.033390426304742579 0.030131395986286908 0 -0.035482305449884913 0.033721835262115973 0 -0.039717129907972624 0.026085745821866742 0 -0.037622051829829507 0.026810675029841163 0 -0.037447825525802579 0.03166159262688395 0 -0.031827480926907674 0.036510616369490247 0 -0.031889985706500278 0.035792540867773837 0 -0.032820363068343399 0.03555326790313354 0 -0.037622051829829507 0.026810675029841163 0 -0.03618792277250539 0.029742620669170355 0 -0.037447825525802579 0.03166159262688395 0 -0.031889985706500278 0.035792540867773837 0 -0.03229189051517678 0.035156470980913047 0 -0.032820363068343399 0.03555326790313354 0 -0.034273633025355174 0.02967122113551025 0 -0.035226235418208254 0.03136087350686699 0 -0.03375056766779308 0.031722017248536599 0 -0.03618792277250539 0.029742620669170355 0 -0.037447825525802579 0.03166159262688395 0 -0.035226235418208254 0.03136087350686699 0 -0.035298253422473141 0.032855133672721082 0 -0.037447825525802579 0.03166159262688395 0 -0.035226235418208254 0.03136087350686699 0 -0.035226235418208254 0.03136087350686699 0 -0.034255082334679665 0.032837930654513084 0 -0.03375056766779308 0.031722017248536599 0 -0.035298253422473141 0.032855133672721082 0 -0.035226235418208254 0.03136087350686699 0 -0.034255082334679665 0.032837930654513084 0 -0.034255082334679665 0.032837930654513084 0 -0.033045109672000521 0.032916237554776295 0 -0.03375056766779308 0.031722017248536599 0 -0.034273633025355174 0.02967122113551025 0 -0.03375056766779308 0.031722017248536599 0 -0.032249309090343833 0.031836924453007676 0 -0.033045109672000521 0.032916237554776295 0 -0.03375056766779308 0.031722017248536599 0 -0.032249309090343833 0.031836924453007676 0 -0.03638833409117545 0.024998365265188532 0 -0.03604653273748095 0.024654948881039727 0 -0.03608370249180292 0.024867221298403477 0 -0.035476664611321602 0.027515237349176849 0 -0.03455140667429641 0.028029058336692537 0 -0.036412117721411549 0.025277356828271008 0 -0.03638833409117545 0.024998365265188532 0 -0.03608370249180292 0.024867221298403477 0 -0.036044182276565931 0.024673587393498789 0 -0.03604653273748095 0.024654948881039727 0 -0.035598305981883592 0.024292452420302073 0 -0.036044182276565931 0.024673587393498789 0 -0.03604653273748095 0.024654948881039727 0 -0.03608370249180292 0.024867221298403477 0 -0.036044182276565931 0.024673587393498789 0 -0.03608370249180292 0.024867221298403477 0 -0.036255116637236379 0.024715327764715196 0 -0.03608370249180292 0.024867221298403477 0 -0.036255116637236379 0.024715327764715196 0 -0.036332205989262921 0.024548077391397225 0 -0.03455140667429641 0.028029058336692537 0 -0.032056543761373041 0.030929279486165036 0 -0.032249309090343833 0.031836924453007676 0 -0.031790570915599566 0.033096157430326893 0 -0.03038804305967719 0.033322705069555619 0 -0.033045109672000521 0.032916237554776295 0 -0.032249309090343833 0.031836924453007676 0 -0.031790570915599566 0.033096157430326893 0 -0.036255116637236379 0.024715327764715196 0 -0.036332205989262921 0.024548077391397225 0 -0.03670220791568899 0.024669083847142739 0 -0.035858782955589009 0.029763345967788395 0 -0.035787683108031897 0.026502873471360443 0 -0.032056543761373041 0.030929279486165036 0 -0.035787683108031897 0.026502873471360443 0 -0.036332205989262921 0.024548077391397225 0 -0.036930780124260258 0.024605849328707279 0 -0.03670220791568899 0.024669083847142739 0 -0.029081282151327784 0.033967509966827195 0 -0.030675755852796208 0.033138590042457415 0 -0.027673514643172799 0.030415714110782852 0 -0.0279444969047224 0.033637428954300407 0 -0.029081282151327784 0.033967509966827195 0 -0.027673514643172799 0.030415714110782852 0 -0.036930780124260258 0.024605849328707279 0 -0.03670220791568899 0.024669083847142739 0 -0.037077787100076483 0.024613260688250715 0 -0.03670220791568899 0.024669083847142739 0 -0.037077787100076483 0.024613260688250715 0 -0.036886008074005668 0.024626388294958029 0 -0.035787683108031897 0.026502873471360443 0 -0.037123095859895518 0.023725682976335229 0 -0.036255116637236379 0.024715327764715196 0 -0.03670220791568899 0.024669083847142739 0 -0.036886008074005668 0.024626388294958029 0 -0.036239460204337562 0.024630548184749818 0 -0.036260245601666255 0.024424137197794491 0 -0.036044182276565931 0.024673587393498789 0 -0.036255116637236379 0.024715327764715196 0 -0.035598305981883592 0.024292452420302073 0 -0.042892466216938901 0.026567773707038219 0 -0.042646581438798355 0.026376412751278333 0 -0.043327595984931737 0.026126782806372355 0 -0.043487988201570453 0.025559927377893251 0 -0.043327595984931737 0.026126782806372355 0 -0.043391463158686798 0.025797980431777352 0 -0.043234519551711065 0.026052378963844009 0 -0.043301518970995018 0.026093172736289139 0 -0.04325041556782519 0.02656997491909353 0 -0.042892466216938901 0.026567773707038219 0 -0.043327595984931737 0.026126782806372355 0 -0.043598276244563305 0.026525176864101673 0 -0.043526470995447743 0.025849745003602247 0 -0.043327595984931737 0.026126782806372355 0 -0.04325041556782519 0.02656997491909353 0 -0.043598276244563305 0.026525176864101673 0 -0.043327595984931737 0.026126782806372355 0 -0.043526470995447743 0.025849745003602247 0 -0.043391463158686798 0.025797980431777352 0 -0.043401593698280588 0.025640999081804006 0 -0.035787683108031897 0.026502873471360443 0 -0.041538658354029916 0.024486072279448594 0 -0.037257105665790366 0.022890153564286635 0 -0.038237928926228432 0.023596714423733508 0 -0.037343647143821976 0.023568698313823525 0 -0.043526470995447743 0.025849745003602247 0 -0.043327595984931737 0.026126782806372355 0 -0.043391463158686798 0.025797980431777352 0 -0.043487988201570453 0.025559927377893251 0 -0.043391463158686798 0.025797980431777352 0 -0.043469586389830756 0.025628122087294345 0 -0.043391463158686798 0.025797980431777352 0 -0.043469586389830756 0.025628122087294345 0 -0.043401593698280588 0.025640999081804006 0 -0.043542730604717993 0.025598631109834021 0 -0.043584716658254419 0.025678923301549788 0 -0.043401593698280588 0.025640999081804006 0 -0.041530301761652226 0.024867056528559837 0 -0.041538658354029916 0.024486072279448594 0 -0.043542730604717993 0.025598631109834021 0 -0.043469586389830756 0.025628122087294345 0 -0.043401593698280588 0.025640999081804006 0 -0.039498453698729875 0.023923546786693711 0 -0.038237928926228432 0.023596714423733508 0 -0.037987299987314795 0.024152864102935129 0 -0.038237928926228432 0.023596714423733508 0 -0.037343647143821976 0.023568698313823525 0 -0.037987299987314795 0.024152864102935129 0 -0.037343647143821976 0.023568698313823525 0 -0.037407584130395383 0.024466745738480369 0 -0.037987299987314795 0.024152864102935129 0 -0.037123095859895518 0.023725682976335229 0 -0.037356274048217106 0.024570994652774722 0 -0.037407584130395383 0.024466745738480369 0 -0.038032922757574361 0.024812210730363798 0 -0.037567775130194131 0.024924433513832854 0 -0.037407584130395383 0.024466745738480369 0 -0.037987299987314795 0.024152864102935129 0 -0.038032922757574361 0.024812210730363798 0 -0.039498453698729875 0.023923546786693711 0 -0.037987299987314795 0.024152864102935129 0 -0.038032922757574361 0.024812210730363798 0 -0.039498453698729875 0.023923546786693711 0 -0.038918797519849002 0.025743292631050709 0 -0.038032922757574361 0.024812210730363798 0 -0.036886008074005668 0.024626388294958029 0 -0.037143276239219918 0.024588436735872504 0 -0.037173508696319815 0.024744654107770339 0 -0.037077787100076483 0.024613260688250715 0 -0.036886008074005668 0.024626388294958029 0 -0.037143276239219918 0.024588436735872504 0 -0.037077787100076483 0.024613260688250715 0 -0.037407584130395383 0.024466745738480369 0 -0.037143276239219918 0.024588436735872504 0 -0.037407584130395383 0.024466745738480369 0 -0.037143276239219918 0.024588436735872504 0 -0.037173508696319815 0.024744654107770339 0 -0.037407584130395383 0.024466745738480369 0 -0.037173508696319815 0.024744654107770339 0 -0.037567775130194131 0.024924433513832854 0 -0.035598305981883592 0.024292452420302073 0 -0.035831070643755215 0.023413494701002291 0 -0.035718603744429873 0.023694860749424652 0 -0.036260245601666255 0.024424137197794491 0 -0.036542024068746251 0.024120926639953813 0 -0.035831070643755215 0.023413494701002291 0 -0.035718603744429873 0.023694860749424652 0 -0.035692917974328109 0.023379879203517077 0 -0.035831070643755215 0.023413494701002291 0 -0.036850828107447373 0.023754384337694983 0 -0.036183523598313387 0.023655377793391615 0 -0.035831070643755215 0.023413494701002291 0 -0.036183523598313387 0.023655377793391615 0 -0.035692917974328109 0.023379879203517077 0 -0.037567775130194131 0.024924433513832854 0 -0.037684571038857542 0.025126602594260347 0 -0.037924395571242553 0.025207242545067763 0 -0.036542024068746251 0.024120926639953813 0 -0.037274022074725154 0.024461651332959737 0 -0.037173508696319815 0.024744654107770339 0 -0.037567775130194131 0.024924433513832854 0 -0.037684571038857542 0.025126602594260347 0 -0.036850828107447373 0.023754384337694983 0 -0.036183523598313387 0.023655377793391615 0 -0.03698195029089682 0.024277809233325995 0 -0.036183523598313387 0.023655377793391615 0 -0.03698195029089682 0.024277809233325995 0 -0.036179620086000092 0.024191953842614321 0 -0.038918797519849002 0.025743292631050709 0 -0.038032922757574361 0.024812210730363798 0 -0.037924395571242553 0.025207242545067763 0 -0.038032922757574361 0.024812210730363798 0 -0.037567775130194131 0.024924433513832854 0 -0.037924395571242553 0.025207242545067763 0 -0.037684571038857542 0.025126602594260347 0 -0.037924395571242553 0.025207242545067763 0 -0.037910918640941225 0.025035916444581151 0 -0.037924395571242553 0.025207242545067763 0 -0.038129176975737727 0.025273602061865897 0 -0.037910918640941225 0.025035916444581151 0 -0.038918797519849002 0.025743292631050709 0 -0.037924395571242553 0.025207242545067763 0 -0.038129176975737727 0.025273602061865897 0 -0.037849144530164774 0.024822864285180709 0 -0.037957863707669709 0.025027114069616552 0 -0.03798220488122063 0.024958931513889362 0 -0.037842056515226319 0.025064445154375708 0 -0.038129176975737727 0.025273602061865897 0 -0.037957863707669709 0.025027114069616552 0 -0.037842056515226319 0.025064445154375708 0 -0.037849144530164774 0.024822864285180709 0 -0.037957863707669709 0.025027114069616552 0 -0.038129176975737727 0.025273602061865897 0 -0.037957863707669709 0.025027114069616552 0 -0.03798220488122063 0.024958931513889362 0 -0.037849144530164774 0.024822864285180709 0 -0.03798220488122063 0.024958931513889362 0 -0.037923151323734458 0.024642284069757554 0 -0.03798220488122063 0.024958931513889362 0 -0.037910918640941225 0.025035916444581151 0 -0.037979285384444283 0.024701008276408244 0 -0.037910918640941225 0.025035916444581151 0 -0.037979285384444283 0.024701008276408244 0 -0.037935194108601411 0.024710130104467556 0 -0.038129176975737727 0.025273602061865897 0 -0.03798220488122063 0.024958931513889362 0 -0.037910918640941225 0.025035916444581151 0 -0.03798220488122063 0.024958931513889362 0 -0.037979285384444283 0.024701008276408244 0 -0.037923151323734458 0.024642284069757554 0 -0.037979285384444283 0.024701008276408244 0 -0.037935194108601411 0.024710130104467556 0 -0.038008325502227956 0.024623242662574728 0 -0.037979285384444283 0.024701008276408244 0 -0.037966467730220201 0.024338235474223441 0 -0.038008325502227956 0.024623242662574728 0 -0.037966467730220201 0.024338235474223441 0 -0.038008325502227956 0.024623242662574728 0 -0.038127175143711146 0.024139787066984972 0 -0.037979285384444283 0.024701008276408244 0 -0.037966467730220201 0.024338235474223441 0 -0.037923151323734458 0.024642284069757554 0 -0.037966467730220201 0.024338235474223441 0 -0.037923151323734458 0.024642284069757554 0 -0.037801008971854462 0.024369513431780284 0 -0.037648095724117925 0.024705619849747042 0 -0.037849144530164774 0.024822864285180709 0 -0.037801008971854462 0.024369513431780284 0 -0.037849144530164774 0.024822864285180709 0 -0.037923151323734458 0.024642284069757554 0 -0.037801008971854462 0.024369513431780284 0 -0.03698195029089682 0.024277809233325995 0 -0.036913323491866989 0.024643617378197934 0 -0.036179620086000092 0.024191953842614321 0 -0.03698195029089682 0.024277809233325995 0 -0.03793412769769073 0.024897056119600247 0 -0.036913323491866989 0.024643617378197934 0 -0.03698195029089682 0.024277809233325995 0 -0.037935194108601411 0.024710130104467556 0 -0.03793412769769073 0.024897056119600247 0 -0.037684571038857542 0.025126602594260347 0 -0.037910918640941225 0.025035916444581151 0 -0.037935194108601411 0.024710130104467556 0 -0.036850828107447373 0.023754384337694983 0 -0.03698195029089682 0.024277809233325995 0 -0.037935194108601411 0.024710130104467556 0 -0.037274022074725154 0.024461651332959737 0 -0.0378225595934941 0.024739455799004915 0 -0.037935194108601411 0.024710130104467556 0 -0.038008325502227956 0.024623242662574728 0 -0.03793412769769073 0.024897056119600247 0 -0.038008325502227956 0.024623242662574728 0 -0.03793412769769073 0.024897056119600247 0 -0.038127175143711146 0.024139787066984972 0 -0.03793412769769073 0.024897056119600247 0 -0.03934198103534349 0.024586111358013901 0 -0.03861336000335068 0.024096132240507988 0 -0.03793412769769073 0.024897056119600247 0 -0.036913323491866989 0.024643617378197934 0 -0.036481829336719042 0.025447336114506749 0 -0.038077351245760761 0.02493938282273012 0 -0.037440195808764828 0.024625276151623205 0 -0.034240197371576395 0.024421337674789195 0 -0.034113694957032446 0.024364265778899864 0 -0.034086596864981257 0.024459642798965977 0 -0.037440195808764828 0.024625276151623205 0 -0.035044822471527154 0.024098980086437946 0 -0.034240197371576395 0.024421337674789195 0 -0.034113694957032446 0.024364265778899864 0 -0.034386570585385114 0.024020511160757922 0 -0.036913323491866989 0.024643617378197934 0 -0.036481829336719042 0.025447336114506749 0 -0.036179620086000092 0.024191953842614321 0 -0.034113694957032446 0.024364265778899864 0 -0.033861639080169599 0.024314401067202476 0 -0.034044887391066522 0.024557882760675245 0 -0.034009717277193548 0.024193775354369035 0 -0.03422712059291233 0.023186518697418251 0 -0.034113694957032446 0.024364265778899864 0 -0.033861639080169599 0.024314401067202476 0 -0.033992322111804106 0.024117127688744747 0 -0.0335653989466815 0.024273440165099098 0 -0.033992322111804106 0.024117127688744747 0 -0.033337810656377954 0.024113739473870077 0 -0.0335653989466815 0.024273440165099098 0 -0.033363542851790468 0.024372193632992954 0 -0.033126510146115194 0.024248056736017296 0 -0.0335653989466815 0.024273440165099098 0 -0.033363542851790468 0.024372193632992954 0 -0.033663394665600407 0.02446847818235447 0 -0.033861639080169599 0.024314401067202476 0 -0.033663394665600407 0.02446847818235447 0 -0.034044887391066522 0.024557882760675245 0 -0.0335653989466815 0.024273440165099098 0 -0.033861639080169599 0.024314401067202476 0 -0.033663394665600407 0.02446847818235447 0 -0.0335653989466815 0.024273440165099098 0 -0.033861639080169599 0.024314401067202476 0 -0.033992322111804106 0.024117127688744747 0 -0.033515234382573388 0.023995885473547331 0 -0.033992322111804106 0.024117127688744747 0 -0.033337810656377954 0.024113739473870077 0 -0.033515234382573388 0.023995885473547331 0 -0.033992322111804106 0.024117127688744747 0 -0.033984462753166154 0.023962141231259695 0 -0.033515234382573388 0.023995885473547331 0 -0.033984462753166154 0.023962141231259695 0 -0.033484159361142705 0.023857029885958808 0 -0.034113694957032446 0.024364265778899864 0 -0.033992322111804106 0.024117127688744747 0 -0.034386570585385114 0.024020511160757922 0 -0.033992322111804106 0.024117127688744747 0 -0.033984462753166154 0.023962141231259695 0 -0.034386570585385114 0.024020511160757922 0 -0.033984462753166154 0.023962141231259695 0 -0.034386570585385114 0.024020511160757922 0 -0.034483629190602612 0.023783928328596673 0 -0.036183523598313387 0.023655377793391615 0 -0.036179620086000092 0.024191953842614321 0 -0.035392759482888218 0.023468687775049138 0 -0.034386570585385114 0.024020511160757922 0 -0.034483629190602612 0.023783928328596673 0 -0.035392759482888218 0.023468687775049138 0 -0.035044822471527154 0.024098980086437946 0 -0.035408995651876975 0.023393563666617673 0 -0.033984462753166154 0.023962141231259695 0 -0.034483629190602612 0.023783928328596673 0 -0.033928903997139978 0.023812330459832044 0 -0.033984462753166154 0.023962141231259695 0 -0.033928903997139978 0.023812330459832044 0 -0.033484159361142705 0.023857029885958808 0 -0.033928903997139978 0.023812330459832044 0 -0.034089179514444796 0.023640589179703419 0 -0.033429585015653171 0.023678919583709324 0 -0.034483629190602612 0.023783928328596673 0 -0.033928903997139978 0.023812330459832044 0 -0.034089179514444796 0.023640589179703419 0 -0.034483629190602612 0.023783928328596673 0 -0.034089179514444796 0.023640589179703419 0 -0.034635025404045165 0.02351594615346279 0 -0.034635025404045165 0.02351594615346279 0 -0.035382269726652954 0.023217855656033577 0 -0.033773879518259504 0.023351257066373185 0 -0.034089179514444796 0.023640589179703419 0 -0.034635025404045165 0.02351594615346279 0 -0.033773879518259504 0.023351257066373185 0 -0.034089179514444796 0.023640589179703419 0 -0.033773879518259504 0.023351257066373185 0 -0.033429585015653171 0.023678919583709324 0 -0.034635025404045165 0.02351594615346279 0 -0.035382269726652954 0.023217855656033577 0 -0.035392759482888218 0.023468687775049138 0 -0.035382269726652954 0.023217855656033577 0 -0.035692917974328109 0.023379879203517077 0 -0.035392759482888218 0.023468687775049138 0 -0.036183523598313387 0.023655377793391615 0 -0.035692917974328109 0.023379879203517077 0 -0.035392759482888218 0.023468687775049138 0 -0.034483629190602612 0.023783928328596673 0 -0.034635025404045165 0.02351594615346279 0 -0.035392759482888218 0.023468687775049138 0 -0.032974052062844317 0.023507596196545688 0 -0.032494522507078606 0.02337593120048467 0 -0.032442304467936355 0.023617802543688282 0 -0.03300778228111529 0.023116383968198279 0 -0.032974052062844317 0.023507596196545688 0 -0.032494522507078606 0.02337593120048467 0 -0.03300778228111529 0.023116383968198279 0 -0.032974052062844317 0.023507596196545688 0 -0.033773879518259504 0.023351257066373185 0 -0.032974052062844317 0.023507596196545688 0 -0.033773879518259504 0.023351257066373185 0 -0.033429585015653171 0.023678919583709324 0 -0.032974052062844317 0.023507596196545688 0 -0.033429585015653171 0.023678919583709324 0 -0.0329381535050439 0.023792379949767899 0 -0.033928903997139978 0.023812330459832044 0 -0.033429585015653171 0.023678919583709324 0 -0.033484159361142705 0.023857029885958808 0 -0.033429585015653171 0.023678919583709324 0 -0.033484159361142705 0.023857029885958808 0 -0.0329381535050439 0.023792379949767899 0 -0.032974052062844317 0.023507596196545688 0 -0.0329381535050439 0.023792379949767899 0 -0.032442304467936355 0.023617802543688282 0 -0.0329381535050439 0.023792379949767899 0 -0.032442304467936355 0.023617802543688282 0 -0.032483735757965745 0.023872044026752835 0 -0.032483735757965745 0.023872044026752835 0 -0.03305637000985736 0.023969889092492189 0 -0.032800830868612893 0.024084843009610848 0 -0.0329381535050439 0.023792379949767899 0 -0.032483735757965745 0.023872044026752835 0 -0.03305637000985736 0.023969889092492189 0 -0.033515234382573388 0.023995885473547331 0 -0.033484159361142705 0.023857029885958808 0 -0.03305637000985736 0.023969889092492189 0 -0.033484159361142705 0.023857029885958808 0 -0.0329381535050439 0.023792379949767899 0 -0.03305637000985736 0.023969889092492189 0 -0.033515234382573388 0.023995885473547331 0 -0.03305637000985736 0.023969889092492189 0 -0.033337810656377954 0.024113739473870077 0 -0.033337810656377954 0.024113739473870077 0 -0.032800830868612893 0.024084843009610848 0 -0.033126510146115194 0.024248056736017296 0 -0.03305637000985736 0.023969889092492189 0 -0.033337810656377954 0.024113739473870077 0 -0.032800830868612893 0.024084843009610848 0 -0.032800830868612893 0.024084843009610848 0 -0.033126510146115194 0.024248056736017296 0 -0.032839151088917128 0.024321957010033205 0 -0.0335653989466815 0.024273440165099098 0 -0.033337810656377954 0.024113739473870077 0 -0.033126510146115194 0.024248056736017296 0 -0.033363542851790468 0.024372193632992954 0 -0.033126510146115194 0.024248056736017296 0 -0.033140354524155244 0.024381103825103691 0 -0.03219577770174583 0.023899970241119471 0 -0.032483735757965745 0.023872044026752835 0 -0.032401242333575053 0.024013720144725755 0 -0.032483735757965745 0.023872044026752835 0 -0.032800830868612893 0.024084843009610848 0 -0.032401242333575053 0.024013720144725755 0 -0.032800830868612893 0.024084843009610848 0 -0.032401242333575053 0.024013720144725755 0 -0.032497337424648616 0.024164105283818869 0 -0.032497337424648616 0.024164105283818869 0 -0.033028952083846673 0.024580528882896118 0 -0.031855826160916291 0.023962800559055565 0 -0.031539618919476875 0.023619872819682166 0 -0.031984810772494598 0.024197244465828528 0 -0.032401242333575053 0.024013720144725755 0 -0.032128638287300483 0.024006808598859675 0 -0.032497337424648616 0.024164105283818869 0 -0.032128638287300483 0.024006808598859675 0 -0.032497337424648616 0.024164105283818869 0 -0.031855826160916291 0.023962800559055565 0 -0.033260849635379668 0.024483986899625405 0 -0.033105639135428043 0.024526517984102984 0 -0.03307678159564937 0.024617744665761745 0 -0.033260849635379668 0.024483986899625405 0 -0.033105639135428043 0.024526517984102984 0 -0.033140354524155244 0.024381103825103691 0 -0.033363542851790468 0.024372193632992954 0 -0.033260849635379668 0.024483986899625405 0 -0.033140354524155244 0.024381103825103691 0 -0.033126510146115194 0.024248056736017296 0 -0.033140354524155244 0.024381103825103691 0 -0.032839151088917128 0.024321957010033205 0 -0.033105639135428043 0.024526517984102984 0 -0.032839151088917128 0.024321957010033205 0 -0.033028952083846673 0.024580528882896118 0 -0.033105639135428043 0.024526517984102984 0 -0.033140354524155244 0.024381103825103691 0 -0.032839151088917128 0.024321957010033205 0 -0.032497337424648616 0.024164105283818869 0 -0.032839151088917128 0.024321957010033205 0 -0.033028952083846673 0.024580528882896118 0 -0.032800830868612893 0.024084843009610848 0 -0.032497337424648616 0.024164105283818869 0 -0.032839151088917128 0.024321957010033205 0 -0.031634341488683118 0.023728108830927047 0 -0.031539618919476875 0.023619872819682166 0 -0.031539618919476875 0.023619872819682166 0 -0.030897695637679082 0.022194581731277675 0 -0.030895183985216707 0.021833636122627943 0 -0.030863877392729739 0.021638053709832163 0 -0.030997767007568452 0.021501151342844364 0 -0.030895183985216707 0.021833636122627943 0 -0.030863877392729739 0.021638053709832163 0 -0.030772667194993601 0.021746837121234111 0 -0.031855826160916291 0.023962800559055565 0 -0.031003886685811239 0.023059184239562984 0 -0.031647499264470164 0.023143173314996469 0 -0.0305682839935488 0.024371535274585337 0 -0.031855826160916291 0.023962800559055565 0 -0.031003886685811239 0.023059184239562984 0 -0.031003886685811239 0.023059184239562984 0 -0.031078488078967004 0.021989933266020691 0 -0.031647499264470164 0.023143173314996469 0 -0.030863877392729739 0.021638053709832163 0 -0.030997767007568452 0.021501151342844364 0 -0.030695155580556393 0.021170261495053896 0 -0.030997767007568452 0.021501151342844364 0 -0.031117701727304416 0.021096542208506416 0 -0.030695155580556393 0.021170261495053896 0 -0.031117701727304416 0.021096542208506416 0 -0.030695155580556393 0.021170261495053896 0 -0.030887358549525939 0.020905821094814894 0 -0.030897695637679082 0.022194581731277675 0 -0.031125610190778988 0.021528789681555971 0 -0.039844854893655329 0.022094926315497546 0 -0.040683099357346611 0.021707764562930592 0 -0.039684480358542891 0.021188960572677971 0 -0.039844854893655329 0.022094926315497546 0 -0.03921685082262872 0.021787428249616443 0 -0.039684480358542891 0.021188960572677971 0 -0.039844854893655329 0.022094926315497546 0 -0.039216216354818506 0.022612632009153675 0 -0.03921685082262872 0.021787428249616443 0 -0.035764112099511441 0.021257832743199461 0 -0.035584039724935519 0.022290977951911362 0 -0.039844854893655329 0.022094926315497546 0 -0.040683099357346611 0.021707764562930592 0 -0.040229381082953486 0.023025470683813967 0 -0.030863877392729739 0.021638053709832163 0 -0.030695155580556393 0.021170261495053896 0 -0.030686276540649246 0.021581236172650356 0 -0.039844854893655329 0.022094926315497546 0 -0.040229381082953486 0.023025470683813967 0 -0.039216216354818506 0.022612632009153675 0 -0.040229381082953486 0.023025470683813967 0 -0.039794035733712853 0.024271931637961881 0 -0.039279171325104618 0.023511360040223923 0 -0.040229381082953486 0.023025470683813967 0 -0.039279171325104618 0.023511360040223923 0 -0.039216216354818506 0.022612632009153675 0 -0.035584039724935519 0.022290977951911362 0 -0.03422712059291233 0.023186518697418251 0 -0.030686276540649246 0.021581236172650356 0 -0.030772667194993601 0.021746837121234111 0 -0.030648916045307895 0.021928659458192546 0 -0.030863877392729739 0.021638053709832163 0 -0.030686276540649246 0.021581236172650356 0 -0.030772667194993601 0.021746837121234111 0 -0.031539618919476875 0.023619872819682166 0 -0.03422712059291233 0.023186518697418251 0 -0.03307678159564937 0.024617744665761745 0 -0.033663394665600407 0.02446847818235447 0 -0.034044887391066522 0.024557882760675245 0 -0.030895183985216707 0.021833636122627943 0 -0.030772667194993601 0.021746837121234111 0 -0.030648916045307895 0.021928659458192546 0 -0.033260849635379668 0.024483986899625405 0 -0.03307678159564937 0.024617744665761745 0 -0.033663394665600407 0.02446847818235447 0 -0.033363542851790468 0.024372193632992954 0 -0.033260849635379668 0.024483986899625405 0 -0.033663394665600407 0.02446847818235447 0 -0.037440195808764828 0.024625276151623205 0 -0.039344495229270082 0.023526979755946628 0 -0.039341549439247323 0.024414430779508348 0 -0.039794035733712853 0.024271931637961881 0 -0.039279171325104618 0.023511360040223923 0 -0.037440195808764828 0.024625276151623205 0 -0.03422712059291233 0.023186518697418251 0 -0.03934198103534349 0.024586111358013901 0 -0.03861336000335068 0.024096132240507988 0 -0.039241244148274838 0.023555928254625273 0 -0.03793412769769073 0.024897056119600247 0 -0.03861336000335068 0.024096132240507988 0 -0.038127175143711146 0.024139787066984972 0 -0.03861336000335068 0.024096132240507988 0 -0.038127175143711146 0.024139787066984972 0 -0.038576149040243597 0.023402915843513332 0 -0.038097608329048294 0.023323167425032418 0 -0.038576149040243597 0.023402915843513332 0 -0.038188926837115 0.022552430640145105 0 -0.038127175143711146 0.024139787066984972 0 -0.038097608329048294 0.023323167425032418 0 -0.038576149040243597 0.023402915843513332 0 -0.039344495229270082 0.023526979755946628 0 -0.039201936146786104 0.022690824247945947 0 -0.038576149040243597 0.023402915843513332 0 -0.039241244148274838 0.023555928254625273 0 -0.039216216354818506 0.022612632009153675 0 -0.03861336000335068 0.024096132240507988 0 -0.038576149040243597 0.023402915843513332 0 -0.039241244148274838 0.023555928254625273 0 -0.037966467730220201 0.024338235474223441 0 -0.037801008971854462 0.024369513431780284 0 -0.037866800349643071 0.023828581292435678 0 -0.037866800349643071 0.023828581292435678 0 -0.037634129331952759 0.023875138873375168 0 -0.037642697951710338 0.023270866630632377 0 -0.037801008971854462 0.024369513431780284 0 -0.037866800349643071 0.023828581292435678 0 -0.037634129331952759 0.023875138873375168 0 -0.038127175143711146 0.024139787066984972 0 -0.038097608329048294 0.023323167425032418 0 -0.038003395995754266 0.023794020357544368 0 -0.037866800349643071 0.023828581292435678 0 -0.038003395995754266 0.023794020357544368 0 -0.037976201823812922 0.023350005870401411 0 -0.037966467730220201 0.024338235474223441 0 -0.037866800349643071 0.023828581292435678 0 -0.038003395995754266 0.023794020357544368 0 -0.037966467730220201 0.024338235474223441 0 -0.038127175143711146 0.024139787066984972 0 -0.038003395995754266 0.023794020357544368 0 -0.038097608329048294 0.023323167425032418 0 -0.037976201823812922 0.023350005870401411 0 -0.038094135019338525 0.02297131698937872 0 -0.038097608329048294 0.023323167425032418 0 -0.038003395995754266 0.023794020357544368 0 -0.037976201823812922 0.023350005870401411 0 -0.037976201823812922 0.023350005870401411 0 -0.037859514954695007 0.023017198748199418 0 -0.037642697951710338 0.023270866630632377 0 -0.037866800349643071 0.023828581292435678 0 -0.037976201823812922 0.023350005870401411 0 -0.037642697951710338 0.023270866630632377 0 -0.037976201823812922 0.023350005870401411 0 -0.037859514954695007 0.023017198748199418 0 -0.038094135019338525 0.02297131698937872 0 -0.037821593546201231 0.02276490217036654 0 -0.038009730359748133 0.02255586843495366 0 -0.037942852025501787 0.02239467062534654 0 -0.037821593546201231 0.02276490217036654 0 -0.038009730359748133 0.02255586843495366 0 -0.038035496396593801 0.022757438871393282 0 -0.037821593546201231 0.02276490217036654 0 -0.037859514954695007 0.023017198748199418 0 -0.037575695796815078 0.02293190211974756 0 -0.037821593546201231 0.02276490217036654 0 -0.037859514954695007 0.023017198748199418 0 -0.038035496396593801 0.022757438871393282 0 -0.037859514954695007 0.023017198748199418 0 -0.038035496396593801 0.022757438871393282 0 -0.038094135019338525 0.02297131698937872 0 -0.038138585710182735 0.022723988958989083 0 -0.038035496396593801 0.022757438871393282 0 -0.038094135019338525 0.02297131698937872 0 -0.038138585710182735 0.022723988958989083 0 -0.038265979342631554 0.022658514719748814 0 -0.038152105455585353 0.02249650212730963 0 -0.038009730359748133 0.02255586843495366 0 -0.038035496396593801 0.022757438871393282 0 -0.038152105455585353 0.02249650212730963 0 -0.038138585710182735 0.022723988958989083 0 -0.038035496396593801 0.022757438871393282 0 -0.038152105455585353 0.02249650212730963 0 -0.038097608329048294 0.023323167425032418 0 -0.038265979342631554 0.022658514719748814 0 -0.038094135019338525 0.02297131698937872 0 -0.038097608329048294 0.023323167425032418 0 -0.03726767881362552 0.022351621494224965 0 -0.038188926837115 0.022552430640145105 0 -0.038040604430234701 0.023122083535649571 0 -0.037761686431844535 0.022770423999258323 0 -0.037430748794723391 0.022232304130381964 0 -0.03726767881362552 0.022351621494224965 0 -0.038188926837115 0.022552430640145105 0 -0.038138585710182735 0.022723988958989083 0 -0.038265979342631554 0.022658514719748814 0 -0.038094135019338525 0.02297131698937872 0 -0.037430748794723391 0.022232304130381964 0 -0.038188926837115 0.022552430640145105 0 -0.0380657787971646 0.022010402030602973 0 -0.037430748794723391 0.022232304130381964 0 -0.03809909263668964 0.021493572191121163 0 -0.037869473451318796 0.020814870782492334 0 -0.037430748794723391 0.022232304130381964 0 -0.035901469312215641 0.020326502683463848 0 -0.038514737159980342 0.019056680194420611 0 -0.037430748794723391 0.022232304130381964 0 -0.03726767881362552 0.022351621494224965 0 -0.035901469312215641 0.020326502683463848 0 -0.037164246612777375 0.023861549825628429 0 -0.038564864403317856 0.015912118885646358 0 -0.037430748794723391 0.022232304130381964 0 -0.0380657787971646 0.022010402030602973 0 -0.03809909263668964 0.021493572191121163 0 -0.038265979342631554 0.022658514719748814 0 -0.038152105455585353 0.02249650212730963 0 -0.038191990423756886 0.021984418383104942 0 -0.038152105455585353 0.02249650212730963 0 -0.038127572829572166 0.02232097432835849 0 -0.038191990423756886 0.021984418383104942 0 -0.037761686431844535 0.022770423999258323 0 -0.03791186046377798 0.019125283150933148 0 -0.038148113424119806 0.022097147451705674 0 -0.038191990423756886 0.021984418383104942 0 -0.038230378843479636 0.021855320656058951 0 -0.038148113424119806 0.022097147451705674 0 -0.038127572829572166 0.02232097432835849 0 -0.038191990423756886 0.021984418383104942 0 -0.03791186046377798 0.019125283150933148 0 -0.038437967275372666 0.021025771102049153 0 -0.038148113424119806 0.022097147451705674 0 -0.038127572829572166 0.02232097432835849 0 -0.037942852025501787 0.02239467062534654 0 -0.038009730359748133 0.02255586843495366 0 -0.038152105455585353 0.02249650212730963 0 -0.038127572829572166 0.02232097432835849 0 -0.038009730359748133 0.02255586843495366 0 -0.038127572829572166 0.02232097432835849 0 -0.037942852025501787 0.02239467062534654 0 -0.039216216354818506 0.022612632009153675 0 -0.038188926837115 0.022552430640145105 0 -0.038555843362062761 0.021889967873267815 0 -0.038576149040243597 0.023402915843513332 0 -0.039216216354818506 0.022612632009153675 0 -0.038188926837115 0.022552430640145105 0 -0.038555843362062761 0.021889967873267815 0 -0.03809909263668964 0.021493572191121163 0 -0.038690107619971138 0.021067310778332481 0 -0.038188926837115 0.022552430640145105 0 -0.038555843362062761 0.021889967873267815 0 -0.0380657787971646 0.022010402030602973 0 -0.038555843362062761 0.021889967873267815 0 -0.0380657787971646 0.022010402030602973 0 -0.03809909263668964 0.021493572191121163 0 -0.039216216354818506 0.022612632009153675 0 -0.038555843362062761 0.021889967873267815 0 -0.03921685082262872 0.021787428249616443 0 -0.038555843362062761 0.021889967873267815 0 -0.03921685082262872 0.021787428249616443 0 -0.038690107619971138 0.021067310778332481 0 -0.038690107619971138 0.021067310778332481 0 -0.039039857040854165 0.020216042727248213 0 -0.039684480358542891 0.021188960572677971 0 -0.03921685082262872 0.021787428249616443 0 -0.038690107619971138 0.021067310778332481 0 -0.039684480358542891 0.021188960572677971 0 -0.038690107619971138 0.021067310778332481 0 -0.039039857040854165 0.020216042727248213 0 -0.037869473451318796 0.020814870782492334 0 -0.03809909263668964 0.021493572191121163 0 -0.038690107619971138 0.021067310778332481 0 -0.037869473451318796 0.020814870782492334 0 -0.038564864403317856 0.015912118885646358 0 -0.040095078259788794 0.0089631761897655537 0 -0.041047498251667196 0.010125957308544866 0 -0.038761141723887463 0.011302271715185415 0 -0.039395202300718392 0.0093916292432088405 0 -0.039768765014555112 0.015315063157951348 0 -0.038564864403317856 0.015912118885646358 0 -0.037459055904718451 0.013434493174875385 0 -0.037916554719755816 0.011526211434833077 0 -0.036316685167650534 0.011689442444631893 0 -0.041510881066978193 0.020828236422691295 0 -0.03908643651883819 0.019857770315754173 0 -0.038513006254414416 0.015334637910009035 0 -0.03791186046377798 0.019125283150933148 0 -0.037345720210594541 0.013249325790586339 0 -0.041510881066978193 0.020828236422691295 0 -0.038230378843479636 0.021855320656058951 0 -0.03908643651883819 0.019857770315754173 0 -0.037459055904718451 0.013434493174875385 0 -0.039814974587347333 0.012238008663792491 0 -0.037916554719755816 0.011526211434833077 0 -0.03791186046377798 0.019125283150933148 0 -0.038564864403317856 0.015912118885646358 0 -0.039814974587347333 0.012238008663792491 0 -0.037916554719755816 0.011526211434833077 0 -0.038913759014588406 0.010163360959655214 0 -0.039814974587347333 0.012238008663792491 0 -0.038913759014588406 0.010163360959655214 0 -0.040378469862438787 0.010094265850790244 0 -0.037916554719755816 0.011526211434833077 0 -0.037044951798132122 0.010218472755556292 0 -0.038913759014588406 0.010163360959655214 0 -0.037916554719755816 0.011526211434833077 0 -0.037044951798132122 0.010218472755556292 0 -0.036316685167650534 0.011689442444631893 0 -0.038240416696222343 0.0089267479768165188 0 -0.037044951798132122 0.010218472755556292 0 -0.038913759014588406 0.010163360959655214 0 -0.038240416696222343 0.0089267479768165188 0 -0.037044951798132122 0.010218472755556292 0 -0.036041908971070506 0.0084701144380773599 0 -0.038240416696222343 0.0089267479768165188 0 -0.038913759014588406 0.010163360959655214 0 -0.039480226082020564 0.0086835935601219522 0 -0.038913759014588406 0.010163360959655214 0 -0.039480226082020564 0.0086835935601219522 0 -0.040378469862438787 0.010094265850790244 0 -0.038333418277327724 0.0087317436034610608 0 -0.03955903828408127 0.0065165704890751287 0 -0.038240416696222343 0.0089267479768165188 0 -0.039480226082020564 0.0086835935601219522 0 -0.039045278231265045 0.0068732895591583675 0 -0.038240416696222343 0.0089267479768165188 0 -0.036041908971070506 0.0084701144380773599 0 -0.037847823942527711 0.0057015705188300765 0 -0.038240416696222343 0.0089267479768165188 0 -0.037847823942527711 0.0057015705188300765 0 -0.040152655786401703 0.0061260257646129522 0 -0.041047498251667196 0.010125957308544866 0 -0.041043352948322072 0.008510725715706817 0 -0.039395202300718392 0.0093916292432088405 0 -0.041047498251667196 0.010125957308544866 0 -0.041043352948322072 0.008510725715706817 0 -0.042104674341937764 0.0087528190739219781 0 -0.039480226082020564 0.0086835935601219522 0 -0.040378469862438787 0.010094265850790244 0 -0.040675498723286539 0.0080153324952078973 0 -0.041043352948322072 0.008510725715706817 0 -0.039395202300718392 0.0093916292432088405 0 -0.04007554325413866 0.0076109479925103602 0 -0.040095078259788794 0.0089631761897655537 0 -0.040318969213602993 0.0079871197560539581 0 -0.039480226082020564 0.0086835935601219522 0 -0.040675498723286539 0.0080153324952078973 0 -0.039045278231265045 0.0068732895591583675 0 -0.040318969213602993 0.0079871197560539581 0 -0.040814282924476669 0.0061536895987534916 0 -0.04007554325413866 0.0076109479925103602 0 -0.041352086719693308 0.0072346714636554463 0 -0.040821229106327246 0.0060209799115271845 0 -0.041043352948322072 0.008510725715706817 0 -0.04007554325413866 0.0076109479925103602 0 -0.041352086719693308 0.0072346714636554463 0 -0.041043352948322072 0.008510725715706817 0 -0.041352086719693308 0.0072346714636554463 0 -0.042238887127098862 0.0078825954383272643 0 -0.041352086719693308 0.0072346714636554463 0 -0.042456592326536924 0.0069286377616555516 0 -0.042238887127098862 0.0078825954383272643 0 -0.041352086719693308 0.0072346714636554463 0 -0.042456592326536924 0.0069286377616555516 0 -0.041834971504709592 0.0062666165534771556 0 -0.042238887127098862 0.0078825954383272643 0 -0.042832445934569856 0.0082357438615306196 0 -0.043031959720264558 0.0075706254500274425 0 -0.042456592326536924 0.0069286377616555516 0 -0.042238887127098862 0.0078825954383272643 0 -0.043031959720264558 0.0075706254500274425 0 -0.041047498251667196 0.010125957308544866 0 -0.042104674341937764 0.0087528190739219781 0 -0.04309574131038784 0.0089972003151887643 0 -0.041043352948322072 0.008510725715706817 0 -0.042238887127098862 0.0078825954383272643 0 -0.042104674341937764 0.0087528190739219781 0 -0.042832445934569856 0.0082357438615306196 0 -0.042104674341937764 0.0087528190739219781 0 -0.04309574131038784 0.0089972003151887643 0 -0.042238887127098862 0.0078825954383272643 0 -0.042832445934569856 0.0082357438615306196 0 -0.042104674341937764 0.0087528190739219781 0 -0.042832445934569856 0.0082357438615306196 0 -0.04309574131038784 0.0089972003151887643 0 -0.043660197642342233 0.0079872432007241801 0 -0.04309574131038784 0.0089972003151887643 0 -0.043660197642342233 0.0079872432007241801 0 -0.044262567126917472 0.0080018672884297898 0 -0.043660197642342233 0.0079872432007241801 0 -0.044042840631441114 0.0074642917052295853 0 -0.044275989736765178 0.0076600080514865896 0 -0.043660197642342233 0.0079872432007241801 0 -0.044042840631441114 0.0074642917052295853 0 -0.043558323310810519 0.0073866704427858121 0 -0.043660197642342233 0.0079872432007241801 0 -0.043031959720264558 0.0075706254500274425 0 -0.043558323310810519 0.0073866704427858121 0 -0.042832445934569856 0.0082357438615306196 0 -0.043660197642342233 0.0079872432007241801 0 -0.043031959720264558 0.0075706254500274425 0 -0.042456592326536924 0.0069286377616555516 0 -0.043031959720264558 0.0075706254500274425 0 -0.043334779832883349 0.0067668770000518449 0 -0.043031959720264558 0.0075706254500274425 0 -0.043334779832883349 0.0067668770000518449 0 -0.043558323310810519 0.0073866704427858121 0 -0.043334779832883349 0.0067668770000518449 0 -0.043558323310810519 0.0073866704427858121 0 -0.044204069634038855 0.0067970722360278686 0 -0.044042840631441114 0.0074642917052295853 0 -0.043558323310810519 0.0073866704427858121 0 -0.044204069634038855 0.0067970722360278686 0 -0.044204069634038855 0.0067970722360278686 0 -0.044644225064501261 0.0071120367704346739 0 -0.045107268985207477 0.0066805243019577394 0 -0.044042840631441114 0.0074642917052295853 0 -0.044204069634038855 0.0067970722360278686 0 -0.044400441849420359 0.0073608701305071774 0 -0.044204069634038855 0.0067970722360278686 0 -0.044400441849420359 0.0073608701305071774 0 -0.044644225064501261 0.0071120367704346739 0 -0.044400441849420359 0.0073608701305071774 0 -0.044644225064501261 0.0071120367704346739 0 -0.044649080605201036 0.0075717338829024818 0 -0.044644225064501261 0.0071120367704346739 0 -0.044918387559080591 0.0074259160475133477 0 -0.045107268985207477 0.0066805243019577394 0 -0.044918387559080591 0.0074259160475133477 0 -0.045184586511792205 0.0076746433269871276 0 -0.045107268985207477 0.0066805243019577394 0 -0.044644225064501261 0.0071120367704346739 0 -0.044918387559080591 0.0074259160475133477 0 -0.044649080605201036 0.0075717338829024818 0 -0.044918387559080591 0.0074259160475133477 0 -0.045034269070826555 0.0077302670527419088 0 -0.044887377935914415 0.0077865278587292254 0 -0.044918387559080591 0.0074259160475133477 0 -0.044887377935914415 0.0077865278587292254 0 -0.044649080605201036 0.0075717338829024818 0 -0.045087881917492106 0.0079704870235225052 0 -0.044887377935914415 0.0077865278587292254 0 -0.044262567126917472 0.0080018672884297898 0 -0.044918387559080591 0.0074259160475133477 0 -0.045034269070826555 0.0077302670527419088 0 -0.045184586511792205 0.0076746433269871276 0 -0.041147973177594499 0.012091453553205553 0 -0.039441701093780535 0.016161820420242598 0 -0.045016927280438337 0.0078521987043630049 0 -0.045087881917492106 0.0079704870235225052 0 -0.044887377935914415 0.0077865278587292254 0 -0.045034269070826555 0.0077302670527419088 0 -0.045184586511792205 0.0076746433269871276 0 -0.045087881917492106 0.0079704870235225052 0 -0.045034269070826555 0.0077302670527419088 0 -0.045016927280438337 0.0078521987043630049 0 -0.045087881917492106 0.0079704870235225052 0 -0.045034269070826555 0.0077302670527419088 0 -0.045016927280438337 0.0078521987043630049 0 -0.044887377935914415 0.0077865278587292254 0 -0.044887377935914415 0.0077865278587292254 0 -0.044262567126917472 0.0080018672884297898 0 -0.044649080605201036 0.0075717338829024818 0 -0.044262567126917472 0.0080018672884297898 0 -0.044275989736765178 0.0076600080514865896 0 -0.044649080605201036 0.0075717338829024818 0 -0.043660197642342233 0.0079872432007241801 0 -0.044262567126917472 0.0080018672884297898 0 -0.044275989736765178 0.0076600080514865896 0 -0.044042840631441114 0.0074642917052295853 0 -0.044400441849420359 0.0073608701305071774 0 -0.044275989736765178 0.0076600080514865896 0 -0.044400441849420359 0.0073608701305071774 0 -0.044275989736765178 0.0076600080514865896 0 -0.044649080605201036 0.0075717338829024818 0 -0.03101041724138066 0.019416197036920293 0 -0.031306262439444135 0.018686450240989628 0 -0.031432087839605272 0.019200204028225976 0 -0.045184586511792205 0.0076746433269871276 0 -0.045091652388451663 0.0080108490231511498 0 -0.046492906316505024 0.0060852081339854373 0 -0.045184586511792205 0.0076746433269871276 0 -0.046492906316505024 0.0060852081339854373 0 -0.045107268985207477 0.0066805243019577394 0 -0.039441701093780535 0.016161820420242598 0 -0.039503040730019826 0.011535029157464047 0 -0.030779237730690547 0.019558940893319696 0 -0.03101041724138066 0.019416197036920293 0 -0.031306262439444135 0.018686450240989628 0 -0.039441701093780535 0.016161820420242598 0 -0.031016394862995553 0.019772608584926438 0 -0.030736809420229681 0.019611565922171503 0 -0.03101041724138066 0.019416197036920293 0 -0.03100675823606262 0.019830698389084737 0 -0.03101041724138066 0.019416197036920293 0 -0.031336399325804218 0.019677491941277096 0 -0.031432087839605272 0.019200204028225976 0 -0.03100675823606262 0.019830698389084737 0 -0.031164431412624285 0.020184015384200758 0 -0.031336399325804218 0.019677491941277096 0 -0.03101041724138066 0.019416197036920293 0 -0.03100675823606262 0.019830698389084737 0 -0.031336399325804218 0.019677491941277096 0 -0.030736809420229681 0.019611565922171503 0 -0.03100675823606262 0.019830698389084737 0 -0.030915497767073169 0.020187586641322575 0 -0.03100675823606262 0.019830698389084737 0 -0.030915497767073169 0.020187586641322575 0 -0.031164431412624285 0.020184015384200758 0 -0.04309574131038784 0.0089972003151887643 0 -0.045087881917492106 0.0079704870235225052 0 -0.044262567126917472 0.0080018672884297898 0 -0.042645364172379366 0.013672910987365909 0 -0.039441701093780535 0.016161820420242598 0 -0.030736809420229681 0.019611565922171503 0 -0.030915497767073169 0.020187586641322575 0 -0.030659461563221815 0.020599892162240872 0 -0.039441701093780535 0.016161820420242598 0 -0.035316605205052538 0.021239103812540898 0 -0.041419484559400602 0.019018205475342227 0 -0.040910321904316781 0.019677280757717391 0 -0.041081088033357277 0.020350902345639015 0 -0.040249229801599326 0.01952460096754545 0 -0.041742397453060562 0.01870166120439783 0 -0.041090355795888399 0.019540938846369971 0 -0.039441701093780535 0.016161820420242598 0 -0.040920693746380875 0.019710431833583612 0 -0.030915497767073169 0.020187586641322575 0 -0.030659461563221815 0.020599892162240872 0 -0.031002362093890259 0.020662711944095882 0 -0.031164431412624285 0.020184015384200758 0 -0.031002362093890259 0.020662711944095882 0 -0.031342907225032142 0.02063858394047613 0 -0.030915497767073169 0.020187586641322575 0 -0.031164431412624285 0.020184015384200758 0 -0.031002362093890259 0.020662711944095882 0 -0.031117701727304416 0.021096542208506416 0 -0.031002362093890259 0.020662711944095882 0 -0.031342907225032142 0.02063858394047613 0 -0.031125610190778988 0.021528789681555971 0 -0.031342501378024572 0.020677490346278502 0 -0.031117701727304416 0.021096542208506416 0 -0.031002362093890259 0.020662711944095882 0 -0.030887358549525939 0.020905821094814894 0 -0.035764112099511441 0.021257832743199461 0 -0.035316605205052538 0.021239103812540898 0 -0.030695155580556393 0.021170261495053896 0 -0.030659461563221815 0.020599892162240872 0 -0.030887358549525939 0.020905821094814894 0 -0.030659461563221815 0.020599892162240872 0 -0.031002362093890259 0.020662711944095882 0 -0.030887358549525939 0.020905821094814894 0 -0.040683099357346611 0.021707764562930592 0 -0.039684480358542891 0.021188960572677971 0 -0.040459140314501846 0.020290905377942148 0 -0.040683099357346611 0.021707764562930592 0 -0.041081088033357277 0.020350902345639015 0 -0.040459140314501846 0.020290905377942148 0 -0.039684480358542891 0.021188960572677971 0 -0.039794824143524754 0.020365800208740514 0 -0.040459140314501846 0.020290905377942148 0 -0.039039857040854165 0.020216042727248213 0 -0.040249229801599326 0.01952460096754545 0 -0.039794824143524754 0.020365800208740514 0 -0.039039857040854165 0.020216042727248213 0 -0.039684480358542891 0.021188960572677971 0 -0.039794824143524754 0.020365800208740514 0 -0.039768765014555112 0.015315063157951348 0 -0.042645364172379366 0.013672910987365909 0 -0.040249229801599326 0.01952460096754545 0 -0.039794824143524754 0.020365800208740514 0 -0.040459140314501846 0.020290905377942148 0 -0.040249229801599326 0.01952460096754545 0 -0.041090355795888399 0.019540938846369971 0 -0.040459140314501846 0.020290905377942148 0 -0.040910321904316781 0.019677280757717391 0 -0.041081088033357277 0.020350902345639015 0 -0.040459140314501846 0.020290905377942148 0 -0.040920693746380875 0.019710431833583612 0 -0.040551627254299422 0.020169901176736726 0 -0.044999935990153804 0.017183347812387843 0 -0.047190537163927293 0.017197659146223006 0 -0.046717408566125766 0.018938250066747413 0 -0.047190537163927293 0.017197659146223006 0 -0.046717408566125766 0.018938250066747413 0 -0.048407967394939244 0.018194361807885789 0 -0.045612617685841843 0.020307763419126892 0 -0.043428098152465296 0.019337309987593726 0 -0.044338925456387887 0.02161060217875815 0 -0.043728301220646047 0.020471509360729799 0 -0.042277271297876971 0.021003747641119803 0 -0.044999935990153804 0.017183347812387843 0 -0.046717408566125766 0.018938250066747413 0 -0.044999962750782212 0.019724627102401481 0 -0.045612617685841843 0.020307763419126892 0 -0.04499974586325866 0.019725191101718591 0 -0.044338925456387887 0.02161060217875815 0 -0.045000628293417548 0.019726905710085441 0 -0.045246833913113786 0.020265597858624768 0 -0.045000628293417548 0.019726905710085441 0 -0.045246833913113786 0.020265597858624768 0 -0.044999186335189879 0.02214360617825227 0 -0.045246833913113786 0.020265597858624768 0 -0.044999186335189879 0.02214360617825227 0 -0.045951669965938635 0.0221201803154168 0 -0.045779492251522495 0.023456920489782984 0 -0.044999186335189879 0.02214360617825227 0 -0.045951669965938635 0.0221201803154168 0 -0.046710083065806846 0.023525192879860168 0 -0.045951669965938635 0.0221201803154168 0 -0.047048430866327713 0.021632308769409199 0 -0.045246833913113786 0.020265597858624768 0 -0.043728301220646047 0.020471509360729799 0 -0.042832820840144656 0.019039455501421158 0 -0.045246833913113786 0.020265597858624768 0 -0.045951669965938635 0.0221201803154168 0 -0.047048430866327713 0.021632308769409199 0 -0.043728301220646047 0.020471509360729799 0 -0.042832820840144656 0.019039455501421158 0 -0.042277271297876971 0.021003747641119803 0 -0.045212402228915226 0.020352667718660705 0 -0.044891112240659628 0.020014543907023358 0 -0.044338925456387887 0.02161060217875815 0 -0.045246833913113786 0.020265597858624768 0 -0.043728301220646047 0.020471509360729799 0 -0.042832820840144656 0.019039455501421158 0 -0.040048966610516087 0.020001556000889924 0 -0.042277271297876971 0.021003747641119803 0 -0.040048966610516087 0.020001556000889924 0 -0.041264497553404313 0.021979266241062889 0 -0.042277271297876971 0.021003747641119803 0 -0.047693390663490001 0.023612383516891652 0 -0.046710083065806846 0.023525192879860168 0 -0.047048430866327713 0.021632308769409199 0 -0.042832820840144656 0.019039455501421158 0 -0.039846635742114042 0.017817613376436361 0 -0.040048966610516087 0.020001556000889924 0 -0.044891112240659628 0.020014543907023358 0 -0.043727918532425289 0.022819894500948276 0 -0.047693390663490001 0.023612383516891652 0 -0.047048430866327713 0.021632308769409199 0 -0.048548239438545665 0.022660920818762132 0 -0.043727918532425289 0.022819894500948276 0 -0.03983531523203946 0.020354038504853171 0 -0.039688586545561358 0.021193200473637958 0 -0.039754349273447724 0.021928370539516819 0 -0.03894270617267058 0.021798720781431233 0 -0.039754349273447724 0.021928370539516819 0 -0.039396146164646602 0.022306287138462468 0 -0.03894270617267058 0.021798720781431233 0 -0.03983531523203946 0.020354038504853171 0 -0.040129354056294586 0.022576482359728443 0 -0.039754349273447724 0.021928370539516819 0 -0.039396146164646602 0.022306287138462468 0 -0.040141971782065078 0.022486547807256368 0 -0.040048966610516087 0.020001556000889924 0 -0.040141971782065078 0.022486547807256368 0 -0.041264497553404313 0.021979266241062889 0 -0.040141971782065078 0.022486547807256368 0 -0.039675105770410307 0.023648869688581469 0 -0.039068986254237568 0.023021051600916137 0 -0.039396146164646602 0.022306287138462468 0 -0.040141971782065078 0.022486547807256368 0 -0.039068986254237568 0.023021051600916137 0 -0.040141971782065078 0.022486547807256368 0 -0.040793697169005765 0.022912454035014528 0 -0.039675105770410307 0.023648869688581469 0 -0.044338925456387887 0.02161060217875815 0 -0.042277271297876971 0.021003747641119803 0 -0.041600667842167476 0.022961622145177198 0 -0.044338925456387887 0.02161060217875815 0 -0.041600667842167476 0.022961622145177198 0 -0.041571890150473363 0.023192546150655934 0 -0.041264497553404313 0.021979266241062889 0 -0.042277271297876971 0.021003747641119803 0 -0.041600667842167476 0.022961622145177198 0 -0.041264497553404313 0.021979266241062889 0 -0.041600667842167476 0.022961622145177198 0 -0.040793697169005765 0.022912454035014528 0 -0.040141971782065078 0.022486547807256368 0 -0.041264497553404313 0.021979266241062889 0 -0.040793697169005765 0.022912454035014528 0 -0.041600667842167476 0.022961622145177198 0 -0.040793697169005765 0.022912454035014528 0 -0.041514827789364384 0.023174048203089756 0 -0.043345983106358683 0.019676484467843012 0 -0.043428098152465296 0.019337309987593726 0 -0.041238528769554417 0.017322876935352671 0 -0.038608534299701069 0.018400475994052794 0 -0.040650190514869226 0.021050323656888113 0 -0.043428098152465296 0.019337309987593726 0 -0.042461171852611487 0.017256605507827417 0 -0.047190537163927293 0.017197659146223006 0 -0.048407967394939244 0.018194361807885789 0 -0.048720670070691835 0.016141006269972558 0 -0.038608534299701069 0.018400475994052794 0 -0.035962458992231924 0.019497141995179466 0 -0.038308935503878108 0.020275657827715475 0 -0.043428098152465296 0.019337309987593726 0 -0.039055796407265274 0.021079762506628689 0 -0.040793697169005765 0.022912454035014528 0 -0.041514827789364384 0.023174048203089756 0 -0.039675105770410307 0.023648869688581469 0 -0.039675105770410307 0.023648869688581469 0 -0.038611950983792886 0.023897623729396723 0 -0.039068986254237568 0.023021051600916137 0 -0.039055796407265274 0.021079762506628689 0 -0.035464891961350178 0.020978086945061404 0 -0.038611950983792886 0.023897623729396723 0 -0.03832386050773727 0.02320826069290996 0 -0.039068986254237568 0.023021051600916137 0 -0.032525478418727133 0.020933418949307933 0 -0.034777435582527334 0.021716673555602715 0 -0.035485927123652478 0.019692939323883094 0 -0.038611950983792886 0.023897623729396723 0 -0.037691637817485413 0.023353562141002593 0 -0.03832386050773727 0.02320826069290996 0 -0.035464891961350178 0.020978086945061404 0 -0.036382239577645852 0.022612132154549804 0 -0.037691637817485413 0.023353562141002593 0 -0.03832386050773727 0.02320826069290996 0 -0.037974476544471149 0.02284531273943214 0 -0.03832386050773727 0.02320826069290996 0 -0.037974476544471149 0.02284531273943214 0 -0.038634154008438525 0.022559269402824704 0 -0.037691637817485413 0.023353562141002593 0 -0.037974476544471149 0.02284531273943214 0 -0.03743078482567655 0.02276211177342706 0 -0.037974476544471149 0.02284531273943214 0 -0.037928824335498226 0.0224020779020211 0 -0.03743078482567655 0.02276211177342706 0 -0.037974476544471149 0.02284531273943214 0 -0.038634154008438525 0.022559269402824704 0 -0.037928824335498226 0.0224020779020211 0 -0.03832386050773727 0.02320826069290996 0 -0.038634154008438525 0.022559269402824704 0 -0.039068986254237568 0.023021051600916137 0 -0.039396146164646602 0.022306287138462468 0 -0.038634154008438525 0.022559269402824704 0 -0.039068986254237568 0.023021051600916137 0 -0.038634154008438525 0.022559269402824704 0 -0.03894270617267058 0.021798720781431233 0 -0.037928824335498226 0.0224020779020211 0 -0.039396146164646602 0.022306287138462468 0 -0.038634154008438525 0.022559269402824704 0 -0.03894270617267058 0.021798720781431233 0 -0.038851538647483613 0.02087126140492012 0 -0.039688586545561358 0.021193200473637958 0 -0.03894270617267058 0.021798720781431233 0 -0.038851538647483613 0.02087126140492012 0 -0.03894270617267058 0.021798720781431233 0 -0.038018048183642572 0.021363620403010247 0 -0.042648313440466275 0.024824959881891075 0 -0.043727918532425289 0.022819894500948276 0 -0.041471877352131051 0.026645550345946699 0 -0.037821136053499703 0.020844089984934682 0 -0.037749470562371289 0.022102124704958984 0 -0.03784331312477919 0.022248489053545567 0 -0.037615468492810139 0.022235294464765687 0 -0.03784331312477919 0.022248489053545567 0 -0.037928824335498226 0.0224020779020211 0 -0.037339649867909087 0.02276657985021888 0 -0.03894270617267058 0.021798720781431233 0 -0.038018048183642572 0.021363620403010247 0 -0.037928824335498226 0.0224020779020211 0 -0.037821136053499703 0.020844089984934682 0 -0.037971785427734106 0.022685979826684147 0 -0.037408361724290205 0.023113915070746508 0 -0.03708496187775346 0.02240421878916634 0 -0.037928824335498226 0.0224020779020211 0 -0.037339649867909087 0.02276657985021888 0 -0.03743078482567655 0.02276211177342706 0 -0.03784331312477919 0.022248489053545567 0 -0.037339649867909087 0.02276657985021888 0 -0.037615468492810139 0.022235294464765687 0 -0.037339649867909087 0.02276657985021888 0 -0.037615468492810139 0.022235294464765687 0 -0.037440010322448605 0.022232607573487235 0 -0.037577541614564149 0.022139986151121983 0 -0.037615468492810139 0.022235294464765687 0 -0.037440010322448605 0.022232607573487235 0 -0.037634129331952759 0.023875138873375168 0 -0.037190085733860088 0.023944258943376456 0 -0.037642697951710338 0.023270866630632377 0 -0.037554503034611067 0.024395709607335506 0 -0.037634129331952759 0.023875138873375168 0 -0.037190085733860088 0.023944258943376456 0 -0.037339649867909087 0.02276657985021888 0 -0.037190085733860088 0.023944258943376456 0 -0.037642697951710338 0.023270866630632377 0 -0.037339649867909087 0.02276657985021888 0 -0.037642697951710338 0.023270866630632377 0 -0.037575695796815078 0.02293190211974756 0 -0.037859514954695007 0.023017198748199418 0 -0.037642697951710338 0.023270866630632377 0 -0.037575695796815078 0.02293190211974756 0 -0.037821593546201231 0.02276490217036654 0 -0.037575695796815078 0.02293190211974756 0 -0.037400909668625693 0.022756039217309555 0 -0.037821593546201231 0.02276490217036654 0 -0.037400909668625693 0.022756039217309555 0 -0.037942852025501787 0.02239467062534654 0 -0.037339649867909087 0.02276657985021888 0 -0.037575695796815078 0.02293190211974756 0 -0.037400909668625693 0.022756039217309555 0 -0.037339649867909087 0.02276657985021888 0 -0.037400909668625693 0.022756039217309555 0 -0.03743078482567655 0.02276211177342706 0 -0.037400909668625693 0.022756039217309555 0 -0.03743078482567655 0.02276211177342706 0 -0.037138237554154227 0.022637355915325539 0 -0.034777435582527334 0.021716673555602715 0 -0.036463287749603571 0.020940870963306449 0 -0.035485927123652478 0.019692939323883094 0 -0.034777435582527334 0.021716673555602715 0 -0.037138237554154227 0.022637355915325539 0 -0.036463287749603571 0.020940870963306449 0 -0.037691637817485413 0.023353562141002593 0 -0.03743078482567655 0.02276211177342706 0 -0.037138237554154227 0.022637355915325539 0 -0.036382239577645852 0.022612132154549804 0 -0.037036643533602205 0.022661490749680092 0 -0.037138237554154227 0.022637355915325539 0 -0.036463287749603571 0.020940870963306449 0 -0.037302773424375053 0.021483664896702923 0 -0.036463287749603571 0.020940870963306449 0 -0.037302773424375053 0.021483664896702923 0 -0.037568430112265891 0.020182582284151089 0 -0.037302773424375053 0.021483664896702923 0 -0.038230378843479636 0.021855320656058951 0 -0.037568430112265891 0.020182582284151089 0 -0.037302773424375053 0.021483664896702923 0 -0.038230378843479636 0.021855320656058951 0 -0.037631081562022307 0.022335172472873605 0 -0.038148113424119806 0.022097147451705674 0 -0.038230378843479636 0.021855320656058951 0 -0.037942852025501787 0.02239467062534654 0 -0.037400909668625693 0.022756039217309555 0 -0.037942852025501787 0.02239467062534654 0 -0.037631081562022307 0.022335172472873605 0 -0.038230378843479636 0.021855320656058951 0 -0.037942852025501787 0.02239467062534654 0 -0.037631081562022307 0.022335172472873605 0 -0.037138237554154227 0.022637355915325539 0 -0.037302773424375053 0.021483664896702923 0 -0.037631081562022307 0.022335172472873605 0 -0.037400909668625693 0.022756039217309555 0 -0.037138237554154227 0.022637355915325539 0 -0.037631081562022307 0.022335172472873605 0 -0.03908643651883819 0.019857770315754173 0 -0.037568430112265891 0.020182582284151089 0 -0.038513006254414416 0.015334637910009035 0 -0.038230378843479636 0.021855320656058951 0 -0.03908643651883819 0.019857770315754173 0 -0.037568430112265891 0.020182582284151089 0 -0.037568430112265891 0.020182582284151089 0 -0.036499377543055919 0.019427852817981203 0 -0.036484995513871493 0.017712854431875917 0 -0.036463287749603571 0.020940870963306449 0 -0.037568430112265891 0.020182582284151089 0 -0.036499377543055919 0.019427852817981203 0 -0.036463287749603571 0.020940870963306449 0 -0.035485927123652478 0.019692939323883094 0 -0.036499377543055919 0.019427852817981203 0 -0.035485927123652478 0.019692939323883094 0 -0.036499377543055919 0.019427852817981203 0 -0.035892189791284446 0.018761987222624659 0 -0.036499377543055919 0.019427852817981203 0 -0.035892189791284446 0.018761987222624659 0 -0.036484995513871493 0.017712854431875917 0 -0.036484995513871493 0.017712854431875917 0 -0.035060783567968587 0.017087045270034483 0 -0.035105714319302123 0.018247221859863653 0 -0.035485927123652478 0.019692939323883094 0 -0.035892189791284446 0.018761987222624659 0 -0.035105714319302123 0.018247221859863653 0 -0.035892189791284446 0.018761987222624659 0 -0.036484995513871493 0.017712854431875917 0 -0.035105714319302123 0.018247221859863653 0 -0.037568430112265891 0.020182582284151089 0 -0.034081377050528355 0.012069407131278109 0 -0.038513006254414416 0.015334637910009035 0 -0.037345720210594541 0.013249325790586339 0 -0.035210979362081195 0.010521841464709639 0 -0.037044951798132122 0.010218472755556292 0 -0.036316685167650534 0.011689442444631893 0 -0.034944295450086996 0.010216452540116196 0 -0.037440044185144163 0.019884680500348636 0 -0.035437769908019244 0.0150076291749112 0 -0.034081377050528355 0.012069407131278109 0 -0.038513006254414416 0.015334637910009035 0 -0.034944295450086996 0.010216452540116196 0 -0.037044951798132122 0.010218472755556292 0 -0.036041908971070506 0.0084701144380773599 0 -0.034944295450086996 0.010216452540116196 0 -0.036058669366467989 0.0083554622540436708 0 -0.035137829696284921 0.0052507674528791508 0 -0.036041908971070506 0.0084701144380773599 0 -0.032670750394439473 0.0075360808402971666 0 -0.035264993975297705 0.0052827641522960921 0 -0.036484995513871493 0.017712854431875917 0 -0.035060783567968587 0.017087045270034483 0 -0.03546119275676568 0.015324154951142059 0 -0.036041908971070506 0.0084701144380773599 0 -0.034944295450086996 0.010216452540116196 0 -0.032670750394439473 0.0075360808402971666 0 -0.034081377050528355 0.012069407131278109 0 -0.034944295450086996 0.010216452540116196 0 -0.032670750394439473 0.0075360808402971666 0 -0.035437769908019244 0.0150076291749112 0 -0.033472947950631125 0.011578918879765226 0 -0.035060783567968587 0.017087045270034483 0 -0.034088909240635026 0.016215909948680544 0 -0.03546119275676568 0.015324154951142059 0 -0.035060783567968587 0.017087045270034483 0 -0.034088909240635026 0.016215909948680544 0 -0.034005411396855312 0.017696235548690074 0 -0.034088909240635026 0.016215909948680544 0 -0.03546119275676568 0.015324154951142059 0 -0.034068710246022427 0.014832851435423759 0 -0.034068710246022427 0.014832851435423759 0 -0.033164475641552664 0.01546561357182793 0 -0.03301590213290951 0.013982629798285112 0 -0.034088909240635026 0.016215909948680544 0 -0.034068710246022427 0.014832851435423759 0 -0.033164475641552664 0.01546561357182793 0 -0.034088909240635026 0.016215909948680544 0 -0.033164475641552664 0.01546561357182793 0 -0.032805143266794616 0.01685751364740291 0 -0.034088909240635026 0.016215909948680544 0 -0.032805143266794616 0.01685751364740291 0 -0.034005411396855312 0.017696235548690074 0 -0.032805143266794616 0.01685751364740291 0 -0.034005411396855312 0.017696235548690074 0 -0.032660253549099447 0.018578818317394982 0 -0.034005411396855312 0.017696235548690074 0 -0.033988324959455064 0.019024916741919778 0 -0.032660253549099447 0.018578818317394982 0 -0.035060783567968587 0.017087045270034483 0 -0.034005411396855312 0.017696235548690074 0 -0.035105714319302123 0.018247221859863653 0 -0.034005411396855312 0.017696235548690074 0 -0.035105714319302123 0.018247221859863653 0 -0.033988324959455064 0.019024916741919778 0 -0.035485927123652478 0.019692939323883094 0 -0.035105714319302123 0.018247221859863653 0 -0.033988324959455064 0.019024916741919778 0 -0.035464891961350178 0.020978086945061404 0 -0.034449096846458284 0.019823675844312019 0 -0.033575066367005017 0.020330062363228353 0 -0.035485927123652478 0.019692939323883094 0 -0.033988324959455064 0.019024916741919778 0 -0.033575066367005017 0.020330062363228353 0 -0.033145324127680648 0.019461105877431564 0 -0.033988324959455064 0.019024916741919778 0 -0.033575066367005017 0.020330062363228353 0 -0.033145324127680648 0.019461105877431564 0 -0.032344084590647249 0.019896898191229497 0 -0.035464891961350178 0.020978086945061404 0 -0.034509568973044538 0.019622348492297575 0 -0.033145324127680648 0.019461105877431564 0 -0.033988324959455064 0.019024916741919778 0 -0.032660253549099447 0.018578818317394982 0 -0.033145324127680648 0.019461105877431564 0 -0.032344084590647249 0.019896898191229497 0 -0.032660253549099447 0.018578818317394982 0 -0.038608534299701069 0.018400475994052794 0 -0.038308935503878108 0.020275657827715475 0 -0.040650190514869226 0.021050323656888113 0 -0.032344084590647249 0.019896898191229497 0 -0.031103061241971194 0.019452461998821009 0 -0.032660253549099447 0.018578818317394982 0 -0.031129626215065164 0.019236519071696875 0 -0.031103061241971194 0.019452461998821009 0 -0.032660253549099447 0.018578818317394982 0 -0.034509568973044538 0.019622348492297575 0 -0.042461171852611487 0.017256605507827417 0 -0.047190537163927293 0.017197659146223006 0 -0.048720670070691835 0.016141006269972558 0 -0.047084815711160188 0.015522406053888828 0 -0.048669654787329236 0.015843172397902259 0 -0.048634754072972367 0.01604584844035958 0 -0.047084815711160188 0.015522406053888828 0 -0.042461171852611487 0.017256605507827417 0 -0.049264586701566755 0.015946955045341566 0 -0.04080552789520956 0.017404754946524142 0 -0.042461171852611487 0.017256605507827417 0 -0.04080552789520956 0.017404754946524142 0 -0.035132318732139116 0.016992577846838514 0 -0.04080552789520956 0.017404754946524142 0 -0.043976510749400628 0.015165675944188006 0 -0.048669654787329236 0.015843172397902259 0 -0.048283744871528145 0.014396220228571574 0 -0.047084815711160188 0.015522406053888828 0 -0.039898931001864833 0.017033603606234134 0 -0.039452541579073311 0.015589893789514473 0 -0.040153220394256318 0.015185374430823491 0 -0.048283744871528145 0.014396220228571574 0 -0.047678121400518157 0.013766284875559512 0 -0.047277856622389328 0.014377788647348254 0 -0.031129626215065164 0.019236519071696875 0 -0.032660253549099447 0.018578818317394982 0 -0.031346791627933773 0.017291277865942735 0 -0.032805143266794616 0.01685751364740291 0 -0.032660253549099447 0.018578818317394982 0 -0.031346791627933773 0.017291277865942735 0 -0.032805143266794616 0.01685751364740291 0 -0.031346791627933773 0.017291277865942735 0 -0.031656181671519262 0.015015514881064269 0 -0.035132318732139116 0.016992577846838514 0 -0.037798956211726416 0.011727482518620319 0 -0.033164475641552664 0.01546561357182793 0 -0.032805143266794616 0.01685751364740291 0 -0.031656181671519262 0.015015514881064269 0 -0.033164475641552664 0.01546561357182793 0 -0.031656181671519262 0.015015514881064269 0 -0.03301590213290951 0.013982629798285112 0 -0.037798956211726416 0.011727482518620319 0 -0.036446040241256097 0.011093321276095884 0 -0.037798956211726416 0.011727482518620319 0 -0.042987876270598503 0.012504575424089743 0 -0.042987876270598503 0.012504575424089743 0 -0.042891722151969618 0.0093925607274608688 0 -0.040019522891214805 0.0088573999585537019 0 -0.038798070054757827 0.0097850221785141384 0 -0.038350546467995253 0.0081630194975704645 0 -0.043976510749400628 0.015165675944188006 0 -0.042987876270598503 0.012504575424089743 0 -0.039452541579073311 0.015589893789514473 0 -0.040153220394256318 0.015185374430823491 0 -0.039067139475678372 0.014164069858768702 0 -0.040153220394256318 0.015185374430823491 0 -0.040439535438552228 0.013144739725033026 0 -0.039067139475678372 0.014164069858768702 0 -0.048283744871528145 0.014396220228571574 0 -0.047888597073725316 0.012916524457965126 0 -0.047678121400518157 0.013766284875559512 0 -0.047678121400518157 0.013766284875559512 0 -0.047256541729250423 0.013379867978893274 0 -0.047277856622389328 0.014377788647348254 0 -0.047256541729250423 0.013379867978893274 0 -0.046311322398903218 0.012885987836289898 0 -0.046088101430496853 0.013920810725608421 0 -0.047256541729250423 0.013379867978893274 0 -0.046088101430496853 0.013920810725608421 0 -0.047277856622389328 0.014377788647348254 0 -0.047256541729250423 0.013379867978893274 0 -0.046904422606017078 0.012144311317840035 0 -0.046311322398903218 0.012885987836289898 0 -0.047923540911104089 0.012876436992574137 0 -0.047256541729250423 0.013379867978893274 0 -0.046904422606017078 0.012144311317840035 0 -0.047888597073725316 0.012916524457965126 0 -0.047678121400518157 0.013766284875559512 0 -0.047256541729250423 0.013379867978893274 0 -0.042987876270598503 0.012504575424089743 0 -0.046783266704571898 0.011967440325405714 0 -0.047923540911104089 0.012876436992574137 0 -0.046904422606017078 0.012144311317840035 0 -0.047403518973756165 0.010983749187371258 0 -0.046904422606017078 0.012144311317840035 0 -0.047403518973756165 0.010983749187371258 0 -0.046339389072435684 0.010837689994218804 0 -0.046904422606017078 0.012144311317840035 0 -0.04499979595138217 0.012100674063697466 0 -0.046311322398903218 0.012885987836289898 0 -0.046904422606017078 0.012144311317840035 0 -0.04499979595138217 0.012100674063697466 0 -0.046339389072435684 0.010837689994218804 0 -0.04499979595138217 0.012100674063697466 0 -0.046088101430496853 0.013920810725608421 0 -0.044999966253638349 0.014641913819803178 0 -0.04499979595138217 0.012100674063697466 0 -0.046311322398903218 0.012885987836289898 0 -0.046088101430496853 0.013920810725608421 0 -0.046088101430496853 0.013920810725608421 0 -0.044999966253638349 0.014641913819803178 0 -0.047084815711160188 0.015522406053888828 0 -0.046088101430496853 0.013920810725608421 0 -0.047277856622389328 0.014377788647348254 0 -0.047084815711160188 0.015522406053888828 0 -0.048283744871528145 0.014396220228571574 0 -0.047277856622389328 0.014377788647348254 0 -0.047084815711160188 0.015522406053888828 0 -0.044999935990153804 0.017183347812387843 0 -0.047190537163927293 0.017197659146223006 0 -0.047084815711160188 0.015522406053888828 0 -0.044999935990153804 0.017183347812387843 0 -0.044999966253638349 0.014641913819803178 0 -0.047084815711160188 0.015522406053888828 0 -0.045900422925700533 0.0064296546270132563 0 -0.044999950279039684 0.006904774783592537 0 -0.044999890718410242 0.0042629052236227401 0 -0.045900422925700533 0.0064296546270132563 0 -0.046681074649898041 0.0057925122453682748 0 -0.046300587944371537 0.007403747440188976 0 -0.045900422925700533 0.0064296546270132563 0 -0.044999950279039684 0.006904774783592537 0 -0.046300587944371537 0.007403747440188976 0 -0.046681074649898041 0.0057925122453682748 0 -0.046402277308520534 0.0070472718257970964 0 -0.046225368644327886 0.0073233499442043951 0 -0.046661908980218117 0.0059780388700807199 0 -0.045663365455815515 0.007157061501964628 0 -0.04407441795046288 0.0065815024553350938 0 -0.042738993984793763 0.0048983512615059571 0 -0.046681074649898041 0.0057925122453682748 0 -0.046402277308520534 0.0070472718257970964 0 -0.047368621893907052 0.0054915074710950229 0 -0.037664819941567652 0.0051577328362814347 0 -0.038494577561232562 0.0052493887441317872 0 -0.038424225705277766 0.0039476596148662283 0 -0.04407441795046288 0.0065815024553350938 0 -0.04225546342766355 0.0077448745282928718 0 -0.046332024746318423 0.0072016987828497818 0 -0.046158914365648417 0.0074884932264834055 0 -0.046875692713885836 0.0091032964860062095 0 -0.038494577561232562 0.0052493887441317872 0 -0.03798415670464296 0.006584102694465647 0 -0.03901826791717404 0.006080290921092987 0 -0.037664819941567652 0.0051577328362814347 0 -0.038494577561232562 0.0052493887441317872 0 -0.03798415670464296 0.006584102694465647 0 -0.04407441795046288 0.0065815024553350938 0 -0.045663365455815515 0.007157061501964628 0 -0.044999950279039684 0.006904774783592537 0 -0.046300587944371537 0.007403747440188976 0 -0.045000011568091747 0.0095466709413026176 0 -0.045663365455815515 0.007157061501964628 0 -0.045673906783166823 0.0098378514449246803 0 -0.045663365455815515 0.007157061501964628 0 -0.045000655419388365 0.0095463383637751642 0 -0.046298887813050853 0.0074354683145800909 0 -0.04565865729246376 0.009758914356857884 0 -0.044999984379520283 0.0095466832180950787 0 -0.046158914365648417 0.0074884932264834055 0 -0.0455537551577107 0.0098260261893040185 0 -0.046875692713885836 0.0091032964860062095 0 -0.04499979595138217 0.012100674063697466 0 -0.0455537551577107 0.0098260261893040185 0 -0.046339389072435684 0.010837689994218804 0 -0.045000002979422866 0.012100522224425843 0 -0.04565865729246376 0.009758914356857884 0 -0.044999984379520283 0.0095466832180950787 0 -0.0455537551577107 0.0098260261893040185 0 -0.046339389072435684 0.010837689994218804 0 -0.046875692713885836 0.0091032964860062095 0 -0.045000080249954437 0.01210003418364509 0 -0.045673906783166823 0.0098378514449246803 0 -0.038350546467995253 0.0081630194975704645 0 -0.03798415670464296 0.006584102694465647 0 -0.039089672588443945 0.0072449102275801546 0 -0.047403518973756165 0.010983749187371258 0 -0.046339389072435684 0.010837689994218804 0 -0.046875692713885836 0.0091032964860062095 0 -0.042891722151969618 0.0093925607274608688 0 -0.04225546342766355 0.0077448745282928718 0 -0.03798415670464296 0.006584102694465647 0 -0.039089672588443945 0.0072449102275801546 0 -0.03901826791717404 0.006080290921092987 0 -0.039089672588443945 0.0072449102275801546 0 -0.039714259051559231 0.0061519309054409591 0 -0.03901826791717404 0.006080290921092987 0 -0.040019522891214805 0.0088573999585537019 0 -0.038350546467995253 0.0081630194975704645 0 -0.039089672588443945 0.0072449102275801546 0 -0.037798956211726416 0.011727482518620319 0 -0.040310295679249097 0.0062056904177865743 0 -0.040019522891214805 0.0088573999585537019 0 -0.039089672588443945 0.0072449102275801546 0 -0.040242030919010643 0.0070902233247224821 0 -0.039529154093140617 0.00842039096569786 0 -0.039860734171673622 0.0067456999233140892 0 -0.040594868187767162 0.0076177806303329787 0 -0.039089672588443945 0.0072449102275801546 0 -0.040242030919010643 0.0070902233247224821 0 -0.039714259051559231 0.0061519309054409591 0 -0.040242030919010643 0.0070902233247224821 0 -0.039714259051559231 0.0061519309054409591 0 -0.04039207899568209 0.005329249279553935 0 -0.039860734171673622 0.0067456999233140892 0 -0.040407413750485323 0.0054417096738292019 0 -0.040466770924641765 0.0061023928560942353 0 -0.040310295679249097 0.0062056904177865743 0 -0.040279398658133153 0.0057527234398487481 0 -0.039860734171673622 0.0067456999233140892 0 -0.040407413750485323 0.0054417096738292019 0 -0.04039207899568209 0.005329249279553935 0 -0.040607126265916338 0.0052700085682049758 0 -0.040511358550384076 0.0051143673261483859 0 -0.04089265371058097 0.0051663538498390406 0 -0.040607126265916338 0.0052700085682049758 0 -0.040407413750485323 0.0054417096738292019 0 -0.04089265371058097 0.0051663538498390406 0 -0.040607126265916338 0.0052700085682049758 0 -0.04039207899568209 0.005329249279553935 0 -0.040511358550384076 0.0051143673261483859 0 -0.040607126265916338 0.0052700085682049758 0 -0.040407413750485323 0.0054417096738292019 0 -0.04039207899568209 0.005329249279553935 0 -0.04039207899568209 0.005329249279553935 0 -0.040173297472805895 0.0052188718893359486 0 -0.039948962235782003 0.0054471819570402046 0 -0.04039207899568209 0.005329249279553935 0 -0.040173297472805895 0.0052188718893359486 0 -0.04029957030054352 0.0050604271593223497 0 -0.04039207899568209 0.005329249279553935 0 -0.04029957030054352 0.0050604271593223497 0 -0.040511358550384076 0.0051143673261483859 0 -0.04029957030054352 0.0050604271593223497 0 -0.040561393908759492 0.0048457425715306458 0 -0.040149302280315297 0.0046945690349235441 0 -0.04029957030054352 0.0050604271593223497 0 -0.040057362018109978 0.0050327896183601766 0 -0.040149302280315297 0.0046945690349235441 0 -0.040173297472805895 0.0052188718893359486 0 -0.04029957030054352 0.0050604271593223497 0 -0.040057362018109978 0.0050327896183601766 0 -0.040561393908759492 0.0048457425715306458 0 -0.040511358550384076 0.0051143673261483859 0 -0.04089265371058097 0.0051663538498390406 0 -0.04029957030054352 0.0050604271593223497 0 -0.040561393908759492 0.0048457425715306458 0 -0.040511358550384076 0.0051143673261483859 0 -0.039948962235782003 0.0054471819570402046 0 -0.039584820389298787 0.0057102903639292485 0 -0.039606896607537669 0.0047990601520953744 0 -0.040057362018109978 0.0050327896183601766 0 -0.039948962235782003 0.0054471819570402046 0 -0.039606896607537669 0.0047990601520953744 0 -0.040173297472805895 0.0052188718893359486 0 -0.040057362018109978 0.0050327896183601766 0 -0.039948962235782003 0.0054471819570402046 0 -0.039714259051559231 0.0061519309054409591 0 -0.039948962235782003 0.0054471819570402046 0 -0.039584820389298787 0.0057102903639292485 0 -0.039714259051559231 0.0061519309054409591 0 -0.04039207899568209 0.005329249279553935 0 -0.039948962235782003 0.0054471819570402046 0 -0.039097317421155298 0.0059229139762366932 0 -0.038607767621426044 0.0043375093864040266 0 -0.03901826791717404 0.006080290921092987 0 -0.038875899777964899 0.0040787087959435562 0 -0.039606896607537669 0.0047990601520953744 0 -0.038494577561232562 0.0052493887441317872 0 -0.03901826791717404 0.006080290921092987 0 -0.039144781271747586 0.0044380633662043523 0 -0.039714259051559231 0.0061519309054409591 0 -0.039584820389298787 0.0057102903639292485 0 -0.03901826791717404 0.006080290921092987 0 -0.039584820389298787 0.0057102903639292485 0 -0.03901826791717404 0.006080290921092987 0 -0.039606896607537669 0.0047990601520953744 0 -0.038494577561232562 0.0052493887441317872 0 -0.039144781271747586 0.0044380633662043523 0 -0.038424225705277766 0.0039476596148662283 0 -0.038875899777964899 0.0040787087959435562 0 -0.039910734460418207 0.0040663249537092961 0 -0.039606896607537669 0.0047990601520953744 0 -0.038875899777964899 0.0040787087959435562 0 -0.039910734460418207 0.0040663249537092961 0 -0.039683460309400329 0.003103627512772615 0 -0.039910734460418207 0.0040663249537092961 0 -0.04045379059409715 0.0043552626528311576 0 -0.040670567958464826 0.003473995299977892 0 -0.04045379059409715 0.0043552626528311576 0 -0.04096757873619359 0.004495286831103628 0 -0.040670567958464826 0.003473995299977892 0 -0.039910734460418207 0.0040663249537092961 0 -0.04045379059409715 0.0043552626528311576 0 -0.040149302280315297 0.0046945690349235441 0 -0.040561393908759492 0.0048457425715306458 0 -0.04045379059409715 0.0043552626528311576 0 -0.04096757873619359 0.004495286831103628 0 -0.040561393908759492 0.0048457425715306458 0 -0.04045379059409715 0.0043552626528311576 0 -0.040149302280315297 0.0046945690349235441 0 -0.040057362018109978 0.0050327896183601766 0 -0.040149302280315297 0.0046945690349235441 0 -0.039606896607537669 0.0047990601520953744 0 -0.039910734460418207 0.0040663249537092961 0 -0.040149302280315297 0.0046945690349235441 0 -0.039606896607537669 0.0047990601520953744 0 -0.041641438245185014 0.004247496571783734 0 -0.042114515153095222 0.0032752274394275017 0 -0.040670567958464826 0.003473995299977892 0 -0.041641438245185014 0.004247496571783734 0 -0.042147753415955717 0.0049076213050828175 0 -0.041550237331656907 0.0049245289204588533 0 -0.041641438245185014 0.004247496571783734 0 -0.04096757873619359 0.004495286831103628 0 -0.041550237331656907 0.0049245289204588533 0 -0.041641438245185014 0.004247496571783734 0 -0.04096757873619359 0.004495286831103628 0 -0.040670567958464826 0.003473995299977892 0 -0.041641438245185014 0.004247496571783734 0 -0.042503303845438239 0.0042797499670772831 0 -0.042114515153095222 0.0032752274394275017 0 -0.042503303845438239 0.0042797499670772831 0 -0.043070595960484584 0.0052501692265113122 0 -0.043614935991896801 0.0036409225468436342 0 -0.042503303845438239 0.0042797499670772831 0 -0.043614935991896801 0.0036409225468436342 0 -0.042114515153095222 0.0032752274394275017 0 -0.041641438245185014 0.004247496571783734 0 -0.042503303845438239 0.0042797499670772831 0 -0.042147753415955717 0.0049076213050828175 0 -0.043070595960484584 0.0052501692265113122 0 -0.042182079069968528 0.0056072703078696128 0 -0.043802459624877478 0.0058181986444153866 0 -0.042147753415955717 0.0049076213050828175 0 -0.042182079069968528 0.0056072703078696128 0 -0.041550237331656907 0.0049245289204588533 0 -0.042457054273929776 0.0058873303214706622 0 -0.039158127890800622 0.0040958521630205308 0 -0.042147753415955717 0.0049076213050828175 0 -0.043070595960484584 0.0052501692265113122 0 -0.042182079069968528 0.0056072703078696128 0 -0.042503303845438239 0.0042797499670772831 0 -0.042147753415955717 0.0049076213050828175 0 -0.043070595960484584 0.0052501692265113122 0 -0.040168698541638619 0.0053997873090997888 0 -0.042457054273929776 0.0058873303214706622 0 -0.042182079069968528 0.0056072703078696128 0 -0.041550237331656907 0.0049245289204588533 0 -0.04089265371058097 0.0051663538498390406 0 -0.041223833313132084 0.0057575212416032919 0 -0.040964841568932459 0.0058198587190725782 0 -0.040687217790537591 0.0057325397488532806 0 -0.040407413750485323 0.0054417096738292019 0 -0.041223833313132084 0.0057575212416032919 0 -0.040687217790537591 0.0057325397488532806 0 -0.040407413750485323 0.0054417096738292019 0 -0.042182079069968528 0.0056072703078696128 0 -0.04089265371058097 0.0051663538498390406 0 -0.04096757873619359 0.004495286831103628 0 -0.041550237331656907 0.0049245289204588533 0 -0.04089265371058097 0.0051663538498390406 0 -0.040561393908759492 0.0048457425715306458 0 -0.04096757873619359 0.004495286831103628 0 -0.04089265371058097 0.0051663538498390406 0 -0.040407413750485323 0.0054417096738292019 0 -0.040687217790537591 0.0057325397488532806 0 -0.040466770924641765 0.0061023928560942353 0 -0.040964841568932459 0.0058198587190725782 0 -0.040687217790537591 0.0057325397488532806 0 -0.040751495542026825 0.0060382648901422132 0 -0.040964841568932459 0.0058198587190725782 0 -0.040894298902255023 0.0064850562607773159 0 -0.041543676612502738 0.0068564665298762161 0 -0.039860734171673622 0.0067456999233140892 0 -0.040466770924641765 0.0061023928560942353 0 -0.040894298902255023 0.0064850562607773159 0 -0.040687217790537591 0.0057325397488532806 0 -0.040466770924641765 0.0061023928560942353 0 -0.040751495542026825 0.0060382648901422132 0 -0.04137717014559511 0.006177733237198205 0 -0.037101234639781745 0.0072482273044007939 0 -0.040466770924641765 0.0061023928560942353 0 -0.040751495542026825 0.0060382648901422132 0 -0.040894298902255023 0.0064850562607773159 0 -0.040964841568932459 0.0058198587190725782 0 -0.040751495542026825 0.0060382648901422132 0 -0.040894298902255023 0.0064850562607773159 0 -0.039860734171673622 0.0067456999233140892 0 -0.040894298902255023 0.0064850562607773159 0 -0.040594868187767162 0.0076177806303329787 0 -0.040894298902255023 0.0064850562607773159 0 -0.040594868187767162 0.0076177806303329787 0 -0.041543676612502738 0.0068564665298762161 0 -0.034068710246022427 0.014832851435423759 0 -0.03301590213290951 0.013982629798285112 0 -0.034420099904409376 0.01292675051406513 0 -0.036446040241256097 0.011093321276095884 0 -0.037101234639781745 0.0072482273044007939 0 -0.033472947950631125 0.011578918879765226 0 -0.037101234639781745 0.0072482273044007939 0 -0.032670750394439473 0.0075360808402971666 0 -0.031324245666901222 0.0043825023581444689 0 -0.034114748391983557 0.0040086885171805144 0 -0.03546119275676568 0.015324154951142059 0 -0.034068710246022427 0.014832851435423759 0 -0.034420099904409376 0.01292675051406513 0 -0.041223833313132084 0.0057575212416032919 0 -0.040964841568932459 0.0058198587190725782 0 -0.041178072155655859 0.0061911524119530811 0 -0.041223833313132084 0.0057575212416032919 0 -0.041178072155655859 0.0061911524119530811 0 -0.041621496679469204 0.00582142743814207 0 -0.037101234639781745 0.0072482273044007939 0 -0.039158127890800622 0.0040958521630205308 0 -0.031324245666901222 0.0043825023581444689 0 -0.034114748391983557 0.0040086885171805144 0 -0.034188076555074637 0.0023038606239037928 0 -0.034114748391983557 0.0040086885171805144 0 -0.035264993975297705 0.0052827641522960921 0 -0.03459836359208121 0.0023664074020646065 0 -0.034114748391983557 0.0040086885171805144 0 -0.03459836359208121 0.0023664074020646065 0 -0.034188076555074637 0.0023038606239037928 0 -0.032670750394439473 0.0075360808402971666 0 -0.034114748391983557 0.0040086885171805144 0 -0.035264993975297705 0.0052827641522960921 0 -0.036041908971070506 0.0084701144380773599 0 -0.035470517784051102 0.0055038800582482466 0 -0.037847823942527711 0.0057015705188300765 0 -0.035470517784051102 0.0055038800582482466 0 -0.03668795486382543 0.004236542781685327 0 -0.037847823942527711 0.0057015705188300765 0 -0.035470517784051102 0.0055038800582482466 0 -0.03668795486382543 0.004236542781685327 0 -0.034762018272497586 0.0024783620834545215 0 -0.03668795486382543 0.004236542781685327 0 -0.034762018272497586 0.0024783620834545215 0 -0.038581740028222254 0.0031199449477240029 0 -0.035137829696284921 0.0052507674528791508 0 -0.036870599652512985 0.0030327785994218219 0 -0.036870599652512985 0.0030327785994218219 0 -0.038102357515922121 0.0029293349366442743 0 -0.037720721752532764 0.002153106600307631 0 -0.037260479018496516 0.0026324251914339905 0 -0.038581740028222254 0.0031199449477240029 0 -0.037720721752532764 0.002153106600307631 0 -0.037231520782593681 0.0025036431299545418 0 -0.037260479018496516 0.0026324251914339905 0 -0.037842007455868902 0.0026346226244608919 0 -0.038214270159974542 0.0036768510878323899 0 -0.037720721752532764 0.002153106600307631 0 -0.03711849734445017 0.0025994621892369433 0 -0.036785626976653864 0.00074321896751022485 0 -0.043070595960484584 0.0052501692265113122 0 -0.044000133026042484 0.0056783670718624658 0 -0.043614935991896801 0.0036409225468436342 0 -0.038214270159974542 0.0036768510878323899 0 -0.036870599652512985 0.0030327785994218219 0 -0.038503299877158281 0.0037322031720167887 0 -0.038673814101308074 0.0044794524041598966 0 -0.037680448707217679 0.0043269913868614453 0 -0.036870599652512985 0.0030327785994218219 0 -0.039158127890800622 0.0040958521630205308 0 -0.038214270159974542 0.0036768510878323899 0 -0.039158127890800622 0.0040958521630205308 0 -0.043070595960484584 0.0052501692265113122 0 -0.044000133026042484 0.0056783670718624658 0 -0.043802459624877478 0.0058181986444153866 0 -0.038214270159974542 0.0036768510878323899 0 -0.040545522266029782 0.0023053557641192599 0 -0.037720721752532764 0.002153106600307631 0 -0.038360245072610114 0.00062506713831642785 0 -0.038868518999621841 0.0016994243569850903 0 -0.037720721752532764 0.002153106600307631 0 -0.036785626976653864 0.00074321896751022485 0 -0.038360245072610114 0.00062506713831642785 0 -0.036785626976653864 0.00074321896751022485 0 -0.038360245072610114 0.00062506713831642785 0 -0.037975298826440955 -0.00085107912928469105 0 -0.038360245072610114 0.00062506713831642785 0 -0.037975298826440955 -0.00085107912928469105 0 -0.039252143764587778 -0.00048542191313405821 0 -0.040545522266029782 0.0023053557641192599 0 -0.039548010481543161 0.00021152050679410739 0 -0.036785626976653864 0.00074321896751022485 0 -0.036370783220137988 -0.0013378144999218666 0 -0.037975298826440955 -0.00085107912928469105 0 -0.036370783220137988 -0.0013378144999218666 0 -0.037975298826440955 -0.00085107912928469105 0 -0.037597854428678107 -0.002888352193291247 0 -0.037975298826440955 -0.00085107912928469105 0 -0.037597854428678107 -0.002888352193291247 0 -0.039578030074446748 -0.0022514944310596417 0 -0.038356258679320104 -0.003127921802489152 0 -0.039835870645714956 -0.0022764470518526528 0 -0.040401029101424624 -0.003485182362652153 0 -0.040132869653937316 -0.0031515186938109868 0 -0.040110714913485161 -0.003185713499797438 0 -0.040132869653937316 -0.0031515186938109868 0 -0.039578030074446748 -0.0022514944310596417 0 -0.040110714913485161 -0.003185713499797438 0 -0.040401029101424624 -0.003485182362652153 0 -0.040132869653937316 -0.0031515186938109868 0 -0.040457577485269978 -0.0035080169338464642 0 -0.038356258679320104 -0.003127921802489152 0 -0.040875193028052953 -0.003045281538983727 0 -0.036370783220137988 -0.0013378144999218666 0 -0.037597854428678107 -0.002888352193291247 0 -0.035946620038166635 -0.0035061462093735115 0 -0.043193487538910363 0.0014819275231975296 0 -0.042734794706882559 -0.00069302929479139145 0 -0.04148892150579981 0.00023202510715219493 0 -0.039548010481543161 0.00021152050679410739 0 -0.040875193028052953 -0.003045281538983727 0 -0.042734794706882559 -0.00069302929479139145 0 -0.041014595422891507 -0.0013747190673452101 0 -0.04148892150579981 0.00023202510715219493 0 -0.041014595422891507 -0.0013747190673452101 0 -0.04148892150579981 0.00023202510715219493 0 -0.039957630965291473 0.00033202550598273217 0 -0.040875193028052953 -0.003045281538983727 0 -0.044668981022576972 -0.0041096750803926163 0 -0.04148892150579981 0.00023202510715219493 0 -0.041248379226401621 0.0017766691123867757 0 -0.039957630965291473 0.00033202550598273217 0 -0.043193487538910363 0.0014819275231975296 0 -0.041248379226401621 0.0017766691123867757 0 -0.042114515153095222 0.0032752274394275017 0 -0.043193487538910363 0.0014819275231975296 0 -0.04148892150579981 0.00023202510715219493 0 -0.041248379226401621 0.0017766691123867757 0 -0.043614935991896801 0.0036409225468436342 0 -0.043193487538910363 0.0014819275231975296 0 -0.042114515153095222 0.0032752274394275017 0 -0.041248379226401621 0.0017766691123867757 0 -0.042114515153095222 0.0032752274394275017 0 -0.040670567958464826 0.003473995299977892 0 -0.041248379226401621 0.0017766691123867757 0 -0.040670567958464826 0.003473995299977892 0 -0.040093490799552184 0.0021485049601033947 0 -0.040670567958464826 0.003473995299977892 0 -0.039683460309400329 0.003103627512772615 0 -0.040093490799552184 0.0021485049601033947 0 -0.039683460309400329 0.003103627512772615 0 -0.038898663621212172 0.0020523221188034602 0 -0.040093490799552184 0.0021485049601033947 0 -0.039910734460418207 0.0040663249537092961 0 -0.040670567958464826 0.003473995299977892 0 -0.039683460309400329 0.003103627512772615 0 -0.04293141428428008 0.0021042412700783752 0 -0.042738993984793763 0.0048983512615059571 0 -0.038607767621426044 0.0043375093864040266 0 -0.04293141428428008 0.0021042412700783752 0 -0.038875899777964899 0.0040787087959435562 0 -0.039683460309400329 0.003103627512772615 0 -0.038898663621212172 0.0020523221188034602 0 -0.039144781271747586 0.0044380633662043523 0 -0.039252897533469375 0.0026895949080654909 0 -0.038424225705277766 0.0039476596148662283 0 -0.04293141428428008 0.0021042412700783752 0 -0.043501117917641503 -0.0010866651566910123 0 -0.038898663621212172 0.0020523221188034602 0 -0.040093490799552184 0.0021485049601033947 0 -0.039957630965291473 0.00033202550598273217 0 -0.041248379226401621 0.0017766691123867757 0 -0.040093490799552184 0.0021485049601033947 0 -0.039957630965291473 0.00033202550598273217 0 -0.047219478900445845 -0.0025555435049056849 0 -0.047067631181227233 -0.0036356966886202727 0 -0.045755710435099933 -0.0029647453276235129 0 -0.048468681798833804 -0.0048000225473152575 0 -0.047067631181227233 -0.0036356966886202727 0 -0.046660895227968333 -0.0041906721270959504 0 -0.044668981022576972 -0.0041096750803926163 0 -0.043501117917641503 -0.0010866651566910123 0 -0.048468681798833804 -0.0048000225473152575 0 -0.047219478900445845 -0.0025555435049056849 0 -0.047067631181227233 -0.0036356966886202727 0 -0.048468681798833804 -0.0048000225473152575 0 -0.046660895227968333 -0.0041906721270959504 0 -0.04648834543211583 -0.0048626224592379199 0 -0.048116542890499096 -0.00099546088902087676 0 -0.048314948717627301 0.0015519255293914929 0 -0.047373924443857449 0.00029479503471468641 0 -0.047089199742535719 -0.0031441891801603002 0 -0.047476559856696549 -0.00074077378874494492 0 -0.046660895227968333 -0.0041906721270959504 0 -0.04648834543211583 -0.0048626224592379199 0 -0.045755710435099933 -0.0029647453276235129 0 -0.046272044915342272 -0.0055509183957663279 0 -0.04648834543211583 -0.0048626224592379199 0 -0.045755710435099933 -0.0029647453276235129 0 -0.047067631181227233 -0.0036356966886202727 0 -0.046660895227968333 -0.0041906721270959504 0 -0.045755710435099933 -0.0029647453276235129 0 -0.048314948717627301 0.0015519255293914929 0 -0.04719168144468644 0.0013813855275101726 0 -0.047373924443857449 0.00029479503471468641 0 -0.04293141428428008 0.0021042412700783752 0 -0.047476559856696549 -0.00074077378874494492 0 -0.048314948717627301 0.0015519255293914929 0 -0.047331558808489778 0.0026840467026152041 0 -0.04719168144468644 0.0013813855275101726 0 -0.045637175512124047 1.4701152581288718e-05 0 -0.047219478900445845 -0.0025555435049056849 0 -0.045755710435099933 -0.0029647453276235129 0 -0.048317840492492097 0.003873460187489079 0 -0.048314948717627301 0.0015519255293914929 0 -0.047331558808489778 0.0026840467026152041 0 -0.047331558808489778 0.0026840467026152041 0 -0.046291449402098228 0.0023674348145110479 0 -0.04719168144468644 0.0013813855275101726 0 -0.046291449402098228 0.0023674348145110479 0 -0.04719168144468644 0.0013813855275101726 0 -0.046423122085381061 0.00031652270889918264 0 -0.04719168144468644 0.0013813855275101726 0 -0.046423122085381061 0.00031652270889918264 0 -0.047373924443857449 0.00029479503471468641 0 -0.047033360327605217 -0.00076029908884219237 0 -0.046423122085381061 0.00031652270889918264 0 -0.047373924443857449 0.00029479503471468641 0 -0.044999470194335985 -0.0010214407465250247 0 -0.046423122085381061 0.00031652270889918264 0 -0.044999832097226203 0.0016209967677694604 0 -0.046291449402098228 0.0023674348145110479 0 -0.044999832097226203 0.0016209967677694604 0 -0.044999890718410242 0.0042629052236227401 0 -0.046291449402098228 0.0023674348145110479 0 -0.046423122085381061 0.00031652270889918264 0 -0.044999832097226203 0.0016209967677694604 0 -0.046291449402098228 0.0023674348145110479 0 -0.046575525375067178 0.0041905479329866473 0 -0.044999890718410242 0.0042629052236227401 0 -0.047331558808489778 0.0026840467026152041 0 -0.046291449402098228 0.0023674348145110479 0 -0.046575525375067178 0.0041905479329866473 0 -0.048317840492492097 0.003873460187489079 0 -0.047331558808489778 0.0026840467026152041 0 -0.046575525375067178 0.0041905479329866473 0 -0.048317840492492097 0.003873460187489079 0 -0.046575525375067178 0.0041905479329866473 0 -0.047368621893907052 0.0054915074710950229 0 -0.046681074649898041 0.0057925122453682748 0 -0.046575525375067178 0.0041905479329866473 0 -0.047368621893907052 0.0054915074710950229 0 -0.045900422925700533 0.0064296546270132563 0 -0.046681074649898041 0.0057925122453682748 0 -0.044999890718410242 0.0042629052236227401 0 -0.046681074649898041 0.0057925122453682748 0 -0.046575525375067178 0.0041905479329866473 0 -0.044999890718410242 0.0042629052236227401 0 -0.04331021961107951 0.0024680813862329848 0 -0.044120342007393107 0.004264478166503014 0 -0.042892367480461081 0.0044344482741224432 0 -0.042166329994094857 0.0031167947882110728 0 -0.04331021961107951 0.0024680813862329848 0 -0.042892367480461081 0.0044344482741224432 0 -0.042166329994094857 0.0031167947882110728 0 -0.04331021961107951 0.0024680813862329848 0 -0.04211339114988645 0.00076857671371854735 0 -0.04331021961107951 0.0024680813862329848 0 -0.043563005467868801 0.00033707763181115442 0 -0.04211339114988645 0.00076857671371854735 0 -0.04331021961107951 0.0024680813862329848 0 -0.044993581300905257 0.0027317291798730084 0 -0.043563005467868801 0.00033707763181115442 0 -0.044993581300905257 0.0027317291798730084 0 -0.045197179615163285 -0.00021052835253077925 0 -0.046486725633442062 0.0019257769769526869 0 -0.048255551806017323 0.0014175218816430022 0 -0.038350525140188378 0.0049424782621732537 0 -0.044993581300905257 0.0027317291798730084 0 -0.045099077967752289 0.0045298233079063381 0 -0.046110917451919142 0.0042944938426010184 0 -0.044993581300905257 0.0027317291798730084 0 -0.046110917451919142 0.0042944938426010184 0 -0.04657107425390878 0.0021692361143546171 0 -0.04331021961107951 0.0024680813862329848 0 -0.044993581300905257 0.0027317291798730084 0 -0.044120342007393107 0.004264478166503014 0 -0.044993581300905257 0.0027317291798730084 0 -0.044120342007393107 0.004264478166503014 0 -0.045099077967752289 0.0045298233079063381 0 -0.044120342007393107 0.004264478166503014 0 -0.04470612227813904 0.0056734225357400201 0 -0.04367670973350847 0.0056923321223023163 0 -0.044120342007393107 0.004264478166503014 0 -0.045099077967752289 0.0045298233079063381 0 -0.04470612227813904 0.0056734225357400201 0 -0.045099077967752289 0.0045298233079063381 0 -0.045505822553326948 0.0054506429423661438 0 -0.04470612227813904 0.0056734225357400201 0 -0.046110917451919142 0.0042944938426010184 0 -0.045505822553326948 0.0054506429423661438 0 -0.046492906316505024 0.0060852081339854373 0 -0.045099077967752289 0.0045298233079063381 0 -0.046110917451919142 0.0042944938426010184 0 -0.045505822553326948 0.0054506429423661438 0 -0.045505822553326948 0.0054506429423661438 0 -0.046492906316505024 0.0060852081339854373 0 -0.045107268985207477 0.0066805243019577394 0 -0.044204069634038855 0.0067970722360278686 0 -0.04470612227813904 0.0056734225357400201 0 -0.04367670973350847 0.0056923321223023163 0 -0.045505822553326948 0.0054506429423661438 0 -0.04470612227813904 0.0056734225357400201 0 -0.045107268985207477 0.0066805243019577394 0 -0.044204069634038855 0.0067970722360278686 0 -0.04470612227813904 0.0056734225357400201 0 -0.045107268985207477 0.0066805243019577394 0 -0.043334779832883349 0.0067668770000518449 0 -0.044204069634038855 0.0067970722360278686 0 -0.04367670973350847 0.0056923321223023163 0 -0.043334779832883349 0.0067668770000518449 0 -0.04367670973350847 0.0056923321223023163 0 -0.042664994915275492 0.0058697928232897796 0 -0.044120342007393107 0.004264478166503014 0 -0.04367670973350847 0.0056923321223023163 0 -0.042892367480461081 0.0044344482741224432 0 -0.04367670973350847 0.0056923321223023163 0 -0.042892367480461081 0.0044344482741224432 0 -0.042664994915275492 0.0058697928232897796 0 -0.042892367480461081 0.0044344482741224432 0 -0.041660449414174905 0.0050052926173830142 0 -0.042664994915275492 0.0058697928232897796 0 -0.042166329994094857 0.0031167947882110728 0 -0.042892367480461081 0.0044344482741224432 0 -0.041660449414174905 0.0050052926173830142 0 -0.041660449414174905 0.0050052926173830142 0 -0.042664994915275492 0.0058697928232897796 0 -0.041834971504709592 0.0062666165534771556 0 -0.042456592326536924 0.0069286377616555516 0 -0.043334779832883349 0.0067668770000518449 0 -0.042664994915275492 0.0058697928232897796 0 -0.042456592326536924 0.0069286377616555516 0 -0.042664994915275492 0.0058697928232897796 0 -0.041834971504709592 0.0062666165534771556 0 -0.041352086719693308 0.0072346714636554463 0 -0.041834971504709592 0.0062666165534771556 0 -0.040821229106327246 0.0060209799115271845 0 -0.041660449414174905 0.0050052926173830142 0 -0.041834971504709592 0.0062666165534771556 0 -0.040821229106327246 0.0060209799115271845 0 -0.040675498723286539 0.0080153324952078973 0 -0.040821229106327246 0.0060209799115271845 0 -0.039045278231265045 0.0068732895591583675 0 -0.040821229106327246 0.0060209799115271845 0 -0.039840678871882515 0.0048962468723691725 0 -0.039045278231265045 0.0068732895591583675 0 -0.040526406107259313 0.0042630497472484217 0 -0.03955903828408127 0.0065165704890751287 0 -0.041660449414174905 0.0050052926173830142 0 -0.039840678871882515 0.0048962468723691725 0 -0.040757287552676866 0.0029252193123299707 0 -0.041660449414174905 0.0050052926173830142 0 -0.040821229106327246 0.0060209799115271845 0 -0.039840678871882515 0.0048962468723691725 0 -0.037847823942527711 0.0057015705188300765 0 -0.040152655786401703 0.0061260257646129522 0 -0.039793886382099374 0.0041050255449926187 0 -0.041215894869212753 0.0035983110418641921 0 -0.040152655786401703 0.0061260257646129522 0 -0.039793886382099374 0.0041050255449926187 0 -0.039793886382099374 0.0041050255449926187 0 -0.038581740028222254 0.0031199449477240029 0 -0.04016350175670709 0.0020951058284623542 0 -0.041215894869212753 0.0035983110418641921 0 -0.039793886382099374 0.0041050255449926187 0 -0.04016350175670709 0.0020951058284623542 0 -0.037847823942527711 0.0057015705188300765 0 -0.039793886382099374 0.0041050255449926187 0 -0.038581740028222254 0.0031199449477240029 0 -0.03668795486382543 0.004236542781685327 0 -0.037847823942527711 0.0057015705188300765 0 -0.038581740028222254 0.0031199449477240029 0 -0.038581740028222254 0.0031199449477240029 0 -0.038868518999621841 0.0016994243569850903 0 -0.04016350175670709 0.0020951058284623542 0 -0.037720721752532764 0.002153106600307631 0 -0.038581740028222254 0.0031199449477240029 0 -0.038868518999621841 0.0016994243569850903 0 -0.038868518999621841 0.0016994243569850903 0 -0.04016350175670709 0.0020951058284623542 0 -0.039870623316062906 0.0004515369092535752 0 -0.04016350175670709 0.0020951058284623542 0 -0.040753251690036948 0.001089085768336686 0 -0.039870623316062906 0.0004515369092535752 0 -0.038360245072610114 0.00062506713831642785 0 -0.038868518999621841 0.0016994243569850903 0 -0.039870623316062906 0.0004515369092535752 0 -0.042166329994094857 0.0031167947882110728 0 -0.041660449414174905 0.0050052926173830142 0 -0.040757287552676866 0.0029252193123299707 0 -0.04016350175670709 0.0020951058284623542 0 -0.041819859867144038 0.0018214209645674257 0 -0.040753251690036948 0.001089085768336686 0 -0.041215894869212753 0.0035983110418641921 0 -0.04016350175670709 0.0020951058284623542 0 -0.041819859867144038 0.0018214209645674257 0 -0.040526406107259313 0.0042630497472484217 0 -0.041306084286271173 0.0023756183457167225 0 -0.041819859867144038 0.0018214209645674257 0 -0.040753251690036948 0.001089085768336686 0 -0.041155101921874618 7.2565752069188115e-05 0 -0.041306084286271173 0.0023756183457167225 0 -0.042068987392140461 0.00089361743789553481 0 -0.041819859867144038 0.0018214209645674257 0 -0.041155101921874618 7.2565752069188115e-05 0 -0.04211339114988645 0.00076857671371854735 0 -0.042166329994094857 0.0031167947882110728 0 -0.040757287552676866 0.0029252193123299707 0 -0.04211339114988645 0.00076857671371854735 0 -0.041155101921874618 7.2565752069188115e-05 0 -0.042152387132934135 -0.0010598945514730346 0 -0.04211339114988645 0.00076857671371854735 0 -0.040753251690036948 0.001089085768336686 0 -0.041155101921874618 7.2565752069188115e-05 0 -0.039870623316062906 0.0004515369092535752 0 -0.041155101921874618 7.2565752069188115e-05 0 -0.040255577014034802 -0.0010740489408199703 0 -0.041112954778907515 -0.0014692970757910562 0 -0.041155101921874618 7.2565752069188115e-05 0 -0.041112954778907515 -0.0014692970757910562 0 -0.042152387132934135 -0.0010598945514730346 0 -0.038360245072610114 0.00062506713831642785 0 -0.039252143764587778 -0.00048542191313405821 0 -0.039870623316062906 0.0004515369092535752 0 -0.041155101921874618 7.2565752069188115e-05 0 -0.039870623316062906 0.0004515369092535752 0 -0.040255577014034802 -0.0010740489408199703 0 -0.039252143764587778 -0.00048542191313405821 0 -0.039870623316062906 0.0004515369092535752 0 -0.040255577014034802 -0.0010740489408199703 0 -0.039252143764587778 -0.00048542191313405821 0 -0.040255577014034802 -0.0010740489408199703 0 -0.039578030074446748 -0.0022514944310596417 0 -0.037975298826440955 -0.00085107912928469105 0 -0.039252143764587778 -0.00048542191313405821 0 -0.039578030074446748 -0.0022514944310596417 0 -0.040255577014034802 -0.0010740489408199703 0 -0.039578030074446748 -0.0022514944310596417 0 -0.040426554847049614 -0.0024530186427963131 0 -0.040550065346517207 -0.0033303398795442181 0 -0.040426554847049614 -0.0024530186427963131 0 -0.040110714913485161 -0.003185713499797438 0 -0.039578030074446748 -0.0022514944310596417 0 -0.040426554847049614 -0.0024530186427963131 0 -0.040110714913485161 -0.003185713499797438 0 -0.041112954778907515 -0.0014692970757910562 0 -0.041445777684972131 -0.0025839559968529576 0 -0.042152387132934135 -0.0010598945514730346 0 -0.040426554847049614 -0.0024530186427963131 0 -0.041112954778907515 -0.0014692970757910562 0 -0.041445777684972131 -0.0025839559968529576 0 -0.040255577014034802 -0.0010740489408199703 0 -0.040426554847049614 -0.0024530186427963131 0 -0.041112954778907515 -0.0014692970757910562 0 -0.040550065346517207 -0.0033303398795442181 0 -0.040426554847049614 -0.0024530186427963131 0 -0.041445777684972131 -0.0025839559968529576 0 -0.04251527114180164 -0.0031415821410864966 0 -0.041445777684972131 -0.0025839559968529576 0 -0.042460523226515057 -0.0022375691831006865 0 -0.04251527114180164 -0.0031415821410864966 0 -0.042460523226515057 -0.0022375691831006865 0 -0.043835528024914479 -0.0019358155286678602 0 -0.037858381265305253 -0.0039960133636531003 0 -0.038376508133656437 -0.0029058668887920027 0 -0.042460523226515057 -0.0022375691831006865 0 -0.042152387132934135 -0.0010598945514730346 0 -0.043835528024914479 -0.0019358155286678602 0 -0.041445777684972131 -0.0025839559968529576 0 -0.042460523226515057 -0.0022375691831006865 0 -0.042152387132934135 -0.0010598945514730346 0 -0.042152387132934135 -0.0010598945514730346 0 -0.043563005467868801 0.00033707763181115442 0 -0.043835528024914479 -0.0019358155286678602 0 -0.042152387132934135 -0.0010598945514730346 0 -0.043563005467868801 0.00033707763181115442 0 -0.04211339114988645 0.00076857671371854735 0 -0.044993581300905257 0.0027317291798730084 0 -0.043563005467868801 0.00033707763181115442 0 -0.045197179615163285 -0.00021052835253077925 0 -0.043563005467868801 0.00033707763181115442 0 -0.045197179615163285 -0.00021052835253077925 0 -0.043835528024914479 -0.0019358155286678602 0 -0.032911554435282743 -0.0035555546878212 0 -0.033408982456803397 -0.0033030920004631648 0 -0.033285887277864301 -0.0026952641966884001 0 -0.039117590808534691 -0.0029201370047952846 0 -0.038350525140188378 0.0049424782621732537 0 -0.039117590808534691 -0.0029201370047952846 0 -0.038376508133656437 -0.0029058668887920027 0 -0.033003999776885756 -0.0048645565784506753 0 -0.032811979377760037 -0.0043870404395419419 0 -0.033046233803965167 -0.0044541285814767538 0 -0.032911554435282743 -0.0035555546878212 0 -0.032811979377760037 -0.0043870404395419419 0 -0.033046233803965167 -0.0044541285814767538 0 -0.032911554435282743 -0.0035555546878212 0 -0.033046233803965167 -0.0044541285814767538 0 -0.033545008079703897 -0.0038470634757346773 0 -0.033046233803965167 -0.0044541285814767538 0 -0.033591514004036795 -0.0046115105324816309 0 -0.033545008079703897 -0.0038470634757346773 0 -0.033591514004036795 -0.0046115105324816309 0 -0.034177414186424372 -0.0041280836958806355 0 -0.033545008079703897 -0.0038470634757346773 0 -0.031087991558063136 -0.0052752456198926151 0 -0.031299788853297747 -0.0058638228213055976 0 -0.03079870672185021 -0.00578287171179086 0 -0.031087991558063136 -0.0052752456198926151 0 -0.031885814288046758 -0.0054910821235492754 0 -0.031299788853297747 -0.0058638228213055976 0 -0.03273271305317238 -0.0049862974433148629 0 -0.032891526969790225 -0.0053231706047078744 0 -0.034177414186424372 -0.0041280836958806355 0 -0.034338619408017683 -0.0036875145146740614 0 -0.034031769293219542 -0.0036035802724787131 0 -0.034177414186424372 -0.0041280836958806355 0 -0.034031769293219542 -0.0036035802724787131 0 -0.033545008079703897 -0.0038470634757346773 0 -0.031299788853297747 -0.0058638228213055976 0 -0.03074222239769888 -0.0062539605354867004 0 -0.03079870672185021 -0.00578287171179086 0 -0.034177414186424372 -0.0041280836958806355 0 -0.034338619408017683 -0.0036875145146740614 0 -0.03467395650411953 -0.0036504783965389071 0 -0.032891526969790225 -0.0053231706047078744 0 -0.031217436897292686 -0.0025045367645492532 0 -0.034475970135219643 -0.0033717364993694566 0 -0.034338619408017683 -0.0036875145146740614 0 -0.034031769293219542 -0.0036035802724787131 0 -0.034475970135219643 -0.0033717364993694566 0 -0.034338619408017683 -0.0036875145146740614 0 -0.03467395650411953 -0.0036504783965389071 0 -0.033851382292871615 0.0066279936365870196 0 -0.031217436897292686 -0.0025045367645492532 0 -0.033292426467731832 0.013180000060695493 0 -0.032768390384771182 0.013957776500257977 0 -0.031650663654572822 0.013996814471977972 0 -0.033851382292871615 0.0066279936365870196 0 -0.031428183247236237 0.0055281235891814755 0 -0.034475970135219643 -0.0033717364993694566 0 -0.034031769293219542 -0.0036035802724787131 0 -0.033869969047203123 -0.0030847336440227449 0 -0.033851382292871615 0.0066279936365870196 0 -0.031558570835150575 0.014804355844116863 0 -0.032768390384771182 0.013957776500257977 0 -0.033405822989558361 0.013969131853527687 0 -0.033218085568740938 0.014657140424405316 0 -0.033255511381725431 0.013315400952738216 0 -0.032768390384771182 0.013957776500257977 0 -0.033405822989558361 0.013969131853527687 0 -0.033255511381725431 0.013315400952738216 0 -0.033405822989558361 0.013969131853527687 0 -0.033973061850432786 0.013721936573787097 0 -0.032911554435282743 -0.0035555546878212 0 -0.033545008079703897 -0.0038470634757346773 0 -0.033408982456803397 -0.0033030920004631648 0 -0.034031769293219542 -0.0036035802724787131 0 -0.033545008079703897 -0.0038470634757346773 0 -0.033869969047203123 -0.0030847336440227449 0 -0.033545008079703897 -0.0038470634757346773 0 -0.033869969047203123 -0.0030847336440227449 0 -0.033408982456803397 -0.0033030920004631648 0 -0.033869969047203123 -0.0030847336440227449 0 -0.033408982456803397 -0.0033030920004631648 0 -0.033285887277864301 -0.0026952641966884001 0 -0.031428183247236237 0.0055281235891814755 0 -0.038350525140188378 0.0049424782621732537 0 -0.046110917451919142 0.0042944938426010184 0 -0.04657107425390878 0.0021692361143546171 0 -0.047797340875250172 0.0043613722992664437 0 -0.038350525140188378 0.0049424782621732537 0 -0.035527266162563756 0.012928617839354794 0 -0.030325865369122896 0.014616097819499905 0 -0.031557712101655935 0.015384827082488776 0 -0.031080598516020606 0.01594819210105097 0 -0.031557712101655935 0.015384827082488776 0 -0.031748143945751442 0.01638419245061911 0 -0.030710036946204985 0.016362741879049753 0 -0.03034471719504335 0.016862682497155411 0 -0.035527266162563756 0.012928617839354794 0 -0.031650663654572822 0.013996814471977972 0 -0.030325865369122896 0.014616097819499905 0 -0.031557712101655935 0.015384827082488776 0 -0.031650663654572822 0.013996814471977972 0 -0.031557712101655935 0.015384827082488776 0 -0.032398438295029156 0.014866229090691822 0 -0.032768390384771182 0.013957776500257977 0 -0.031650663654572822 0.013996814471977972 0 -0.032398438295029156 0.014866229090691822 0 -0.033405822989558361 0.013969131853527687 0 -0.033218085568740938 0.014657140424405316 0 -0.034110254576127111 0.014508652043582551 0 -0.032768390384771182 0.013957776500257977 0 -0.032398438295029156 0.014866229090691822 0 -0.033218085568740938 0.014657140424405316 0 -0.032398438295029156 0.014866229090691822 0 -0.033218085568740938 0.014657140424405316 0 -0.032968947995566426 0.015536944318366048 0 -0.033218085568740938 0.014657140424405316 0 -0.032968947995566426 0.015536944318366048 0 -0.033674628334789312 0.015263042172015968 0 -0.032968947995566426 0.015536944318366048 0 -0.032687817975022675 0.016760276936222899 0 -0.033781602574390911 0.016170723243367213 0 -0.032968947995566426 0.015536944318366048 0 -0.033781602574390911 0.016170723243367213 0 -0.033674628334789312 0.015263042172015968 0 -0.032968947995566426 0.015536944318366048 0 -0.032262672779784798 0.015771471242158781 0 -0.032687817975022675 0.016760276936222899 0 -0.031557712101655935 0.015384827082488776 0 -0.032398438295029156 0.014866229090691822 0 -0.032262672779784798 0.015771471242158781 0 -0.032398438295029156 0.014866229090691822 0 -0.032968947995566426 0.015536944318366048 0 -0.032262672779784798 0.015771471242158781 0 -0.031557712101655935 0.015384827082488776 0 -0.032262672779784798 0.015771471242158781 0 -0.031748143945751442 0.01638419245061911 0 -0.031748143945751442 0.01638419245061911 0 -0.032687817975022675 0.016760276936222899 0 -0.031455564218014528 0.017648807109424916 0 -0.032262672779784798 0.015771471242158781 0 -0.031748143945751442 0.01638419245061911 0 -0.032687817975022675 0.016760276936222899 0 -0.032687817975022675 0.016760276936222899 0 -0.033527554135732593 0.017213494722886264 0 -0.033781602574390911 0.016170723243367213 0 -0.033527554135732593 0.017213494722886264 0 -0.032893430056073543 0.018087452850823107 0 -0.033796675397930888 0.018205238458437294 0 -0.032687817975022675 0.016760276936222899 0 -0.033527554135732593 0.017213494722886264 0 -0.032893430056073543 0.018087452850823107 0 -0.032893430056073543 0.018087452850823107 0 -0.031455564218014528 0.017648807109424916 0 -0.032358663759758446 0.018996292671562314 0 -0.032687817975022675 0.016760276936222899 0 -0.032893430056073543 0.018087452850823107 0 -0.031455564218014528 0.017648807109424916 0 -0.031732964843836114 0.018510288130321965 0 -0.032272484488986182 0.018804833640400524 0 -0.032180227346931975 0.018581684321110375 0 -0.032049499652692166 0.019062245974037356 0 -0.032358663759758446 0.018996292671562314 0 -0.032180227346931975 0.018581684321110375 0 -0.031780817545536882 0.018803263240093182 0 -0.031889699129077062 0.017929431817755581 0 -0.032180227346931975 0.018581684321110375 0 -0.031780817545536882 0.018803263240093182 0 -0.032049499652692166 0.019062245974037356 0 -0.031306262439444135 0.018686450240989628 0 -0.031780817545536882 0.018803263240093182 0 -0.031889699129077062 0.017929431817755581 0 -0.031306262439444135 0.018686450240989628 0 -0.031780817545536882 0.018803263240093182 0 -0.031432087839605272 0.019200204028225976 0 -0.046110917451919142 0.0042944938426010184 0 -0.046492906316505024 0.0060852081339854373 0 -0.047797340875250172 0.0043613722992664437 0 -0.039503040730019826 0.011535029157464047 0 -0.035527266162563756 0.012928617839354794 0 -0.031732964843836114 0.018510288130321965 0 -0.035527266162563756 0.012928617839354794 0 -0.031748143945751442 0.01638419245061911 0 -0.031455564218014528 0.017648807109424916 0 -0.030710036946204985 0.016362741879049753 0 -0.035648386285984129 0.016438996716204749 0 -0.035894772354227368 0.017635200667539323 0 -0.034702881012584987 0.017023905560216199 0 -0.034761503092151314 0.018986558844037858 0 -0.037153077501856327 0.017513911488579739 0 -0.035648386285984129 0.016438996716204749 0 -0.035894772354227368 0.017635200667539323 0 -0.036614532157778656 0.015979956107591099 0 -0.034310140231804349 0.019780550553142394 0 -0.034218377342074578 0.020079448933395524 0 -0.034255395420360685 0.019667702218566743 0 -0.034310140231804349 0.019780550553142394 0 -0.034369729047045529 0.019985458958883952 0 -0.034218377342074578 0.020079448933395524 0 -0.034603424543931026 0.020046286171746489 0 -0.027846866277203969 0.019136756085861857 0 -0.034310140231804349 0.019780550553142394 0 -0.034255395420360685 0.019667702218566743 0 -0.034316388413775864 0.01976512801320638 0 -0.034369729047045529 0.019985458958883952 0 -0.034507532979273239 0.020089242683702956 0 -0.034484232037361805 0.019812419701422529 0 -0.034310140231804349 0.019780550553142394 0 -0.034369729047045529 0.019985458958883952 0 -0.034484232037361805 0.019812419701422529 0 -0.034369729047045529 0.019985458958883952 0 -0.034378566366317191 0.020149862733994967 0 -0.034218377342074578 0.020079448933395524 0 -0.034369729047045529 0.019985458958883952 0 -0.034507532979273239 0.020089242683702956 0 -0.034378566366317191 0.020149862733994967 0 -0.034507532979273239 0.020089242683702956 0 -0.034378566366317191 0.020149862733994967 0 -0.034481261965543179 0.020311431182714113 0 -0.034507532979273239 0.020089242683702956 0 -0.034531000028679502 0.020341479770321289 0 -0.034481261965543179 0.020311431182714113 0 -0.02891924911558158 0.019720837704570563 0 -0.028272475975511982 0.020000579109972209 0 -0.034378566366317191 0.020149862733994967 0 -0.034218377342074578 0.020079448933395524 0 -0.034318228771580431 0.020312942593526763 0 -0.035894772354227368 0.017635200667539323 0 -0.034827699442331793 0.018122899133629591 0 -0.034702881012584987 0.017023905560216199 0 -0.033527554135732593 0.017213494722886264 0 -0.033796675397930888 0.018205238458437294 0 -0.034702881012584987 0.017023905560216199 0 -0.034827699442331793 0.018122899133629591 0 -0.033796675397930888 0.018205238458437294 0 -0.034702881012584987 0.017023905560216199 0 -0.033527554135732593 0.017213494722886264 0 -0.034702881012584987 0.017023905560216199 0 -0.033781602574390911 0.016170723243367213 0 -0.034702881012584987 0.017023905560216199 0 -0.034522204282794414 0.016101561548427887 0 -0.033781602574390911 0.016170723243367213 0 -0.034702881012584987 0.017023905560216199 0 -0.03518536627492623 0.01583001166649927 0 -0.034522204282794414 0.016101561548427887 0 -0.035648386285984129 0.016438996716204749 0 -0.034702881012584987 0.017023905560216199 0 -0.03518536627492623 0.01583001166649927 0 -0.03518536627492623 0.01583001166649927 0 -0.034522204282794414 0.016101561548427887 0 -0.034369842314402363 0.015342189444570197 0 -0.03518536627492623 0.01583001166649927 0 -0.034369842314402363 0.015342189444570197 0 -0.035109050470089949 0.014887596255918912 0 -0.034522204282794414 0.016101561548427887 0 -0.033781602574390911 0.016170723243367213 0 -0.034369842314402363 0.015342189444570197 0 -0.033781602574390911 0.016170723243367213 0 -0.034369842314402363 0.015342189444570197 0 -0.033674628334789312 0.015263042172015968 0 -0.033218085568740938 0.014657140424405316 0 -0.033674628334789312 0.015263042172015968 0 -0.034110254576127111 0.014508652043582551 0 -0.034369842314402363 0.015342189444570197 0 -0.033674628334789312 0.015263042172015968 0 -0.034110254576127111 0.014508652043582551 0 -0.034110254576127111 0.014508652043582551 0 -0.035109050470089949 0.014887596255918912 0 -0.035102904605813931 0.013912988618153757 0 -0.034369842314402363 0.015342189444570197 0 -0.034110254576127111 0.014508652043582551 0 -0.035109050470089949 0.014887596255918912 0 -0.035610737810380266 0.01425066512618705 0 -0.034788646429271951 0.014180120715212954 0 -0.035109050470089949 0.014887596255918912 0 -0.035976460448073504 0.014596861859295984 0 -0.035819311593121066 0.015527281286263829 0 -0.035109050470089949 0.014887596255918912 0 -0.035976460448073504 0.014596861859295984 0 -0.035102904605813931 0.013912988618153757 0 -0.035976460448073504 0.014596861859295984 0 -0.035819311593121066 0.015527281286263829 0 -0.036298399707409043 0.015152660582917431 0 -0.03518536627492623 0.01583001166649927 0 -0.035109050470089949 0.014887596255918912 0 -0.035819311593121066 0.015527281286263829 0 -0.035648386285984129 0.016438996716204749 0 -0.035819311593121066 0.015527281286263829 0 -0.036614532157778656 0.015979956107591099 0 -0.035648386285984129 0.016438996716204749 0 -0.03518536627492623 0.01583001166649927 0 -0.035819311593121066 0.015527281286263829 0 -0.036614532157778656 0.015979956107591099 0 -0.036298399707409043 0.015152660582917431 0 -0.036904590010788781 0.0144567604108315 0 -0.034255395420360685 0.019667702218566743 0 -0.034247094562496382 0.019615070459826793 0 -0.034316388413775864 0.01976512801320638 0 -0.035819311593121066 0.015527281286263829 0 -0.036614532157778656 0.015979956107591099 0 -0.036298399707409043 0.015152660582917431 0 -0.037153077501856327 0.017513911488579739 0 -0.025331974566160306 0.016157108844567437 0 -0.036614532157778656 0.015979956107591099 0 -0.036904590010788781 0.0144567604108315 0 -0.037766665302197085 0.013785192409974993 0 -0.035976460448073504 0.014596861859295984 0 -0.036298399707409043 0.015152660582917431 0 -0.036904590010788781 0.0144567604108315 0 -0.035976460448073504 0.014596861859295984 0 -0.036904590010788781 0.0144567604108315 0 -0.036500902331578773 0.013486503641818994 0 -0.035976460448073504 0.014596861859295984 0 -0.036500902331578773 0.013486503641818994 0 -0.035422109075582901 0.01280231448292081 0 -0.036904590010788781 0.0144567604108315 0 -0.036500902331578773 0.013486503641818994 0 -0.037766665302197085 0.013785192409974993 0 -0.025908530161509319 0.01625087386767194 0 -0.025331974566160306 0.016157108844567437 0 -0.036500902331578773 0.013486503641818994 0 -0.036450331267327017 0.011684634512804735 0 -0.037766665302197085 0.013785192409974993 0 -0.015093413627535199 0.01927402770233844 0 -0.013231227161284912 0.018770517796594666 0 -0.013124766435824749 0.016817886378063703 0 -0.036500902331578773 0.013486503641818994 0 -0.035422109075582901 0.01280231448292081 0 -0.036450331267327017 0.011684634512804735 0 -0.035422109075582901 0.01280231448292081 0 -0.034584433773196858 0.011389034809631752 0 -0.033482137810554383 0.012842038176020381 0 -0.035976460448073504 0.014596861859295984 0 -0.035422109075582901 0.01280231448292081 0 -0.033482137810554383 0.012842038176020381 0 -0.035422109075582901 0.01280231448292081 0 -0.034584433773196858 0.011389034809631752 0 -0.036450331267327017 0.011684634512804735 0 -0.034584433773196858 0.011389034809631752 0 -0.033024015139347988 0.010231876501235283 0 -0.034788225267052608 0.0094964370769866722 0 -0.025908530161509319 0.01625087386767194 0 -0.027299426236874043 0.0094172874217401809 0 -0.034584433773196858 0.011389034809631752 0 -0.036450331267327017 0.011684634512804735 0 -0.034788225267052608 0.0094964370769866722 0 -0.014927195794712429 0.021238170466853345 0 -0.015093413627535199 0.01927402770233844 0 -0.017218469957909242 0.021738052007990054 0 -0.014927195794712429 0.021238170466853345 0 -0.013782286817084799 0.021621968191411389 0 -0.013554650354381201 0.020475469067973026 0 -0.014927195794712429 0.021238170466853345 0 -0.015093413627535199 0.01927402770233844 0 -0.013554650354381201 0.020475469067973026 0 -0.015093413627535199 0.01927402770233844 0 -0.013231227161284912 0.018770517796594666 0 -0.013554650354381201 0.020475469067973026 0 -0.033973061850432786 0.013721936573787097 0 -0.035102904605813931 0.013912988618153757 0 -0.034044536726409662 0.012969616545865743 0 -0.034110254576127111 0.014508652043582551 0 -0.033973061850432786 0.013721936573787097 0 -0.035102904605813931 0.013912988618153757 0 -0.033255511381725431 0.013315400952738216 0 -0.033973061850432786 0.013721936573787097 0 -0.034044536726409662 0.012969616545865743 0 -0.033405822989558361 0.013969131853527687 0 -0.034110254576127111 0.014508652043582551 0 -0.033973061850432786 0.013721936573787097 0 -0.034788646429271951 0.014180120715212954 0 -0.031684168212323463 0.0069512391068994872 0 -0.034584433773196858 0.011389034809631752 0 -0.033482137810554383 0.012842038176020381 0 -0.033024015139347988 0.010231876501235283 0 -0.033482137810554383 0.012842038176020381 0 -0.033024015139347988 0.010231876501235283 0 -0.031215155288108396 0.010989988518080989 0 -0.031116243243663102 0.0031855844747509174 0 -0.031684168212323463 0.0069512391068994872 0 -0.027585533190951882 -0.0034208977693537613 0 -0.027391049527573205 -0.0032935832212975798 0 -0.027302722403636587 -0.0033728786053225752 0 -0.031684168212323463 0.0069512391068994872 0 -0.031217436897292686 -0.0025045367645492532 0 -0.032539397388187771 0.0046309695574869312 0 -0.032414180448287672 0.0046701585457216846 0 -0.032462357561070347 0.004698130479051669 0 -0.033851382292871615 0.0066279936365870196 0 -0.031684168212323463 0.0069512391068994872 0 -0.03074222239769888 -0.0062539605354867004 0 -0.03079870672185021 -0.00578287171179086 0 -0.030325520828383457 -0.0057500429008389697 0 -0.031217436897292686 -0.0025045367645492532 0 -0.028713374694273767 -0.0050796856668185062 0 -0.027585533190951882 -0.0034208977693537613 0 -0.027302722403636587 -0.0033728786053225752 0 -0.027483347076715386 -0.0037541835571475979 0 -0.027585533190951882 -0.0034208977693537613 0 -0.027632218180612206 -0.0035521777581398878 0 -0.027483347076715386 -0.0037541835571475979 0 -0.027585533190951882 -0.0034208977693537613 0 -0.027632218180612206 -0.0035521777581398878 0 -0.027774725653092362 -0.0035241396915899064 0 -0.027632218180612206 -0.0035521777581398878 0 -0.027630656539494446 -0.0037220430263202346 0 -0.027687578409559644 -0.0036719316261638172 0 -0.027632218180612206 -0.0035521777581398878 0 -0.027630656539494446 -0.0037220430263202346 0 -0.027483347076715386 -0.0037541835571475979 0 -0.028745165959049156 -0.004461833923586709 0 -0.028713374694273767 -0.0050796856668185062 0 -0.027695010630940181 -0.0040617684327996116 0 -0.027654685983901747 -0.0038804077870830318 0 -0.027483347076715386 -0.0037541835571475979 0 -0.029903141259375623 -0.0052115722081825496 0 -0.030458661704125096 -0.0053398920409123548 0 -0.030325520828383457 -0.0057500429008389697 0 -0.027630656539494446 -0.0037220430263202346 0 -0.027654685983901747 -0.0038804077870830318 0 -0.027483347076715386 -0.0037541835571475979 0 -0.030458661704125096 -0.0053398920409123548 0 -0.03079870672185021 -0.00578287171179086 0 -0.030325520828383457 -0.0057500429008389697 0 -0.030458661704125096 -0.0053398920409123548 0 -0.031087991558063136 -0.0052752456198926151 0 -0.03079870672185021 -0.00578287171179086 0 -0.020263282024555858 0.0098207379966039586 0 -0.027299426236874043 0.0094172874217401809 0 -0.014927195794712429 0.021238170466853345 0 -0.014432343877566634 0.022955667261584746 0 -0.017218469957909242 0.021738052007990054 0 -0.027859449577833352 -0.0037950316053941184 0 -0.027967237238114354 -0.0038391451681571952 0 -0.027815248813768245 -0.003697499917898014 0 -0.027859449577833352 -0.0037950316053941184 0 -0.027967237238114354 -0.0038391451681571952 0 -0.02789811825322687 -0.0038737934131644683 0 -0.014927195794712429 0.021238170466853345 0 -0.014432343877566634 0.022955667261584746 0 -0.013782286817084799 0.021621968191411389 0 -0.027967237238114354 -0.0038391451681571952 0 -0.027764806121855914 -0.003535471285542241 0 -0.027815248813768245 -0.003697499917898014 0 -0.027764806121855914 -0.003535471285542241 0 -0.02773604166744249 -0.0035965875804768745 0 -0.027815248813768245 -0.003697499917898014 0 -0.027632218180612206 -0.0035521777581398878 0 -0.02773604166744249 -0.0035965875804768745 0 -0.027687578409559644 -0.0036719316261638172 0 -0.027632218180612206 -0.0035521777581398878 0 -0.027774725653092362 -0.0035241396915899064 0 -0.02773604166744249 -0.0035965875804768745 0 -0.031116243243663102 0.0031855844747509174 0 -0.027299426236874043 0.0094172874217401809 0 -0.027299426236874043 0.0094172874217401809 0 -0.025524840083481645 0.0052334156759438121 0 -0.027630656539494446 -0.0037220430263202346 0 -0.027687578409559644 -0.0036719316261638172 0 -0.027734517621428964 -0.0037529948511611008 0 -0.02773604166744249 -0.0035965875804768745 0 -0.027687578409559644 -0.0036719316261638172 0 -0.027754956165373712 -0.0036934256954389397 0 -0.027754956165373712 -0.0036934256954389397 0 -0.027734517621428964 -0.0037529948511611008 0 -0.027796039833543271 -0.0037503030315813066 0 -0.027687578409559644 -0.0036719316261638172 0 -0.027754956165373712 -0.0036934256954389397 0 -0.027734517621428964 -0.0037529948511611008 0 -0.02773604166744249 -0.0035965875804768745 0 -0.027754956165373712 -0.0036934256954389397 0 -0.027815248813768245 -0.003697499917898014 0 -0.027754956165373712 -0.0036934256954389397 0 -0.027815248813768245 -0.003697499917898014 0 -0.027796039833543271 -0.0037503030315813066 0 -0.027734517621428964 -0.0037529948511611008 0 -0.027796039833543271 -0.0037503030315813066 0 -0.027809680560273088 -0.0038232904761114068 0 -0.027859449577833352 -0.0037950316053941184 0 -0.027815248813768245 -0.003697499917898014 0 -0.027796039833543271 -0.0037503030315813066 0 -0.027859449577833352 -0.0037950316053941184 0 -0.027796039833543271 -0.0037503030315813066 0 -0.027809680560273088 -0.0038232904761114068 0 -0.027830497421354943 -0.0039159570178321145 0 -0.027731956419956565 -0.0038592692630155761 0 -0.027765762576244499 -0.0039654825462170137 0 -0.027695010630940181 -0.0040617684327996116 0 -0.027765762576244499 -0.0039654825462170137 0 -0.028005634581341057 -0.0040030815622939687 0 -0.027809680560273088 -0.0038232904761114068 0 -0.027830497421354943 -0.0039159570178321145 0 -0.027731956419956565 -0.0038592692630155761 0 -0.027809680560273088 -0.0038232904761114068 0 -0.027830497421354943 -0.0039159570178321145 0 -0.02789811825322687 -0.0038737934131644683 0 -0.028745165959049156 -0.004461833923586709 0 -0.027892438681029526 -0.0039598473896482406 0 -0.027630656539494446 -0.0037220430263202346 0 -0.027654685983901747 -0.0038804077870830318 0 -0.027731956419956565 -0.0038592692630155761 0 -0.027630656539494446 -0.0037220430263202346 0 -0.027734517621428964 -0.0037529948511611008 0 -0.027731956419956565 -0.0038592692630155761 0 -0.027734517621428964 -0.0037529948511611008 0 -0.027809680560273088 -0.0038232904761114068 0 -0.027731956419956565 -0.0038592692630155761 0 -0.027654685983901747 -0.0038804077870830318 0 -0.027731956419956565 -0.0038592692630155761 0 -0.027765762576244499 -0.0039654825462170137 0 -0.027695010630940181 -0.0040617684327996116 0 -0.027654685983901747 -0.0038804077870830318 0 -0.027765762576244499 -0.0039654825462170137 0 -0.027830497421354943 -0.0039159570178321145 0 -0.027765762576244499 -0.0039654825462170137 0 -0.028005634581341057 -0.0040030815622939687 0 -0.027830497421354943 -0.0039159570178321145 0 -0.02789811825322687 -0.0038737934131644683 0 -0.028005634581341057 -0.0040030815622939687 0 -0.027859449577833352 -0.0037950316053941184 0 -0.027809680560273088 -0.0038232904761114068 0 -0.02789811825322687 -0.0038737934131644683 0 -0.027967237238114354 -0.0038391451681571952 0 -0.02789811825322687 -0.0038737934131644683 0 -0.028005634581341057 -0.0040030815622939687 0 -0.020263282024555858 0.0098207379966039586 0 -0.020441702911984241 0.0098646457355753159 0 -0.027967237238114354 -0.0038391451681571952 0 -0.028005634581341057 -0.0040030815622939687 0 -0.02777430519896475 -0.0040051594442479695 0 -0.027885861180235855 -0.003918072956622257 0 -0.028005634581341057 -0.0040030815622939687 0 -0.02777430519896475 -0.0040051594442479695 0 -0.027885861180235855 -0.003918072956622257 0 -0.02777430519896475 -0.0040051594442479695 0 -0.027639730883799368 -0.0038753064893831423 0 -0.014432343877566634 0.022955667261584746 0 -0.011633468160556087 0.024025276520395846 0 -0.012214934430514718 0.021835150009611337 0 -0.014432343877566634 0.022955667261584746 0 -0.013782286817084799 0.021621968191411389 0 -0.012214934430514718 0.021835150009611337 0 -0.011633468160556087 0.024025276520395846 0 -0.012214934430514718 0.021835150009611337 0 -0.009918432803856932 0.02309921165597837 0 -0.012214934430514718 0.021835150009611337 0 -0.009918432803856932 0.02309921165597837 0 -0.009715512224169642 0.021492770444785463 0 -0.009918432803856932 0.02309921165597837 0 -0.009715512224169642 0.021492770444785463 0 -0.0076403982135270923 0.022802565579495553 0 -0.011633468160556087 0.024025276520395846 0 -0.009918432803856932 0.02309921165597837 0 -0.0089264258122002324 0.025060678339094779 0 -0.020441702911984241 0.0098646457355753159 0 -0.014522774822626157 0.0095824598689444977 0 -0.02777430519896475 -0.0040051594442479695 0 -0.027639730883799368 -0.0038753064893831423 0 -0.027317112016556226 -0.0038605322404288243 0 -0.027401474297689694 -0.0037816134471623255 0 -0.027639730883799368 -0.0038753064893831423 0 -0.027317112016556226 -0.0038605322404288243 0 -0.014892281280675049 0.0064009268391337021 0 -0.014522774822626157 0.0095824598689444977 0 -0.014522774822626157 0.0095824598689444977 0 -0.0056894299843822703 0.020067867179036039 0 -0.009918432803856932 0.02309921165597837 0 -0.0089264258122002324 0.025060678339094779 0 -0.0076403982135270923 0.022802565579495553 0 -0.0035043562605889082 0.01492423189958518 0 -0.0037311967255156402 0.015076494934096411 0 -0.0035367396785130562 0.015347242041430136 0 -0.0034984950978844977 0.014780354113960222 0 -0.0035043562605889082 0.01492423189958518 0 -0.0037311967255156402 0.015076494934096411 0 -0.0036262214074445766 0.014819303567643646 0 -0.0037791758002114011 0.015274041545975604 0 -0.0034987949331119336 0.014257598778793642 0 -0.0031411324641733903 0.014492717727716913 0 -0.0038056775081649011 0.014682259765075751 0 -0.0035367396785130562 0.015347242041430136 0 -0.0036565704720328569 0.015887314944581697 0 -0.0038485946662536416 0.015360808519320167 0 -0.0037311967255156402 0.015076494934096411 0 -0.0035367396785130562 0.015347242041430136 0 -0.0038485946662536416 0.015360808519320167 0 -0.009715512224169642 0.021492770444785463 0 -0.0076403982135270923 0.022802565579495553 0 -0.0087763141160960931 0.019729694193631672 0 -0.0076403982135270923 0.022802565579495553 0 -0.0087763141160960931 0.019729694193631672 0 -0.0059399962197445311 0.019805156854097176 0 -0.0056894299843822703 0.020067867179036039 0 -0.0047558233928368119 0.017605242419327132 0 -0.0047558233928368119 0.017605242419327132 0 -0.0043283490595760251 0.016681781206874732 0 -0.0059399962197445311 0.019805156854097176 0 -0.0042964118796443634 0.016519078464551716 0 -0.0064086572270384574 0.016772890107551348 0 -0.0087763141160960931 0.019729694193631672 0 -0.0059399962197445311 0.019805156854097176 0 -0.007963196226328316 0.01811324835152546 0 -0.0059399962197445311 0.019805156854097176 0 -0.007963196226328316 0.01811324835152546 0 -0.0064086572270384574 0.016772890107551348 0 -0.007963196226328316 0.01811324835152546 0 -0.010025116455355101 0.018521439235774245 0 -0.0088988312186332342 0.016948572613231221 0 -0.010025116455355101 0.018521439235774245 0 -0.010484525234613096 0.017259828548939978 0 -0.0088988312186332342 0.016948572613231221 0 -0.0087763141160960931 0.019729694193631672 0 -0.007963196226328316 0.01811324835152546 0 -0.010025116455355101 0.018521439235774245 0 -0.010025116455355101 0.018521439235774245 0 -0.011818905718345282 0.018057962994245429 0 -0.010484525234613096 0.017259828548939978 0 -0.011818905718345282 0.018057962994245429 0 -0.011913470784912145 0.016700728701382807 0 -0.010484525234613096 0.017259828548939978 0 -0.016660272234725118 0.018938084065390649 0 -0.021401355522092231 0.017529275588280369 0 -0.012434287483315756 0.017841433174816228 0 -0.013231227161284912 0.018770517796594666 0 -0.013124766435824749 0.016817886378063703 0 -0.016660272234725118 0.018938084065390649 0 -0.025331974566160306 0.016157108844567437 0 -0.010025116455355101 0.018521439235774245 0 -0.011818905718345282 0.018057962994245429 0 -0.011880689426240704 0.019558689952678763 0 -0.012434287483315756 0.017841433174816228 0 -0.013231227161284912 0.018770517796594666 0 -0.011880689426240704 0.019558689952678763 0 -0.016660272234725118 0.018938084065390649 0 -0.013061396211979489 0.019436945564346438 0 -0.012214934430514718 0.021835150009611337 0 -0.011880689426240704 0.019558689952678763 0 -0.010511096274666119 0.020216138021657882 0 -0.012214934430514718 0.021835150009611337 0 -0.011880689426240704 0.019558689952678763 0 -0.013554650354381201 0.020475469067973026 0 -0.013231227161284912 0.018770517796594666 0 -0.011880689426240704 0.019558689952678763 0 -0.013554650354381201 0.020475469067973026 0 -0.013782286817084799 0.021621968191411389 0 -0.012214934430514718 0.021835150009611337 0 -0.013554650354381201 0.020475469067973026 0 -0.012214934430514718 0.021835150009611337 0 -0.009715512224169642 0.021492770444785463 0 -0.010511096274666119 0.020216138021657882 0 -0.009715512224169642 0.021492770444785463 0 -0.0087763141160960931 0.019729694193631672 0 -0.010511096274666119 0.020216138021657882 0 -0.0087763141160960931 0.019729694193631672 0 -0.010025116455355101 0.018521439235774245 0 -0.010511096274666119 0.020216138021657882 0 -0.010025116455355101 0.018521439235774245 0 -0.011880689426240704 0.019558689952678763 0 -0.010511096274666119 0.020216138021657882 0 -0.0025341436821276864 0.015503282197120691 0 -0.0030777243997313132 0.016559106199492704 0 -0.0034542344402307989 0.015597545636134989 0 -0.00052388577511271151 0.015935223801366902 0 -0.0025341436821276864 0.015503282197120691 0 -0.0030777243997313132 0.016559106199492704 0 -0.00052388577511271151 0.015935223801366902 0 -0.0023879658510968832 0.017605386066840305 0 -0.0030777243997313132 0.016559106199492704 0 -0.0035468450103266873 0.018134386437461299 0 -0.0023879658510968832 0.017605386066840305 0 -0.0030777243997313132 0.016559106199492704 0 -0.0035468450103266873 0.018134386437461299 0 -0.0030777243997313132 0.016559106199492704 0 -0.0039424225451687358 0.016797079434332462 0 -0.0017270619000093422 0.012273455765080507 0 -0.0043251742051909035 0.016404766331153717 0 -0.0039424225451687358 0.016797079434332462 0 -0.0041586210244755903 0.015750701166767356 0 -0.0034542344402307989 0.015597545636134989 0 -0.0030777243997313132 0.016559106199492704 0 -0.0039424225451687358 0.016797079434332462 0 -0.0034542344402307989 0.015597545636134989 0 -0.0047908553372434824 0.01486736841313817 0 -0.0041586210244755903 0.015750701166767356 0 -0.0041445993617153553 0.014797485700153433 0 -0.0041586210244755903 0.015750701166767356 0 -0.0041445993617153553 0.014797485700153433 0 -0.0038485946662536416 0.015360808519320167 0 -0.0043251742051909035 0.016404766331153717 0 -0.0042740273019302054 0.015552917029608751 0 -0.0044050573657522987 0.014036721859630388 0 -0.0047908553372434824 0.01486736841313817 0 -0.0041445993617153553 0.014797485700153433 0 -0.0044050573657522987 0.014036721859630388 0 -0.0040274016372377347 0.01429066349750307 0 -0.0041445993617153553 0.014797485700153433 0 -0.0031411324641733903 0.014492717727716913 0 -0.0038056775081649011 0.014682259765075751 0 -0.0038485946662536416 0.015360808519320167 0 -0.0041445993617153553 0.014797485700153433 0 -0.0038056775081649011 0.014682259765075751 0 -0.0038485946662536416 0.015360808519320167 0 -0.0040274016372377347 0.01429066349750307 0 -0.0037681276696061917 0.014129849302039393 0 -0.0038056775081649011 0.014682259765075751 0 -0.0040274016372377347 0.01429066349750307 0 -0.0041445993617153553 0.014797485700153433 0 -0.0038056775081649011 0.014682259765075751 0 -0.0037681276696061917 0.014129849302039393 0 -0.0034987949331119336 0.014257598778793642 0 -0.0038056775081649011 0.014682259765075751 0 -0.0041586210244755903 0.015750701166767356 0 -0.0038485946662536416 0.015360808519320167 0 -0.0040152987876935003 0.01588415458138932 0 -0.0036565704720328569 0.015887314944581697 0 -0.0038485946662536416 0.015360808519320167 0 -0.0040152987876935003 0.01588415458138932 0 -0.0040152987876935003 0.01588415458138932 0 -0.0038830582943735971 0.015927826961355012 0 -0.0042964118796443634 0.016519078464551716 0 -0.0036565704720328569 0.015887314944581697 0 -0.0040152987876935003 0.01588415458138932 0 -0.0042964118796443634 0.016519078464551716 0 -0.0041586210244755903 0.015750701166767356 0 -0.0040152987876935003 0.01588415458138932 0 -0.0038830582943735971 0.015927826961355012 0 -0.0041586210244755903 0.015750701166767356 0 -0.0038830582943735971 0.015927826961355012 0 -0.0034542344402307989 0.015597545636134989 0 -0.0038830582943735971 0.015927826961355012 0 -0.0034542344402307989 0.015597545636134989 0 -0.0031923732067632542 0.015267867516818559 0 -0.0037087771485097374 0.015881956836679326 0 -0.003433028172923232 0.015823359593489537 0 -0.0038830582943735971 0.015927826961355012 0 -0.0034784922995377155 0.016276695448609015 0 -0.0035938939683282556 0.016084888471128964 0 -0.0032417373249816763 0.016354606605233118 0 -0.0034784922995377155 0.016276695448609015 0 -0.0033007358080864389 0.016208736790074448 0 -0.0022542296017338793 0.015091225209768676 0 -0.003433028172923232 0.015823359593489537 0 -0.0034784922995377155 0.016276695448609015 0 -0.0033007358080864389 0.016208736790074448 0 -0.0035938939683282556 0.016084888471128964 0 -0.0025740820133274577 0.015217450901625924 0 -0.0025341436821276864 0.015503282197120691 0 -0.0031923732067632542 0.015267867516818559 0 -0.0022542296017338793 0.015091225209768676 0 -0.0022796188481328914 0.014815638059689608 0 -0.0025341436821276864 0.015503282197120691 0 -0.0034542344402307989 0.015597545636134989 0 -0.0031923732067632542 0.015267867516818559 0 -0.0031554721712112356 0.016254010292591378 0 -0.0034389008886681711 0.016063207324504409 0 -0.0033245456924042467 0.016079311453178466 0 -0.0031554721712112356 0.016254010292591378 0 -0.0033007358080864389 0.016208736790074448 0 -0.0034389008886681711 0.016063207324504409 0 -0.0033007358080864389 0.016208736790074448 0 -0.0035938939683282556 0.016084888471128964 0 -0.0034389008886681711 0.016063207324504409 0 -0.0035938939683282556 0.016084888471128964 0 -0.0034389008886681711 0.016063207324504409 0 -0.003742079688490928 0.016030079472378719 0 -0.0034389008886681711 0.016063207324504409 0 -0.0036532714582703618 0.015782458128110355 0 -0.0033245456924042467 0.016079311453178466 0 -0.0034389008886681711 0.016063207324504409 0 -0.003742079688490928 0.016030079472378719 0 -0.0036532714582703618 0.015782458128110355 0 -0.003742079688490928 0.016030079472378719 0 -0.0040248250992589692 0.015293482318682813 0 -0.0036532714582703618 0.015782458128110355 0 -0.0038830582943735971 0.015927826961355012 0 -0.003742079688490928 0.016030079472378719 0 -0.0042964118796443634 0.016519078464551716 0 -0.0038830582943735971 0.015927826961355012 0 -0.0035938939683282556 0.016084888471128964 0 -0.003742079688490928 0.016030079472378719 0 -0.003742079688490928 0.016030079472378719 0 -0.0042964118796443634 0.016519078464551716 0 -0.0040248250992589692 0.015293482318682813 0 -0.0042964118796443634 0.016519078464551716 0 -0.0040248250992589692 0.015293482318682813 0 -0.0055131017864432459 0.015304223926562657 0 -0.0040685245057013961 0.015154673539888603 0 -0.0049530813609004855 0.014385056494197961 0 -0.0040248250992589692 0.015293482318682813 0 -0.003863023454081441 0.015585699079783853 0 -0.0038875234972241273 0.015497158088448627 0 -0.003863023454081441 0.015585699079783853 0 -0.0038931294417376499 0.015533636022708261 0 -0.0038875234972241273 0.015497158088448627 0 -0.0038023113738655401 0.017487467153192125 0 -0.0033688354674294165 0.017231442211749728 0 -0.0037848856651908863 0.017373729304740446 0 -0.0038023113738655401 0.017487467153192125 0 -0.0038672689605107184 0.017404021004154346 0 -0.0037848856651908863 0.017373729304740446 0 -0.003863023454081441 0.015585699079783853 0 -0.0038931294417376499 0.015533636022708261 0 -0.0035569204437502825 0.015785728643547599 0 -0.003379481783381768 0.016477102433926312 0 -0.0036162426535948956 0.016529062749518972 0 -0.0040248250992589692 0.015293482318682813 0 -0.003863023454081441 0.015585699079783853 0 -0.0036532714582703618 0.015782458128110355 0 -0.003863023454081441 0.015585699079783853 0 -0.0036532714582703618 0.015782458128110355 0 -0.0035569204437502825 0.015785728643547599 0 -0.0036532714582703618 0.015782458128110355 0 -0.0033245456924042467 0.016079311453178466 0 -0.0035569204437502825 0.015785728643547599 0 -0.0033245456924042467 0.016079311453178466 0 -0.0035569204437502825 0.015785728643547599 0 -0.0031174130142163675 0.016500622522093878 0 -0.0036162426535948956 0.016529062749518972 0 -0.0031627706922748716 0.016501391918853903 0 -0.0031554721712112356 0.016254010292591378 0 -0.0033245456924042467 0.016079311453178466 0 -0.0031174130142163675 0.016500622522093878 0 -0.0092828704376787512 0.015317318118794217 0 -0.0089195950695256463 0.014871382365362272 0 -0.009519256947098733 0.014308724317129259 0 -0.0092828704376787512 0.015317318118794217 0 -0.009519256947098733 0.014308724317129259 0 -0.010093410694277417 0.015693611394899422 0 -0.0092828704376787512 0.015317318118794217 0 -0.0089195950695256463 0.014871382365362272 0 -0.0085198788595472665 0.015601523032878123 0 -0.0089195950695256463 0.014871382365362272 0 -0.009519256947098733 0.014308724317129259 0 -0.0082756926795679864 0.014549502163653794 0 -0.021273116297348772 0.018055255272754769 0 -0.021530642922508426 0.016615930647948557 0 -0.020563486368184034 0.017161510614611936 0 -0.027671698278925821 0.018829104005009725 0 -0.027846866277203969 0.019136756085861857 0 -0.01953131845533277 0.017629193165166729 0 -0.021273116297348772 0.018055255272754769 0 -0.020563486368184034 0.017161510614611936 0 -0.01953131845533277 0.017629193165166729 0 -0.021273116297348772 0.018055255272754769 0 -0.021034683861696591 0.019483145354133737 0 -0.034255395420360685 0.019667702218566743 0 -0.034247094562496382 0.019615070459826793 0 -0.034123504762105301 0.019461623565197129 0 -0.027671698278925821 0.018829104005009725 0 -0.021401355522092231 0.017529275588280369 0 -0.011913470784912145 0.016700728701382807 0 -0.010609223908279094 0.016540904582061224 0 -0.010093410694277417 0.015693611394899422 0 -0.034247094562496382 0.019615070459826793 0 -0.034150541607598499 0.019484932510954386 0 -0.034123504762105301 0.019461623565197129 0 -0.020011560687133056 0.018565643364083093 0 -0.020237842530488027 0.017376659356198809 0 -0.020507768829283679 0.017726109117724046 0 -0.021401355522092231 0.017529275588280369 0 -0.025331974566160306 0.016157108844567437 0 -0.011913470784912145 0.016700728701382807 0 -0.010484525234613096 0.017259828548939978 0 -0.010609223908279094 0.016540904582061224 0 -0.009519256947098733 0.014308724317129259 0 -0.011913470784912145 0.016700728701382807 0 -0.010093410694277417 0.015693611394899422 0 -0.012525432877903539 0.016260682907974239 0 -0.021401355522092231 0.017529275588280369 0 -0.010484525234613096 0.017259828548939978 0 -0.0099399783620452709 0.016520165980633862 0 -0.010609223908279094 0.016540904582061224 0 -0.0099399783620452709 0.016520165980633862 0 -0.010609223908279094 0.016540904582061224 0 -0.010093410694277417 0.015693611394899422 0 -0.0099399783620452709 0.016520165980633862 0 -0.010093410694277417 0.015693611394899422 0 -0.0093909556651447564 0.015991939151935346 0 -0.0093909556651447564 0.015991939151935346 0 -0.0088988312186332342 0.016948572613231221 0 -0.0085198788595472665 0.015601523032878123 0 -0.0092828704376787512 0.015317318118794217 0 -0.0093909556651447564 0.015991939151935346 0 -0.0085198788595472665 0.015601523032878123 0 -0.0092828704376787512 0.015317318118794217 0 -0.010093410694277417 0.015693611394899422 0 -0.0093909556651447564 0.015991939151935346 0 -0.0099399783620452709 0.016520165980633862 0 -0.0093909556651447564 0.015991939151935346 0 -0.0088988312186332342 0.016948572613231221 0 -0.010484525234613096 0.017259828548939978 0 -0.0099399783620452709 0.016520165980633862 0 -0.0088988312186332342 0.016948572613231221 0 -0.007963196226328316 0.01811324835152546 0 -0.0088988312186332342 0.016948572613231221 0 -0.0076710323857028025 0.016350236907622401 0 -0.007963196226328316 0.01811324835152546 0 -0.0076710323857028025 0.016350236907622401 0 -0.0064086572270384574 0.016772890107551348 0 -0.0076710323857028025 0.016350236907622401 0 -0.0064086572270384574 0.016772890107551348 0 -0.0070756976201973975 0.015336069153766632 0 -0.0076710323857028025 0.016350236907622401 0 -0.0085198788595472665 0.015601523032878123 0 -0.0070756976201973975 0.015336069153766632 0 -0.0088988312186332342 0.016948572613231221 0 -0.0076710323857028025 0.016350236907622401 0 -0.0085198788595472665 0.015601523032878123 0 -0.0042964118796443634 0.016519078464551716 0 -0.0064086572270384574 0.016772890107551348 0 -0.0055131017864432459 0.015304223926562657 0 -0.0064086572270384574 0.016772890107551348 0 -0.0055131017864432459 0.015304223926562657 0 -0.0070756976201973975 0.015336069153766632 0 -0.0040248250992589692 0.015293482318682813 0 -0.0055131017864432459 0.015304223926562657 0 -0.0056261434552063797 0.01355392085804125 0 -0.0055131017864432459 0.015304223926562657 0 -0.0069055756254977358 0.014190935898240288 0 -0.0056261434552063797 0.01355392085804125 0 -0.0055131017864432459 0.015304223926562657 0 -0.0070756976201973975 0.015336069153766632 0 -0.0069055756254977358 0.014190935898240288 0 -0.009519256947098733 0.014308724317129259 0 -0.0082756926795679864 0.014549502163653794 0 -0.0074705611634370804 0.01310348319650918 0 -0.0085198788595472665 0.015601523032878123 0 -0.0070756976201973975 0.015336069153766632 0 -0.0082756926795679864 0.014549502163653794 0 -0.0089195950695256463 0.014871382365362272 0 -0.0085198788595472665 0.015601523032878123 0 -0.0082756926795679864 0.014549502163653794 0 -0.0069055756254977358 0.014190935898240288 0 -0.0082756926795679864 0.014549502163653794 0 -0.0074705611634370804 0.01310348319650918 0 -0.0070756976201973975 0.015336069153766632 0 -0.0069055756254977358 0.014190935898240288 0 -0.0082756926795679864 0.014549502163653794 0 -0.0076165882065222911 0.012256297795946131 0 -0.0074705611634370804 0.01310348319650918 0 -0.0056261434552063797 0.01355392085804125 0 -0.012525432877903539 0.016260682907974239 0 -0.0059758878524210036 0.016556917332457729 0 -0.009519256947098733 0.014308724317129259 0 -0.0076165882065222911 0.012256297795946131 0 -0.0074705611634370804 0.01310348319650918 0 -0.0069055756254977358 0.014190935898240288 0 -0.0074705611634370804 0.01310348319650918 0 -0.0056261434552063797 0.01355392085804125 0 -0.0059758878524210036 0.016556917332457729 0 -0.0049530813609004855 0.014385056494197961 0 -0.003379481783381768 0.016477102433926312 0 -0.0059758878524210036 0.016556917332457729 0 -0.0038931294417376499 0.015533636022708261 0 -0.0038985208812147495 0.015510148340408094 0 -0.0038875234972241273 0.015497158088448627 0 -0.0038023113738655401 0.017487467153192125 0 -0.003977175829101392 0.017501842365617571 0 -0.0038672689605107184 0.017404021004154346 0 -0.0058985991028271453 0.018736011130441238 0 -0.0059855358045549055 0.019597081335529801 0 -0.0058681829949275531 0.019279144810419455 0 -0.0058985991028271453 0.018736011130441238 0 -0.0058681829949275531 0.019279144810419455 0 -0.0054099621289615827 0.019355287384092923 0 -0.0059758878524210036 0.016556917332457729 0 -0.0048343067268320954 0.018595053427459093 0 -0.0094253860060042587 0.018739856947800528 0 -0.012575478438088034 0.01942038920413967 0 -0.013449632270713864 0.01650657138427648 0 -0.0059758878524210036 0.016556917332457729 0 -0.014126527413377998 0.019794750957359428 0 -0.0163542968809797 0.018070503266375836 0 -0.014126527413377998 0.019794750957359428 0 -0.0058985991028271453 0.018736011130441238 0 -0.0047392720377523352 0.019111835896919182 0 -0.0054099621289615827 0.019355287384092923 0 -0.0059758878524210036 0.016556917332457729 0 -0.0163542968809797 0.018070503266375836 0 -0.011964365997997937 0.018925184484803396 0 -0.0092795852686379347 0.01555207910958481 0 -0.012753929475816576 0.016281865307282564 0 -0.01953131845533277 0.017629193165166729 0 -0.019920034963232219 0.01633773920612511 0 -0.020563486368184034 0.017161510614611936 0 -0.012525432877903539 0.016260682907974239 0 -0.0163542968809797 0.018070503266375836 0 -0.0163542968809797 0.018070503266375836 0 -0.027846866277203969 0.019136756085861857 0 -0.020969030875358605 0.020849971549792623 0 -0.02316321894686104 0.021226507225370589 0 -0.022284031163263468 0.020056576307767315 0 -0.019920034963232219 0.01633773920612511 0 -0.021530642922508426 0.016615930647948557 0 -0.020563486368184034 0.017161510614611936 0 -0.02891924911558158 0.019720837704570563 0 -0.027846866277203969 0.019136756085861857 0 -0.02346512326226961 0.019363309838851182 0 -0.02316321894686104 0.021226507225370589 0 -0.022284031163263468 0.020056576307767315 0 -0.02346512326226961 0.019363309838851182 0 -0.021627743735313894 0.018686522091247486 0 -0.023786577937753812 0.017503085454803363 0 -0.02346512326226961 0.019363309838851182 0 -0.022284031163263468 0.020056576307767315 0 -0.021627743735313894 0.018686522091247486 0 -0.020969030875358605 0.020849971549792623 0 -0.022284031163263468 0.020056576307767315 0 -0.021627743735313894 0.018686522091247486 0 -0.019075503501299235 0.02236874891608082 0 -0.019652740449645836 0.020558243929952952 0 -0.021181503937286867 0.021217735791214616 0 -0.014126527413377998 0.019794750957359428 0 -0.028272475975511982 0.020000579109972209 0 -0.014126527413377998 0.019794750957359428 0 -0.012103117827370944 0.02080277985215041 0 -0.019652740449645836 0.020558243929952952 0 -0.021181503937286867 0.021217735791214616 0 -0.021273942099159854 0.020651407731736824 0 -0.012103117827370944 0.02080277985215041 0 -0.020846587797949349 0.02103029256101871 0 -0.019652740449645836 0.020558243929952952 0 -0.020211472945402268 0.01876522057717012 0 -0.021273942099159854 0.020651407731736824 0 -0.020846587797949349 0.02103029256101871 0 -0.030460991070763461 0.020187424135558185 0 -0.0043151678110496033 0.019967130693715252 0 -0.0038976125058664168 0.021052126978167645 0 -0.004847508390614149 0.020739506403226787 0 -0.0043151678110496033 0.019967130693715252 0 -0.004847508390614149 0.020739506403226787 0 -0.0053407759837546037 0.020003641256851244 0 -0.0038976125058664168 0.021052126978167645 0 -0.004847508390614149 0.020739506403226787 0 -0.0049294148160373731 0.021589107344809795 0 -0.004847508390614149 0.020739506403226787 0 -0.0056426681330150521 0.021037711073764762 0 -0.0049294148160373731 0.021589107344809795 0 -0.004847508390614149 0.020739506403226787 0 -0.0053407759837546037 0.020003641256851244 0 -0.0056426681330150521 0.021037711073764762 0 -0.0043151678110496033 0.019967130693715252 0 -0.0053407759837546037 0.020003641256851244 0 -0.0054099621289615827 0.019355287384092923 0 -0.0047392720377523352 0.019111835896919182 0 -0.0043151678110496033 0.019967130693715252 0 -0.0054099621289615827 0.019355287384092923 0 -0.0058681829949275531 0.019279144810419455 0 -0.0054099621289615827 0.019355287384092923 0 -0.0059822673493549854 0.019407708524428722 0 -0.0053407759837546037 0.020003641256851244 0 -0.0054099621289615827 0.019355287384092923 0 -0.0059822673493549854 0.019407708524428722 0 -0.0059855358045549055 0.019597081335529801 0 -0.0059822673493549854 0.019407708524428722 0 -0.0062756901052249845 0.019200503252808278 0 -0.0059855358045549055 0.019597081335529801 0 -0.0058681829949275531 0.019279144810419455 0 -0.0059822673493549854 0.019407708524428722 0 -0.005918149983767931 0.019994313239484092 0 -0.0062756901052249845 0.019200503252808278 0 -0.0064144048790357082 0.020598594503701013 0 -0.0059822673493549854 0.019407708524428722 0 -0.005918149983767931 0.019994313239484092 0 -0.0062756901052249845 0.019200503252808278 0 -0.0053407759837546037 0.020003641256851244 0 -0.0059822673493549854 0.019407708524428722 0 -0.005918149983767931 0.019994313239484092 0 -0.0048343067268320954 0.018595053427459093 0 -0.004057135741715609 0.017566186436512362 0 -0.0059855358045549055 0.019597081335529801 0 -0.0051872071193814423 0.018230146822572565 0 -0.0039727840721242901 0.017553487791353711 0 -0.0059855358045549055 0.019597081335529801 0 -0.0062756901052249845 0.019200503252808278 0 -0.0051872071193814423 0.018230146822572565 0 -0.0051872071193814423 0.018230146822572565 0 -0.0048287424086409028 0.016959602700421877 0 -0.0039727840721242901 0.017553487791353711 0 -0.0062756901052249845 0.019200503252808278 0 -0.0076814935251316571 0.020898513868174286 0 -0.0064144048790357082 0.020598594503701013 0 -0.006297432954709848 0.019156353517237365 0 -0.006237688786811817 0.018974329867128766 0 -0.0062756901052249845 0.019200503252808278 0 -0.0051872071193814423 0.018230146822572565 0 -0.0048287424086409028 0.016959602700421877 0 -0.0076814935251316571 0.020898513868174286 0 -0.0064144048790357082 0.020598594503701013 0 -0.0065335490269346902 0.021827256790410358 0 -0.005918149983767931 0.019994313239484092 0 -0.0064144048790357082 0.020598594503701013 0 -0.0056426681330150521 0.021037711073764762 0 -0.0053407759837546037 0.020003641256851244 0 -0.005918149983767931 0.019994313239484092 0 -0.0056426681330150521 0.021037711073764762 0 -0.0064144048790357082 0.020598594503701013 0 -0.0056426681330150521 0.021037711073764762 0 -0.0065335490269346902 0.021827256790410358 0 -0.0065335490269346902 0.021827256790410358 0 -0.006616235107445142 0.023195670036263275 0 -0.0055689749085386497 0.022547494754016337 0 -0.0056426681330150521 0.021037711073764762 0 -0.0065335490269346902 0.021827256790410358 0 -0.0055689749085386497 0.022547494754016337 0 -0.0076626487223232778 0.022274914807027989 0 -0.006616235107445142 0.023195670036263275 0 -0.0082954781058924339 0.023100068432669589 0 -0.0065335490269346902 0.021827256790410358 0 -0.0076626487223232778 0.022274914807027989 0 -0.006616235107445142 0.023195670036263275 0 -0.0076814935251316571 0.020898513868174286 0 -0.0076626487223232778 0.022274914807027989 0 -0.0087573674531250256 0.022540598376031139 0 -0.0076814935251316571 0.020898513868174286 0 -0.0065335490269346902 0.021827256790410358 0 -0.0076626487223232778 0.022274914807027989 0 -0.0099243807987946971 0.023195945891471219 0 -0.0099448867680581501 0.022048149254964591 0 -0.0088349963799959682 0.022346614052460384 0 -0.0099243807987946971 0.023195945891471219 0 -0.0082954781058924339 0.023100068432669589 0 -0.0088349963799959682 0.022346614052460384 0 -0.0069510086523409641 0.02350195275191231 0 -0.0088948792216727805 0.022916187061819353 0 -0.0099243807987946971 0.023195945891471219 0 -0.011860453184543453 0.022891666180265842 0 -0.0099448867680581501 0.022048149254964591 0 -0.006616235107445142 0.023195670036263275 0 -0.0051413786326411307 0.023666239328937359 0 -0.0055689749085386497 0.022547494754016337 0 -0.0069510086523409641 0.02350195275191231 0 -0.015442609609127599 0.023246489338922583 0 -0.015442609609127599 0.023246489338922583 0 -0.0122933298091064 0.021549325808305164 0 -0.0051413786326411307 0.023666239328937359 0 -0.004452361354832797 0.022372392367454853 0 -0.0055689749085386497 0.022547494754016337 0 -0.020508950933618663 0.020190930895733254 0 -0.021520359998575687 0.021980875912762651 0 -0.022194299991119278 0.019452839071674707 0 -0.021520359998575687 0.021980875912762651 0 -0.022194299991119278 0.019452839071674707 0 -0.023290027017600367 0.02129931541520436 0 -0.0038976125058664168 0.021052126978167645 0 -0.004452361354832797 0.022372392367454853 0 -0.0049294148160373731 0.021589107344809795 0 -0.020846587797949349 0.02103029256101871 0 -0.0122933298091064 0.021549325808305164 0 -0.022495525488030733 0.023731567009860236 0 -0.021520359998575687 0.021980875912762651 0 -0.023290027017600367 0.02129931541520436 0 -0.020846587797949349 0.02103029256101871 0 -0.029935426079261994 0.021106336442333777 0 -0.0056426681330150521 0.021037711073764762 0 -0.0055689749085386497 0.022547494754016337 0 -0.0049294148160373731 0.021589107344809795 0 -0.004452361354832797 0.022372392367454853 0 -0.0055689749085386497 0.022547494754016337 0 -0.0049294148160373731 0.021589107344809795 0 -0.0030470743095925689 0.016647619376511373 0 -0.0031174130142163675 0.016500622522093878 0 -0.0030391659717520611 0.016832368036974809 0 -0.0031174130142163675 0.016500622522093878 0 -0.0030391659717520611 0.016832368036974809 0 -0.0032030347364270556 0.016950898972954789 0 -0.0033688354674294165 0.017231442211749728 0 -0.0031174130142163675 0.016500622522093878 0 -0.0032030347364270556 0.016950898972954789 0 -0.0032030347364270556 0.016950898972954789 0 -0.0034064580506706051 0.01695764244433251 0 -0.0031318678272676975 0.016833872955332927 0 -0.0030391659717520611 0.016832368036974809 0 -0.0032030347364270556 0.016950898972954789 0 -0.0031318678272676975 0.016833872955332927 0 -0.0032030347364270556 0.016950898972954789 0 -0.0034064580506706051 0.01695764244433251 0 -0.0035686989719595432 0.017206744688663404 0 -0.0034064580506706051 0.01695764244433251 0 -0.0036689490611634527 0.017124028821364136 0 -0.003638327020254259 0.016859476783967729 0 -0.0034064580506706051 0.01695764244433251 0 -0.003638327020254259 0.016859476783967729 0 -0.0034266884814242496 0.016781987117124454 0 -0.0034064580506706051 0.01695764244433251 0 -0.0035686989719595432 0.017206744688663404 0 -0.0036689490611634527 0.017124028821364136 0 -0.0033688354674294165 0.017231442211749728 0 -0.0035686989719595432 0.017206744688663404 0 -0.0037848856651908863 0.017373729304740446 0 -0.0033688354674294165 0.017231442211749728 0 -0.0032030347364270556 0.016950898972954789 0 -0.0035686989719595432 0.017206744688663404 0 -0.0038672689605107184 0.017404021004154346 0 -0.0037848856651908863 0.017373729304740446 0 -0.0039727840721242901 0.017553487791353711 0 -0.0035686989719595432 0.017206744688663404 0 -0.0037848856651908863 0.017373729304740446 0 -0.0039727840721242901 0.017553487791353711 0 -0.0048287424086409028 0.016959602700421877 0 -0.0039727840721242901 0.017553487791353711 0 -0.003955896624093555 0.016937786875037629 0 -0.0035686989719595432 0.017206744688663404 0 -0.0039727840721242901 0.017553487791353711 0 -0.0036689490611634527 0.017124028821364136 0 -0.0039727840721242901 0.017553487791353711 0 -0.0036689490611634527 0.017124028821364136 0 -0.003955896624093555 0.016937786875037629 0 -0.0036689490611634527 0.017124028821364136 0 -0.003638327020254259 0.016859476783967729 0 -0.003955896624093555 0.016937786875037629 0 -0.0048287424086409028 0.016959602700421877 0 -0.003955896624093555 0.016937786875037629 0 -0.0039262583921233643 0.016479386760299104 0 -0.003638327020254259 0.016859476783967729 0 -0.0039262583921233643 0.016479386760299104 0 -0.0034266884814242496 0.016781987117124454 0 -0.006237688786811817 0.018974329867128766 0 -0.0058898360064494754 0.020066604147184555 0 -0.0083792818820542896 0.021948434751005538 0 -0.0058898360064494754 0.020066604147184555 0 -0.003638327020254259 0.016859476783967729 0 -0.003955896624093555 0.016937786875037629 0 -0.0039262583921233643 0.016479386760299104 0 -0.0082954781058924339 0.023100068432669589 0 -0.0083099414599633239 0.023124949896701798 0 -0.0081280710993720199 0.022736444009206998 0 -0.0076626487223232778 0.022274914807027989 0 -0.0082954781058924339 0.023100068432669589 0 -0.0083099414599633239 0.023124949896701798 0 -0.0082954781058924339 0.023100068432669589 0 -0.0081280710993720199 0.022736444009206998 0 -0.0088349963799959682 0.022346614052460384 0 -0.0058898360064494754 0.020066604147184555 0 -0.0060149789808514181 0.020948382292917154 0 -0.0083099414599633239 0.023124949896701798 0 -0.0081280710993720199 0.022736444009206998 0 -0.0073412420307152684 0.022686748354781471 0 -0.0081280710993720199 0.022736444009206998 0 -0.0073412420307152684 0.022686748354781471 0 -0.0077399991210790626 0.021460248229571488 0 -0.0046329174302867978 0.019115539507613889 0 -0.0044769613018650605 0.018908984085971782 0 -0.0043146071966894467 0.019006843191075672 0 -0.0044769613018650605 0.018908984085971782 0 -0.0043146071966894467 0.019006843191075672 0 -0.0042048121787557693 0.018815013946227359 0 -0.0039262583921233643 0.016479386760299104 0 -0.0034266884814242496 0.016781987117124454 0 -0.0032049666257414956 0.016689661422617252 0 -0.0058898360064494754 0.020066604147184555 0 -0.0033821207686572968 0.017530167116895534 0 -0.0034266884814242496 0.016781987117124454 0 -0.0031318678272676975 0.016833872955332927 0 -0.0032049666257414956 0.016689661422617252 0 -0.0034064580506706051 0.01695764244433251 0 -0.0034266884814242496 0.016781987117124454 0 -0.0031318678272676975 0.016833872955332927 0 -0.0031318678272676975 0.016833872955332927 0 -0.0032049666257414956 0.016689661422617252 0 -0.0029091060567024677 0.017054749328892432 0 -0.0043146071966894467 0.019006843191075672 0 -0.0042048121787557693 0.018815013946227359 0 -0.003969666254242111 0.018792217436758608 0 -0.0033821207686572968 0.017530167116895534 0 -0.0035885079368418991 0.01796801351127679 0 -0.0030391659717520611 0.016832368036974809 0 -0.0031318678272676975 0.016833872955332927 0 -0.0029091060567024677 0.017054749328892432 0 -0.0029717194645625597 0.016889883417870243 0 -0.0030391659717520611 0.016832368036974809 0 -0.0029091060567024677 0.017054749328892432 0 -0.004107194805368166 0.018680853692196752 0 -0.0046275179767602008 0.019193275107500476 0 -0.0041255140560155093 0.018635490159927711 0 -0.0037505365215315212 0.018472544551251149 0 -0.004107194805368166 0.018680853692196752 0 -0.0041255140560155093 0.018635490159927711 0 -0.0042048121787557693 0.018815013946227359 0 -0.003969666254242111 0.018792217436758608 0 -0.004107194805368166 0.018680853692196752 0 -0.0042048121787557693 0.018815013946227359 0 -0.004107194805368166 0.018680853692196752 0 -0.0043521357363580397 0.01881797615735574 0 -0.004107194805368166 0.018680853692196752 0 -0.0046275179767602008 0.019193275107500476 0 -0.0043521357363580397 0.01881797615735574 0 -0.0046793853920449628 0.019309688204705598 0 -0.0051640170638954609 0.020026509261764802 0 -0.0046275179767602008 0.019193275107500476 0 -0.0063585408709156592 0.019614075350930796 0 -0.0059902725771765154 0.021393082262425735 0 -0.0063585408709156592 0.019614075350930796 0 -0.0059902725771765154 0.021393082262425735 0 -0.0077399991210790626 0.021460248229571488 0 -0.0073412420307152684 0.022686748354781471 0 -0.0059902725771765154 0.021393082262425735 0 -0.0077399991210790626 0.021460248229571488 0 -0.0044769613018650605 0.018908984085971782 0 -0.0042048121787557693 0.018815013946227359 0 -0.0043521357363580397 0.01881797615735574 0 -0.0060149789808514181 0.020948382292917154 0 -0.0051640170638954609 0.020026509261764802 0 -0.0077399991210790626 0.021460248229571488 0 -0.0088349963799959682 0.022346614052460384 0 -0.0092353583486113645 0.021042777290164957 0 -0.0081280710993720199 0.022736444009206998 0 -0.0077399991210790626 0.021460248229571488 0 -0.0088349963799959682 0.022346614052460384 0 -0.0063585408709156592 0.019614075350930796 0 -0.0077399991210790626 0.021460248229571488 0 -0.0080299929107196556 0.019766770275783382 0 -0.0077399991210790626 0.021460248229571488 0 -0.0080299929107196556 0.019766770275783382 0 -0.0092353583486113645 0.021042777290164957 0 -0.0063585408709156592 0.019614075350930796 0 -0.0080299929107196556 0.019766770275783382 0 -0.0070495609380222578 0.018848119968368368 0 -0.0080299929107196556 0.019766770275783382 0 -0.0081767806086805641 0.018635583177017395 0 -0.0070495609380222578 0.018848119968368368 0 -0.0081767806086805641 0.018635583177017395 0 -0.0070788596103767438 0.017755077957610402 0 -0.0088808326748609067 0.017518691787834811 0 -0.0081767806086805641 0.018635583177017395 0 -0.0070788596103767438 0.017755077957610402 0 -0.0070495609380222578 0.018848119968368368 0 -0.0070788596103767438 0.017755077957610402 0 -0.0056796293878592849 0.018465489038321074 0 -0.0070495609380222578 0.018848119968368368 0 -0.0054665569307557503 0.017304008418973151 0 -0.0070788596103767438 0.017755077957610402 0 -0.0056796293878592849 0.018465489038321074 0 -0.0063585408709156592 0.019614075350930796 0 -0.0056796293878592849 0.018465489038321074 0 -0.0070495609380222578 0.018848119968368368 0 -0.0046275179767602008 0.019193275107500476 0 -0.0056796293878592849 0.018465489038321074 0 -0.0043448112816642844 0.018118947839366514 0 -0.0046275179767602008 0.019193275107500476 0 -0.0063585408709156592 0.019614075350930796 0 -0.0056796293878592849 0.018465489038321074 0 -0.0054665569307557503 0.017304008418973151 0 -0.0056796293878592849 0.018465489038321074 0 -0.0050558960418675821 0.017847533165690647 0 -0.0056796293878592849 0.018465489038321074 0 -0.0050558960418675821 0.017847533165690647 0 -0.0043448112816642844 0.018118947839366514 0 -0.0054665569307557503 0.017304008418973151 0 -0.0047933682661165109 0.017525071880344887 0 -0.0050558960418675821 0.017847533165690647 0 -0.0039329576981445482 0.017362568873132981 0 -0.0047933682661165109 0.017525071880344887 0 -0.0043448112816642844 0.018118947839366514 0 -0.0047933682661165109 0.017525071880344887 0 -0.0050558960418675821 0.017847533165690647 0 -0.0043448112816642844 0.018118947839366514 0 -0.0046275179767602008 0.019193275107500476 0 -0.0043448112816642844 0.018118947839366514 0 -0.0041255140560155093 0.018635490159927711 0 -0.003668800888395044 0.01820631203697649 0 -0.0043448112816642844 0.018118947839366514 0 -0.0041255140560155093 0.018635490159927711 0 -0.024435965405449081 0.024901232934110108 0 -0.025090942535337099 0.02580083902634648 0 -0.025975256036631797 0.025206980380345533 0 -0.024435965405449081 0.024901232934110108 0 -0.025090942535337099 0.02580083902634648 0 -0.023604834012457176 0.025667016275736407 0 -0.025090942535337099 0.02580083902634648 0 -0.025217824514059035 0.026594697984585771 0 -0.023604834012457176 0.025667016275736407 0 -0.025975256036631797 0.025206980380345533 0 -0.026427740957307638 0.026042884385838922 0 -0.027131148257616627 0.025604875417731484 0 -0.026427740957307638 0.026042884385838922 0 -0.027131148257616627 0.025604875417731484 0 -0.026806329412914408 0.02619465911686528 0 -0.025090942535337099 0.02580083902634648 0 -0.025975256036631797 0.025206980380345533 0 -0.025750059932714134 0.026133607646663528 0 -0.025975256036631797 0.025206980380345533 0 -0.026427740957307638 0.026042884385838922 0 -0.025750059932714134 0.026133607646663528 0 -0.025750059932714134 0.026133607646663528 0 -0.025971812305517768 0.026978551229831432 0 -0.025217824514059035 0.026594697984585771 0 -0.026427740957307638 0.026042884385838922 0 -0.025750059932714134 0.026133607646663528 0 -0.025971812305517768 0.026978551229831432 0 -0.024939865817013532 0.023322401826609929 0 -0.029229646828287378 0.021506406036746268 0 -0.026427740957307638 0.026042884385838922 0 -0.025971812305517768 0.026978551229831432 0 -0.026806329412914408 0.02619465911686528 0 -0.015442609609127599 0.023246489338922583 0 -0.017691564730415804 0.023874623842196185 0 -0.015442609609127599 0.023246489338922583 0 -0.024939865817013532 0.023322401826609929 0 -0.024543081638275462 0.027338208191741001 0 -0.025217824514059035 0.026594697984585771 0 -0.023604834012457176 0.025667016275736407 0 -0.024543081638275462 0.027338208191741001 0 -0.025971812305517768 0.026978551229831432 0 -0.025217824514059035 0.026594697984585771 0 -0.025090942535337099 0.02580083902634648 0 -0.025750059932714134 0.026133607646663528 0 -0.025217824514059035 0.026594697984585771 0 -0.0099448867680581501 0.022048149254964591 0 -0.0092353583486113645 0.021042777290164957 0 -0.010956557890376433 0.021187290709439189 0 -0.011860453184543453 0.022891666180265842 0 -0.0099448867680581501 0.022048149254964591 0 -0.010956557890376433 0.021187290709439189 0 -0.0099448867680581501 0.022048149254964591 0 -0.0088349963799959682 0.022346614052460384 0 -0.0092353583486113645 0.021042777290164957 0 -0.0080299929107196556 0.019766770275783382 0 -0.0092353583486113645 0.021042777290164957 0 -0.010002587351089227 0.019405934245738943 0 -0.024435965405449081 0.024901232934110108 0 -0.023604834012457176 0.025667016275736407 0 -0.022477844432442485 0.023966087379598225 0 -0.017691564730415804 0.023874623842196185 0 -0.016187186814942845 0.021741496381481189 0 -0.0092353583486113645 0.021042777290164957 0 -0.010956557890376433 0.021187290709439189 0 -0.010002587351089227 0.019405934245738943 0 -0.024435965405449081 0.024901232934110108 0 -0.022477844432442485 0.023966087379598225 0 -0.024897064442042396 0.023797079650663504 0 -0.0080299929107196556 0.019766770275783382 0 -0.0081767806086805641 0.018635583177017395 0 -0.010002587351089227 0.019405934245738943 0 -0.0081767806086805641 0.018635583177017395 0 -0.010002587351089227 0.019405934245738943 0 -0.0088808326748609067 0.017518691787834811 0 -0.016187186814942845 0.021741496381481189 0 -0.015192970593651678 0.018876549096469908 0 -0.023129483599939826 0.021860564892749394 0 -0.022477844432442485 0.023966087379598225 0 -0.021272352573017347 0.022139089514885153 0 -0.023129483599939826 0.021860564892749394 0 -0.022477844432442485 0.023966087379598225 0 -0.024897064442042396 0.023797079650663504 0 -0.025836219003926058 0.022304910045545249 0 -0.023129483599939826 0.021860564892749394 0 -0.024897064442042396 0.023797079650663504 0 -0.024435965405449081 0.024901232934110108 0 -0.025975256036631797 0.025206980380345533 0 -0.024897064442042396 0.023797079650663504 0 -0.025975256036631797 0.025206980380345533 0 -0.026599863243340016 0.0237959836212157 0 -0.027524357565155193 0.024726115089495942 0 -0.025975256036631797 0.025206980380345533 0 -0.024897064442042396 0.023797079650663504 0 -0.026599863243340016 0.0237959836212157 0 -0.025836219003926058 0.022304910045545249 0 -0.027431609777568464 0.022897264229562554 0 -0.026599863243340016 0.0237959836212157 0 -0.025836219003926058 0.022304910045545249 0 -0.024897064442042396 0.023797079650663504 0 -0.026599863243340016 0.0237959836212157 0 -0.027431609777568464 0.022897264229562554 0 -0.028552884510862003 0.02279103245222892 0 -0.028518535435567774 0.023462944577311889 0 -0.027431609777568464 0.022897264229562554 0 -0.027860222387936194 0.023862408271023618 0 -0.028518535435567774 0.023462944577311889 0 -0.027860222387936194 0.023862408271023618 0 -0.028518535435567774 0.023462944577311889 0 -0.028534192870702212 0.023897874096930029 0 -0.027431609777568464 0.022897264229562554 0 -0.026599863243340016 0.0237959836212157 0 -0.027860222387936194 0.023862408271023618 0 -0.029324609122253882 0.023253728625222042 0 -0.029202056307162733 0.023879614775323715 0 -0.030044980232341267 0.023539238479287076 0 -0.029324609122253882 0.023253728625222042 0 -0.028518535435567774 0.023462944577311889 0 -0.029202056307162733 0.023879614775323715 0 -0.028552884510862003 0.02279103245222892 0 -0.029324609122253882 0.023253728625222042 0 -0.028518535435567774 0.023462944577311889 0 -0.027860222387936194 0.023862408271023618 0 -0.028534192870702212 0.023897874096930029 0 -0.02854311583912203 0.024396943736987933 0 -0.028534192870702212 0.023897874096930029 0 -0.029202056307162733 0.023879614775323715 0 -0.02854311583912203 0.024396943736987933 0 -0.028518535435567774 0.023462944577311889 0 -0.028534192870702212 0.023897874096930029 0 -0.029202056307162733 0.023879614775323715 0 -0.029202056307162733 0.023879614775323715 0 -0.02854311583912203 0.024396943736987933 0 -0.029537534190922365 0.02460522675985299 0 -0.02854311583912203 0.024396943736987933 0 -0.028571787796408142 0.025035531101174277 0 -0.029537534190922365 0.02460522675985299 0 -0.028571787796408142 0.025035531101174277 0 -0.029187638047037109 0.025455544185309768 0 -0.029537534190922365 0.02460522675985299 0 -0.026599863243340016 0.0237959836212157 0 -0.027860222387936194 0.023862408271023618 0 -0.027524357565155193 0.024726115089495942 0 -0.027860222387936194 0.023862408271023618 0 -0.02854311583912203 0.024396943736987933 0 -0.027524357565155193 0.024726115089495942 0 -0.028571787796408142 0.025035531101174277 0 -0.027524357565155193 0.024726115089495942 0 -0.027993594553555875 0.025493708496748455 0 -0.02854311583912203 0.024396943736987933 0 -0.028571787796408142 0.025035531101174277 0 -0.027524357565155193 0.024726115089495942 0 -0.025975256036631797 0.025206980380345533 0 -0.027524357565155193 0.024726115089495942 0 -0.027131148257616627 0.025604875417731484 0 -0.027131148257616627 0.025604875417731484 0 -0.026806329412914408 0.02619465911686528 0 -0.027694615793980262 0.026167434526148919 0 -0.028401678757876154 0.024728606115891918 0 -0.027956463354082955 0.025832218352494673 0 -0.027131148257616627 0.025604875417731484 0 -0.027694615793980262 0.026167434526148919 0 -0.027993594553555875 0.025493708496748455 0 -0.027524357565155193 0.024726115089495942 0 -0.027131148257616627 0.025604875417731484 0 -0.027993594553555875 0.025493708496748455 0 -0.028571787796408142 0.025035531101174277 0 -0.027993594553555875 0.025493708496748455 0 -0.029187638047037109 0.025455544185309768 0 -0.028401678757876154 0.024728606115891918 0 -0.03012205282245713 0.024853914655599208 0 -0.029229646828287378 0.021506406036746268 0 -0.033318470846939306 0.023472751559922716 0 -0.030504676984880595 0.024449377109502211 0 -0.030920896911065553 0.024236249085885578 0 -0.031040703575063968 0.024390882818973926 0 -0.030504676984880595 0.024449377109502211 0 -0.03046116165296104 0.024575340218628717 0 -0.031040703575063968 0.024390882818973926 0 -0.027761133788460117 0.02625089059142785 0 -0.027993594553555875 0.025493708496748455 0 -0.029187638047037109 0.025455544185309768 0 -0.034479127191294076 0.02185454779784185 0 -0.034799363671933169 0.021929435889312825 0 -0.03460366550328562 0.021547399107204032 0 -0.034479127191294076 0.02185454779784185 0 -0.034799363671933169 0.021929435889312825 0 -0.034349906508993257 0.022329243483605307 0 -0.022194299991119278 0.019452839071674707 0 -0.024108186528066049 0.018803699587601717 0 -0.023290027017600367 0.02129931541520436 0 -0.024939865817013532 0.023322401826609929 0 -0.028401678757876154 0.024728606115891918 0 -0.025771562362744412 0.024012946609259778 0 -0.028481500148758741 0.022348601848782356 0 -0.028231393698929953 0.023170533299683192 0 -0.025971812305517768 0.026978551229831432 0 -0.026806329412914408 0.02619465911686528 0 -0.027694615793980262 0.026167434526148919 0 -0.028401678757876154 0.024728606115891918 0 -0.029229646828287378 0.021506406036746268 0 -0.033917323817059572 0.02227928920104813 0 -0.033777993422466318 0.021748236256153356 0 -0.034188343308962976 0.021945587282680059 0 -0.033917323817059572 0.02227928920104813 0 -0.033443710143111448 0.022311049267662489 0 -0.033777993422466318 0.021748236256153356 0 -0.033917323817059572 0.02227928920104813 0 -0.034188343308962976 0.021945587282680059 0 -0.034349906508993257 0.022329243483605307 0 -0.033777993422466318 0.021748236256153356 0 -0.034188343308962976 0.021945587282680059 0 -0.034341121697207364 0.021505941574602953 0 -0.034479127191294076 0.02185454779784185 0 -0.034188343308962976 0.021945587282680059 0 -0.034341121697207364 0.021505941574602953 0 -0.034479127191294076 0.02185454779784185 0 -0.034188343308962976 0.021945587282680059 0 -0.034349906508993257 0.022329243483605307 0 -0.033318470846939306 0.023472751559922716 0 -0.032460812638378952 0.023602993768705303 0 -0.030920896911065553 0.024236249085885578 0 -0.031040703575063968 0.024390882818973926 0 -0.031292879741071651 0.024035364697677131 0 -0.033917323817059572 0.02227928920104813 0 -0.034349906508993257 0.022329243483605307 0 -0.033686457550169899 0.022981032996364607 0 -0.031040703575063968 0.024390882818973926 0 -0.031555438599203942 0.024220869193037366 0 -0.031292879741071651 0.024035364697677131 0 -0.033917323817059572 0.02227928920104813 0 -0.033443710143111448 0.022311049267662489 0 -0.033686457550169899 0.022981032996364607 0 -0.030882331556778272 0.024357467737121951 0 -0.031583161863431401 0.023870992339512214 0 -0.030489801541276833 0.024718127352636492 0 -0.030595613976042692 0.023873303551293006 0 -0.031649402670915476 0.023800430904606353 0 -0.031555438599203942 0.024220869193037366 0 -0.031292879741071651 0.024035364697677131 0 -0.031649402670915476 0.023800430904606353 0 -0.03012205282245713 0.024853914655599208 0 -0.030882331556778272 0.024357467737121951 0 -0.029187638047037109 0.025455544185309768 0 -0.030489801541276833 0.024718127352636492 0 -0.029537534190922365 0.02460522675985299 0 -0.030489801541276833 0.024718127352636492 0 -0.029943905489569204 0.024094871432135716 0 -0.030595613976042692 0.023873303551293006 0 -0.029202056307162733 0.023879614775323715 0 -0.029537534190922365 0.02460522675985299 0 -0.029943905489569204 0.024094871432135716 0 -0.030489801541276833 0.024718127352636492 0 -0.029537534190922365 0.02460522675985299 0 -0.029943905489569204 0.024094871432135716 0 -0.029202056307162733 0.023879614775323715 0 -0.029943905489569204 0.024094871432135716 0 -0.030044980232341267 0.023539238479287076 0 -0.029943905489569204 0.024094871432135716 0 -0.030595613976042692 0.023873303551293006 0 -0.030044980232341267 0.023539238479287076 0 -0.030595613976042692 0.023873303551293006 0 -0.030044980232341267 0.023539238479287076 0 -0.03084231554643958 0.023374025020038807 0 -0.031414889238490319 0.023166041799173739 0 -0.031649402670915476 0.023800430904606353 0 -0.03084231554643958 0.023374025020038807 0 -0.030595613976042692 0.023873303551293006 0 -0.031649402670915476 0.023800430904606353 0 -0.03084231554643958 0.023374025020038807 0 -0.031882445494100103 0.023410014222013505 0 -0.031649402670915476 0.023800430904606353 0 -0.03216470034253105 0.023624350780274452 0 -0.031649402670915476 0.023800430904606353 0 -0.03216470034253105 0.023624350780274452 0 -0.032389797247704202 0.023689205090359978 0 -0.03216470034253105 0.023624350780274452 0 -0.032389797247704202 0.023689205090359978 0 -0.032259566830018238 0.02367416753229282 0 -0.032187463081090016 0.023714149930890636 0 -0.03216470034253105 0.023624350780274452 0 -0.032259566830018238 0.02367416753229282 0 -0.032389797247704202 0.023689205090359978 0 -0.032259566830018238 0.02367416753229282 0 -0.032356698867114897 0.02304087450455462 0 -0.032460812638378952 0.023602993768705303 0 -0.032442339935361164 0.023682838415566079 0 -0.031555438599203942 0.024220869193037366 0 -0.031649402670915476 0.023800430904606353 0 -0.032389797247704202 0.023689205090359978 0 -0.03219577770174583 0.023899970241119471 0 -0.032128638287300483 0.024006808598859675 0 -0.032082078079085169 0.02372637127082378 0 -0.032128638287300483 0.024006808598859675 0 -0.031855826160916291 0.023962800559055565 0 -0.032082078079085169 0.02372637127082378 0 -0.032187463081090016 0.023714149930890636 0 -0.032259566830018238 0.02367416753229282 0 -0.032082078079085169 0.02372637127082378 0 -0.03219577770174583 0.023899970241119471 0 -0.032187463081090016 0.023714149930890636 0 -0.032082078079085169 0.02372637127082378 0 -0.032259566830018238 0.02367416753229282 0 -0.032082078079085169 0.02372637127082378 0 -0.032356698867114897 0.02304087450455462 0 -0.032082078079085169 0.02372637127082378 0 -0.031647499264470164 0.023143173314996469 0 -0.031984746623616035 0.02286662243708799 0 -0.031855826160916291 0.023962800559055565 0 -0.032082078079085169 0.02372637127082378 0 -0.031647499264470164 0.023143173314996469 0 -0.031078488078967004 0.021989933266020691 0 -0.031647499264470164 0.023143173314996469 0 -0.031984746623616035 0.02286662243708799 0 -0.031984746623616035 0.02286662243708799 0 -0.032033799355765176 0.021898341346007426 0 -0.032356698867114897 0.02304087450455462 0 -0.032082078079085169 0.02372637127082378 0 -0.031984746623616035 0.02286662243708799 0 -0.032356698867114897 0.02304087450455462 0 -0.031078488078967004 0.021989933266020691 0 -0.031984746623616035 0.02286662243708799 0 -0.032033799355765176 0.021898341346007426 0 -0.033443710143111448 0.022311049267662489 0 -0.033686457550169899 0.022981032996364607 0 -0.032921379836563652 0.022690071973597337 0 -0.033686457550169899 0.022981032996364607 0 -0.032389797247704202 0.023689205090359978 0 -0.032921379836563652 0.022690071973597337 0 -0.032921379836563652 0.022690071973597337 0 -0.032356698867114897 0.02304087450455462 0 -0.03287083248075743 0.021921858342743527 0 -0.032389797247704202 0.023689205090359978 0 -0.032921379836563652 0.022690071973597337 0 -0.032356698867114897 0.02304087450455462 0 -0.032033799355765176 0.021898341346007426 0 -0.032356698867114897 0.02304087450455462 0 -0.03287083248075743 0.021921858342743527 0 -0.033443710143111448 0.022311049267662489 0 -0.032921379836563652 0.022690071973597337 0 -0.03287083248075743 0.021921858342743527 0 -0.033443710143111448 0.022311049267662489 0 -0.033777993422466318 0.021748236256153356 0 -0.03287083248075743 0.021921858342743527 0 -0.033777993422466318 0.021748236256153356 0 -0.03287083248075743 0.021921858342743527 0 -0.033095556610042598 0.021021658297215633 0 -0.03287083248075743 0.021921858342743527 0 -0.032334436201453085 0.020719739139915132 0 -0.033095556610042598 0.021021658297215633 0 -0.032033799355765176 0.021898341346007426 0 -0.03287083248075743 0.021921858342743527 0 -0.032334436201453085 0.020719739139915132 0 -0.032334436201453085 0.020719739139915132 0 -0.033095556610042598 0.021021658297215633 0 -0.033100604788240832 0.019716961668978183 0 -0.033095556610042598 0.021021658297215633 0 -0.033100604788240832 0.019716961668978183 0 -0.03396394258711629 0.020970979511059459 0 -0.031078488078967004 0.021989933266020691 0 -0.032033799355765176 0.021898341346007426 0 -0.031342907225032142 0.02063858394047613 0 -0.032033799355765176 0.021898341346007426 0 -0.032334436201453085 0.020719739139915132 0 -0.031342907225032142 0.02063858394047613 0 -0.032334436201453085 0.020719739139915132 0 -0.031342907225032142 0.02063858394047613 0 -0.031654743201357451 0.020034703273240462 0 -0.031164431412624285 0.020184015384200758 0 -0.031342907225032142 0.02063858394047613 0 -0.031654743201357451 0.020034703273240462 0 -0.031164431412624285 0.020184015384200758 0 -0.031336399325804218 0.019677491941277096 0 -0.031654743201357451 0.020034703273240462 0 -0.031336399325804218 0.019677491941277096 0 -0.031654743201357451 0.020034703273240462 0 -0.031728769162652604 0.019417622609924651 0 -0.031654743201357451 0.020034703273240462 0 -0.032159758444955062 0.019691587476996616 0 -0.031728769162652604 0.019417622609924651 0 -0.032334436201453085 0.020719739139915132 0 -0.031654743201357451 0.020034703273240462 0 -0.032159758444955062 0.019691587476996616 0 -0.031780817545536882 0.018803263240093182 0 -0.032049499652692166 0.019062245974037356 0 -0.031728769162652604 0.019417622609924651 0 -0.032159758444955062 0.019691587476996616 0 -0.032049499652692166 0.019062245974037356 0 -0.032358663759758446 0.018996292671562314 0 -0.032159758444955062 0.019691587476996616 0 -0.032049499652692166 0.019062245974037356 0 -0.031728769162652604 0.019417622609924651 0 -0.031780817545536882 0.018803263240093182 0 -0.031728769162652604 0.019417622609924651 0 -0.031432087839605272 0.019200204028225976 0 -0.031336399325804218 0.019677491941277096 0 -0.031728769162652604 0.019417622609924651 0 -0.031432087839605272 0.019200204028225976 0 -0.032334436201453085 0.020719739139915132 0 -0.032159758444955062 0.019691587476996616 0 -0.033100604788240832 0.019716961668978183 0 -0.032159758444955062 0.019691587476996616 0 -0.033100604788240832 0.019716961668978183 0 -0.032358663759758446 0.018996292671562314 0 -0.032893430056073543 0.018087452850823107 0 -0.033100604788240832 0.019716961668978183 0 -0.032358663759758446 0.018996292671562314 0 -0.032893430056073543 0.018087452850823107 0 -0.033796675397930888 0.018205238458437294 0 -0.033100604788240832 0.019716961668978183 0 -0.033796675397930888 0.018205238458437294 0 -0.033100604788240832 0.019716961668978183 0 -0.035019297857321392 0.019372017467925655 0 -0.033100604788240832 0.019716961668978183 0 -0.035019297857321392 0.019372017467925655 0 -0.03396394258711629 0.020970979511059459 0 -0.03459946239824653 0.01993286145312629 0 -0.033981694165506379 0.020939287503464441 0 -0.034827699442331793 0.018122899133629591 0 -0.033796675397930888 0.018205238458437294 0 -0.035019297857321392 0.019372017467925655 0 -0.035894772354227368 0.017635200667539323 0 -0.034827699442331793 0.018122899133629591 0 -0.035019297857321392 0.019372017467925655 0 -0.034094266686456848 0.020578337948891308 0 -0.034318228771580431 0.020312942593526763 0 -0.034355896393921344 0.020536628952984925 0 -0.034218377342074578 0.020079448933395524 0 -0.034094266686456848 0.020578337948891308 0 -0.034318228771580431 0.020312942593526763 0 -0.034761503092151314 0.018986558844037858 0 -0.03459946239824653 0.01993286145312629 0 -0.034318228771580431 0.020312942593526763 0 -0.034355896393921344 0.020536628952984925 0 -0.034502484217378823 0.020432235582815452 0 -0.034531000028679502 0.020341479770321289 0 -0.034481261965543179 0.020311431182714113 0 -0.034498802772770461 0.020359857820583423 0 -0.032396502407309923 0.020556847310120634 0 -0.031663903967369206 0.020029509790918762 0 -0.034481261965543179 0.020311431182714113 0 -0.034534021871504866 0.020380002020141699 0 -0.034502484217378823 0.020432235582815452 0 -0.028272475975511982 0.020000579109972209 0 -0.031663903967369206 0.020029509790918762 0 -0.034318228771580431 0.020312942593526763 0 -0.034481261965543179 0.020311431182714113 0 -0.034502484217378823 0.020432235582815452 0 -0.034378566366317191 0.020149862733994967 0 -0.034318228771580431 0.020312942593526763 0 -0.034481261965543179 0.020311431182714113 0 -0.034355896393921344 0.020536628952984925 0 -0.034502484217378823 0.020432235582815452 0 -0.0344836122848204 0.020625216979356948 0 -0.034541712270987943 0.020554877008681187 0 -0.034502484217378823 0.020432235582815452 0 -0.0344836122848204 0.020625216979356948 0 -0.031663903967369206 0.020029509790918762 0 -0.033047723888967942 0.019674803282843049 0 -0.034606809818086101 0.020369342827877515 0 -0.034502484217378823 0.020432235582815452 0 -0.034655818342008538 0.020454338272163322 0 -0.029836933126817487 0.01886010815795305 0 -0.028985836273217859 0.019345978919073099 0 -0.029585339298705122 0.020438783637406224 0 -0.031663903967369206 0.020029509790918762 0 -0.030460991070763461 0.020187424135558185 0 -0.034541712270987943 0.020554877008681187 0 -0.034502484217378823 0.020432235582815452 0 -0.034655818342008538 0.020454338272163322 0 -0.030460991070763461 0.020187424135558185 0 -0.031667905881273301 0.020149992869856356 0 -0.034541712270987943 0.020554877008681187 0 -0.034655818342008538 0.020454338272163322 0 -0.034650145878879331 0.020586129061220843 0 -0.028272475975511982 0.020000579109972209 0 -0.030460991070763461 0.020187424135558185 0 -0.034859668129726191 0.020805055345904593 0 -0.0346543296985799 0.020462034382979871 0 -0.034650145878879331 0.020586129061220843 0 -0.034650145878879331 0.020586129061220843 0 -0.0344836122848204 0.020625216979356948 0 -0.034611734401077413 0.02085960997094995 0 -0.034541712270987943 0.020554877008681187 0 -0.034650145878879331 0.020586129061220843 0 -0.0344836122848204 0.020625216979356948 0 -0.0344836122848204 0.020625216979356948 0 -0.034611734401077413 0.02085960997094995 0 -0.03438682436101459 0.020736072125156629 0 -0.034859668129726191 0.020805055345904593 0 -0.034650145878879331 0.020586129061220843 0 -0.034611734401077413 0.02085960997094995 0 -0.034094266686456848 0.020578337948891308 0 -0.034355896393921344 0.020536628952984925 0 -0.03438682436101459 0.020736072125156629 0 -0.034094266686456848 0.020578337948891308 0 -0.03438682436101459 0.020736072125156629 0 -0.034401404348699545 0.021060277578211557 0 -0.034611734401077413 0.02085960997094995 0 -0.03438682436101459 0.020736072125156629 0 -0.034401404348699545 0.021060277578211557 0 -0.034355896393921344 0.020536628952984925 0 -0.0344836122848204 0.020625216979356948 0 -0.03438682436101459 0.020736072125156629 0 -0.034611734401077413 0.02085960997094995 0 -0.034401404348699545 0.021060277578211557 0 -0.034851594062176999 0.021333720409475548 0 -0.034859668129726191 0.020805055345904593 0 -0.034611734401077413 0.02085960997094995 0 -0.034851594062176999 0.021333720409475548 0 -0.034401404348699545 0.021060277578211557 0 -0.034851594062176999 0.021333720409475548 0 -0.03460366550328562 0.021547399107204032 0 -0.029229646828287378 0.021506406036746268 0 -0.029935426079261994 0.021106336442333777 0 -0.034799363671933169 0.021929435889312825 0 -0.034851594062176999 0.021333720409475548 0 -0.03460366550328562 0.021547399107204032 0 -0.034401404348699545 0.021060277578211557 0 -0.03460366550328562 0.021547399107204032 0 -0.034341121697207364 0.021505941574602953 0 -0.034479127191294076 0.02185454779784185 0 -0.03460366550328562 0.021547399107204032 0 -0.034341121697207364 0.021505941574602953 0 -0.033777993422466318 0.021748236256153356 0 -0.034341121697207364 0.021505941574602953 0 -0.03396394258711629 0.020970979511059459 0 -0.033777993422466318 0.021748236256153356 0 -0.033095556610042598 0.021021658297215633 0 -0.03396394258711629 0.020970979511059459 0 -0.034094266686456848 0.020578337948891308 0 -0.034401404348699545 0.021060277578211557 0 -0.03396394258711629 0.020970979511059459 0 -0.034401404348699545 0.021060277578211557 0 -0.034341121697207364 0.021505941574602953 0 -0.03396394258711629 0.020970979511059459 0 
</DataArray>
</PointData>
<CellData Scalars="region_id,cross_section_updated," Vectors="" Tensors="stress,">
<DataArray type="Float64" Name="region_id" format="ascii">
5 5 5 5 5 6 5 6 5 5 5 6 5 5 5 5 5 5 5 5 5 5 5 5 6 5 5 6 5 5 5 5 5 5 6 5 5 5 5 5 5 5 5 5 5 5 5 5 5 5 5 6 5 6 5 5 5 5 5 5 5 5 5 5 5 5 5 5 6 5 5 5 5 5 5 5 5 5 6 5 5 5 5 5 6 5 5 5 5 5 5 6 5 6 5 5 5 5 5 6 5 5 5 5 5 6 5 5 5 5 5 5 5 5 5 5 5 6 6 5 5 6 5 6 6 5 5 5 5 5 6 6 6 5 5 5 5 5 5 5 5 5 5 6 5 5 5 6 5 5 5 5 5 5 5 5 5 5 5 5 6 5 5 5 5 6 5 5 5 6 5 5 6 5 5 5 5 5 5 5 5 5 6 5 6 5 5 5 6 5 5 6 6 5 5 5 5 5 5 5 5 6 5 6 5 6 5 5 5 5 5 5 6 5 5 5 5 5 5 5 6 6 5 6 6 5 6 5 5 5 6 5 5 5 5 5 5 5 5 6 5 5 5 5 5 6 5 5 5 5 5 5 5 5 5 5 5 5 5 5 5 5 5 5 5 5 5 5 5 5 5 5 5 5 5 5 5 5 5 5 5 5 5 5 5 5 5 5 5 6 5 6 5 5 6 5 6 5 5 5 6 5 5 6 6 5 5 5 6 6 5 5 5 5 5 5 6 5 5 5 6 5 5 5 5 5 5 6 5 5 6 5 5 6 6 6 6 5 6 6 5 5 5 5 5 6 5 5 5 5 5 5 5 6 5 6 5 5 5 5 5 5 5 6 5 5 5 5 5 5 5 5 6 6 5 5 6 5 6 5 6 6 5 5 5 6 5 6 6 6 6 5 5 5 5 5 5 5 6 6 5 5 5 6 5 5 6 5 5 5 5 5 5 5 6 5 5 5 5 5 5 5 5 5 6 5 5 5 6 5 6 5 5 6 5 5 5 5 5 6 5 5 5 6 5 5 5 5 5 5 5 6 5 5 5 6 5 5 5 5 5 5 5 5 5 5 5 5 5 5 5 5 5 5 5 6 5 5 5 5 5 5 5 5 5 5 5 5 5 5 5 5 5 5 6 5 5 5 5 6 5 5 5 5 5 5 5 5 6 5 5 5 6 5 5 6 5 6 5 5 5 5 6 5 5 5 6 5 6 6 6 5 5 5 5 5 5 5 5 5 5 5 5 5 6 5 5 6 5 5 6 5 5 5 5 5 5 5 6 5 6 5 5 6 5 6 5 5 5 5 5 6 5 6 5 5 6 5 6 5 5 5 6 6 5 5 6 6 6 6 5 5 5 5 5 6 6 5 5 5 5 5 6 5 5 6 5 5 5 6 5 5 6 5 5 5 5 5 5 5 5 5 5 5 5 5 6 5 5 5 5 5 6 5 5 5 5 5 6 5 5 6 6 5 5 6 5 5 5 5 5 5 5 5 5 5 6 5 5 5 5 5 6 5 5 5 5 5 5 6 5 5 5 5 5 5 5 5 6 5 5 5 5 5 6 5 5 5 5 5 5 5 6 5 5 5 5 5 6 5 5 5 5 5 6 5 5 5 5 5 5 5 6 5 5 5 5 5 5 6 5 5 6 5 5 6 5 5 6 6 5 5 5 5 5 5 5 5 5 5 6 5 5 6 5 5 5 5 5 6 5 6 5 5 5 6 5 6 6 5 5 5 5 5 5 5 6 5 5 6 5 5 5 5 5 5 5 5 5 5 5 6 5 5 5 5 5 6 6 5 5 5 5 6 5 5 5 5 5 6 5 6 5 6 6 5 5 5 5 5 5 5 5 6 6 5 5 6 5 5 5 6 5 6 5 5 6 6 6 5 5 6 5 5 5 5 6 5 5 5 5 6 5 5 6 5 5 5 5 5 5 5 5 5 5 5 6 5 5 6 5 6 5 6 5 5 5 5 5 6 5 5 5 6 5 5 6 5 5 5 5 5 5 5 5 5 5 5 5 5 5 5 5 5 5 5 5 5 5 5 5 5 5 5 5 5 5 5 5 5 5 5 5 5 5 5 5 5 6 5 5 5 5 5 5 5 5 5 5 5 5 5 5 5 5 5 5 5 5 6 5 5 5 5 5 5 5 5 5 5 6 5 5 5 5 6 5 5 5 5 5 5 5 5 6 5 5 6 5 5 5 5 5 5 5 5 5 6 5 5 5 5 5 6 5 5 5 5 5 5 5 5 5 6 6 5 5 5 5 5 5 5 5 5 5 5 5 5 5 5 5 5 5 5 5 5 5 6 5 5 5 5 6 5 5 5 5 5 6 5 5 5 5 6 5 5 5 6 5 5 5 5 5 6 5 5 5 5 5 5 5 5 5 5 6 5 6 6 5 5 5 5 5 5 6 5 5 5 5 5 5 5 5 5 5 5 5 5 5 5 5 5 5 5 5 5 6 5 5 5 5 6 5 5 5 5 5 5 5 5 5 5 5 5 5 5 5 5 5 5 5 5 5 5 5 5 5 5 5 5 5 5 5 5 5 5 5 5 5 5 5 6 5 5 5 5 5 5 5 5 5 5 5 5 5 5 6 5 5 5 5 5 5 5 5 5 6 5 5 5 6 5 6 5 6 5 5 5 5 6 5 5 5 5 5 5 5 5 5 5 5 5 6 5 5 5 5 5 5 5 5 5 5 5 5 5 5 5 6 5 5 5 5 5 5 5 5 5 5 5 5 5 5 5 5 5 5 5 5 5 5 5 5 5 5 5 5 5 5 5 5 5 5 5 5 5 6 5 5 5 5 6 5 5 5 6 5 5 5 5 6 5 5 5 6 5 5 5 5 5 5 5 5 6 5 5 5 5 5 5 5 5 5 5 5 5 5 5 5 5 5 5 5 5 5 5 5 5 5 5 5 5 5 5 5 5 5 5 5 5 5 6 5 6 5 5 6 5 5 5 5 5 5 5 5 6 5 5 5 5 5 5 5 5 5 5 5 5 5 5 6 5 5 5 5 5 5 5 5 5 5 5 5 5 6 5 5 5 6 6 5 6 5 6 5 5 5 5 6 5 6 6 5 5 5 5 5 6 6 5 5 5 6 5 5 5 5 5 6 5 5 5 5 6 5 5 5 6 5 5 5 5 5 5 5 5 5 5 5 5 5 5 6 5 5 5 5 5 5 5 5 5 5 5 5 5 5 6 5 5 6 5 5 5 5 6 6 6 5 6 5 6 5 5 5 6 5 5 6 5 5 5 5 5 6 5 5 5 5 5 5 6 5 5 5 5 5 5 5 5 5 6 5 5 6 5 6 5 5 5 5 5 5 5 5 6 5 5 6 5 5 5 5 6 5 5 5 5 5 5 5 5 6 6 5 5 5 5 5 5 5 5 5 5 6 5 6 5 6 5 5 5 5 5 6 5 5 6 5 5 5 5 5 5 5 5 6 5 5 5 5 5 5 5 6 5 5 6 5 5 6 5 6 6 5 6 5 5 6 5 5 5 5 6 6 5 6 5 6 5 5 5 5 6 6 5 5 5 5 6 5 5 5 6 5 5 5 5 6 5 5 5 6 6 5 5 5 5 6 6 5 6 5 5 5 6 6 5 5 5 5 5 5 5 5 5 5 5 5 6 5 5 5 5 5 5 5 5 5 5 5 5 5 5 5 6 5 5 5 5 5 5 5 5 6 5 5 5 5 5 5 5 5 5 5 5 5 5 6 5 5 5 6 6 5 5 5 5 5 5 5 5 5 5 5 6 5 5 5 5 5 6 5 6 5 6 5 5 5 5 5 5 5 5 5 5 5 6 5 6 5 5 6 5 5 5 5 6 5 5 6 5 5 5 5 5 5 5 5 5 5 5 6 5 5 5 5 5 5 6 6 5 5 5 5 5 5 5 5 5 5 5 5 6 5 5 5 5 5 5 6 5 5 6 5 5 6 5 5 5 5 5 6 5 5 5 5 5 5 5 5 5 6 5 5 5 5 5 5 5 5 5 5 5 5 5 5 5 5 5 5 5 5 5 5 5 5 6 6 5 5 5 5 5 6 5 5 5 5 5 5 5 5 5 6 5 5 5 6 5 5 6 5 5 5 5 5 5 5 5 5 6 6 5 5 5 5 5 5 5 5 5 5 5 5 5 5 6 5 5 5 5 5 5 6 5 5 6 5 5 6 5 5 5 6 5 5 5 5 6 5 5 5 6 5 5 5 6 5 6 5 5 5 5 5 6 5 5 5 5 5 5 5 6 5 5 5 5 5 5 5 6 5 5 5 5 5 5 5 5 6 5 5 6 5 5 5 5 5 5 5 5 6 5 5 5 5 5 5 5 5 6 5 5 5 5 6 5 5 5 5 5 5 6 5 5 5 5 6 5 5 6 5 5 6 5 5 5 5 5 5 5 5 5 5 5 5 5 5 5 6 5 6 5 5 5 5 5 6 5 5 5 5 5 5 6 5 6 5 5 5 6 6 5 6 5 5 5 5 5 5 6 5 5 6 5 5 5 5 5 5 5 6 5 5 5 5 6 5 5 6 5 6 6 6 5 5 6 5 6 5 5 6 6 6 5 5 6 5 5 5 5 5 5 5 5 5 5 5 5 5 6 5 6 5 5 5 5 5 6 6 5 5 5 6 5 5 6 6 5 5 5 5 5 5 5 5 6 5 5 5 5 5 5 5 5 6 5 5 5 5 5 5 5 5 5 5 5 6 5 5 5 6 5 5 6 5 5 5 5 6 5 5 5 5 5 5 5 5 5 5 5 5 5 5 6 5 5 5 6 5 5 5 5 5 5 5 5 5 5 5 5 5 6 5 5 5 6 5 5 6 5 6 5 5 5 5 5 5 5 5 5 6 5 5 5 5 6 5 5 5 6 5 5 5 5 6 5 5 6 5 5 5 5 6 5 5 5 5 5 5 5 6 5 5 6 5 5 6 5 5 5 5 5 6 5 6 5 5 5 5 5 5 5 5 5 5 5 5 5 5 6 5 5 5 5 5 5 5 5 5 5 5 5 5 5 5 5 5 5 5 5 5 5 5 5 6 5 5 5 5 5 5 5 5 5 5 5 5 5 5 5 6 5 5 5 5 5 5 5 5 5 5 5 5 5 5 5 5 5 5 5 5 5 5 5 5 5 5 5 5 5 5 5 5 5 5 5 5 5 5 5 5 5 5 5 5 5 5 5 5 5 5 5 5 5 5 5 5 5 5 5 5 5 5 5 5 5 5 5 5 5 5 5 5 5 5 5 5 5 5 5 5 5 5 5 5 5 5 5 5 5 5 5 5 5 5 5 5 5 5 5 5 5 5 5 5 5 5 5 5 5 5 5 5 5 5 5 5 5 5 5 5 5 5 5 5 5 5 5 5 5 5 5 5 5 5 5 5 5 5 5 5 5 5 5 5 5 5 5 5 5 5 5 5 5 5 5 5 5 5 6 5 5 5 5 5 5 5 5 5 5 6 5 5 5 5 6 5 5 5 5 6 6 5 6 5 5 5 5 5 6 6 6 6 5 5 5 5 5 5 5 6 5 5 6 5 5 6 5 5 5 6 5 6 5 5 5 5 5 5 6 6 5 5 5 5 5 5 5 5 5 5 5 5 5 5 5 5 5 5 5 5 5 5 5 5 5 5 5 5 5 5 5 5 5 5 5 5 5 5 5 5 5 5 5 5 5 5 6 5 6 5 5 5 5 5 5 5 5 6 5 5 5 5 5 5 5 5 5 5 5 5 5 5 5 5 5 6 5 6 5 5 6 5 5 6 5 6 5 5 5 5 5 5 5 5 5 5 5 5 5 5 5 5 5 5 5 5 5 5 5 5 5 5 5 5 5 5 5 5 5 5 5 5 5 6 5 5 5 5 5 5 5 5 5 5 5 5 5 5 5 5 6 5 5 5 5 5 6 5 5 5 5 5 5 5 5 5 5 5 5 5 5 5 6 5 6 5 5 5 5 5 6 6 5 5 5 5 5 5 6 6 5 5 5 5 5 5 5 5 6 5 5 5 5 5 5 6 5 5 6 5 5 5 5 5 5 5 5 5 6 6 5 5 5 5 5 5 6 5 5 5 5 5 5 5 5 5 5 5 5 5 5 5 6 6 5 5 5 6 5 5 5 5 5 5 6 5 6 6 5 6 5 5 5 5 5 5 6 5 5 5 5 5 5 5 5 6 5 5 5 5 5 5 5 5 5 5 5 5 5 5 5 6 5 6 5 5 5 5 5 5 5 5 6 5 5 5 6 6 5 5 5 5 6 5 6 6 5 5 5 5 5 5 5 5 5 6 6 6 5 5 5 6 5 5 5 6 5 5 5 5 5 5 5 5 5 5 6 5 5 5 5 6 5 5 5 5 6 5 6 5 6 5 5 5 5 6 6 5 5 6 5 5 5 6 5 5 6 5 5 6 5 5 5 5 5 5 5 6 5 5 5 5 6 5 5 5 5 6 5 6 5 5 6 5 6 5 6 5 5 5 5 6 5 5 5 5 5 6 5 6 5 6 5 5 5 5 5 5 5 5 5 6 5 5 6 5 5 5 5 5 5 5 5 5 5 5 6 6 5 5 6 5 5 5 5 5 6 5 5 5 5 5 5 5 5 5 5 5 5 6 5 5 6 6 5 5 5 5 5 5 5 5 6 5 5 6 5 5 5 5 5 5 6 5 5 5 5 5 5 5 5 5 5 5 5 6 5 5 5 6 6 5 6 5 6 5 5 5 5 5 5 6 5 5 5 5 5 5 5 5 5 5 5 5 5 5 5 5 5 5 5 5 5 6 5 5 5 6 5 6 5 5 5 5 5 5 5 5 5 5 5 6 5 6 5 5 6 5 5 5 6 5 5 5 5 5 5 5 5 5 5 5 5 5 5 5 5 5 5 5 6 5 5 5 5 6 5 5 5 5 5 5 6 5 5 5 6 5 5 5 5 5 5 5 5 5 5 6 5 5 5 6 5 5 5 5 6 5 5 5 5 5 5 5 5 5 5 5 5 6 6 5 5 5 5 5 5 5 5 6 6 5 6 5 5 5 6 5 5 5 5 5 6 5 5 5 5 5 5 5 5 5 5 5 6 5 5 5 5 6 5 5 5 6 5 5 6 5 5 5 5 5 5 5 5 5 5 5 5 5 6 5 5 5 5 5 5 5 5 5 5 5 5 5 5 5 5 5 5 5 5 5 5 5 5 5 6 5 6 5 5 5 5 6 5 5 5 5 5 5 5 5 5 5 5 5 5 5 5 5 5 5 6 5 6 5 5 5 5 5 5 5 5 6 5 5 6 5 6 5 5 5 6 5 5 5 5 5 5 5 6 5 5 5 5 6 6 5 5 5 6 5 5 5 5 5 5 5 5 5 5 5 6 5 5 5 5 5 5 6 5 5 5 5 5 5 5 5 6 5 5 6 5 5 5 5 6 5 5 5 6 5 6 5 5 5 6 5 5 5 5 5 5 6 5 5 5 5 5 5 5 5 5 5 6 5 6 5 5 5 5 5 5 5 5 5 5 5 5 5 5 6 5 5 6 5 5 5 5 5 5 5 5 5 5 5 5 5 5 5 5 5 5 6 5 5 5 5 5 5 5 5 5 6 5 5 6 5 6 5 5 5 6 5 5 5 5 5 5 5 5 5 6 5 5 5 5 5 6 5 5 6 5 5 6 5 5 5 5 6 5 5 5 6 5 5 5 5 5 5 5 5 5 5 5 5 5 5 5 5 5 5 5 5 5 5 5 6 6 5 5 6 5 5 5 6 5 5 5 5 5 5 5 5 6 5 5 5 5 5 6 5 5 6 5 5 5 6 5 5 5 5 5 5 5 5 6 5 5 5 5 6 5 5 5 5 5 5 6 5 5 5 5 5 5 5 5 5 5 6 5 5 5 5 5 5 5 5 6 6 5 6 5 5 5 5 5 5 6 5 6 5 6 5 5 5 5 5 5 6 5 6 5 6 5 6 5 5 5 6 5 6 5 6 5 5 6 5 5 5 5 6 5 6 5 5 5 6 5 5 5 5 6 5 5 5 5 6 5 5 6 5 5 5 5 6 5 5 5 5 5 5 5 5 5 5 5 5 5 5 5 6 5 5 5 5 5 5 5 5 5 5 5 5 5 5 5 5 5 6 5 5 5 5 5 5 5 5 5 5 5 5 5 5 5 5 5 5 5 5 5 5 5 5 5 5 5 5 5 5 5 5 5 5 5 5 5 5 5 5 5 5 5 5 5 5 5 5 5 5 5 5 5 5 5 5 5 5 5 5 5 5 5 5 5 5 5 5 5 5 5 5 5 5 5 5 5 5 5 5 5 5 5 5 5 5 5 5 5 5 5 5 5 5 5 5 5 5 5 5 5 6 5 5 5 5 5 5 5 5 5 5 5 5 5 5 5 5 5 5 5 6 5 5 5 5 5 5 5 5 5 5 5 5 5 5 5 5 5 5 6 5 5 5 5 5 5 5 6 6 5 5 6 5 5 5 5 5 5 5 5 5 6 5 5 5 5 5 5 5 5 5 5 6 5 5 5 5 6 5 5 6 6 5 6 5 5 6 5 5 5 5 6 6 5 5 5 5 5 5 6 5 5 6 5 5 5 5 5 6 5 6 5 6 5 6 5 6 6 5 5 5 5 6 6 5 6 5 5 6 5 5 5 5 5 6 5 6 5 6 5 5 6 6 5 5 5 6 5 5 5 5 5 6 5 6 5 5 5 5 5 5 5 5 5 5 5 5 5 5 5 6 5 5 5 5 6 6 5 5 5 6 5 5 6 6 5 5 5 6 5 5 5 5 5 6 6 5 5 5 5 5 5 5 5 5 5 5 5 6 5 5 5 6 5 5 5 5 6 5 6 5 5 5 5 5 5 5 6 6 5 6 5 5 5 6 6 5 5 6 5 5 6 5 5 6 5 6 5 5 5 5 5 5 5 5 6 5 5 5 5 6 5 5 5 5 5 5 5 5 5 5 6 5 5 5 5 5 6 5 5 5 5 5 5 5 5 5 5 5 6 5 5 5 5 6 5 5 5 5 5 5 5 5 5 5 5 5 6 5 5 5 5 5 5 6 5 5 5 6 5 5 6 5 6 5 6 5 6 5 5 5 6 5 5 5 6 6 5 5 5 6 5 5 5 5 5 6 5 5 5 5 5 5 6 5 5 6 5 5 5 5 6 5 5 5 5 5 5 5 5 5 6 5 5 5 6 5 5 6 5 5 5 5 5 5 5 5 6 6 5 5 5 6 5 5 5 5 5 5 5 6 5 5 5 5 5 5 5 6 5 5 5 5 5 5 5 6 5 5 5 5 5 5 5 5 5 5 6 5 5 5 5 5 6 5 5 5 5 6 5 5 5 5 5 5 5 5 5 5 6 5 5 5 5 5 5 5 5 6 5 5 5 6 5 5 5 5 5 6 5 5 5 5 5 5 5 6 5 5 5 5 5 5 5 5 5 6 5 5 5 5 5 5 5 5 5 5 5 5 5 5 5 5 5 5 5 5 5 5 5 5 5 5 5 5 5 6 5 5 5 6 5 5 5 5 5 5 5 5 5 5 5 5 5 5 5 6 6 5 5 5 5 5 5 5 6 5 5 5 6 6 5 5 5 5 5 5 5 5 5 5 5 5 5 5 5 5 5 5 5 5 5 6 5 5 5 6 5 5 5 5 5 5 5 5 5 5 5 5 5 5 5 5 5 5 5 5 5 5 5 5 5 5 5 5 5 6 5 5 5 5 5 5 5 5 5 5 5 5 5 5 5 5 5 5 5 5 5 6 5 5 5 5 5 5 5 5 6 5 5 5 5 5 6 5 5 5 5 5 5 5 5 5 5 5 6 6 5 5 6 5 6 5 5 5 5 5 5 5 5 5 5 5 5 5 5 5 5 5 6 5 5 5 5 5 5 5 5 5 5 5 5 6 5 5 6 5 5 5 5 5 5 6 5 5 5 6 5 5 5 5 5 6 5 6 5 5 5 5 5 5 5 5 6 5 5 5 5 6 5 5 5 5 5 5 5 5 5 6 5 6 5 5 5 5 5 5 5 5 5 6 5 5 5 5 5 5 5 5 6 5 5 5 5 5 5 5 6 5 5 5 6 5 5 5 5 6 5 5 5 5 5 6 5 5 6 5 5 5 5 5 5 5 5 5 5 5 5 5 5 5 5 5 5 5 5 5 5 5 5 6 6 5 5 5 5 5 5 5 6 5 5 5 5 5 5 5 5 5 5 5 5 5 5 5 5 5 5 5 6 5 5 5 6 6 5 5 5 5 5 5 5 5 5 5 5 5 5 5 5 5 5 5 5 5 5 5 5 5 5 5 5 6 5 5 5 6 5 5 5 5 6 5 6 5 5 5 5 5 6 5 5 6 5 5 5 5 5 5 5 5 5 5 5 5 5 5 6 5 5 5 5 5 5 5 6 6 5 5 6 5 5 5 5 5 5 5 5 5 6 6 5 5 5 5 5 5 5 5 6 5 5 5 6 5 5 5 5 5 5 6 5 5 5 6 5 5 5 5 5 5 5 6 5 5 5 5 6 5 5 6 5 5 5 6 6 5 5 5 5 6 5 5 6 5 5 5 6 5 5 5 5 6 5 6 5 5 5 5 5 5 5 5 5 5 5 5 5 6 5 6 5 5 5 5 6 5 5 5 5 5 6 5 5 5 6 5 5 5 5 5 5 5 5 5 5 5 5 5 5 5 5 5 5 5 5 5 5 5 5 5 5 5 5 5 5 5 5 5 5 6 5 5 6 5 5 5 5 5 5 6 5 6 5 5 5 5 5 5 6 5 5 5 6 5 5 5 5 5 5 5 5 6 5 6 6 5 5 5 5 5 5 5 6 5 5 5 5 5 6 5 5 5 5 5 5 5 5 5 5 5 5 5 6 5 5 5 5 5 5 5 5 5 5 5 5 5 5 5 5 5 5 5 5 5 5 5 5 5 5 5 5 5 5 5 5 5 5 5 5 5 5 5 5 5 5 5 5 5 6 5 5 5 5 5 5 5 5 5 5 5 5 5 5 6 6 5 6 5 5 6 5 5 6 6 5 5 5 5 5 5 6 5 5 5 6 5 5 5 5 5 5 5 5 5 5 5 5 5 5 5 5 5 5 5 5 5 5 5 5 5 5 5 5 5 5 5 5 6 5 5 5 6 5 5 5 5 5 5 5 6 5 5 5 6 5 5 5 5 5 5 5 5 5 5 5 5 6 5 5 5 5 5 5 5 5 5 5 5 5 5 5 5 5 5 6 5 5 5 5 5 5 6 5 5 5 5 5 5 5 5 5 5 5 5 5 5 5 5 5 5 5 5 5 5 5 5 5 5 5 5 5 5 5 5 5 5 5 5 5 5 5 5 5 5 5 5 5 5 5 5 5 5 6 5 5 5 5 5 5 5 5 5 5 5 5 5 5 5 5 5 5 5 5 6 5 5 5 5 5 5 5 5 5 5 5 5 5 5 5 5 5 5 5 5 5 6 5 5 5 5 5 5 5 5 5 5 5 5 5 5 5 5 5 5 5 5 5 5 5 5 5 6 5 5 5 5 6 5 5 5 5 5 5 5 5 5 5 5 5 5 5 6 5 5 5 6 5 5 5 5 5 5 5 5 5 5 5 5 5 6 6 5 5 5 5 5 5 5 5 6 5 5 5 6 5 5 5 5 6 5 5 5 5 6 5 6 5 5 5 5 5 5 5 6 5 5 6 5 5 5 5 6 5 5 5 5 5 5 5 5 5 5 5 6 5 6 5 5 5 6 5 5 5 5 6 5 5 5 5 5 6 5 6 5 5 5 6 5 5 5 5 6 6 5 5 5 5 5 6 5 5 5 6 5 5 5 5 6 5 5 6 5 5 5 5 5 5 5 6 5 5 5 5 5 5 5 5 5 5 5 5 5 5 5 5 5 5 5 5 5 6 5 5 5 5 5 5 5 5 5 5 5 5 5 5 5 5 5 6 5 5 5 5 6 5 6 5 5 5 5 5 5 5 5 5 6 5 5 6 6 5 5 6 5 5 5 5 5 5 5 6 6 5 5 6 6 5 5 5 5 5 5 5 6 5 5 6 5 5 5 5 5 6 5 5 5 5 5 5 5 5 5 5 5 5 5 5 5 5 5 5 5 5 5 6 6 5 5 5 5 6 5 5 6 5 5 5 5 6 5 5 5 5 5 5 5 5 5 5 5 5 5 5 5 6 5 5 5 5 6 5 5 5 5 5 5 5 5 5 5 5 5 5 5 5 5 5 5 5 5 6 6 5 5 5 5 5 5 5 5 5 6 5 5 6 5 5 6 5 5 5 5 5 5 5 5 5 5 6 5 5 6 5 5 5 5 5 5 5 5 5 5 5 5 5 5 5 5 5 5 5 5 5 5 5 5 5 5 5 5 5 6 5 5 5 6 5 5 5 5 5 5 5 5 5 6 5 5 5 5 5 5 5 6 5 5 5 5 6 5 5 5 5 5 5 5 5 5 6 5 5 6 5 5 6 5 5 5 5 6 5 5 5 5 6 5 5 5 5 5 5 5 5 5 5 6 5 5 5 5 6 5 5 5 5 6 5 5 5 5 5 5 5 6 5 5 5 6 5 5 5 5 5 6 6 5 5 5 5 6 5 6 5 5 5 5 5 5 5 5 5 5 5 5 5 5 5 5 5 5 5 5 5 5 5 5 6 5 5 5 5 5 5 5 5 5 5 6 5 6 5 5 5 5 5 5 5 5 5 6 5 5 5 5 5 5 5 5 5 5 5 5 5 5 5 5 5 5 5 5 5 5 5 5 5 5 6 6 6 5 5 5 6 5 5 5 5 5 5 5 5 5 5 6 5 5 6 5 5 5 5 5 5 5 5 5 5 5 5 5 5 5 5 5 5 5 5 5 5 5 5 5 5 5 5 5 5 5 5 5 5 5 5 5 5 5 5 5 5 5 5 5 5 6 5 5 6 5 5 6 6 5 6 5 6 5 5 5 5 5 6 5 5 5 5 6 5 5 5 5 5 6 5 5 5 6 5 5 5 5 5 5 5 5 5 5 5 6 5 5 5 6 6 6 6 6 5 5 5 5 5 6 6 5 5 5 5 6 5 5 6 6 5 5 6 5 5 5 5 5 6 5 5 6 5 5 5 6 5 5 5 5 6 5 5 5 5 5 6 6 6 5 5 5 5 5 5 5 5 5 5 6 5 5 5 5 5 5 6 5 6 5 5 5 5 5 5 5 5 5 5 5 6 5 6 5 5 5 5 5 5 5 5 6 5 5 6 5 5 5 5 6 5 5 5 5 5 5 6 6 5 5 5 5 5 5 5 5 5 5 5 5 5 5 5 5 5 5 5 5 5 5 5 6 5 5 5 5 5 5 5 5 5 5 6 5 5 5 6 5 5 5 5 5 5 5 6 5 5 5 5 5 5 6 5 5 5 5 5 5 6 5 5 5 6 5 5 5 5 6 5 5 5 5 5 6 6 5 5 5 5 5 5 5 5 5 6 5 5 5 5 5 5 6 5 5 5 5 5 5 6 5 5 5 5 5 5 5 5 5 6 5 5 6 5 5 5 5 5 5 6 5 5 5 5 5 6 5 5 5 5 5 5 5 5 5 5 5 5 5 5 5 5 6 5 5 5 5 5 6 5 5 5 5 5 5 5 5 5 5 5 5 5 6 6 5 5 6 5 5 6 5 5 5 5 5 5 6 5 6 5 5 5 5 5 5 6 5 5 5 5 5 5 5 5 5 5 5 5 5 5 6 5 5 5 6 5 5 5 5 5 5 5 5 5 5 5 5 5 5 6 5 5 5 5 5 5 5 5 5 5 5 6 5 5 5 5 6 5 5 5 6 5 5 5 5 5 5 5 5 6 5 5 5 5 5 5 5 5 5 5 6 5 6 5 5 5 5 5 5 5 5 5 5 5 5 5 5 5 5 5 5 5 5 5 5 5 5 5 5 5 5 5 5 5 5 5 5 5 5 5 5 5 6 6 5 5 5 5 5 6 5 5 6 5 5 5 5 6 5 5 6 5 5 5 5 6 6 5 5 5 5 5 6 5 5 5 5 5 5 5 5 6 5 5 5 5 5 5 5 5 6 5 5 5 5 5 5 5 5 5 5 5 5 5 5 5 5 6 5 5 5 6 5 5 5 6 6 5 5 5 5 5 5 6 6 5 5 5 5 5 5 5 5 5 5 5 5 5 5 5 5 5 6 5 5 6 5 5 5 5 6 5 5 6 5 5 5 5 5 5 6 6 5 5 5 5 5 6 5 5 5 5 5 5 5 5 6 5 5 5 6 5 5 5 5 5 6 6 5 5 6 5 6 5 5 5 6 6 5 5 5 5 5 6 5 5 5 5 5 5 5 5 5 5 5 5 5 5 5 5 5 5 6 5 6 5 5 5 5 5 5 5 5 5 5 5 5 5 6 5 5 5 5 5 5 5 5 5 5 6 5 5 5 5 6 5 5 6 5 5 5 6 5 5 5 5 5 5 6 5 6 5 5 5 6 5 6 5 5 6 5 5 5 6 5 6 6 5 5 5 6 5 5 6 5 5 6 5 5 5 5 5 5 6 5 6 6 5 6 5 5 5 5 6 5 6 5 6 5 5 6 5 5 5 5 6 5 5 5 5 5 5 5 5 5 5 5 6 6 5 5 5 5 5 5 5 5 5 5 5 5 5 5 5 5 5 5 5 6 5 5 5 5 5 5 5 5 5 5 5 5 5 5 5 5 5 6 5 5 5 5 5 6 5 5 5 5 5 6 5 5 5 5 5 6 5 5 5 6 6 5 5 5 5 5 5 6 5 6 5 5 5 5 5 5 6 5 5 5 5 5 5 5 6 6 6 5 6 5 5 5 5 6 5 6 5 6 5 5 6 5 5 6 5 5 5 6 5 6 6 5 5 5 5 5 5 6 5 5 5 5 5 5 6 5 5 5 5 5 5 5 5 5 5 5 5 5 5 6 6 5 6 5 5 5 5 5 5 5 5 6 5 6 6 5 5 5 5 6 5 5 6 5 5 5 5 6 5 6 5 5 5 5 5 5 6 6 5 5 5 5 5 6 5 5 5 5 5 6 5 5 5 5 5 5 6 5 5 6 5 5 5 5 5 5 5 5 5 5 5 5 5 5 5 6 5 5 5 6 5 6 5 5 5 5 6 5 5 6 5 5 5 5 6 5 5 5 6 6 6 5 6 5 5 5 5 5 5 5 6 5 5 5 6 5 5 5 5 5 5 5 6 5 5 5 5 5 5 5 6 5 5 6 5 5 5 6 5 5 5 5 5 5 5 5 5 5 5 5 5 5 5 5 5 5 5 5 5 5 5 5 5 5 5 5 5 5 5 5 5 5 5 5 5 5 5 5 5 5 5 5 5 5 5 5 5 5 5 5 5 5 5 5 5 5 5 5 5 5 5 5 5 5 5 5 6 5 5 6 5 5 5 5 6 5 5 5 5 5 5 5 5 5 5 5 5 6 6 5 5 5 5 5 5 5 5 5 6 5 5 5 5 5 5 5 5 5 5 5 6 6 5 6 6 5 5 6 5 5 5 5 5 5 5 6 5 5 5 5 5 6 5 5 5 6 5 5 5 5 6 5 5 5 6 5 5 5 5 5 5 5 6 5 5 5 5 5 5 5 5 5 5 5 5 5 5 5 5 5 5 5 5 5 6 5 5 5 5 6 5 5 5 5 6 5 5 5 6 6 6 5 5 5 5 5 5 6 5 5 5 5 6 6 5 5 5 6 6 5 6 5 5 5 5 6 5 5 5 6 5 5 5 6 5 5 5 5 5 5 5 5 5 5 6 5 5 5 5 5 5 5 5 5 5 5 5 6 5 5 5 5 6 6 5 5 6 5 5 5 5 5 5 5 5 5 6 6 6 5 6 5 5 5 5 5 5 5 6 5 5 5 5 6 6 5 5 5 5 5 6 5 5 5 5 5 6 5 5 5 5 6 5 5 5 5 6 6 5 6 5 5 6 6 5 5 6 5 5 5 5 5 5 5 5 6 5 6 6 6 5 5 5 5 5 5 5 5 5 5 5 5 6 5 5 5 5 5 5 5 5 5 5 5 5 5 5 5 5 5 5 5 5 5 5 5 5 6 5 6 5 6 5 5 5 5 5 5 5 5 5 5 6 5 5 6 6 5 5 5 5 6 5 5 5 5 5 5 5 6 5 5 5 5 5 5 5 6 5 5 6 5 5 5 5 5 5 5 5 6 5 6 5 5 5 5 5 5 5 5 5 5 6 5 5 5 6 5 5 5 5 6 6 5 5 5 5 6 5 5 5 6 5 5 5 5 6 5 5 5 5 5 5 5 5 5 5 5 5 5 6 5 5 5 5 5 5 6 5 5 5 5 6 5 6 5 5 5 5 5 5 5 5 5 6 5 6 5 5 5 5 5 5 5 5 5 5 5 5 5 5 5 5 5 6 6 5 5 5 5 5 6 5 6 6 6 5 5 5 5 5 5 5 5 5 5 5 5 5 5 5 5 5 5 5 5 5 5 5 5 5 5 6 5 6 6 5 5 5 5 5 5 5 5 6 5 5 5 5 5 5 6 5 5 5 5 5 5 6 5 5 5 5 5 5 5 5 5 5 6 5 5 5 5 6 5 5 5 5 6 5 5 5 5 5 5 6 5 5 5 5 5 5 5 5 5 5 5 5 5 5 5 5 5 5 5 5 5 5 5 5 5 5 5 5 5 5 5 5 5 5 5 5 6 5 5 5 5 5 5 5 5 6 5 5 5 6 5 5 5 5 5 5 5 5 5 5 5 5 5 5 5 5 5 5 5 5 5 5 6 5 5 5 5 5 5 6 5 5 6 6 5 5 5 5 5 6 5 5 5 5 5 5 5 5 5 5 6 6 5 5 5 5 6 5 5 5 5 5 6 5 6 6 5 5 5 5 5 5 5 6 5 5 5 6 6 5 5 5 5 5 5 5 5 5 5 6 5 5 5 5 5 5 5 5 5 5 5 5 5 6 6 5 5 5 6 5 5 5 5 5 5 5 5 5 5 5 5 5 5 6 5 5 5 5 6 5 5 5 5 5 5 5 5 5 5 5 6 5 5 5 5 5 5 5 5 5 5 5 6 5 5 5 5 5 5 5 5 5 5 5 5 5 6 5 5 5 5 5 5 5 5 5 5 5 5 5 6 5 5 5 6 5 5 5 5 5 5 5 5 5 5 5 5 5 5 5 6 5 5 5 5 5 5 5 5 5 5 5 5 5 5 5 5 5 5 5 5 5 5 6 5 5 5 5 5 5 6 6 5 6 5 5 5 5 5 5 5 5 5 6 5 5 5 5 5 5 5 5 6 5 5 5 5 5 6 5 5 5 5 5 6 5 5 5 6 5 5 5 5 5 5 5 5 5 5 5 5 5 5 5 5 5 5 5 5 5 5 5 5 5 6 5 5 5 5 5 5 5 5 5 5 5 5 5 5 5 5 5 6 5 5 5 6 5 5 5 5 5 5 5 5 5 5 5 5 5 5 5 5 5 5 5 5 5 5 5 5 5 5 5 5 5 5 6 5 5 6 5 5 5 5 6 5 6 5 6 5 6 5 5 5 5 5 5 5 6 5 5 6 5 5 6 5 5 5 5 5 5 6 5 5 6 5 5 5 6 5 5 6 5 6 5 5 5 5 5 5 5 5 5 5 5 5 5 5 5 5 5 5 5 5 5 5 5 5 5 5 5 5 6 6 5 5 5 5 6 5 5 5 5 5 5 5 5 6 5 5 5 5 5 5 5 5 5 5 5 5 5 6 6 5 5 5 5 5 5 5 5 5 5 5 5 5 5 5 5 5 5 5 5 5 6 5 5 5 6 5 5 5 5 6 6 6 5 6 5 6 5 5 6 6 5 5 5 6 5 5 5 6 6 5 6 5 5 6 5 5 5 6 5 5 5 5 5 5 6 5 5 5 5 5 5 5 5 5 5 6 6 5 5 6 5 5 5 6 5 5 5 5 5 5 5 5 6 6 5 5 5 6 5 6 6 6 5 5 6 6 5 5 5 6 5 5 5 5 5 5 5 5 5 5 5 5 5 5 6 5 5 5 6 5 5 6 5 5 6 5 5 5 5 5 5 5 5 5 5 5 5 5 5 5 5 6 5 6 5 5 5 5 5 5 5 5 5 5 5 5 5 5 5 5 5 5 5 5 5 5 5 5 5 5 5 5 5 5 5 5 5 5 5 5 5 5 5 5 5 5 5 5 5 5 5 5 5 5 5 5 5 5 5 5 5 5 5 5 5 5 5 5 5 5 5 5 5 5 5 5 5 5 5 5 5 5 5 5 5 5 5 5 5 5 5 5 6 5 6 5 5 6 6 6 5 5 5 6 5 5 5 5 5 6 6 5 5 5 5 5 5 5 5 5 5 5 5 6 5 5 5 5 5 5 5 5 5 5 5 5 5 5 5 5 5 5 5 6 6 5 5 5 5 5 5 5 5 5 6 5 5 5 5 5 5 5 5 5 5 5 5 5 5 5 5 5 5 5 5 5 5 5 5 5 5 6 5 5 5 5 5 5 5 5 5 5 5 5 5 5 5 5 5 5 5 5 5 5 5 5 5 5 5 5 5 5 5 5 5 5 5 5 5 5 5 5 5 5 5 5 5 5 5 5 5 5 5 5 5 5 5 5 5 5 5 5 5 5 5 5 5 5 5 5 5 5 5 5 5 5 6 5 5 5 5 5 5 5 5 5 5 5 5 5 5 5 5 5 6 5 5 5 6 5 5 5 6 5 6 5 6 6 5 5 5 5 5 5 5 5 5 5 5 5 5 5 5 5 6 6 5 5 5 5 5 5 5 5 6 5 5 5 5 5 5 5 5 5 5 5 5 5 5 5 6 5 5 5 5 5 5 5 5 5 5 5 5 6 5 5 6 6 5 5 6 5 5 5 5 5 5 5 5 5 5 5 5 5 5 5 5 5 5 5 5 5 5 5 5 5 5 5 5 5 5 5 5 5 5 5 5 5 5 5 5 5 5 6 5 5 5 5 5 5 5 5 5 5 5 5 5 5 5 5 5 5 5 6 5 5 5 5 5 5 5 5 5 5 5 5 5 5 5 5 5 6 6 5 6 5 5 5 5 5 5 6 5 5 5 5 5 5 5 5 6 5 6 5 5 5 5 6 5 5 5 5 5 5 6 5 6 6 5 5 5 5 6 5 5 5 5 5 5 5 5 5 5 5 6 5 5 5 5 5 5 5 5 5 5 6 6 5 6 5 5 6 5 5 5 6 6 6 5 5 5 5 5 5 5 5 6 5 5 6 5 5 5 5 5 5 5 5 5 5 5 5 6 5 5 5 6 5 5 5 5 5 5 5 5 5 5 6 5 5 5 5 5 5 5 5 6 5 5 5 5 6 5 5 5 6 5 5 5 5 5 5 5 5 5 5 6 5 5 5 5 5 5 5 6 5 5 5 5 6 5 5 5 5 5 5 6 5 5 5 5 6 5 5 5 6 5 5 5 5 5 5 5 5 6 5 5 5 5 5 5 5 5 5 6 5 5 5 5 5 5 5 6 5 5 5 5 5 6 5 5 5 5 5 5 5 5 5 5 5 5 5 5 5 5 5 5 5 6 5 5 5 5 5 6 5 5 5 5 5 5 5 5 5 5 5 5 5 6 5 5 5 5 5 5 5 5 5 5 6 5 5 5 5 5 5 6 5 5 6 5 5 6 5 5 5 5 5 5 5 5 5 5 5 5 6 5 5 5 5 5 5 5 6 6 5 5 5 6 6 5 6 5 5 6 6 5 5 6 5 5 5 6 5 5 5 5 5 5 6 5 5 5 6 5 5 5 6 6 5 6 6 5 5 5 5 5 5 5 6 5 5 5 5 5 5 5 5 5 5 5 5 6 5 5 5 5 5 5 6 5 5 5 5 5 5 5 5 5 5 5 5 5 5 5 5 5 6 5 5 6 5 5 5 5 6 5 6 5 5 5 5 5 5 5 6 5 5 5 6 5 5 5 5 5 5 5 5 6 5 5 6 6 5 5 5 5 5 6 5 5 5 5 6 5 5 5 5 5 5 5 5 5 6 5 5 5 5 5 5 5 5 5 6 5 5 5 5 5 5 5 5 5 6 5 5 5 6 5 5 5 5 5 5 5 6 5 5 5 6 5 5 5 5 6 5 5 5 6 5 5 5 5 5 5 5 5 6 5 5 5 5 5 5 5 5 5 5 5 5 5 5 5 5 5 5 6 5 5 6 5 5 5 5 5 5 5 5 5 5 5 5 5 5 5 5 5 5 5 5 5 5 5 5 5 5 5 5 6 5 5 5 5 5 5 6 5 6 5 5 5 5 6 5 5 5 6 5 6 5 5 5 5 5 5 5 5 5 5 5 5 5 6 5 5 5 5 5 6 5 5 5 6 6 5 5 5 5 5 6 5 6 5 5 5 6 5 5 5 5 6 5 5 5 5 5 6 5 5 5 5 6 5 5 5 5 5 5 5 5 5 5 6 5 5 5 5 6 5 5 5 5 5 5 5 5 5 5 5 5 5 5 5 5 5 5 5 5 5 5 5 5 5 5 5 5 5 6 5 5 5 5 6 5 6 5 5 5 6 5 5 5 5 5 5 5 5 5 5 5 5 5 5 5 6 5 5 5 5 5 5 5 5 5 5 5 5 5 5 5 5 5 5 5 5 5 5 5 5 5 5 5 5 5 5 5 5 5 5 5 6 5 5 5 5 5 5 5 5 5 5 6 6 5 5 5 5 5 5 5 5 6 5 5 5 6 5 5 5 5 5 6 5 5 6 5 5 5 5 6 5 6 5 5 5 5 5 6 5 5 5 5 5 5 5 5 5 5 5 5 5 5 5 5 5 5 5 5 5 5 5 5 5 6 5 5 5 5 5 5 6 5 5 5 6 5 5 6 5 5 5 5 5 5 5 5 5 5 5 5 5 5 6 5 6 5 5 6 5 5 6 5 5 5 5 5 5 5 5 6 5 5 5 5 5 5 5 6 5 6 5 5 5 5 5 5 5 5 5 5 5 5 5 5 5 5 5 5 5 5 5 5 5 5 5 5 5 5 5 5 5 5 6 5 5 5 5 5 5 5 5 5 5 5 5 6 5 6 5 5 5 5 5 5 5 6 5 6 5 5 6 5 5 5 5 6 5 6 5 5 5 5 5 5 5 6 5 5 5 6 5 5 6 5 5 6 5 5 5 5 5 5 5 5 6 5 5 5 5 5 6 5 6 5 5 6 5 5 5 5 5 5 5 5 5 5 5 6 5 6 5 5 6 5 5 6 5 5 5 6 5 5 5 5 5 5 5 5 5 5 5 6 6 5 5 5 6 6 5 5 5 5 5 5 5 5 5 5 5 5 5 5 5 5 5 6 5 5 5 5 5 5 5 5 5 5 5 5 5 5 5 5 5 5 5 5 6 5 6 5 5 6 5 5 5 5 6 5 5 5 5 5 5 5 5 5 5 5 5 6 5 5 5 6 5 5 5 5 5 6 5 5 6 6 6 6 5 5 5 5 5 5 6 5 5 6 6 6 5 6 5 5 5 5 5 5 5 5 5 6 5 5 5 5 5 5 5 5 5 5 5 5 5 5 5 6 6 5 5 6 5 5 5 6 5 6 6 5 5 5 5 5 6 5 5 6 5 5 5 6 5 5 5 5 5 6 5 5 5 5 5 5 5 5 5 5 5 5 5 5 5 5 5 5 6 5 5 5 5 5 5 5 5 5 5 5 5 5 5 5 5 5 5 5 5 5 5 5 5 6 5 5 6 5 5 5 5 5 5 5 5 5 5 5 6 5 5 5 5 5 6 6 5 5 5 5 6 5 5 5 5 5 5 5 5 6 6 5 5 6 5 5 6 5 6 6 5 6 5 5 5 5 6 5 5 5 6 5 5 5 6 5 5 6 5 5 6 5 5 5 5 5 5 5 5 5 6 6 5 5 6 5 5 5 5 6 5 5 5 6 5 5 5 5 6 5 5 5 5 5 5 5 5 5 5 5 5 5 5 5 5 5 5 5 5 5 5 5 6 5 5 5 5 5 5 5 5 5 5 5 5 5 5 5 5 5 5 5 5 5 5 5 5 5 5 6 5 5 5 5 5 5 5 5 5 5 5 5 5 5 5 5 6 5 6 5 5 5 5 5 5 5 5 5 5 5 5 5 5 5 5 5 5 5 5 6 5 5 5 5 5 5 5 6 6 5 5 5 5 5 5 5 6 5 5 5 5 6 5 5 6 5 6 5 6 5 5 5 5 5 5 5 6 5 6 5 5 6 5 5 5 5 5 5 5 5 5 5 5 5 5 5 5 5 5 5 5 5 6 5 5 5 5 5 5 6 6 5 5 6 5 5 5 6 5 5 5 5 5 5 5 6 5 5 5 5 5 5 5 5 5 5 5 5 5 5 5 5 6 5 5 5 5 5 5 5 5 5 6 5 5 5 5 5 6 5 5 5 5 5 5 5 6 5 5 5 5 5 5 5 5 5 6 5 5 6 5 6 5 6 5 6 5 5 5 5 5 6 5 5 5 5 5 6 5 5 5 5 5 5 5 5 6 6 5 5 5 5 5 5 5 5 5 5 5 5 5 6 5 5 5 5 5 5 5 5 5 6 5 5 5 5 5 5 5 5 5 6 5 5 6 6 5 5 5 6 5 5 5 5 5 6 6 5 5 5 5 5 5 5 5 6 5 6 5 5 6 5 5 5 5 5 5 5 5 5 5 5 5 5 6 5 5 5 5 6 5 5 5 5 5 5 5 5 5 5 5 5 5 5 6 5 5 6 5 5 6 5 5 5 5 5 5 5 5 5 5 5 5 6 5 5 5 5 5 6 5 5 5 5 6 5 5 5 5 5 5 6 5 5 5 6 5 5 5 6 5 5 6 5 5 5 5 5 5 5 5 5 5 5 5 5 5 5 5 5 5 5 5 5 5 5 5 6 5 5 6 6 5 5 5 5 6 5 6 6 5 6 5 5 6 6 5 5 6 5 5 5 5 5 6 6 5 6 5 6 5 5 5 5 5 5 5 5 5 5 5 5 5 5 6 5 5 5 5 6 5 5 5 5 5 5 5 5 5 5 5 5 5 6 5 5 6 6 5 5 5 5 6 5 6 5 5 5 5 5 5 5 5 5 5 5 5 5 5 5 5 5 5 5 5 5 6 6 5 5 5 5 6 5 5 5 5 5 6 5 5 5 5 6 5 5 5 5 5 5 5 6 5 5 5 5 6 5 5 5 5 5 5 5 5 5 5 5 5 5 5 5 5 5 5 5 5 5 5 5 5 5 5 5 5 5 6 5 6 6 5 5 5 5 5 5 5 5 6 5 5 5 5 6 5 5 5 5 5 5 5 5 5 5 5 5 5 5 5 5 5 5 5 5 5 5 5 5 5 5 5 6 5 5 5 6 6 5 5 5 5 5 5 6 5 5 6 5 5 5 5 5 5 6 5 5 5 5 6 5 5 6 5 5 5 5 5 5 5 5 5 5 5 5 5 5 6 5 5 5 5 5 5 5 5 5 5 5 5 5 5 5 5 5 5 5 5 5 5 5 5 5 5 5 5 5 5 5 5 5 5 5 5 5 5 5 5 5 5 5 6 5 5 5 5 6 5 5 6 5 6 5 5 5 5 6 5 5 6 5 6 5 6 5 5 5 5 5 5 5 5 5 5 5 5 6 5 5 5 5 5 5 5 
</DataArray>
<DataArray type="Float64" Name="stress" NumberOfComponents="9" format="ascii">
-1.8095151093002642 3069.0896644341792 0 3069.0896644341792 -1954.9718641035724 0 0 0 0 -2270.8156563210723 3705.0463040243667 0 3705.0463040243667 -0.75604127850965597 0 0 0 0 -457.20030840514846 2052.3815754940797 0 2052.3815754940797 -3772.7727173025196 0 0 0 0 -409.65256436649724 1512.7881306662334 0 1512.7881306662334 -936.7010086576629 0 0 0 0 -884.15342966897879 1080.7417823043506 0 1080.7417823043506 -1278.4289951304308 0 0 0 0 -26.493173764553603 19.588074964340592 0 19.588074964340592 -4.535643661829333 0 0 0 0 -1304.8248771860526 1520.9119677700146 0 1520.9119677700146 -131.3706156531407 0 0 0 0 -10.207733184990218 28.930516511618606 0 28.930516511618606 -58.5847574289715 0 0 0 0 -1775.5446749506664 1090.6395452095094 0 1090.6395452095094 -471.84734197413491 0 0 0 0 -13.66099720981947 115.32704284469537 0 115.32704284469537 -69.991944865178084 0 0 0 0 -5312.0219234595133 1775.2625215013904 0 1775.2625215013904 -60.719264759341058 0 0 0 0 -4.6928683707403991 7.0488895686318926 0 7.0488895686318926 -21.296991198813998 0 0 0 0 196.47895919539133 132.59680838636177 0 132.59680838636177 -49.049651840352453 0 0 0 0 -1.3942043095521512 96.28950769117364 0 96.28950769117364 15.692045893403701 0 0 0 0 96.494260480132652 158.73554326976591 0 158.73554326976591 0.055378242658101526 0 0 0 0 -33.814898431821348 166.47313002409646 0 166.47313002409646 -0.017057899982319213 0 0 0 0 111.55126988304255 84.382899080745119 0 84.382899080745119 -23.873209255398251 0 0 0 0 -153.98332862376992 162.81550487257482 0 162.81550487257482 0.021841803535711524 0 0 0 0 -100.73514980898472 149.00533686172639 0 149.00533686172639 -9.1976590843987651 0 0 0 0 -89.193030007932975 128.02776642929166 0 128.02776642929166 2.1169192482193466 0 0 0 0 -88.029198775489931 153.84461885559722 0 153.84461885559722 0.64273168984891527 0 0 0 0 -152.53035654965788 149.38426652287308 0 149.38426652287308 5.9919812858424848 0 0 0 0 -110.21408799398341 135.52887918124179 0 135.52887918124179 -7.6277123701438541 0 0 0 0 -94.945488405210199 124.83509987719299 0 124.83509987719299 -10.847139321660507 0 0 0 0 -86.828663978077998 74.938093022655636 0 74.938093022655636 12.374207593497601 0 0 0 0 -81.867917060269974 -8.0846746661991347 0 -8.0846746661991347 255.61647752852514 0 0 0 0 -70.170134956126276 128.77976790029788 0 128.77976790029788 -43.570423607015982 0 0 0 0 -96.975473320308652 83.780894521573828 0 83.780894521573828 15.113221811185074 0 0 0 0 -139.46957481227946 94.516130808315211 0 94.516130808315211 70.174204205482965 0 0 0 0 -761.91965695543331 424.50430183552817 0 424.50430183552817 276.14290750817599 0 0 0 0 -56.318093354013399 96.281592325569363 0 96.281592325569363 -13.663916220331885 0 0 0 0 -7.688892322643369 127.3920629466229 0 127.3920629466229 -41.08480761613464 0 0 0 0 -103.98824398807483 105.83913822253817 0 105.83913822253817 -44.184204214792771 0 0 0 0 -14.463125242131355 89.173324075462006 0 89.173324075462006 -127.97163729603926 0 0 0 0 -71.268436927069331 79.076427754736073 0 79.076427754736073 10.475318522498199 0 0 0 0 -110.68983206534176 39.352789512551681 0 39.352789512551681 135.24518323650773 0 0 0 0 -35.567615231280797 50.060201352120203 0 50.060201352120203 33.583147544428357 0 0 0 0 -57.880285832674417 124.65116738338111 0 124.65116738338111 57.678970409702742 0 0 0 0 -55.619739476125687 71.927364074523211 0 71.927364074523211 7.1056811310991179 0 0 0 0 -112.43135167597211 161.81125855249411 0 161.81125855249411 -74.998870191411697 0 0 0 0 -73.385603213435388 152.12258833681335 0 152.12258833681335 -92.562769233700237 0 0 0 0 -242.94567750528222 101.88133570054924 0 101.88133570054924 -9.483344318025047 0 0 0 0 -142.24218394531636 96.972958073100017 0 96.972958073100017 30.945226365726285 0 0 0 0 -96.622429415649094 45.971164577291347 0 45.971164577291347 11.817586031858809 0 0 0 0 -265.89935150844394 328.3923998684113 0 328.3923998684113 -41.139145577313684 0 0 0 0 -556.65014776827593 342.58371550493757 0 342.58371550493757 -40.24396526181954 0 0 0 0 302.01658114543534 466.49540174318099 0 466.49540174318099 -837.22859790119401 0 0 0 0 187.36896409165638 -68.115921451352733 0 -68.115921451352733 -49.891792587004602 0 0 0 0 -46.179309083992848 221.93570233492937 0 221.93570233492937 -177.53702480029096 0 0 0 0 -254.08285760160652 198.7947228325138 0 198.7947228325138 -81.63948571185756 0 0 0 0 -128.84990978162386 212.07077189296251 0 212.07077189296251 -114.47151306948217 0 0 0 0 -0.063468188606758957 0.26978108517323562 0 0.26978108517323562 0.30361982682956068 0 0 0 0 -595.22484338232607 187.29908795304073 0 187.29908795304073 16.408919091365533 0 0 0 0 -0.70503838145507558 0.93709426710950083 0 0.93709426710950083 1.6352583569116632 0 0 0 0 -169.13252844630915 118.44784684174374 0 118.44784684174374 -40.242606446547143 0 0 0 0 -221.86231012329517 103.51462203772826 0 103.51462203772826 -37.036876625650621 0 0 0 0 -148.0308075130306 179.29965733812423 0 179.29965733812423 -71.969840644407668 0 0 0 0 -202.46554397749787 211.22179474362292 0 211.22179474362292 -75.885325866693165 0 0 0 0 -87.764032105143997 155.14040130517969 0 155.14040130517969 -78.688406707020476 0 0 0 0 -139.32910002703284 87.515048674213176 0 87.515048674213176 -8.6575744836736703 0 0 0 0 7.8397866883315146 52.146732537366915 0 52.146732537366915 -41.645714611593576 0 0 0 0 -217.61832360311382 103.7604129711126 0 103.7604129711126 -17.253839027456706 0 0 0 0 -130.68960343603976 187.06096771381999 0 187.06096771381999 -86.705366804268124 0 0 0 0 -156.95041503894026 208.35926631291659 0 208.35926631291659 -92.084557449299609 0 0 0 0 -124.24510827165795 158.40958880511607 0 158.40958880511607 -106.98560620648277 0 0 0 0 -127.22579178991145 172.36001137286439 0 172.36001137286439 -47.07480009990104 0 0 0 0 -635.34551832091529 157.26423717173748 0 157.26423717173748 18.190910917430301 0 0 0 0 -273.30920913716545 299.82904115323618 0 299.82904115323618 -52.126586706115631 0 0 0 0 0.37168210488042064 2.8615662456462303 0 2.8615662456462303 4.636288102514925 0 0 0 0 1644.8631885995792 225.55302883896547 0 225.55302883896547 -418.8827627767605 0 0 0 0 407.37689353020687 568.40207145228487 0 568.40207145228487 104.23929515260534 0 0 0 0 281.15627969042544 383.38339750778323 0 383.38339750778323 182.36344965847093 0 0 0 0 179.10104686237173 284.41607743341592 0 284.41607743341592 149.66834559933341 0 0 0 0 410.95241994208482 -10.571224382561923 0 -10.571224382561923 -247.01452802002314 0 0 0 0 -146.65500193453045 -527.43058193845354 0 -527.43058193845354 -551.62699658470228 0 0 0 0 237.00417403384927 -258.0647150039149 0 -258.0647150039149 -366.70072577972314 0 0 0 0 -459.79068041646678 -223.61893031985528 0 -223.61893031985528 -69.472517631220398 0 0 0 0 -518.26710956584429 648.78222285883385 0 648.78222285883385 -699.6686999132362 0 0 0 0 -0.58684681294681695 -1.3195514306431733 0 -1.3195514306431733 -11.679304558794854 0 0 0 0 0.32495974558696616 381.593519731985 0 381.593519731985 -1253.0312405564546 0 0 0 0 115.0881678393489 819.91732089428115 0 819.91732089428115 -960.11436815535308 0 0 0 0 -497.28283932429622 592.34265881637475 0 592.34265881637475 363.32712938897021 0 0 0 0 -244.88120359736786 -19.556955292964631 0 -19.556955292964631 -368.2567306732235 0 0 0 0 -0.31301831408927683 618.44073649856728 0 618.44073649856728 725.66744941001525 0 0 0 0 -10.562050147074558 5.5526186329796303 0 5.5526186329796303 -0.79753822462241075 0 0 0 0 -382.9915259769914 420.64596893260023 0 420.64596893260023 1601.0821267282736 0 0 0 0 15.304098851593153 188.97769627062007 0 188.97769627062007 635.37726807987201 0 0 0 0 80.029593935527373 319.67089927043708 0 319.67089927043708 441.68448710554549 0 0 0 0 -30.963846407381425 465.57387518984888 0 465.57387518984888 277.68086194171337 0 0 0 0 146.98394623587956 241.90919457124983 0 241.90919457124983 188.1164206667745 0 0 0 0 -98.809035905112978 85.289146475566668 0 85.289146475566668 56.058084009186132 0 0 0 0 -15.686711054718405 21.40128924593597 0 21.40128924593597 32.970563311907995 0 0 0 0 399.22261882425846 251.68672929596778 0 251.68672929596778 109.53749224715284 0 0 0 0 1.2800957510157218 2.8723303898814549 0 2.8723303898814549 16.305672474345272 0 0 0 0 979.30708862554457 482.28480647897231 0 482.28480647897231 -24.312235918470833 0 0 0 0 358.88615561516781 518.26140920697799 0 518.26140920697799 13.29531014287204 0 0 0 0 3.3155571877396142 82.767855380876426 0 82.767855380876426 -46.412971031153575 0 0 0 0 1.4057506658718921 79.998802629263082 0 79.998802629263082 -47.966637588427147 0 0 0 0 -5.7953828370018527 73.933815173038965 0 73.933815173038965 -25.164503162697656 0 0 0 0 6.5235877456890705 68.965090094200207 0 68.965090094200207 11.327607307292666 0 0 0 0 29.434268012206303 5.2465044766140636 0 5.2465044766140636 79.079467709583696 0 0 0 0 -65.941235545906238 40.252891239506425 0 40.252891239506425 254.95900593540864 0 0 0 0 37.679411220684415 56.429926366399741 0 56.429926366399741 47.200274822476786 0 0 0 0 -38.832378649081875 6.533034458039765 0 6.533034458039765 16.851315396634163 0 0 0 0 -327.3091122271544 49.23282902846222 0 49.23282902846222 11.755313501635101 0 0 0 0 2.7160635358282263 -0.16585350899934781 0 -0.16585350899934781 -6.7322483840325162 0 0 0 0 -190.65100072161295 355.94122425116075 0 355.94122425116075 5.5553173540974967 0 0 0 0 17.811377286954666 422.00091168642393 0 422.00091168642393 0.089739977091085166 0 0 0 0 438.91023325599963 279.16479892365169 0 279.16479892365169 -104.35813787439838 0 0 0 0 59.151514314551605 354.92973911236913 0 354.92973911236913 -116.62964467908023 0 0 0 0 2.4239260733302217 286.39467011699162 0 286.39467011699162 -199.37891235994175 0 0 0 0 -21.457753177135601 141.71239875747415 0 141.71239875747415 -150.16622537912917 0 0 0 0 -106.18147365961704 163.95976531536871 0 163.95976531536871 -6.5873408919142094 0 0 0 0 -53.484152595196065 183.82568743033698 0 183.82568743033698 -46.814679038070608 0 0 0 0 -47.476049309429072 112.07149770157412 0 112.07149770157412 -284.15119715110632 0 0 0 0 98.693522435845807 50.88881764341204 0 50.88881764341204 33.663365604996216 0 0 0 0 -3.6926629975932883 5.1527348391100531 0 5.1527348391100531 0.41880102356662974 0 0 0 0 0.80662613274722617 4.0536076046057019 0 4.0536076046057019 -1.4287579757979074 0 0 0 0 -4.6126791744624995 3.6779322094863005 0 3.6779322094863005 3.6223859138084435 0 0 0 0 78.134230765252141 75.640229669777909 0 75.640229669777909 5.8322174496133812 0 0 0 0 -6.4390269481664291 5.7307294696292956 0 5.7307294696292956 -0.00060979535919614136 0 0 0 0 -2.295416596771986 0.74250408185920946 0 0.74250408185920946 3.1155135875663973 0 0 0 0 143.07792591367615 18.403278057754505 0 18.403278057754505 -2.8558607474260498 0 0 0 0 -4.3296433002685148 -0.45551263819260157 0 -0.45551263819260157 3.2897657288526148 0 0 0 0 -3.2453636511126547 2.973125514773983 0 2.973125514773983 2.8740177413067158 0 0 0 0 -0.10614573117345572 5.4692544725257903 0 5.4692544725257903 -0.0093225482851266861 0 0 0 0 563.47643614833942 -231.1007354753383 0 -231.1007354753383 -47.306127919087885 0 0 0 0 143.0675482854912 44.773017764554609 0 44.773017764554609 -58.735151733038947 0 0 0 0 -4.1908333273313474 6.2559358800790505 0 6.2559358800790505 -0.083355310371189262 0 0 0 0 -1.6138882735103834 10.967383832728956 0 10.967383832728956 6.1500965235973126 0 0 0 0 -0.84871425086106456 6.2324721292624758 0 6.2324721292624758 -0.94809065552800575 0 0 0 0 -1.7712329165664755 4.2119545371220397 0 4.2119545371220397 3.717474457988402 0 0 0 0 -2.2440977151082109 1.1209084887603922 0 1.1209084887603922 4.2844182499429166 0 0 0 0 -8.3700282590871211 -2.5116715572657995 0 -2.5116715572657995 -5.7201880546199391 0 0 0 0 -7.9544807759230025 -0.83993635095248464 0 -0.83993635095248464 -14.943427340534981 0 0 0 0 -83.179456840160128 198.52975605820757 0 198.52975605820757 -137.67852068756474 0 0 0 0 -9.8780172961196513 -8.5735673827966821 0 -8.5735673827966821 -15.1478123801935 0 0 0 0 -52.450300522468751 100.49363833219104 0 100.49363833219104 -153.13076116312368 0 0 0 0 -170.49265136913164 5.5591036977639305 0 5.5591036977639305 80.843851408557384 0 0 0 0 -160.31243027799201 227.25373169007344 0 227.25373169007344 -28.810680344700813 0 0 0 0 -177.19192642676353 90.325244392006425 0 90.325244392006425 245.55923951527802 0 0 0 0 -41.491762568024569 187.62365560710168 0 187.62365560710168 103.68146236147732 0 0 0 0 68.820992317991113 126.07395052311949 0 126.07395052311949 -65.754564036382362 0 0 0 0 11.447883844249446 71.223632203629109 0 71.223632203629109 10.857381771813831 0 0 0 0 -6.6530573175332393 70.212556238831894 0 70.212556238831894 -23.676140359719284 0 0 0 0 -42.977931704430375 6.0965300976095023 0 6.0965300976095023 -105.47281479877347 0 0 0 0 -202.40775149015826 65.859555637209269 0 65.859555637209269 78.712488702469273 0 0 0 0 17.151748313903113 71.013093297416845 0 71.013093297416845 11.478758685799406 0 0 0 0 297.09853074233979 193.49038974387804 0 193.49038974387804 -26.514568242593668 0 0 0 0 1.7070605110347969 296.92250577892264 0 296.92250577892264 53.156874045365839 0 0 0 0 782.39549255074235 29.257736466446659 0 29.257736466446659 -186.44769204908516 0 0 0 0 332.64628932578489 280.57074117181764 0 280.57074117181764 -2.9102148698148085 0 0 0 0 -217.2785690787714 160.46813829759776 0 160.46813829759776 36.332856814638944 0 0 0 0 -409.4797009909671 -228.62008569236787 0 -228.62008569236787 260.69697484665085 0 0 0 0 -390.25330415929784 10.824907501475536 0 10.824907501475536 181.2556296463008 0 0 0 0 34.11970799631672 318.88370702412794 0 318.88370702412794 51.943374340873561 0 0 0 0 -117.99392277780134 56.149121220518282 0 56.149121220518282 57.557143230427755 0 0 0 0 139.95491884085277 120.04238597248695 0 120.04238597248695 44.206957369169686 0 0 0 0 112.89807457604911 223.83323483954882 0 223.83323483954882 59.112790143975872 0 0 0 0 302.08861271760543 48.699064483429538 0 48.699064483429538 24.805206823308254 0 0 0 0 -2.7968829920814926 -0.062572649249375445 0 -0.062572649249375445 4.260316562697767 0 0 0 0 286.63207728059206 240.83157249759824 0 240.83157249759824 -2.3200159653206356 0 0 0 0 4.1871607336506713 -26.386434576037573 0 -26.386434576037573 7.1939190480443358 0 0 0 0 56.384411412662303 -11.759521965388558 0 -11.759521965388558 -6.4342956588807283 0 0 0 0 101.28358565409144 155.30248492888859 0 155.30248492888859 140.48201339895604 0 0 0 0 -1.9112513420280948 2.4226313699548996 0 2.4226313699548996 3.0796697000966731 0 0 0 0 2.9051758644345682 15.358159508286917 0 15.358159508286917 9.5201221384995733 0 0 0 0 -3.8169738416727341 5.7362179259616823 0 5.7362179259616823 0.5116440662095556 0 0 0 0 -0.25250740820774809 5.1647251176473219 0 5.1647251176473219 0.00080279604298993945 0 0 0 0 -2.3112388591214312 5.1711785144767362 0 5.1711785144767362 -1.452750969958629 0 0 0 0 114.74682736483737 129.61569514373332 0 129.61569514373332 95.977018365781987 0 0 0 0 30.302035823842743 79.137363844914944 0 79.137363844914944 65.999034706743259 0 0 0 0 0.42075950063639311 4.275745600841077 0 4.275745600841077 -1.6857418783862101 0 0 0 0 -0.25353162176179467 5.1656043570947077 0 5.1656043570947077 0.0013227850722614676 0 0 0 0 5.2860780986666214 118.27950410199992 0 118.27950410199992 154.30597977215257 0 0 0 0 19.52874527714448 148.97589249348675 0 148.97589249348675 151.08731184877433 0 0 0 0 245.55262915507774 156.02310427524208 0 156.02310427524208 54.067910009878688 0 0 0 0 74.727036802585644 212.49833107943778 0 212.49833107943778 164.14140806028445 0 0 0 0 -158.54376022076758 195.87373440529336 0 195.87373440529336 177.17338352170191 0 0 0 0 -40.909713065018877 223.39053105063795 0 223.39053105063795 0.28812292335675105 0 0 0 0 -152.32082195758858 204.74234996950486 0 204.74234996950486 88.671550622675568 0 0 0 0 -396.06802477009478 136.19653086148173 0 136.19653086148173 70.893084128962073 0 0 0 0 0.68630177541286197 -8.5060278650613839 0 -8.5060278650613839 0.87099053436372742 0 0 0 0 -175.8211924145744 74.631044101832231 0 74.631044101832231 -10.45102989897714 0 0 0 0 -11.503069228742168 20.857636330051946 0 20.857636330051946 2.5147538210087532 0 0 0 0 -139.09682187321596 127.96315917086031 0 127.96315917086031 14.71292548821657 0 0 0 0 73.398982660102774 54.422130701044807 0 54.422130701044807 -5.8941380339238094 0 0 0 0 -38.621930961176986 87.732316274945333 0 87.732316274945333 -15.545661672855204 0 0 0 0 13.659535280509317 79.617826913960329 0 79.617826913960329 5.4594062113499504 0 0 0 0 -89.457026690783096 179.37662425843882 0 179.37662425843882 -32.137401437228618 0 0 0 0 51.394757427216973 46.917350187090051 0 46.917350187090051 -175.48099311391707 0 0 0 0 10.593778604925205 11.349666198377967 0 11.349666198377967 -7.9006810187854057 0 0 0 0 -14.817666349229761 64.874367035837338 0 64.874367035837338 -21.485805540630906 0 0 0 0 -286.78846213259385 85.52465812387527 0 85.52465812387527 90.142726668767864 0 0 0 0 111.86512281093746 21.517035922981449 0 21.517035922981449 -170.33310839440674 0 0 0 0 4.5906940742061124 118.14628373333835 0 118.14628373333835 -18.240839771853643 0 0 0 0 -53.382464044560038 80.457746187397788 0 80.457746187397788 0.7807229308236856 0 0 0 0 -62.259826978341152 102.61468842097383 0 102.61468842097383 53.313541456387611 0 0 0 0 22.682686681530299 34.169811728441971 0 34.169811728441971 -32.912587876489852 0 0 0 0 -78.427526121315168 87.753840785139801 0 87.753840785139801 10.872523447993444 0 0 0 0 -77.007082871336024 65.387014158448437 0 65.387014158448437 -0.22446675034734653 0 0 0 0 -18.710644681084517 44.509778536431867 0 44.509778536431867 -32.104902314914852 0 0 0 0 350.10690207151401 10.507123794269773 0 10.507123794269773 -78.871868812595494 0 0 0 0 -9.1086764839824781 32.303419290255874 0 32.303419290255874 -8.6953369269729137 0 0 0 0 88.39789554773597 -19.767258498883166 0 -19.767258498883166 54.690537584654521 0 0 0 0 8.0269183729208606 29.478161860069633 0 29.478161860069633 -14.164108422907248 0 0 0 0 269.26566464536791 -2.0984410661833408 0 -2.0984410661833408 -46.736851400404703 0 0 0 0 87.629606121743564 76.005435317209049 0 76.005435317209049 21.348996586668363 0 0 0 0 -74.267428603406188 43.421372596415608 0 43.421372596415608 6.7124041633214802 0 0 0 0 129.7903335828596 74.78018474176497 0 74.78018474176497 4.1183111552818445 0 0 0 0 -2.3240055704688984 13.847803519608135 0 13.847803519608135 -4.6872523865022231 0 0 0 0 -8.924981874677087 14.593536983969898 0 14.593536983969898 -8.3115350813022815 0 0 0 0 42.817135334443279 6.1836577238662471 0 6.1836577238662471 -8.0080344004832682 0 0 0 0 -42.990832427865826 68.378988812575699 0 68.378988812575699 -32.603691193718987 0 0 0 0 -16.478727168825571 45.083681932839681 0 45.083681932839681 -25.967353264830308 0 0 0 0 -74.278291131573496 58.638092564317049 0 58.638092564317049 -28.163196303037694 0 0 0 0 -37.295585251791636 53.086155552737182 0 53.086155552737182 -38.378732421566383 0 0 0 0 -9.0304789329820778 57.214817649364704 0 57.214817649364704 -49.896273145102896 0 0 0 0 16.065375561462133 56.086694183613872 0 56.086694183613872 -6.3234574401285499 0 0 0 0 -43.015839877223058 44.515461718155855 0 44.515461718155855 -21.687795378587907 0 0 0 0 1.6681904264570164 22.635407285865625 0 22.635407285865625 1.0032341278257491 0 0 0 0 -12.158539997940892 2.0524622531785042 0 2.0524622531785042 0.75092578976216373 0 0 0 0 31.461924977629678 48.525166177612846 0 48.525166177612846 -26.897013559937477 0 0 0 0 -5.031384544136511 -0.024881844171943612 0 -0.024881844171943612 -0.37666359954437212 0 0 0 0 -22.582178084914347 28.652724879490734 0 28.652724879490734 -16.969055895295384 0 0 0 0 -71.972793224194902 38.038840767625516 0 38.038840767625516 1.632615831651492 0 0 0 0 -3.2615238436686553 20.328299127476896 0 20.328299127476896 -27.13821457603359 0 0 0 0 -1.7842365537653677 47.352042510334286 0 47.352042510334286 -38.831558181671426 0 0 0 0 33.349423324179952 1.5376794721523765 0 1.5376794721523765 -78.442247274535475 0 0 0 0 33.872700620398973 70.566326138927252 0 70.566326138927252 17.240835659438744 0 0 0 0 7.8725709915966604 0.87779186490297434 0 0.87779186490297434 -7.6767017024325241 0 0 0 0 38.559840708453521 105.62182479960575 0 105.62182479960575 -5.7744358401396312 0 0 0 0 63.488736316096038 50.717346223784261 0 50.717346223784261 18.913626022726021 0 0 0 0 150.85905188696051 56.2374506713968 0 56.2374506713968 -12.570261225118884 0 0 0 0 84.233613350035739 86.362284743147029 0 86.362284743147029 -12.189889438945102 0 0 0 0 91.022014087859134 129.91446216243639 0 129.91446216243639 7.5438815261004493 0 0 0 0 54.749150312432903 123.20092255016789 0 123.20092255016789 14.888804663467454 0 0 0 0 148.34497883673612 78.995574188586033 0 78.995574188586033 -34.515683496836573 0 0 0 0 129.02187118885195 64.840511777823849 0 64.840511777823849 -15.879427391540958 0 0 0 0 -9.2649388349648802 10.857122284881825 0 10.857122284881825 12.137395052619468 0 0 0 0 0.60232573709799908 52.188765549755772 0 52.188765549755772 -31.917178599454928 0 0 0 0 162.98182708398963 63.993462991595152 0 63.993462991595152 -26.039012305671349 0 0 0 0 81.44551666067855 -30.720972636321676 0 -30.720972636321676 53.074783803953324 0 0 0 0 -101.90856390984845 -193.55369790863188 0 -193.55369790863188 113.74466699600453 0 0 0 0 450.48630836159282 -68.6776032224152 0 -68.6776032224152 -11.09487521921983 0 0 0 0 -0.616062833994107 -0.24696949241229049 0 -0.24696949241229049 7.4362808104837654 0 0 0 0 -61.818833466357319 94.18625988146232 0 94.18625988146232 12.670033716829494 0 0 0 0 -19.591104696854018 56.249157964084588 0 56.249157964084588 38.037661682523321 0 0 0 0 476.1569075944717 124.75122206061496 0 124.75122206061496 -63.751787381421309 0 0 0 0 4.8405343258054927 170.07287633269152 0 170.07287633269152 53.109849875530927 0 0 0 0 179.2539999985089 179.62822985540981 0 179.62822985540981 21.208274341683136 0 0 0 0 180.08047281372865 107.77065760216146 0 107.77065760216146 1.7900960905244574 0 0 0 0 236.15296036700602 87.260449453708134 0 87.260449453708134 -34.275584900176 0 0 0 0 -50.871052734553814 115.83313642509165 0 115.83313642509165 61.750975857481535 0 0 0 0 50.253089388439548 134.68508660318912 0 134.68508660318912 29.914841243429692 0 0 0 0 14.640578899405227 142.35340878955867 0 142.35340878955867 63.389209932705853 0 0 0 0 -43.498211751732924 55.776119891182134 0 55.776119891182134 -3.0483252679405268 0 0 0 0 -18.10028748640616 92.465969955926994 0 92.465969955926994 26.963793840550352 0 0 0 0 -17.282427713202196 99.457966891917749 0 99.457966891917749 21.598502119464683 0 0 0 0 -8.095415518982918 97.930489653233963 0 97.930489653233963 15.602377749833977 0 0 0 0 -4.9923313406216039 120.1110632833952 0 120.1110632833952 32.829972489445936 0 0 0 0 54.132030325912638 103.68628162353707 0 103.68628162353707 9.9249152494812733 0 0 0 0 30.757859166697017 111.22842980224232 0 111.22842980224232 12.019372591428692 0 0 0 0 13.981111321707431 96.3698879868316 0 96.3698879868316 5.8101792785455473 0 0 0 0 -6.5322775520908181 99.322878406957898 0 99.322878406957898 7.0009645135723986 0 0 0 0 39.946766595785448 95.646795576576551 0 95.646795576576551 -29.643160845342209 0 0 0 0 -5.626253011127119 65.960766277232324 0 65.960766277232324 -38.468727866846166 0 0 0 0 -1.7893280815114849 105.35479792758269 0 105.35479792758269 -3.3159052621631417 0 0 0 0 -18.484358352812706 89.292122456070501 0 89.292122456070501 -7.6877123620215571 0 0 0 0 -19.510060759217595 100.99436965674249 0 100.99436965674249 9.4567856860739994 0 0 0 0 -2.2771431825967738 110.00466774387314 0 110.00466774387314 14.077835434116423 0 0 0 0 -20.187523134483854 103.03546627922697 0 103.03546627922697 14.945361495818361 0 0 0 0 -24.410738074351684 105.65802070363861 0 105.65802070363861 13.490853595198132 0 0 0 0 -18.554575902337092 92.469355947701843 0 92.469355947701843 8.7933216443489073 0 0 0 0 -31.846459733336815 94.794225522775378 0 94.794225522775378 9.8064459362940397 0 0 0 0 -35.935160478740727 100.45337900271261 0 100.45337900271261 26.466749553161208 0 0 0 0 -24.604479118331255 107.26692897869907 0 107.26692897869907 6.2902296864922391 0 0 0 0 -20.184853927319637 118.28908264073834 0 118.28908264073834 20.885708831963711 0 0 0 0 -10.387683675478911 115.8751474510791 0 115.8751474510791 2.4575282603909727 0 0 0 0 -12.583263684898156 99.340006726148658 0 99.340006726148658 -20.086004125550971 0 0 0 0 -19.685929546307307 97.542297040374251 0 97.542297040374251 5.1517078269680496 0 0 0 0 -12.800188961773529 97.324643026426202 0 97.324643026426202 -4.7534046606451739 0 0 0 0 -17.77057840505222 101.66599968555965 0 101.66599968555965 13.923795540933497 0 0 0 0 -10.574777809626539 90.645865340091405 0 90.645865340091405 -22.13188757673197 0 0 0 0 -21.002552427726187 83.02968826718643 0 83.02968826718643 -0.094775782112265006 0 0 0 0 -4.3448768597736489 108.28082104263012 0 108.28082104263012 -38.296619366883533 0 0 0 0 -273.64323582607904 329.52951458523421 0 329.52951458523421 -217.72780418070761 0 0 0 0 -260.17593585600844 288.26308331013206 0 288.26308331013206 -111.57575667423953 0 0 0 0 -253.98053457977221 184.85248458738351 0 184.85248458738351 5.863989914272679 0 0 0 0 -0.74495559909036047 0.90365546838197019 0 0.90365546838197019 2.077702687021997 0 0 0 0 -261.72218176108436 253.22354830486438 0 253.22354830486438 -195.61925216628879 0 0 0 0 2.1206655866831738 6.1406192626606071 0 6.1406192626606071 -3.5942903668772601 0 0 0 0 5.2040812576597091 47.201946506454988 0 47.201946506454988 -60.988347060148953 0 0 0 0 -211.406904778225 229.17484904800222 0 229.17484904800222 -189.94788547384269 0 0 0 0 -5.8027832590198045 25.211118567689653 0 25.211118567689653 28.396891998042008 0 0 0 0 -16.137354693666566 43.331254476797767 0 43.331254476797767 25.237798055408348 0 0 0 0 -3.2154662733645978 1.0965187512404668 0 1.0965187512404668 9.1174008233678165 0 0 0 0 -217.50711963517824 257.15287719094613 0 257.15287719094613 -256.67431415359169 0 0 0 0 -254.82563724923239 341.25875518843532 0 341.25875518843532 -346.97910284600948 0 0 0 0 -26.812534384516766 43.181372744889813 0 43.181372744889813 43.035042953924858 0 0 0 0 -3.7300286876600808 25.670548877279657 0 25.670548877279657 37.082294436009875 0 0 0 0 -16.12780644707891 42.324151652655019 0 42.324151652655019 42.158062612179492 0 0 0 0 -116.02661854210601 36.19100010683178 0 36.19100010683178 95.291588820371544 0 0 0 0 -17.958096190710563 32.966969065208843 0 32.966969065208843 45.359937713764126 0 0 0 0 -15.915276557235785 53.661515273052004 0 53.661515273052004 11.597337542101002 0 0 0 0 -26.840281182408944 82.370968436927797 0 82.370968436927797 -12.961296482797479 0 0 0 0 -15.794886105170008 79.576010757540644 0 79.576010757540644 -11.875595388803049 0 0 0 0 -31.409534786216682 81.906688132337877 0 81.906688132337877 4.359327150243189 0 0 0 0 -17.788667039134992 48.878072091468056 0 48.878072091468056 22.044069774717613 0 0 0 0 -7.7702205090425878 39.803224522372176 0 39.803224522372176 10.026682099196051 0 0 0 0 -17.681725500617176 48.181157798615459 0 48.181157798615459 22.188779109921597 0 0 0 0 -13.826262986302027 48.496243747878907 0 48.496243747878907 16.020067675970495 0 0 0 0 -16.717945184645941 66.535271379267215 0 66.535271379267215 -18.569080215477697 0 0 0 0 -8.5557500833674567 85.673260748066241 0 85.673260748066241 -7.3888888461588067 0 0 0 0 2.9908731032992364 66.873116156326432 0 66.873116156326432 -50.183958574722055 0 0 0 0 -2.0198096483218251 70.418554095231229 0 70.418554095231229 -52.676892461779062 0 0 0 0 -10.542004918956707 49.142046342477812 0 49.142046342477812 -0.26508306862633013 0 0 0 0 -24.3714369372683 31.309423678400435 0 31.309423678400435 9.3289552027999889 0 0 0 0 -6.5452995303348871 81.979011769792123 0 81.979011769792123 -28.58752574857499 0 0 0 0 -15.482857353345025 36.748822603876761 0 36.748822603876761 21.86161004776659 0 0 0 0 -3.8428719656695023 34.548348866122382 0 34.548348866122382 27.659730060836196 0 0 0 0 -14.685906223545317 51.135410515616968 0 51.135410515616968 11.674580058752326 0 0 0 0 -7.6234967561249505 36.107694803395134 0 36.107694803395134 3.3185873248439748 0 0 0 0 -12.520388173186802 43.840869772357109 0 43.840869772357109 19.048267066427798 0 0 0 0 -0.72043303065947839 176.42310191038632 0 176.42310191038632 184.95746405073442 0 0 0 0 90.464944809660665 -13.666341386633576 0 -13.666341386633576 -42.869947612765827 0 0 0 0 -7.3139950120385038 51.047396978196048 0 51.047396978196048 -6.9244444865835248 0 0 0 0 -3.2000033440236564 27.391313672271366 0 27.391313672271366 22.174271052039231 0 0 0 0 -102.35022546289838 46.302410968120967 0 46.302410968120967 119.25149449459423 0 0 0 0 6.8981242525042035 55.382033856549242 0 55.382033856549242 -21.782873506377655 0 0 0 0 -0.86556538951265338 28.906880512856475 0 28.906880512856475 18.821939144733719 0 0 0 0 -0.93374619231326506 31.215104564733338 0 31.215104564733338 -9.3983078985838802 0 0 0 0 -4.7461063229420688 47.518402466470434 0 47.518402466470434 -5.8825132677484362 0 0 0 0 4.2850936887125357 6.5276526775213881 0 6.5276526775213881 -0.93073473287131492 0 0 0 0 1.0691293302125473 23.53285033319132 0 23.53285033319132 -13.449824423658185 0 0 0 0 6.5804535391142878 21.023554676674536 0 21.023554676674536 -16.124064501836415 0 0 0 0 0.48572883509329756 36.296037814868782 0 36.296037814868782 4.1793230230330778 0 0 0 0 18.958233948156703 57.10010958937346 0 57.10010958937346 -2.7540130566958396 0 0 0 0 -4.492293025465699 38.536761059976385 0 38.536761059976385 25.749936994727378 0 0 0 0 8.1064184565773019 31.227753409203899 0 31.227753409203899 -13.265413398691521 0 0 0 0 -9.9865786898517399 67.467564552271142 0 67.467564552271142 10.022585562255699 0 0 0 0 12.260439972698805 70.392548960946442 0 70.392548960946442 -58.085779389803065 0 0 0 0 -6.4167508790269494 38.375066132972279 0 38.375066132972279 21.629241289971105 0 0 0 0 -7.8211473085684702 67.891154613338585 0 67.891154613338585 -33.979187465200084 0 0 0 0 5.6759146546246484 44.531001189272502 0 44.531001189272502 -55.647283038575551 0 0 0 0 -3.2345645898233784 54.642447426935149 0 54.642447426935149 -0.061647905367832934 0 0 0 0 -18.215585647994885 27.828203188180851 0 27.828203188180851 5.568412323074881 0 0 0 0 -19.538247457705438 51.055360195387038 0 51.055360195387038 38.021220568174613 0 0 0 0 7.3494091800093884 68.762653289057198 0 68.762653289057198 -50.537970288190991 0 0 0 0 7.3177870376384817 54.494130968334503 0 54.494130968334503 -85.72554906005098 0 0 0 0 -2.8541253349503677 48.990678026933892 0 48.990678026933892 -43.411853842495475 0 0 0 0 -16.12592465459602 55.609230536589166 0 55.609230536589166 -54.313755739596672 0 0 0 0 -3.8676828796742484 65.951886081536941 0 65.951886081536941 -61.846861828751571 0 0 0 0 7.4487544264355563 29.800334457506835 0 29.800334457506835 -35.481449182504207 0 0 0 0 41.449224814661648 49.183861678204266 0 49.183861678204266 -20.486126146774041 0 0 0 0 2.5548034976844178 51.657608356941154 0 51.657608356941154 -10.397986985782495 0 0 0 0 1.8458225087961182 69.286293904588092 0 69.286293904588092 4.4724219098570757 0 0 0 0 1.258291486273265 50.602970251419265 0 50.602970251419265 -1.1120587348705158 0 0 0 0 27.701124458457343 69.42922011052724 0 69.42922011052724 4.2029110200237483 0 0 0 0 78.012683412205661 34.283541749449796 0 34.283541749449796 -1.8697883097920567 0 0 0 0 -35.29852705284793 34.954778082394114 0 34.954778082394114 -27.320348453358747 0 0 0 0 9.6859607684891671 54.589691953769943 0 54.589691953769943 -55.902808936747761 0 0 0 0 3.3218072283198126 28.290252296166727 0 28.290252296166727 14.702199559302244 0 0 0 0 7.7982921043795272 39.18832916056391 0 39.18832916056391 -8.9172295738588652 0 0 0 0 11.058878516851109 36.675374993264995 0 36.675374993264995 14.279995678778505 0 0 0 0 27.731619435653556 25.495889072233695 0 25.495889072233695 -15.694187740969937 0 0 0 0 16.817692207525397 71.124460720182469 0 71.124460720182469 -61.609947149408981 0 0 0 0 -0.29088503698585555 68.035578919298132 0 68.035578919298132 -40.895260677643819 0 0 0 0 -41.922859771191725 81.019779973707045 0 81.019779973707045 -38.569326022930909 0 0 0 0 -3.5455368920520414 67.304211079579545 0 67.304211079579545 -37.502262196707306 0 0 0 0 22.84462237911066 30.468611594827962 0 30.468611594827962 -39.283668863470666 0 0 0 0 -82.009344990141471 97.416158685686241 0 97.416158685686241 -29.12921279706643 0 0 0 0 16.133111933436311 20.149204723646278 0 20.149204723646278 -11.110152695171905 0 0 0 0 25.603651308892267 25.693683758919235 0 25.693683758919235 -6.5402553207117649 0 0 0 0 -72.38872510958754 90.615660464100074 0 90.615660464100074 -44.753304979356471 0 0 0 0 -53.902031460544094 106.82182181229291 0 106.82182181229291 -49.955047990981257 0 0 0 0 -11.090723316372419 23.747859141670943 0 23.747859141670943 -4.6227037871715453 0 0 0 0 17.864611386787146 30.282325012609363 0 30.282325012609363 -21.352567956899293 0 0 0 0 47.087366372241377 41.751512680446012 0 41.751512680446012 -38.941384131672834 0 0 0 0 29.850139747548383 45.133552175015211 0 45.133552175015211 -25.532069888256956 0 0 0 0 47.458401068910064 50.498492343755075 0 50.498492343755075 -0.38021047943720987 0 0 0 0 29.171297902569989 36.382786884063336 0 36.382786884063336 -42.083464628467254 0 0 0 0 44.057207952093449 78.949032906130014 0 78.949032906130014 -7.3862099327664055 0 0 0 0 35.107429798867088 69.768824349303031 0 69.768824349303031 -115.18662407639204 0 0 0 0 26.755768303642981 75.416313438254292 0 75.416313438254292 -59.327138676657341 0 0 0 0 16.896880289191131 36.378103199522286 0 36.378103199522286 -10.778576074005688 0 0 0 0 -43.306202618725365 70.427436285768636 0 70.427436285768636 -24.764648310097982 0 0 0 0 24.262759685315473 48.707970232643788 0 48.707970232643788 -29.354707810166531 0 0 0 0 40.036969509619524 69.949323456796293 0 69.949323456796293 -19.24298102286582 0 0 0 0 39.500639783875556 45.935958198235312 0 45.935958198235312 -32.061491333149625 0 0 0 0 -5.067801725552556 25.58841741123917 0 25.58841741123917 -10.591755565365531 0 0 0 0 54.560426578347233 80.396931808778618 0 80.396931808778618 12.023100531194359 0 0 0 0 53.305078667972339 50.128460073761744 0 50.128460073761744 -0.06873827739036642 0 0 0 0 46.446426099500968 54.802762527768209 0 54.802762527768209 -16.063871214260871 0 0 0 0 30.833927449522889 46.715887549729814 0 46.715887549729814 -5.3871775642037392 0 0 0 0 22.238544692081632 63.155484990473269 0 63.155484990473269 18.25552085362142 0 0 0 0 17.480996143567609 87.895095910665987 0 87.895095910665987 22.09510992198193 0 0 0 0 17.20432286914729 47.551191380814998 0 47.551191380814998 2.4262434606789611 0 0 0 0 12.101092177679391 43.25714159235099 0 43.25714159235099 -12.830185618229933 0 0 0 0 -11.453795797394264 29.599654252264656 0 29.599654252264656 -16.572670117903499 0 0 0 0 29.565985743443889 62.856074188370258 0 62.856074188370258 -65.814170977828326 0 0 0 0 7.0650910592812579 46.09039207909882 0 46.09039207909882 -5.033534538350068 0 0 0 0 4.9805283047026023 52.584822107037326 0 52.584822107037326 -33.862799957401876 0 0 0 0 9.2900215918582489 40.816094568995183 0 40.816094568995183 -17.269272755488458 0 0 0 0 33.521077521058032 41.049120281284559 0 41.049120281284559 -43.198199355090765 0 0 0 0 28.005712632351788 43.121086401006323 0 43.121086401006323 -57.774682190054591 0 0 0 0 31.888774713169369 32.083743897775349 0 32.083743897775349 5.3601354970195842 0 0 0 0 32.757521635925514 75.205905283066386 0 75.205905283066386 -26.27133031061021 0 0 0 0 10.495905987176229 49.235723518348095 0 49.235723518348095 -38.831866711348994 0 0 0 0 26.025155977047689 29.664224675441801 0 29.664224675441801 -8.8244238180050161 0 0 0 0 32.81724428859161 30.977998444639525 0 30.977998444639525 -51.464174913635361 0 0 0 0 24.218881250868435 52.269440645337454 0 52.269440645337454 -29.067479208431905 0 0 0 0 30.328881404158892 46.734938101748412 0 46.734938101748412 -22.347296851046849 0 0 0 0 78.181489292008337 77.615214507066412 0 77.615214507066412 34.441869070520625 0 0 0 0 1.7725076830963857 20.90199384931654 0 20.90199384931654 6.1036580629138939 0 0 0 0 58.830798006907571 14.31525623966445 0 14.31525623966445 -13.575885545680649 0 0 0 0 39.320651741945767 35.423317532426154 0 35.423317532426154 -6.0186534733657027 0 0 0 0 34.281171189242741 24.832070023454435 0 24.832070023454435 -28.203785491815097 0 0 0 0 30.05046512025001 10.311364775167021 0 10.311364775167021 10.250732710726879 0 0 0 0 30.995274666522164 11.814496765691729 0 11.814496765691729 -20.301796751093207 0 0 0 0 32.466570196491375 1.6353658508705848 0 1.6353658508705848 -44.312857339609764 0 0 0 0 28.886345767154125 6.3412216140313831 0 6.3412216140313831 0.3868322667258326 0 0 0 0 32.709305881835462 18.843676730695734 0 18.843676730695734 -14.002817213222443 0 0 0 0 2.1207041842571925 10.721959641254216 0 10.721959641254216 0.19039633369675357 0 0 0 0 22.897081403777804 1.9048806926475663 0 1.9048806926475663 -1.7630050793498739 0 0 0 0 263.4087207290795 182.79663972388516 0 182.79663972388516 423.94766418352083 0 0 0 0 -7.8468475163972471 207.81885376467835 0 207.81885376467835 -244.36922434408189 0 0 0 0 -158.69944375555497 479.98286464174817 0 479.98286464174817 683.40594578016862 0 0 0 0 1.1079876212629074 4.2636808001140665 0 4.2636808001140665 -3.020882303736002 0 0 0 0 -20.442008269194048 127.18397282609658 0 127.18397282609658 464.64109776786063 0 0 0 0 3.8677304953163798 2.9703780018664929 0 2.9703780018664929 -0.87218932912301739 0 0 0 0 -430.69755971499762 6.5088005439238259 0 6.5088005439238259 293.6635778722848 0 0 0 0 14.671017811773709 22.206657702212397 0 22.206657702212397 -3.3032579296414042 0 0 0 0 6.8196753754927926 18.068415889081706 0 18.068415889081706 0.10556205266308893 0 0 0 0 48.821406228278647 5.3408345927564369 0 5.3408345927564369 -11.556028280967439 0 0 0 0 39.976690373463498 85.612919832627085 0 85.612919832627085 -92.554074503583251 0 0 0 0 41.039122576185036 54.643956579591759 0 54.643956579591759 35.377115883209626 0 0 0 0 293.60325050179381 205.84740523854271 0 205.84740523854271 -432.27934168348293 0 0 0 0 374.30641241598641 447.26730939251865 0 447.26730939251865 -278.53763627083754 0 0 0 0 -1.636031739176417 6.2946072230319174 0 6.2946072230319174 -0.36712786813988529 0 0 0 0 250.35604052884446 590.01287475488789 0 590.01287475488789 16.088330406604655 0 0 0 0 -125.22890353784896 305.15458009854046 0 305.15458009854046 -984.65890197473436 0 0 0 0 -15.986209322116338 33.987062904923732 0 33.987062904923732 -408.84192231635097 0 0 0 0 -0.70503628272086871 0.53317413957078941 0 0.53317413957078941 -0.69316668586452579 0 0 0 0 -46.298889391578996 61.005448418749438 0 61.005448418749438 220.36018671729835 0 0 0 0 -149.89059893852391 212.83515780966627 0 212.83515780966627 16.833359829299297 0 0 0 0 140.12256350284861 31.055139470773611 0 31.055139470773611 -278.20859660125279 0 0 0 0 -119.08387735064025 -49.432517103941791 0 -49.432517103941791 118.83700628961378 0 0 0 0 138.03084322037466 -18.534426192174578 0 -18.534426192174578 -46.611114907216688 0 0 0 0 40.955071853619302 -29.80772518406593 0 -29.80772518406593 53.592652956933307 0 0 0 0 44.237827877324889 1.4233093609545904 0 1.4233093609545904 -2.1791866799903801 0 0 0 0 1.0062701121725013 4.0358862038675269 0 4.0358862038675269 8.2480662695840294 0 0 0 0 17.988919391355012 20.966492217987252 0 20.966492217987252 31.951032220840716 0 0 0 0 19.724037123378366 30.403753293925547 0 30.403753293925547 -1.9810853877279442 0 0 0 0 -0.022563230730156647 22.185308496722428 0 22.185308496722428 27.754241361850291 0 0 0 0 11.684158965426889 18.438035018746319 0 18.438035018746319 -1.0909002624954809 0 0 0 0 3.1364385865417717 17.517159368239845 0 17.517159368239845 -1.1431515810982091 0 0 0 0 83.783308505793684 80.48849031967984 0 80.48849031967984 26.485205313598271 0 0 0 0 127.62804077006149 -24.12623556127437 0 -24.12623556127437 33.430147418061097 0 0 0 0 -2.948599817318609 -67.182113973718515 0 -67.182113973718515 66.843393136674422 0 0 0 0 -257.56507450768549 -26.816550982708577 0 -26.816550982708577 106.04784654840478 0 0 0 0 -8.6372833186978824 26.404840061229038 0 26.404840061229038 105.9214708026775 0 0 0 0 -221.59481794932799 151.37392715419992 0 151.37392715419992 -36.381687619410513 0 0 0 0 -169.84308554793097 52.494843146993958 0 52.494843146993958 106.41457615811669 0 0 0 0 -594.1213355910877 99.887036579821142 0 99.887036579821142 17.927807943058724 0 0 0 0 -124.01228475228072 39.264283086009527 0 39.264283086009527 -119.27194018608134 0 0 0 0 -411.40083900243917 23.067166545934015 0 23.067166545934015 7.8670950924279168 0 0 0 0 -163.49428771695239 321.79320478404043 0 321.79320478404043 -814.2813586419943 0 0 0 0 -467.9035976809173 359.49894432947622 0 359.49894432947622 -287.38948938848625 0 0 0 0 -583.51786770429317 707.56153360318422 0 707.56153360318422 -1158.4654815025315 0 0 0 0 -1308.3873171231462 175.45714956062147 0 175.45714956062147 22.271309768962965 0 0 0 0 -806.00223283383821 -126.55576026569179 0 -126.55576026569179 -510.65435849841742 0 0 0 0 -405.17203565184536 185.90434433598966 0 185.90434433598966 -273.91342425276525 0 0 0 0 -298.73955918679712 488.06460473786865 0 488.06460473786865 -314.11292853021951 0 0 0 0 -1073.8670015715506 811.94014494511839 0 811.94014494511839 -448.96027217215305 0 0 0 0 -5.4961932164792131 5.5417753435397543 0 5.5417753435397543 -6.0142548124294706 0 0 0 0 271.38607220354606 345.95500398865261 0 345.95500398865261 -1001.8242498081963 0 0 0 0 -156.90073244100495 31.560805500728748 0 31.560805500728748 25.589855615697161 0 0 0 0 107.81536436115857 -57.413068751488026 0 -57.413068751488026 -192.28787615021429 0 0 0 0 -8.8360739814306726 98.619931381905189 0 98.619931381905189 -395.52330928231822 0 0 0 0 -124.09416012244765 359.07398626396025 0 359.07398626396025 -502.72647075953864 0 0 0 0 -252.14652914271574 481.06626080964998 0 481.06626080964998 -349.25117468513781 0 0 0 0 -189.71590499588638 390.96380878944183 0 390.96380878944183 -268.40670904953731 0 0 0 0 -289.05191215537343 464.08903126026235 0 464.08903126026235 -254.93323850205343 0 0 0 0 -270.27221898073549 433.22400520300744 0 433.22400520300744 -213.04310146448552 0 0 0 0 -272.30868874352018 425.4212475660388 0 425.4212475660388 -227.36158833224181 0 0 0 0 -515.30938222642726 526.40370649737724 0 526.40370649737724 -167.52934978115081 0 0 0 0 -307.06188274305896 466.38900282805662 0 466.38900282805662 -168.58135311104706 0 0 0 0 -160.52708468854894 396.65035255882333 0 396.65035255882333 -57.686454366106773 0 0 0 0 -335.70374977920437 368.92311636807062 0 368.92311636807062 -37.065339460074028 0 0 0 0 -299.39544011057296 349.97978134394361 0 349.97978134394361 54.588190548789498 0 0 0 0 -293.2050073925202 344.39562325510633 0 344.39562325510633 -137.8174983016761 0 0 0 0 -297.47561518276052 388.15170553756616 0 388.15170553756616 -88.831879854813451 0 0 0 0 -296.17039620082687 389.66948717649711 0 389.66948717649711 -189.58902202962054 0 0 0 0 29.053069380896375 39.295378329308988 0 39.295378329308988 18.139293921314447 0 0 0 0 -1.556454244768247 44.885509365871258 0 44.885509365871258 16.67931421983667 0 0 0 0 164.27909636573168 399.64731223105628 0 399.64731223105628 705.74390248127747 0 0 0 0 554.21322985755978 478.33546514878981 0 478.33546514878981 -256.6811572202605 0 0 0 0 89.654480211436749 -127.83185747156676 0 -127.83185747156676 -346.50347384986526 0 0 0 0 5.6873788235902794 -1.6100224520254756 0 -1.6100224520254756 -0.8792269903154164 0 0 0 0 66.257210527764983 81.009336009912658 0 81.009336009912658 272.15799475036329 0 0 0 0 70.137545220888569 30.867351138316735 0 30.867351138316735 58.236641566763865 0 0 0 0 11.262504410100519 319.46093170033055 0 319.46093170033055 690.96806290484528 0 0 0 0 240.3661715475173 179.31500065180444 0 179.31500065180444 -3.5018304084369447 0 0 0 0 142.56300823848323 48.449428015202102 0 48.449428015202102 -147.92014092278259 0 0 0 0 123.37941132412016 154.16111115408694 0 154.16111115408694 80.144255490478827 0 0 0 0 77.236188871378545 64.821639681300439 0 64.821639681300439 -81.265612818766385 0 0 0 0 1.5919417304394301 47.110257792643097 0 47.110257792643097 -104.80908307597565 0 0 0 0 14.674998277986759 32.151748187706431 0 32.151748187706431 20.961715520734998 0 0 0 0 -187.0361854328512 19.682423450904025 0 19.682423450904025 -36.934018390609708 0 0 0 0 36.77697541420639 52.234827252952527 0 52.234827252952527 21.28634853434562 0 0 0 0 -0.22326795208937256 53.991857621480449 0 53.991857621480449 35.378655179680209 0 0 0 0 -1.0658669765816455 24.436057025200341 0 24.436057025200341 15.370070734208497 0 0 0 0 -2.9149701517890207 53.206599476085103 0 53.206599476085103 43.717636098001094 0 0 0 0 -0.052132343596895225 55.101716620676598 0 55.101716620676598 36.126399395245244 0 0 0 0 1.7479041170915366 5.5393607057009149 0 5.5393607057009149 -3.1288905559581508 0 0 0 0 -21.24111944984179 16.675717577505566 0 16.675717577505566 35.390306417049942 0 0 0 0 -13.271891540309326 22.340697008062818 0 22.340697008062818 15.341849759217723 0 0 0 0 61.177447935129749 45.890095586739335 0 45.890095586739335 11.597016557461757 0 0 0 0 26.129720647673821 26.194317372981459 0 26.194317372981459 20.46149094797147 0 0 0 0 25.354592532967217 -13.679679638851667 0 -13.679679638851667 -158.78882887357076 0 0 0 0 27.578955778073123 42.72058834148558 0 42.72058834148558 31.87123789684847 0 0 0 0 33.954772530153946 25.009999784986917 0 25.009999784986917 -2.4990624391975471 0 0 0 0 -0.0028828208014601842 6.4970492938882671 0 6.4970492938882671 -12.510986323613906 0 0 0 0 -10.052177658915753 19.925924844661495 0 19.925924844661495 0.16378800553502515 0 0 0 0 1.0518044061609544 -33.940667854680214 0 -33.940667854680214 -159.74435773529694 0 0 0 0 1.8229634759512976 15.054589959741207 0 15.054589959741207 11.11181591370979 0 0 0 0 69.938601648667827 12.741406051674858 0 12.741406051674858 66.686444719766314 0 0 0 0 6.2986923943741431 22.483145490504569 0 22.483145490504569 -1.5670601542926574 0 0 0 0 0.099634723325777941 -3.0746092164937693 0 -3.0746092164937693 -11.68660131044907 0 0 0 0 2.6088566913488762 -2.3861380026164625 0 -2.3861380026164625 -33.329603639850802 0 0 0 0 -57.928238729262375 41.600063821977528 0 41.600063821977528 -50.918444787858789 0 0 0 0 66.726915540581103 -31.508942461659899 0 -31.508942461659899 -130.61523423111066 0 0 0 0 -0.65210440960716953 53.38209660560792 0 53.38209660560792 -154.98281123786001 0 0 0 0 77.105795482639223 -10.85536324552595 0 -10.85536324552595 -155.6098887011176 0 0 0 0 -0.97106875157624017 -15.451445852770121 0 -15.451445852770121 -141.87122871135944 0 0 0 0 27.941149212623714 -44.323552356359869 0 -44.323552356359869 -322.05234842316713 0 0 0 0 39.786220548965503 20.654182516911533 0 20.654182516911533 -110.24308766896138 0 0 0 0 -228.26030277900281 -68.841585842681525 0 -68.841585842681525 33.640629052446457 0 0 0 0 53.886876239615958 -202.18244142906769 0 -202.18244142906769 -179.25179403755465 0 0 0 0 -167.76888449021499 -298.45297427589139 0 -298.45297427589139 -166.01156415627338 0 0 0 0 45.963907809898956 -182.37758702172141 0 -182.37758702172141 -206.43042178694304 0 0 0 0 60.130660069567966 -272.50416395120192 0 -272.50416395120192 -487.1443171625142 0 0 0 0 67.758916861523176 11.835602513485355 0 11.835602513485355 -245.10384770583187 0 0 0 0 20.655985090807008 30.759108188362461 0 30.759108188362461 9.4647186445268829 0 0 0 0 27.641085730600025 35.936839231640164 0 35.936839231640164 -11.610715500020888 0 0 0 0 76.010317131702323 195.8472683771397 0 195.8472683771397 -605.12890744095421 0 0 0 0 24.488755169330801 20.189124730884487 0 20.189124730884487 -19.331159284085118 0 0 0 0 47.625944078787143 -39.286039667938894 0 -39.286039667938894 -443.86502805300552 0 0 0 0 -31.839925865264377 -91.34838585181933 0 -91.34838585181933 -105.75590885145357 0 0 0 0 52.998280566406095 40.689828071694052 0 40.689828071694052 -1.0647550044716807 0 0 0 0 51.25542871147627 20.674921991929295 0 20.674921991929295 -242.71092133119237 0 0 0 0 484.18113629573054 123.41118188691325 0 123.41118188691325 -544.39476122859924 0 0 0 0 -81.207969485898502 -29.182961237835116 0 -29.182961237835116 36.506911230764672 0 0 0 0 -7.2053075561125297 309.1055739592266 0 309.1055739592266 -53.734941011894989 0 0 0 0 -95.855682600056753 170.9711650846366 0 170.9711650846366 -81.522179875653819 0 0 0 0 -66.787456610327354 140.88249207627086 0 140.88249207627086 -50.415838054355845 0 0 0 0 -6.7119414379994851 51.105852462758776 0 51.105852462758776 -210.2540288527598 0 0 0 0 16.56373638405762 40.418437340915574 0 40.418437340915574 6.6178970139864077 0 0 0 0 1.3020732236327603 41.803892471405561 0 41.803892471405561 -7.5029465605512087 0 0 0 0 24.320569050860456 4.0867147735176275 0 4.0867147735176275 -15.248423115215623 0 0 0 0 -47.947391999448882 160.17585759257054 0 160.17585759257054 -117.01059323096706 0 0 0 0 8.6957179693272337 36.762584191557835 0 36.762584191557835 123.33390376751413 0 0 0 0 14.181753565276495 1.6233827588407621 0 1.6233827588407621 0.90605411374399125 0 0 0 0 52.112617072823923 39.636785106733441 0 39.636785106733441 -213.98584109937656 0 0 0 0 10.164694755430814 6.434382195479742 0 6.434382195479742 4.2236985655710555 0 0 0 0 2.6117165317555191 59.558788797869056 0 59.558788797869056 -11.401185639522737 0 0 0 0 -17.503090057740337 43.98582289978367 0 43.98582289978367 32.826027680348489 0 0 0 0 169.91594344365876 -10.160149097115209 0 -10.160149097115209 -34.927983627188951 0 0 0 0 169.5828506975231 1.7183460596625082 0 1.7183460596625082 -22.315114328637719 0 0 0 0 94.89333378104493 8.3760376902064309 0 8.3760376902064309 -35.088712567870971 0 0 0 0 17.650710206442682 4.2544681527417865 0 4.2544681527417865 -4.6417950673969699 0 0 0 0 189.76095483417157 55.382262818631716 0 55.382262818631716 31.210038937919308 0 0 0 0 20.770889398367217 55.098158660136448 0 55.098158660136448 0.46650621018616789 0 0 0 0 -20.477491364246816 136.07447567723284 0 136.07447567723284 -96.104443290139898 0 0 0 0 -13.430235246909433 34.507336348091485 0 34.507336348091485 -1.3384571338392561 0 0 0 0 18.020222435669268 33.543516316183599 0 33.543516316183599 -6.6279910084025886 0 0 0 0 9.6186115382588468 34.58470745611703 0 34.58470745611703 -57.616023462960584 0 0 0 0 -4.1008665985461334 34.375530124351201 0 34.375530124351201 1.8526729106294439 0 0 0 0 -29.966999612865038 55.817997862410266 0 55.817997862410266 -24.396163560959394 0 0 0 0 -18.56437633074529 78.306594847923407 0 78.306594847923407 -35.763405613808573 0 0 0 0 7.5177668148735393 20.782190836410336 0 20.782190836410336 -14.577422847156413 0 0 0 0 28.58812606575313 34.429936375289458 0 34.429936375289458 -1.703650987367439 0 0 0 0 80.942080420496268 17.922015798278778 0 17.922015798278778 -4.6417487344754704 0 0 0 0 -0.0937963753240183 40.866067420312902 0 40.866067420312902 -14.892858511884697 0 0 0 0 56.346975273219869 57.937081795738777 0 57.937081795738777 12.613505794492085 0 0 0 0 -2.8617134395227879 27.455733414876164 0 27.455733414876164 -12.918462986413033 0 0 0 0 49.245288540709872 43.214856273108438 0 43.214856273108438 -36.665880661686458 0 0 0 0 7.6910939895490174 61.967630883278034 0 61.967630883278034 -15.603128573695527 0 0 0 0 40.981965414959632 52.581257952447373 0 52.581257952447373 -16.59183255774235 0 0 0 0 14.074481867126451 69.13929564143109 0 69.13929564143109 -17.593054896453395 0 0 0 0 14.786355157499202 59.444767412380315 0 59.444767412380315 -0.77610733089386486 0 0 0 0 13.129391457769088 51.527885787625564 0 51.527885787625564 -28.938117871526629 0 0 0 0 24.641348869074136 63.922626553307055 0 63.922626553307055 -21.930843518697657 0 0 0 0 22.183749513118528 69.97844676382374 0 69.97844676382374 -27.936945360315804 0 0 0 0 27.984963818404566 25.601718370546166 0 25.601718370546166 -6.7108209095114546 0 0 0 0 20.266136082071313 31.103510876130969 0 31.103510876130969 -15.476308093927543 0 0 0 0 -45.246844523877371 25.958686229248997 0 25.958686229248997 -19.877711230539717 0 0 0 0 89.910186720866477 46.287197371610091 0 46.287197371610091 -14.778177469037473 0 0 0 0 -30.228969625157333 39.211700956053164 0 39.211700956053164 -16.561679851001827 0 0 0 0 78.646816875581862 41.024889214866562 0 41.024889214866562 -12.936221806041431 0 0 0 0 22.789378261921229 54.169990142530878 0 54.169990142530878 9.3204270997812273 0 0 0 0 21.336735206108081 3.5741761194529715 0 3.5741761194529715 -0.16075587227209098 0 0 0 0 2.4425343445909675 68.189572476279864 0 68.189572476279864 -37.51702876152558 0 0 0 0 1.6690287180608721 41.356351752665432 0 41.356351752665432 -10.281843983000726 0 0 0 0 43.49981477922347 33.508824833893073 0 33.508824833893073 -0.09299204464724653 0 0 0 0 -1.0091871475742664 59.143305247696844 0 59.143305247696844 -17.907086945197079 0 0 0 0 3.7304116299492307 85.809667020861525 0 85.809667020861525 -29.997436620746157 0 0 0 0 29.032029424379289 48.177429178263992 0 48.177429178263992 -56.124058854824398 0 0 0 0 32.687393071211133 25.19010627598422 0 25.19010627598422 -19.291279924608602 0 0 0 0 14.697142470475228 24.863671860191971 0 24.863671860191971 -16.882295804214664 0 0 0 0 9.5813614401995437 79.417165919050603 0 79.417165919050603 -17.947318239928563 0 0 0 0 21.103867582146563 26.859845417499372 0 26.859845417499372 15.3345909511077 0 0 0 0 30.323791680362774 50.507953888052725 0 50.507953888052725 52.215414948237594 0 0 0 0 15.548645041009877 78.919555902684806 0 78.919555902684806 35.452066345278581 0 0 0 0 54.526269046800735 71.654610867772135 0 71.654610867772135 70.653026339306962 0 0 0 0 12.527697325655026 19.616124877116818 0 19.616124877116818 67.556160771448049 0 0 0 0 11.033330894511892 30.777757364827266 0 30.777757364827266 4.9032598841440631 0 0 0 0 -0.5889888088859152 68.640980757045327 0 68.640980757045327 24.436569651770697 0 0 0 0 12.475585509237135 65.917761992197484 0 65.917761992197484 4.6664766889589373 0 0 0 0 0.19500428506580647 101.34873952797352 0 101.34873952797352 -2.4995268299244344 0 0 0 0 11.892936370350071 86.717162278175238 0 86.717162278175238 -63.082610890116484 0 0 0 0 29.472945480694761 72.382318911801121 0 72.382318911801121 -41.70248814955994 0 0 0 0 47.746800062130205 111.48230293238157 0 111.48230293238157 23.157802938869281 0 0 0 0 34.635716508921178 0.60339639837184222 0 0.60339639837184222 -115.41867904327228 0 0 0 0 -40.127611097501358 83.722695128410123 0 83.722695128410123 -43.531245086673152 0 0 0 0 17.51888189105938 16.183994629011352 0 16.183994629011352 6.142336769997911 0 0 0 0 -56.286355781994644 42.999351350204961 0 42.999351350204961 101.36017912784519 0 0 0 0 6.6811905108843348 113.80210270072712 0 113.80210270072712 -78.853550573207031 0 0 0 0 42.595628680282971 115.42001008049556 0 115.42001008049556 15.715342828058056 0 0 0 0 -197.81954300974758 600.17757529510527 0 600.17757529510527 387.42527059209533 0 0 0 0 -47.44099984751665 164.83192241125653 0 164.83192241125653 60.384281999875384 0 0 0 0 48.67180774680557 54.382183867341837 0 54.382183867341837 28.99592434002912 0 0 0 0 -57.012471029913286 41.464996935392264 0 41.464996935392264 2.2098037005634978 0 0 0 0 -15.990017643023748 183.31671673354867 0 183.31671673354867 191.83815235826478 0 0 0 0 57.365029451369992 -106.08726696710437 0 -106.08726696710437 284.51580786547856 0 0 0 0 14.452917479342432 67.443042722872633 0 67.443042722872633 -59.166353134402016 0 0 0 0 18.805908175119839 64.779209584953605 0 64.779209584953605 -57.719192766868218 0 0 0 0 61.485557099665442 48.454452048908166 0 48.454452048908166 16.663635011464436 0 0 0 0 110.37192745953507 222.41194193986303 0 222.41194193986303 139.37927812847192 0 0 0 0 -22.927480215177638 117.27606888059381 0 117.27606888059381 -112.83536698990793 0 0 0 0 15.295507596020258 10.208829282552529 0 10.208829282552529 -2.9552150852044008 0 0 0 0 22.776961896930572 55.555960042164713 0 55.555960042164713 11.956606693767583 0 0 0 0 129.17733185699035 -29.281628194090445 0 -29.281628194090445 -70.737216144854756 0 0 0 0 576.11238747867901 -356.76320019518607 0 -356.76320019518607 -545.61044542696618 0 0 0 0 1.3677681501493169 1.3984273482525396 0 1.3984273482525396 1.1209213297929068 0 0 0 0 254.04174683248857 293.34921031902195 0 293.34921031902195 -62.814548081544672 0 0 0 0 -198.5580742864986 324.2125718562238 0 324.2125718562238 -60.647747400740627 0 0 0 0 47.006433322938392 31.849035189628921 0 31.849035189628921 -104.49404532590415 0 0 0 0 51.577254029893083 54.758273059080238 0 54.758273059080238 -132.5071709030417 0 0 0 0 37.895105113217141 52.606904185424355 0 52.606904185424355 -83.813045148723177 0 0 0 0 34.838913073086587 26.165331532738492 0 26.165331532738492 -60.911676102055935 0 0 0 0 94.265450902254088 24.660764679247222 0 24.660764679247222 -69.855930987752799 0 0 0 0 73.535288483806653 -42.522622430580668 0 -42.522622430580668 -0.8661469114740612 0 0 0 0 58.213154604993179 34.182160070806276 0 34.182160070806276 -87.983238824293949 0 0 0 0 35.413697027048329 22.182711202800419 0 22.182711202800419 -30.700939257032587 0 0 0 0 7.227781250038106 -0.30030390554776432 0 -0.30030390554776432 0.85818489200496018 0 0 0 0 86.942534762667492 -55.45664512581061 0 -55.45664512581061 29.370558858543518 0 0 0 0 -1215.3635726296925 749.83543784392532 0 749.83543784392532 918.01443280969033 0 0 0 0 1.9829006907363578 -11.032408584148925 0 -11.032408584148925 22.958167210439569 0 0 0 0 1247.6169049188611 -165.55506595398765 0 -165.55506595398765 282.79339542459638 0 0 0 0 4.4448049561760854 79.766311479790602 0 79.766311479790602 35.957552956046129 0 0 0 0 -6.9358962563725299 23.915502195668502 0 23.915502195668502 0.58148560915046943 0 0 0 0 322.37578842097719 -54.20823617240967 0 -54.20823617240967 -47.225137093526428 0 0 0 0 411.78998890413277 356.79583745649234 0 356.79583745649234 -40.633416613956797 0 0 0 0 -5.554954101156909 54.188920158259862 0 54.188920158259862 33.242603575832618 0 0 0 0 27.488361977564637 88.236454436118947 0 88.236454436118947 -6.3361138419677445 0 0 0 0 29.193760736583499 79.694029551319545 0 79.694029551319545 -93.754712096626463 0 0 0 0 1.2382255074044224 32.975104196266329 0 32.975104196266329 -14.867234967103286 0 0 0 0 -2.1534228226298069 8.1999837232884865 0 8.1999837232884865 -7.6920216725656445 0 0 0 0 51.711349552730098 48.501451176489354 0 48.501451176489354 -308.20189040614787 0 0 0 0 201.98138921409554 90.148966192788066 0 90.148966192788066 782.08788456190086 0 0 0 0 3.1002420016138785 10.498536592719802 0 10.498536592719802 -148.02123956623836 0 0 0 0 16.482427531955182 104.68666521653358 0 104.68666521653358 5.60173562514683 0 0 0 0 0.58183404566079844 229.05148077381455 0 229.05148077381455 -59.674095939320978 0 0 0 0 33.583640010620002 163.48148587921969 0 163.48148587921969 -23.214145898935385 0 0 0 0 -27.889085369737586 229.18128386575609 0 229.18128386575609 -196.51348072246765 0 0 0 0 -174.93709872014006 174.91775011504069 0 174.91775011504069 79.839296058606124 0 0 0 0 18.462157216276751 26.55497985211187 0 26.55497985211187 4.8059223201805423 0 0 0 0 188.79974494279304 408.48771881235734 0 408.48771881235734 67.796383560227696 0 0 0 0 103.53426806123753 403.85327120411421 0 403.85327120411421 68.308588145511749 0 0 0 0 33.10531044569143 65.757224874429085 0 65.757224874429085 13.886686378711602 0 0 0 0 23.046059529209742 82.34215837181182 0 82.34215837181182 13.685107514618721 0 0 0 0 21.352426587982336 74.088398856110871 0 74.088398856110871 -14.837356334530341 0 0 0 0 31.020068240710145 49.489978822363241 0 49.489978822363241 51.527989582299881 0 0 0 0 -43.040635164710693 10.105542634577432 0 10.105542634577432 18.723581710539293 0 0 0 0 17.438659035254204 125.72369457794628 0 125.72369457794628 -143.10809105454246 0 0 0 0 66.21417197525443 117.24252859470289 0 117.24252859470289 -2.3455568880599458 0 0 0 0 -88.718811933045799 78.312712671769987 0 78.312712671769987 40.437542276529712 0 0 0 0 -37.749572529166471 108.76489578020846 0 108.76489578020846 1.4308999258719268 0 0 0 0 -377.50849874438427 -277.61890472115738 0 -277.61890472115738 21.886334328257362 0 0 0 0 115.00276848500653 6.6438304427647381 0 6.6438304427647381 9.9196386595722288 0 0 0 0 -2.7200521995662825 0.63344236903856199 0 0.63344236903856199 -1.5411812695999743 0 0 0 0 208.4444270968379 116.54848070998196 0 116.54848070998196 -37.639879598191328 0 0 0 0 6.2714384090504609 219.8605621362949 0 219.8605621362949 -61.185500734049128 0 0 0 0 -37.886009610185283 221.98121820583765 0 221.98121820583765 -9.018653256847756 0 0 0 0 -24.456353146990295 184.60845925887406 0 184.60845925887406 60.072760573373671 0 0 0 0 -115.27629591978621 -42.019541657500667 0 -42.019541657500667 604.96654034240055 0 0 0 0 9.3746720560461654 0.68272900089641553 0 0.68272900089641553 0.033162383806413231 0 0 0 0 36.239811838080641 350.99916251692775 0 350.99916251692775 497.77443186521123 0 0 0 0 31.94388521311339 89.30928804161158 0 89.30928804161158 68.80178391750087 0 0 0 0 -99.609525159903569 513.64977652566449 0 513.64977652566449 366.53838576010821 0 0 0 0 756.3013982988341 -200.0743046238531 0 -200.0743046238531 -235.55490249829018 0 0 0 0 -0.46636841738290968 87.962492703763019 0 87.962492703763019 -27.729062401180272 0 0 0 0 8.0735205722652097 12.715405198737216 0 12.715405198737216 -4.1845753527876468 0 0 0 0 -368.19489060691558 43.493395039675306 0 43.493395039675306 89.092519439931493 0 0 0 0 154.823824201565 30.106602827974712 0 30.106602827974712 -150.04380805382971 0 0 0 0 111.93826811778126 81.120967339564231 0 81.120967339564231 -146.05686749024608 0 0 0 0 118.5341371128452 60.524158004693163 0 60.524158004693163 -82.085668354027803 0 0 0 0 248.97889542388293 110.02610443900448 0 110.02610443900448 -143.39599139714846 0 0 0 0 -2.1270244454499334 48.841479109843931 0 48.841479109843931 26.512018281886412 0 0 0 0 -6.3445837111066794 53.355412882105156 0 53.355412882105156 36.245111247768364 0 0 0 0 20.094010799360802 44.484137432969618 0 44.484137432969618 33.153997208528722 0 0 0 0 -0.45898283697897568 14.96288678048586 0 14.96288678048586 63.894231293892517 0 0 0 0 90.67516996258928 107.54656637072367 0 107.54656637072367 15.59145215144963 0 0 0 0 0.0020984540606150404 53.591491217262956 0 53.591491217262956 19.632663148357096 0 0 0 0 0.008110501104965806 47.426668346884981 0 47.426668346884981 3.6765801542314875 0 0 0 0 -10.4018932353938 43.818665143589897 0 43.818665143589897 11.926544481379096 0 0 0 0 -6.4374969873751979 35.210005665307108 0 35.210005665307108 -10.382194787555136 0 0 0 0 25.203000937163978 36.747955302764382 0 36.747955302764382 16.586547110467649 0 0 0 0 -66.283740418308298 92.686252867468284 0 92.686252867468284 51.86129910616728 0 0 0 0 27.244921909354161 87.287716259947047 0 87.287716259947047 -9.7072694676481888 0 0 0 0 15.597700905498101 30.854264500057127 0 30.854264500057127 -0.52214095987579867 0 0 0 0 3.9595740323711652 37.197036255609419 0 37.197036255609419 -27.264534906193148 0 0 0 0 -58.666025130311027 58.633157871252479 0 58.633157871252479 15.118142886327405 0 0 0 0 6.0778213208938041 5.0805255888280456 0 5.0805255888280456 -2.912551691424639 0 0 0 0 -43.608015691133915 26.880912624448683 0 26.880912624448683 188.04141269801767 0 0 0 0 0.082279474270762876 112.63289139361223 0 112.63289139361223 245.48269043755135 0 0 0 0 -55.414235581437197 23.303159557130282 0 23.303159557130282 -4.6426259927815039 0 0 0 0 -6.4361658103935326 5.8183967713161451 0 5.8183967713161451 -2.7902609463450858 0 0 0 0 58.405676552589284 37.395072726183571 0 37.395072726183571 -4.1147830905683804 0 0 0 0 -44.816190823621582 145.35215433519625 0 145.35215433519625 180.93092251451844 0 0 0 0 -15.972076434016344 58.215167649686919 0 58.215167649686919 10.046839894828736 0 0 0 0 -15.12488988288942 77.122691049106265 0 77.122691049106265 28.472069387731608 0 0 0 0 -21.55559480136435 119.6873496185126 0 119.6873496185126 64.286017216916662 0 0 0 0 -17.104534609068651 143.93461572912929 0 143.93461572912929 56.168774753910839 0 0 0 0 23.419661064792308 155.95959247682276 0 155.95959247682276 60.243344141999842 0 0 0 0 -57.989049290597904 110.66512648086791 0 110.66512648086791 44.153208479816385 0 0 0 0 14.791481879292405 85.784192179809907 0 85.784192179809907 55.040762891207123 0 0 0 0 13.320568961557001 33.856238523334468 0 33.856238523334468 28.076455781570985 0 0 0 0 31.609778736609059 42.012679521375901 0 42.012679521375901 39.577404542013284 0 0 0 0 -1.1208524222893175 68.818290103168692 0 68.818290103168692 38.958264335378772 0 0 0 0 -17.048068855976453 102.34456756804138 0 102.34456756804138 65.606760394367484 0 0 0 0 -69.20935812380003 32.565849355795926 0 32.565849355795926 -3.1909533707679856 0 0 0 0 -60.16531296345056 94.86139825466671 0 94.86139825466671 64.927207834507499 0 0 0 0 -39.229294878663495 85.867905642429832 0 85.867905642429832 84.301396390830632 0 0 0 0 -23.316303764324402 89.484333183689159 0 89.484333183689159 70.332767490792321 0 0 0 0 -0.91426897217752412 65.83220013443497 0 65.83220013443497 37.60049540021646 0 0 0 0 -23.99104573954537 122.92529104293499 0 122.92529104293499 65.403992668783758 0 0 0 0 -8.3456368333114881 44.871058218112864 0 44.871058218112864 -3.0585379838420863 0 0 0 0 -4.4058075820066733 93.453934657711216 0 93.453934657711216 31.00464554136488 0 0 0 0 -8.2471188954890238 8.7539255304350263 0 8.7539255304350263 4.2057665988170925 0 0 0 0 57.213661701884121 130.25026736338623 0 130.25026736338623 90.684323559456971 0 0 0 0 -101.36369461884897 84.17878136411673 0 84.17878136411673 34.065121073996124 0 0 0 0 6.8857325561402831 36.297948806881323 0 36.297948806881323 -1.2651838608144317 0 0 0 0 16.961422819212601 38.158189506622378 0 38.158189506622378 -12.673167958473897 0 0 0 0 2.6658950710843783 92.055063243780751 0 92.055063243780751 65.791200350009603 0 0 0 0 6.3492600550752911 43.426445915143375 0 43.426445915143375 2.1944824334024702 0 0 0 0 16.552017127419447 15.966045684254105 0 15.966045684254105 -0.86484266324976034 0 0 0 0 -6.94469454526552 126.44074172498222 0 126.44074172498222 -86.673046377036371 0 0 0 0 -34.239246956480201 95.001875989546534 0 95.001875989546534 -25.007144851570047 0 0 0 0 35.077771948002919 63.176958804902824 0 63.176958804902824 -26.168889329434023 0 0 0 0 8.9269524171249941 119.00632330822191 0 119.00632330822191 -9.668448436561448 0 0 0 0 66.335156614557491 64.139784574588703 0 64.139784574588703 -39.297417457946722 0 0 0 0 53.001656312728301 104.89422656350507 0 104.89422656350507 -87.741428882349283 0 0 0 0 6.9929738682112657 56.142910446578753 0 56.142910446578753 -48.126659362191276 0 0 0 0 24.855908780565585 38.609148576294729 0 38.609148576294729 -2.5531448227201281 0 0 0 0 -21.605156930010708 67.916145801194943 0 67.916145801194943 -16.304049288970418 0 0 0 0 -16.934952844152576 75.326364288790501 0 75.326364288790501 -4.9716015464364318 0 0 0 0 -1.7794078263175521 42.295631071647932 0 42.295631071647932 -27.163354079150906 0 0 0 0 -0.047617242147680372 131.01444388914388 0 131.01444388914388 -80.383492199071043 0 0 0 0 -56.240326822997304 211.46215280249453 0 211.46215280249453 -143.16037594388035 0 0 0 0 -14.200851881061681 165.13609585641279 0 165.13609585641279 -6.7261328413733281 0 0 0 0 8.5980028284539003 128.24990423487543 0 128.24990423487543 -5.0041185908412444 0 0 0 0 4.6417601594876032 139.73736385584198 0 139.73736385584198 -22.444456783414353 0 0 0 0 1.6135197427356616 124.51360113574628 0 124.51360113574628 -37.139912207832822 0 0 0 0 62.548144358894206 93.741092237898556 0 93.741092237898556 -127.46119532392549 0 0 0 0 59.84474755107658 61.454434343289904 0 61.454434343289904 -276.64175890412298 0 0 0 0 57.514871640483761 73.272868226646096 0 73.272868226646096 -59.887362277811917 0 0 0 0 -93.453567341246526 132.17894851548772 0 132.17894851548772 -151.8191150303719 0 0 0 0 -63.500852483266499 28.574031002295669 0 28.574031002295669 -243.07324302010238 0 0 0 0 -2.2660333364878085 4.4943550313163882 0 4.4943550313163882 0.47318684696756463 0 0 0 0 11.224797967413906 -39.990795847908885 0 -39.990795847908885 -100.43703519550763 0 0 0 0 -0.096551155293127522 17.942252652241223 0 17.942252652241223 -14.56783127512972 0 0 0 0 0.23654752927541267 16.22111098649475 0 16.22111098649475 -18.78213802906248 0 0 0 0 -2.9485814737563487 17.261268022954027 0 17.261268022954027 -19.062950653727967 0 0 0 0 -25.717450205498608 50.417892712343019 0 50.417892712343019 -52.574436685130422 0 0 0 0 8.0791529917983098 2.8002162215958037 0 2.8002162215958037 -3.5699463830626144 0 0 0 0 29.941636577279695 25.475479700375274 0 25.475479700375274 -19.484469876148069 0 0 0 0 62.905687917926116 -16.944330032612015 0 -16.944330032612015 3.9929611473489786 0 0 0 0 -4.2669094014854636 -30.064495055461521 0 -30.064495055461521 4.7903096110021579 0 0 0 0 -66.287289894244168 63.997556116988562 0 63.997556116988562 -9.796121283507091 0 0 0 0 50.55515590205323 -112.11075776073267 0 -112.11075776073267 63.969312600092962 0 0 0 0 1.1745325848783068 15.330889768404091 0 15.330889768404091 -6.5686378060408597 0 0 0 0 -15.949918023179634 75.635302336970199 0 75.635302336970199 55.02691161846451 0 0 0 0 -71.194718035898404 21.9683028804684 0 21.9683028804684 38.192844980367227 0 0 0 0 38.034846383556214 65.301097643970252 0 65.301097643970252 -13.906072970508831 0 0 0 0 -7.7987533698906191 72.733770305232611 0 72.733770305232611 -5.9501012217369862 0 0 0 0 -20.088637018488953 40.427236369207094 0 40.427236369207094 16.394366866195924 0 0 0 0 -14.313160253939543 35.841881822102806 0 35.841881822102806 -2.6003685755737296 0 0 0 0 -15.075982676513377 54.37636596608354 0 54.37636596608354 -7.8863841072816285 0 0 0 0 -12.62348908372357 32.768334369353141 0 32.768334369353141 -4.506855693628637 0 0 0 0 -16.857405371512868 54.110047236565151 0 54.110047236565151 0.90976305207004771 0 0 0 0 -17.45647572519465 21.246128144131234 0 21.246128144131234 13.527197461466386 0 0 0 0 -13.802432545548356 57.454397776888356 0 57.454397776888356 -26.360888424730632 0 0 0 0 -61.595399576850468 56.962028548974558 0 56.962028548974558 -29.942567944446637 0 0 0 0 -26.612512583924399 42.470930025039706 0 42.470930025039706 -22.062724745279411 0 0 0 0 -13.513225854636403 66.912737743947218 0 66.912737743947218 -14.448187121419323 0 0 0 0 -45.543922767468757 45.511843974677959 0 45.511843974677959 -22.259446347259654 0 0 0 0 -48.042067564376339 40.434396628250397 0 40.434396628250397 -20.277106559013191 0 0 0 0 -51.259527180096484 63.290802562922181 0 63.290802562922181 6.1066836644677096 0 0 0 0 -55.453246764504001 49.096141850419372 0 49.096141850419372 -21.203550361226917 0 0 0 0 -49.954533092924976 42.639453355035585 0 42.639453355035585 -14.463663949412876 0 0 0 0 -59.654392128826316 27.12001303296438 0 27.12001303296438 -10.098587525363978 0 0 0 0 -20.570901838140685 21.019814987433818 0 21.019814987433818 -13.634634234240934 0 0 0 0 -50.014823509147391 40.088050181781 0 40.088050181781 -19.776761761728267 0 0 0 0 -8.5497912192367949 20.338058586115949 0 20.338058586115949 -17.654844657410649 0 0 0 0 -16.848400765010865 11.165254535567193 0 11.165254535567193 -6.7033144899824819 0 0 0 0 114.02816473937128 149.82927542149628 0 149.82927542149628 141.66000052040636 0 0 0 0 -108.15605577318638 198.62864972306397 0 198.62864972306397 550.42481278890409 0 0 0 0 -0.0061048995010200566 9.4487794828378799 0 9.4487794828378799 -11.174136005865876 0 0 0 0 -0.38487842937462347 7.1669529982561642 0 7.1669529982561642 -7.3007895712630528 0 0 0 0 -4.0558913682179991 13.166928526763513 0 13.166928526763513 -22.388332077489395 0 0 0 0 0.20280155698583258 -0.67058999897501081 0 -0.67058999897501081 -14.084314137501003 0 0 0 0 0.027601316116226727 15.80140491322849 0 15.80140491322849 -22.152093142889498 0 0 0 0 -13.167375522025395 17.553072879742103 0 17.553072879742103 -19.298151083821722 0 0 0 0 7.8521210182267964 6.620338392997553 0 6.620338392997553 -18.473026330102073 0 0 0 0 6.4700683771840204 11.118503961321778 0 11.118503961321778 -14.854130425250759 0 0 0 0 -12.083032963932624 9.5804072536463423 0 9.5804072536463423 10.541374243646018 0 0 0 0 -25.389758423552848 35.411839076681645 0 35.411839076681645 -47.526453957681952 0 0 0 0 2.3661317654623417 24.234913454056368 0 24.234913454056368 -19.969219305254228 0 0 0 0 5.9011081845544879 23.574350683268705 0 23.574350683268705 -29.591227833812326 0 0 0 0 -180.17840658665227 46.398316395905567 0 46.398316395905567 97.426308499372681 0 0 0 0 -108.25765565376787 67.733707098926971 0 67.733707098926971 -14.039601054095328 0 0 0 0 -19.469231123082864 286.43591051387739 0 286.43591051387739 109.30037385627656 0 0 0 0 147.81398449109111 120.23471571004848 0 120.23471571004848 -7.2389682463199279 0 0 0 0 0.56729577529596042 -0.69928522316845942 0 -0.69928522316845942 5.0177043681385385 0 0 0 0 -160.40736536528857 111.06679864154648 0 111.06679864154648 -6.4399532860988984 0 0 0 0 -105.02653149032267 110.75337844183014 0 110.75337844183014 -100.17876839327801 0 0 0 0 -137.12057867693511 97.692220135531898 0 97.692220135531898 -73.498965498787584 0 0 0 0 -108.52541554106574 75.954138699853502 0 75.954138699853502 -8.7741660066621989 0 0 0 0 -14.274974199830012 13.378864070288301 0 13.378864070288301 6.9815217629610515 0 0 0 0 -74.908375832659658 78.954776334325288 0 78.954776334325288 -17.435433559090598 0 0 0 0 -128.90312381737749 94.935756585862691 0 94.935756585862691 -13.317882745737734 0 0 0 0 -45.919611134152575 61.817923625840251 0 61.817923625840251 -21.728933837517701 0 0 0 0 -86.637424464213836 102.82633777583396 0 102.82633777583396 -57.44535630246537 0 0 0 0 -80.218560535591678 78.170322628924623 0 78.170322628924623 -8.6275390969021828 0 0 0 0 -108.54816350094916 87.104404479116056 0 87.104404479116056 -19.263442919886074 0 0 0 0 -96.983415628659714 107.68167552138402 0 107.68167552138402 10.662018829534645 0 0 0 0 -126.13249752773845 183.09417779770774 0 183.09417779770774 -95.360246893455042 0 0 0 0 -101.94835358239652 137.08160392883474 0 137.08160392883474 -10.351719464459165 0 0 0 0 -21.596014028658828 105.53829302018494 0 105.53829302018494 -41.954999046989542 0 0 0 0 -39.557216087676352 110.13753700448069 0 110.13753700448069 -94.726376885184436 0 0 0 0 -38.999597433299641 95.479129147974163 0 95.479129147974163 -26.819432620752195 0 0 0 0 -8.4293450427758216 52.466771797029651 0 52.466771797029651 -33.888714762229938 0 0 0 0 -4.7765407245969982 59.946103819511336 0 59.946103819511336 -36.913489863320137 0 0 0 0 15.51845777815322 35.814518708015584 0 35.814518708015584 7.0122051710795574 0 0 0 0 2.3245129940623883 26.346658232789196 0 26.346658232789196 -21.260227931074041 0 0 0 0 -64.377273937279824 126.73878907323524 0 126.73878907323524 -105.34622131912693 0 0 0 0 3.0812376954118577 30.657122721519897 0 30.657122721519897 5.3748444181282258 0 0 0 0 -65.322588535980685 123.66039130755962 0 123.66039130755962 -101.45422057549149 0 0 0 0 15.847792207214241 12.324109837474424 0 12.324109837474424 0.087548299442104849 0 0 0 0 36.554921523136727 174.11019922117157 0 174.11019922117157 -353.80133114304044 0 0 0 0 -15.073731066816549 7.8628215740543794 0 7.8628215740543794 4.5562858682307468 0 0 0 0 -135.05456808824601 229.28206749322271 0 229.28206749322271 197.25811772652378 0 0 0 0 -284.33458095136666 -23.164825584217397 0 -23.164825584217397 202.00116914384853 0 0 0 0 160.26809299131855 345.64292004784511 0 345.64292004784511 -263.24538205027784 0 0 0 0 36.100934412083006 258.33651419107446 0 258.33651419107446 -927.29252119178273 0 0 0 0 -101.94246679227217 83.710002588824864 0 83.710002588824864 -315.88880077980684 0 0 0 0 -5.0936358979269016 0.39119457982504002 0 0.39119457982504002 -0.98530247970405771 0 0 0 0 -74.360241260931161 -59.836927792046509 0 -59.836927792046509 167.86775089331059 0 0 0 0 16.149748097333941 24.347364124048909 0 24.347364124048909 58.083273805001227 0 0 0 0 -70.886127501944429 143.0508291494516 0 143.0508291494516 41.152133369468515 0 0 0 0 29.503934443875039 26.695702340765052 0 26.695702340765052 13.867475856290383 0 0 0 0 11.427224880244466 44.423730971055193 0 44.423730971055193 52.687340488213522 0 0 0 0 35.233448129918543 4.5066980235496885 0 4.5066980235496885 118.30970515665831 0 0 0 0 17.538612666109941 15.89037745233145 0 15.89037745233145 13.464848690975401 0 0 0 0 -2.295472756606614 -27.577286478355745 0 -27.577286478355745 224.35901203203684 0 0 0 0 -4.5224720610567601 58.279888644035964 0 58.279888644035964 28.562416842555194 0 0 0 0 -11.745276226538408 49.172416487424925 0 49.172416487424925 19.313158958466374 0 0 0 0 27.304026600679208 35.969187415925262 0 35.969187415925262 26.295450706958945 0 0 0 0 -10.737160251941532 83.721825201857428 0 83.721825201857428 67.157259706575132 0 0 0 0 13.757901880468125 44.094172567005444 0 44.094172567005444 47.39885345978837 0 0 0 0 -2.9582800711505115 81.115618193274713 0 81.115618193274713 5.3928874611592619 0 0 0 0 -6.6085554687015247 61.674650550492515 0 61.674650550492515 34.789691734729786 0 0 0 0 -31.040618699829793 75.246639249722648 0 75.246639249722648 11.024539377569454 0 0 0 0 -3.8864147343556397 56.393722274289757 0 56.393722274289757 11.733278501124005 0 0 0 0 -19.233031434268923 84.801098367053783 0 84.801098367053783 12.519664686811893 0 0 0 0 -77.876674685467151 91.441379351537762 0 91.441379351537762 -1.1828340419888264 0 0 0 0 -26.302815658782492 66.403994770931604 0 66.403994770931604 -34.249129916381207 0 0 0 0 -25.239488820079714 75.057338681446709 0 75.057338681446709 3.8131006987823639 0 0 0 0 -30.315805728474515 121.58669401155203 0 121.58669401155203 -31.006839500565547 0 0 0 0 -2.9032010442897445 106.42561727570137 0 106.42561727570137 7.6893538787371654 0 0 0 0 -22.104395604954334 103.17024109644262 0 103.17024109644262 10.286794688683585 0 0 0 0 -0.24004402811260661 114.40905999216466 0 114.40905999216466 12.313165194660542 0 0 0 0 3.3554446436901344 107.42180256201027 0 107.42180256201027 9.6982821483543376 0 0 0 0 -5.6763733787811361 112.04376403951028 0 112.04376403951028 8.5578438566299155 0 0 0 0 3.2507724237075308 88.736548227570893 0 88.736548227570893 22.24326328875577 0 0 0 0 14.630055267407442 122.25784937969729 0 122.25784937969729 -3.7830763225865667 0 0 0 0 18.796441965874692 101.85790092317075 0 101.85790092317075 -20.954631859247456 0 0 0 0 -22.614500991199748 81.922365123387863 0 81.922365123387863 19.156334545623395 0 0 0 0 -27.194577023408783 103.90210744181331 0 103.90210744181331 15.090432407560002 0 0 0 0 -29.022246744136282 59.42021743086525 0 59.42021743086525 213.60696352679224 0 0 0 0 -20.357520222387393 107.25079606924191 0 107.25079606924191 106.00898431529868 0 0 0 0 -1.3628448986419244 96.890807126972504 0 96.890807126972504 68.531320609952672 0 0 0 0 -12.749409833893878 153.61912796235265 0 153.61912796235265 52.655331891137394 0 0 0 0 -6.9831040138815297 111.17934577076812 0 111.17934577076812 36.759166284755338 0 0 0 0 14.926267081522383 124.19527211163586 0 124.19527211163586 -27.912104043949512 0 0 0 0 23.303719878895208 130.1877789631053 0 130.1877789631053 -41.215629454294685 0 0 0 0 16.458319112454774 110.09783874430468 0 110.09783874430468 -82.513163287032512 0 0 0 0 13.450097961322172 144.11125150090811 0 144.11125150090811 -155.26083880858414 0 0 0 0 2.0308056084613781 181.1740106276593 0 181.1740106276593 -26.977155639382545 0 0 0 0 4.3674970504753219 154.58761270163131 0 154.58761270163131 -87.51982590307307 0 0 0 0 -14.407780797751911 128.72741775963368 0 128.72741775963368 -82.810777625796618 0 0 0 0 -104.18166488943098 212.97063964606059 0 212.97063964606059 205.76571773239993 0 0 0 0 -261.07753948402387 10.002609648536236 0 10.002609648536236 -185.43944135126367 0 0 0 0 131.02176212749328 171.1180407486172 0 171.1180407486172 -251.70955532106018 0 0 0 0 34.332824992350652 50.770773082542291 0 50.770773082542291 169.46497037340214 0 0 0 0 5.5306960385768491 5.8825793041598047 0 5.8825793041598047 4.9121247211125194 0 0 0 0 -55.352851707561058 -152.28970149449015 0 -152.28970149449015 876.26679670089106 0 0 0 0 -14.556451805867255 501.68435864636558 0 501.68435864636558 574.24583858645201 0 0 0 0 411.17830532277003 -213.57025530441206 0 -213.57025530441206 -1104.7848698884482 0 0 0 0 597.01938128456823 608.12618815271344 0 608.12618815271344 -681.05219791598211 0 0 0 0 3.0702414268234861 -54.396394293209596 0 -54.396394293209596 114.97527642105706 0 0 0 0 -130.87519915612938 225.71964600909996 0 225.71964600909996 -422.71995116932248 0 0 0 0 -280.35367554384993 364.8053335330809 0 364.8053335330809 -39.316803533722123 0 0 0 0 -406.30437371617154 216.12356085847205 0 216.12356085847205 55.201613417630142 0 0 0 0 -276.73729635079508 437.18913833544138 0 437.18913833544138 401.29343810358841 0 0 0 0 339.03789090511418 378.74056611892229 0 378.74056611892229 -314.40250723886857 0 0 0 0 201.81344379884831 556.93166554524942 0 556.93166554524942 -196.34977194563908 0 0 0 0 -651.4678233265804 590.24226042398732 0 590.24226042398732 -68.371849078044761 0 0 0 0 -503.25049388527987 299.47647296056311 0 299.47647296056311 4.5408471192495199 0 0 0 0 -174.07728632177532 149.62840307801343 0 149.62840307801343 52.573652044498886 0 0 0 0 -37.538906644578674 574.56496650844201 0 574.56496650844201 72.403111401257775 0 0 0 0 -368.56425684515852 287.61609332376065 0 287.61609332376065 -142.71517380294426 0 0 0 0 -370.31854429725354 185.40883903486065 0 185.40883903486065 -21.839283261480887 0 0 0 0 213.93856810015859 545.27003898169278 0 545.27003898169278 -436.3295450757978 0 0 0 0 -56.895825374740525 -37.426473010240443 0 -37.426473010240443 -40.649709264530316 0 0 0 0 362.97538929783332 492.69564199822707 0 492.69564199822707 -193.94992914806062 0 0 0 0 -12.988745048812916 14.399337113177765 0 14.399337113177765 -14.178687156930039 0 0 0 0 -250.27664827959234 10.440891443097826 0 10.440891443097826 -20.581316392839653 0 0 0 0 -200.31160682115296 113.56362570951387 0 113.56362570951387 -39.064740813853859 0 0 0 0 -137.71534771980077 111.19334059800167 0 111.19334059800167 -114.82679938404544 0 0 0 0 -550.30001839976467 95.759686172998045 0 95.759686172998045 25.351491183027974 0 0 0 0 -450.13051632653514 341.02966209920487 0 341.02966209920487 -300.74068184361204 0 0 0 0 -425.90260516708804 349.94165234199863 0 349.94165234199863 -299.64105180068873 0 0 0 0 -630.87342618090042 376.20479572251224 0 376.20479572251224 -37.129336386053183 0 0 0 0 -535.85740053863265 374.74242909120585 0 374.74242909120585 -39.612605131685996 0 0 0 0 -387.03564032862778 643.07645008811778 0 643.07645008811778 -649.59815297731257 0 0 0 0 -86.997560261486797 -100.10068094276357 0 -100.10068094276357 774.25950246723551 0 0 0 0 -6.5957689199605625 -0.9162524095034712 0 -0.9162524095034712 -0.21244345046153512 0 0 0 0 30.876054920488968 -53.433614558722184 0 -53.433614558722184 438.7415285548559 0 0 0 0 11.330329740976595 -53.467560902123296 0 -53.467560902123296 630.60856995049107 0 0 0 0 -201.35742653696798 286.27184872472571 0 286.27184872472571 -304.26453097235571 0 0 0 0 -262.58706316459575 95.110181918640137 0 95.110181918640137 -42.952783398461179 0 0 0 0 -18.78500406672822 -3.0691434123162935 0 -3.0691434123162935 0.91816673689746864 0 0 0 0 -14.111870839216863 -38.581229072042333 0 -38.581229072042333 435.06930837330765 0 0 0 0 -22.91126076218643 -71.270863601443125 0 -71.270863601443125 316.28118798921059 0 0 0 0 -171.15941169884172 37.650125901753199 0 37.650125901753199 429.44545217862833 0 0 0 0 -173.11231897895959 114.26818680073541 0 114.26818680073541 241.08423429977847 0 0 0 0 -90.726599695713958 41.554838226744323 0 41.554838226744323 275.32721425748605 0 0 0 0 -16.940207173734962 8.5940777132436779 0 8.5940777132436779 -26.042276260261133 0 0 0 0 -67.367125340329949 39.186059874766215 0 39.186059874766215 198.83500019501844 0 0 0 0 -90.757353009670624 14.976865139131405 0 14.976865139131405 207.34952902765508 0 0 0 0 -31.925547824409648 0.51747478715680018 0 0.51747478715680018 -4.3179873041838803 0 0 0 0 -12.559401385631645 269.50462192507985 0 269.50462192507985 -190.41813252989959 0 0 0 0 -297.15548524296901 207.83867406154877 0 207.83867406154877 -229.00678976905056 0 0 0 0 -7.4186965693176603 62.376012371162389 0 62.376012371162389 -75.13292168925112 0 0 0 0 -159.0326369744871 288.9343911848955 0 288.9343911848955 -176.52241775105358 0 0 0 0 -156.94619416671048 334.37556230538394 0 334.37556230538394 11.856705601749127 0 0 0 0 -123.2398799949442 215.64927601766249 0 215.64927601766249 138.05425217176526 0 0 0 0 -118.79130642002565 119.94343184315949 0 119.94343184315949 229.88320642929466 0 0 0 0 -153.07353654179315 215.81800398546693 0 215.81800398546693 160.29895358158683 0 0 0 0 -147.08241266485311 176.86128899159439 0 176.86128899159439 185.28456669133448 0 0 0 0 -234.50800157236517 194.10619385990867 0 194.10619385990867 337.09715705788403 0 0 0 0 -193.79109051353589 300.010841946234 0 300.010841946234 171.6843748188694 0 0 0 0 -3.5598154226900078 -210.56812563351559 0 -210.56812563351559 275.9808670372513 0 0 0 0 -9.9595810174625967 5.7570195606769943 0 5.7570195606769943 28.151458009669682 0 0 0 0 -320.08874209382338 490.75832981645362 0 490.75832981645362 555.01663595264654 0 0 0 0 -98.278738214910845 -24.50891520938967 0 -24.50891520938967 683.00896769242536 0 0 0 0 57.219867430067097 83.681478027345293 0 83.681478027345293 524.42666212664335 0 0 0 0 -341.45293782852241 351.591289546182 0 351.591289546182 -422.40068945476651 0 0 0 0 -225.69004437797412 416.04387188906549 0 416.04387188906549 -623.49562236624161 0 0 0 0 -18.231374659321489 66.230460104064946 0 66.230460104064946 48.256549211487936 0 0 0 0 -174.56278559906059 135.53587706811959 0 135.53587706811959 188.11412847252359 0 0 0 0 -36.919490567846879 450.05093752890571 0 450.05093752890571 -422.65447964421764 0 0 0 0 -160.61459577290225 267.28653711129073 0 267.28653711129073 -521.14307510083563 0 0 0 0 -36.361661332921358 78.42767606444977 0 78.42767606444977 582.76830913357844 0 0 0 0 -39.027957268939645 68.979803111978072 0 68.979803111978072 698.81300867327082 0 0 0 0 -64.432611820084276 -221.46819205715292 0 -221.46819205715292 1031.1842956785986 0 0 0 0 23.901240397506626 -181.32878798774254 0 -181.32878798774254 577.7027361993969 0 0 0 0 -431.10354675077542 37.663739515388443 0 37.663739515388443 770.16077659193252 0 0 0 0 -187.63892073974421 16.377412559944787 0 16.377412559944787 -313.54228370888541 0 0 0 0 0.24654857171253752 -0.12012226945711291 0 -0.12012226945711291 0.064019307867653197 0 0 0 0 -38.758863692374632 56.664650783854484 0 56.664650783854484 60.867567593886143 0 0 0 0 -116.85834989414434 397.84357000989939 0 397.84357000989939 -728.44309892682531 0 0 0 0 -122.39958304227184 240.81789852801455 0 240.81789852801455 -662.90345032801861 0 0 0 0 -155.44748165411875 308.10875370273106 0 308.10875370273106 -505.50796038219494 0 0 0 0 -281.38550579477305 398.17786055510135 0 398.17786055510135 -568.01273578519431 0 0 0 0 -155.20773302088492 272.9401339933911 0 272.9401339933911 -364.7905103441617 0 0 0 0 20.575738731917227 187.7740731037311 0 187.7740731037311 -353.46074353088125 0 0 0 0 -24.905424951444729 206.36738190195638 0 206.36738190195638 -505.28701609711334 0 0 0 0 -23.942639571774635 161.56707660668167 0 161.56707660668167 -427.65053121585788 0 0 0 0 -119.89463247248204 205.74019828514838 0 205.74019828514838 -261.34223296704204 0 0 0 0 -163.03843826626689 200.88922602845423 0 200.88922602845423 -410.87523644615703 0 0 0 0 -59.099267081764992 264.60051415701764 0 264.60051415701764 -585.17639058371788 0 0 0 0 -218.79977360948396 343.89044640545353 0 343.89044640545353 -555.4166816643592 0 0 0 0 -217.12114904480404 162.9583739626155 0 162.9583739626155 -280.59405049958059 0 0 0 0 -198.16066701232921 274.86065235910291 0 274.86065235910291 -496.89786837786369 0 0 0 0 -167.07637992029777 164.4788897678668 0 164.4788897678668 -380.34728550251452 0 0 0 0 -130.07713646033517 96.164907910286274 0 96.164907910286274 -346.40304658813238 0 0 0 0 -23.766500073368661 227.41199337162288 0 227.41199337162288 -306.80328094767106 0 0 0 0 -84.633190776752599 65.074717732538602 0 65.074717732538602 -342.46935530771498 0 0 0 0 -88.302144868095638 20.058744270356328 0 20.058744270356328 -554.36794136609467 0 0 0 0 -260.57568577461643 349.21576637597536 0 349.21576637597536 -473.02490652009374 0 0 0 0 -194.54986005727551 210.86137663274349 0 210.86137663274349 -404.70244495060979 0 0 0 0 -190.09009336635245 173.4134753990588 0 173.4134753990588 -128.84575363338899 0 0 0 0 13.886377839039028 52.454859295402855 0 52.454859295402855 -84.652208396012895 0 0 0 0 -32.278667973092524 -148.47155929034489 0 -148.47155929034489 -135.96700682149185 0 0 0 0 -454.39077517692931 -25.521127979580342 0 -25.521127979580342 43.798740946274847 0 0 0 0 -264.47588915843517 12.2002684191757 0 12.2002684191757 43.564782429471961 0 0 0 0 -528.06645005447353 331.07051882874657 0 331.07051882874657 -206.0602425504876 0 0 0 0 1.2416678901200839 2.7807792080181457 0 2.7807792080181457 5.2902004688805278 0 0 0 0 -182.95413150163404 46.180977892146984 0 46.180977892146984 -246.16182383483101 0 0 0 0 410.46776974660497 274.21357558395948 0 274.21357558395948 123.76657603106287 0 0 0 0 -87.017758624744602 614.63345590805329 0 614.63345590805329 66.461085692718711 0 0 0 0 -129.41272658527305 75.638159138950869 0 75.638159138950869 411.70764127450821 0 0 0 0 -531.60878090992628 287.0353610765269 0 287.0353610765269 612.67282676734612 0 0 0 0 -2.5341159970791409 1.2552168592481223 0 1.2552168592481223 1.1464201973117127 0 0 0 0 -27.887995166369365 45.62743686551039 0 45.62743686551039 413.76169216907147 0 0 0 0 -68.234921659217434 349.28003012703402 0 349.28003012703402 -263.76484518031066 0 0 0 0 -15.755625688834698 56.500857155449921 0 56.500857155449921 36.198437367815131 0 0 0 0 -10.988595615715894 31.512199469552797 0 31.512199469552797 76.873142690506938 0 0 0 0 -7.9112393130261296 1.0129403667634733 0 1.0129403667634733 8.5518808383714315 0 0 0 0 -95.234629044098256 175.43669176711774 0 175.43669176711774 -113.55344627114391 0 0 0 0 -88.810886484017828 465.64789311341792 0 465.64789311341792 -825.47867361455383 0 0 0 0 -133.47263159661088 58.945723337266827 0 58.945723337266827 -213.93888961954326 0 0 0 0 -56.626673949645294 50.038786631413316 0 50.038786631413316 56.462465736587191 0 0 0 0 -16.199402726779226 303.24527287433739 0 303.24527287433739 -608.74649705670777 0 0 0 0 -280.53180670554866 293.86092796909452 0 293.86092796909452 -666.51216824690027 0 0 0 0 -11.282699423609301 366.87039579886687 0 366.87039579886687 -646.82936542943025 0 0 0 0 24.719942154450109 237.71941555362355 0 237.71941555362355 -440.61205595311168 0 0 0 0 -164.18236744729802 329.40442292416446 0 329.40442292416446 -439.46971208451305 0 0 0 0 -77.451714767171836 44.383836256391021 0 44.383836256391021 57.248017558643909 0 0 0 0 -282.52905277803075 468.25546341437871 0 468.25546341437871 -679.01136564249373 0 0 0 0 -321.29013436411697 483.01435076486206 0 483.01435076486206 -536.89662151100674 0 0 0 0 -285.86351188106346 486.75846946536149 0 486.75846946536149 -540.3805712737294 0 0 0 0 -185.83012208982836 339.2176334098549 0 339.2176334098549 -490.82022958307016 0 0 0 0 -194.23688419724931 558.8055653737274 0 558.8055653737274 -503.41920736736574 0 0 0 0 -575.11555389370187 311.2045215098251 0 311.2045215098251 -640.454759661975 0 0 0 0 -1168.5847025314288 384.38718104513282 0 384.38718104513282 -216.50181469958989 0 0 0 0 -105.58895145828137 102.4413521960596 0 102.4413521960596 -106.59238373622065 0 0 0 0 -244.50933042464021 141.04760842182441 0 141.04760842182441 38.579775448117289 0 0 0 0 -59.570755296546849 -12.493610654528311 0 -12.493610654528311 110.53984774998389 0 0 0 0 -48.972831058812531 43.633835761172861 0 43.633835761172861 20.250014017013029 0 0 0 0 -211.1226520445307 48.23723649448948 0 48.23723649448948 34.755758081373642 0 0 0 0 -1.7449491056322515 6.3819672466721329 0 6.3819672466721329 16.732280726357999 0 0 0 0 -0.68573463641843091 -1.6267777378180881 0 -1.6267777378180881 7.9291857367967395 0 0 0 0 -304.28745161037659 135.90120688307798 0 135.90120688307798 -37.903571160590218 0 0 0 0 -281.45336216820579 220.68566473651299 0 220.68566473651299 266.89349741458318 0 0 0 0 -354.3826934305398 45.883658465583721 0 45.883658465583721 94.072662873222725 0 0 0 0 -304.81579592374942 103.80205500820023 0 103.80205500820023 134.85478622172377 0 0 0 0 -197.64441616917611 135.8544345791961 0 135.8544345791961 33.494104924509884 0 0 0 0 -206.60164471354801 162.43014831746405 0 162.43014831746405 35.294788762999815 0 0 0 0 -102.00216647828387 45.325315823058929 0 45.325315823058929 72.355831919663743 0 0 0 0 -175.99172639130848 145.46518025472324 0 145.46518025472324 26.763243510875327 0 0 0 0 -123.40562417004548 189.11678058034158 0 189.11678058034158 31.908101296895438 0 0 0 0 -7.2280352269881405 136.87380269123651 0 136.87380269123651 289.80266732679775 0 0 0 0 -489.22155635491072 109.38186946372161 0 109.38186946372161 290.93802429062634 0 0 0 0 23.836288444756065 402.96369252484692 0 402.96369252484692 163.55936026075869 0 0 0 0 -684.29862289136508 250.66550745630047 0 250.66550745630047 131.49651675485438 0 0 0 0 -578.6250900143641 384.72580598744025 0 384.72580598744025 -16.749259525629896 0 0 0 0 -1058.6525297481567 70.338968746640603 0 70.338968746640603 99.276662936268622 0 0 0 0 -224.71618540438067 141.79187211242379 0 141.79187211242379 59.547352059033074 0 0 0 0 -509.19187935779337 -106.21252396251475 0 -106.21252396251475 -154.78854791960839 0 0 0 0 -759.16246387225692 207.7336144241799 0 207.7336144241799 -180.97024960916156 0 0 0 0 -365.25006491984823 -72.749879149970184 0 -72.749879149970184 -251.49522468413124 0 0 0 0 -1042.2717400638503 115.24195340903134 0 115.24195340903134 -149.97769043999506 0 0 0 0 -953.17266148321505 513.5969458576792 0 513.5969458576792 -337.69597414833697 0 0 0 0 -634.58193242317066 452.75128432506608 0 452.75128432506608 -1378.0514699600171 0 0 0 0 -682.43541593669215 333.99865773197598 0 333.99865773197598 -640.20214122164543 0 0 0 0 -1105.1216264462309 201.77126283814641 0 201.77126283814641 -327.93836238088261 0 0 0 0 -1912.7558080094605 199.72181522807477 0 199.72181522807477 -24.732814376717215 0 0 0 0 -1151.1113776530765 287.06578490037828 0 287.06578490037828 129.08792572279526 0 0 0 0 1173.2931147751515 1843.7177668791328 0 1843.7177668791328 406.81408654770894 0 0 0 0 -2449.76761126364 -487.67324105658918 0 -487.67324105658918 30.912541685127508 0 0 0 0 -8.2581989275857666 8.7913679033748053 0 8.7913679033748053 -5.2018855390815659 0 0 0 0 -2632.3578235591558 869.10081865803659 0 869.10081865803659 -36.905084088989497 0 0 0 0 -395.88155877735699 1831.1045473439117 0 1831.1045473439117 1023.7547097579045 0 0 0 0 571.28284832098871 1405.6105743430085 0 1405.6105743430085 315.2026979209877 0 0 0 0 -441.23242938243493 810.6049848831035 0 810.6049848831035 8.9228062787260569 0 0 0 0 -23.652577342021317 21.232058065024091 0 21.232058065024091 -2.2762952489833488 0 0 0 0 245.7892353774514 852.49810123718453 0 852.49810123718453 -3.511703909804055 0 0 0 0 505.37315858915099 569.07513593775184 0 569.07513593775184 -9.2502624749176903 0 0 0 0 -1364.755271324233 1046.0475434725286 0 1046.0475434725286 253.13944866535894 0 0 0 0 289.2155326292559 246.74133605184943 0 246.74133605184943 130.70432720676581 0 0 0 0 -352.24646704387851 1296.1124433042605 0 1296.1124433042605 271.35231687328633 0 0 0 0 -390.57641771240742 1319.2722704034031 0 1319.2722704034031 396.21314860284838 0 0 0 0 -862.25482726452174 1245.6290382617008 0 1245.6290382617008 274.13873901664647 0 0 0 0 -701.05228926875861 1552.7432328732175 0 1552.7432328732175 287.54848984127057 0 0 0 0 219.09017190715531 1171.7504545657412 0 1171.7504545657412 288.86384259238184 0 0 0 0 -504.61209526774473 1123.0802031286712 0 1123.0802031286712 833.19495831392123 0 0 0 0 -2480.0782282819273 -114.9825054878529 0 -114.9825054878529 1200.8354758145797 0 0 0 0 -407.09474308189237 1634.3257894684575 0 1634.3257894684575 277.42777051129451 0 0 0 0 -1662.4612756659044 662.6170625290406 0 662.6170625290406 781.70949704965096 0 0 0 0 -135.89914382749703 551.85728024237324 0 551.85728024237324 191.40119285881701 0 0 0 0 -451.66727349959547 784.65056237811677 0 784.65056237811677 -49.560942130425246 0 0 0 0 -588.76512770199406 811.1311028301219 0 811.1311028301219 -48.369503228968824 0 0 0 0 -22.306945999531308 680.91371019123289 0 680.91371019123289 -209.56273640679501 0 0 0 0 -89.939938008232275 304.4234039699686 0 304.4234039699686 -186.02966628426111 0 0 0 0 -605.65237142922888 413.70433776513698 0 413.70433776513698 -319.89619306743043 0 0 0 0 31.880551361100515 429.161017266003 0 429.161017266003 -454.78119609037276 0 0 0 0 -5.8023379323713016 471.72839833194848 0 471.72839833194848 7.317862704021536 0 0 0 0 -120.1351727504516 237.01944962678635 0 237.01944962678635 -168.3046649797252 0 0 0 0 -144.91672089204076 329.79108295826018 0 329.79108295826018 -217.11823446197923 0 0 0 0 215.29619081338751 299.92154153225238 0 299.92154153225238 -223.22024897843755 0 0 0 0 22.964228567187092 198.58621725665625 0 198.58621725665625 -168.95026994869841 0 0 0 0 -10.083831136507797 117.24968070432169 0 117.24968070432169 58.214528081645767 0 0 0 0 394.6182131181049 84.514247345839863 0 84.514247345839863 148.96166346977225 0 0 0 0 -37.79878537786135 234.12447837079799 0 234.12447837079799 125.66431948683703 0 0 0 0 312.57821345810953 558.10216469526404 0 558.10216469526404 310.02497615221 0 0 0 0 1559.6871647207736 1173.8931315967402 0 1173.8931315967402 136.50795593956263 0 0 0 0 359.49068532066303 1002.9086825481527 0 1002.9086825481527 176.33124717368628 0 0 0 0 318.03749144612812 996.21613429261924 0 996.21613429261924 246.13445579276595 0 0 0 0 412.40250382217346 297.69480826051313 0 297.69480826051313 75.710181351761094 0 0 0 0 499.55948646944307 683.47545610406451 0 683.47545610406451 883.33779673314257 0 0 0 0 1276.140651459742 178.3383441053121 0 178.3383441053121 320.84361828949841 0 0 0 0 553.33172274833851 560.4338137898792 0 560.4338137898792 -6.3402657006990921 0 0 0 0 -14.923533968481934 248.41101241691467 0 248.41101241691467 426.93824644751567 0 0 0 0 -818.98947823793424 -498.08252684233685 0 -498.08252684233685 -346.95347966944792 0 0 0 0 1048.6274264811218 935.0739842010471 0 935.0739842010471 318.22211851836619 0 0 0 0 -24.23836138231448 22.937656867104408 0 22.937656867104408 -7.7289314908289235 0 0 0 0 -768.25473560007231 -303.62757413417148 0 -303.62757413417148 -387.31821410521206 0 0 0 0 -692.35971254212564 -382.8517692494662 0 -382.8517692494662 -311.19708466956945 0 0 0 0 -908.97065912821563 -118.56381829514385 0 -118.56381829514385 -336.77169836130452 0 0 0 0 -827.04467723548441 449.1699544762555 0 449.1699544762555 -240.72234510141789 0 0 0 0 -1015.6000064091932 172.09619595065215 0 172.09619595065215 -538.05154006048997 0 0 0 0 -1190.1603125867114 275.13903287422954 0 275.13903287422954 -247.86834612162056 0 0 0 0 -1410.468291281737 -506.48834937680294 0 -506.48834937680294 -406.84123863337936 0 0 0 0 -212.96321065082884 173.2184707203819 0 173.2184707203819 217.22342543717696 0 0 0 0 -294.88027407596383 64.959222273796058 0 64.959222273796058 199.42388301032588 0 0 0 0 -23.736614401583211 245.09099157826631 0 245.09099157826631 -102.07396105527368 0 0 0 0 -169.03190705740417 160.45278023249011 0 160.45278023249011 -105.84479640027439 0 0 0 0 453.16025408930727 388.93104863112694 0 388.93104863112694 161.42630653664946 0 0 0 0 -150.02601674303151 315.53557805683613 0 315.53557805683613 245.79169924783855 0 0 0 0 -404.22290608930962 -125.42702970928809 0 -125.42702970928809 62.475814263501888 0 0 0 0 1.301502631666466 -0.54448191061689499 0 -0.54448191061689499 0.19005830318360495 0 0 0 0 51.64200770536263 123.80015700185822 0 123.80015700185822 -254.43472179882383 0 0 0 0 -95.414186807793158 72.692750269496628 0 72.692750269496628 41.404955632987367 0 0 0 0 -15.208496218758228 271.39474876831287 0 271.39474876831287 -114.31247654291474 0 0 0 0 -102.79149700744892 194.35444907343117 0 194.35444907343117 87.158338432382834 0 0 0 0 -13.609988816315308 125.36211294878922 0 125.36211294878922 97.574243040635793 0 0 0 0 -372.07199939983548 95.709174847382201 0 95.709174847382201 224.62892784996257 0 0 0 0 -169.45048237417359 106.95263004914705 0 106.95263004914705 35.420916169241536 0 0 0 0 2.977460480582522 195.65796931309978 0 195.65796931309978 79.781203800952426 0 0 0 0 241.63891445365152 212.8373818662244 0 212.8373818662244 -387.04025637278755 0 0 0 0 -0.11243493741221755 3.8441914464743299 0 3.8441914464743299 -0.093861530393811732 0 0 0 0 360.49508802109631 528.3889733650467 0 528.3889733650467 906.69751044069164 0 0 0 0 -135.61818423325894 1.6325819533205959 0 1.6325819533205959 18.172736071328472 0 0 0 0 -206.40349134573626 138.30462094107088 0 138.30462094107088 306.27466214619744 0 0 0 0 -3.4170427058537598 6.404608918726348 0 6.404608918726348 1.0769048335102855 0 0 0 0 81.770791504764929 68.674247859528805 0 68.674247859528805 260.86356665226265 0 0 0 0 -0.37984018624746341 -2.0595102949796882 0 -2.0595102949796882 5.9517365597304064 0 0 0 0 -72.029046191833913 38.722428332544951 0 38.722428332544951 -0.77824923355183273 0 0 0 0 -1.7992665001427213 1.8662734582773641 0 1.8662734582773641 2.28583526792064 0 0 0 0 -216.0976651877827 -84.204329627630841 0 -84.204329627630841 264.80559839664966 0 0 0 0 86.060358972295944 288.11044809963914 0 288.11044809963914 267.15598699284055 0 0 0 0 -371.48471230789437 292.51621954914754 0 292.51621954914754 358.10796119014776 0 0 0 0 -110.52504658172984 -13.686759392821841 0 -13.686759392821841 230.67200780984786 0 0 0 0 -0.75630036208261231 0.19153173034000304 0 0.19153173034000304 1.0794470515260386 0 0 0 0 39.221364501792777 275.74049889236238 0 275.74049889236238 349.88306193440076 0 0 0 0 17.456615346151011 69.283205463985269 0 69.283205463985269 316.09678868391893 0 0 0 0 80.899797108635539 93.188576933231161 0 93.188576933231161 282.33828508617353 0 0 0 0 412.14241419246537 260.6798512348787 0 260.6798512348787 202.3058686481927 0 0 0 0 72.254002992940514 138.30239070702044 0 138.30239070702044 416.2112171221579 0 0 0 0 69.06289053078217 42.746562800270112 0 42.746562800270112 326.81068795864485 0 0 0 0 83.289557811503983 309.05453415649498 0 309.05453415649498 734.94174925642437 0 0 0 0 616.98640743060969 410.47772722422451 0 410.47772722422451 289.70146754815232 0 0 0 0 397.77588686876697 310.87241240662843 0 310.87241240662843 279.15643088927027 0 0 0 0 394.31997307956772 635.44942541945375 0 635.44942541945375 237.40013325818973 0 0 0 0 711.24456515609199 523.03515540248054 0 523.03515540248054 186.72155423467848 0 0 0 0 -894.83608634222765 -378.51950045907552 0 -378.51950045907552 -39.245748307916983 0 0 0 0 -44.137513406946056 39.944561742639621 0 39.944561742639621 -11.457094607214486 0 0 0 0 587.85516474190808 199.66816228200719 0 199.66816228200719 -73.666931986403142 0 0 0 0 145.90779547501006 213.24015361709553 0 213.24015361709553 41.141085764014861 0 0 0 0 149.57546179519704 186.77848758323853 0 186.77848758323853 231.75199284897917 0 0 0 0 -398.03138801947352 641.81787903030272 0 641.81787903030272 -97.85183464398267 0 0 0 0 -306.54389018077927 -133.46423327249522 0 -133.46423327249522 -151.83164987368946 0 0 0 0 -386.40522773767998 -219.11992782584718 0 -219.11992782584718 -142.28616568594043 0 0 0 0 -168.25272105836484 77.723336696537444 0 77.723336696537444 6.1042142139885982 0 0 0 0 -373.0821631749277 185.47411253377231 0 185.47411253377231 74.106787779306615 0 0 0 0 -306.35491884025396 86.230312594756469 0 86.230312594756469 200.61485388450819 0 0 0 0 -821.94750056937119 60.629080316576506 0 60.629080316576506 -67.455418937825016 0 0 0 0 -201.80247964513546 141.28001376353677 0 141.28001376353677 -92.62511882938179 0 0 0 0 -696.4848943715333 -257.73214083505991 0 -257.73214083505991 -102.10761523999645 0 0 0 0 -605.42920435304404 -417.43493583664986 0 -417.43493583664986 -404.04991695212993 0 0 0 0 805.38991839597293 561.93188673888653 0 561.93188673888653 505.05572597047103 0 0 0 0 636.30980880717107 519.93903205380354 0 519.93903205380354 502.76326207056081 0 0 0 0 -34.624050506504148 31.077142676816806 0 31.077142676816806 -8.0961572060498455 0 0 0 0 -801.65696070154809 -565.90008876222919 0 -565.90008876222919 -216.54261303572639 0 0 0 0 -615.28905418314389 -249.28516990088701 0 -249.28516990088701 21.536250805189411 0 0 0 0 -583.6037095675274 -235.61192090841996 0 -235.61192090841996 -203.07843220006725 0 0 0 0 -453.38812973637687 -263.94748341875948 0 -263.94748341875948 106.53065895594045 0 0 0 0 -411.99154216633178 -202.9518294232048 0 -202.9518294232048 -256.67841284378403 0 0 0 0 -311.50222049528384 -238.41635669197785 0 -238.41635669197785 -191.98526941358023 0 0 0 0 -450.08985369034053 127.16844444272147 0 127.16844444272147 271.18313344719945 0 0 0 0 -80.632115223692381 31.440095147002012 0 31.440095147002012 -0.96275044951096334 0 0 0 0 -237.23586574423098 140.49614029683971 0 140.49614029683971 368.28759137843736 0 0 0 0 247.46662153850775 398.20994803988697 0 398.20994803988697 216.39805537594657 0 0 0 0 434.27747817095951 191.0354607639556 0 191.0354607639556 232.1120238884132 0 0 0 0 560.71993440062943 767.65946012512495 0 767.65946012512495 595.84720747751544 0 0 0 0 672.04415994560986 765.40251493090409 0 765.40251493090409 382.11235704635317 0 0 0 0 851.46344919424882 700.75544922641575 0 700.75544922641575 496.02063869927497 0 0 0 0 645.55010145562119 847.45837975354289 0 847.45837975354289 419.6687058852749 0 0 0 0 433.5140202712646 780.02066584929617 0 780.02066584929617 620.14455419103069 0 0 0 0 915.13312106290323 821.24975808193608 0 821.24975808193608 366.67900117500176 0 0 0 0 973.13597911603574 985.8541759614709 0 985.8541759614709 593.06904456680786 0 0 0 0 1167.9406855405978 736.45678546106683 0 736.45678546106683 473.52521533475738 0 0 0 0 485.96284059922618 705.41015146722884 0 705.41015146722884 254.28376026885235 0 0 0 0 110.15386306875735 457.78556767657574 0 457.78556767657574 368.04903609152638 0 0 0 0 -190.81582528151921 517.69418043736277 0 517.69418043736277 481.87173837183491 0 0 0 0 893.27322276608902 988.8242171680813 0 988.8242171680813 491.36980184545973 0 0 0 0 409.28979622747283 547.34999768032321 0 547.34999768032321 502.25263811206315 0 0 0 0 1179.1421389771131 1218.9557920664342 0 1218.9557920664342 457.82480830418717 0 0 0 0 450.88508344991715 597.74514177887886 0 597.74514177887886 509.40030353474884 0 0 0 0 548.16232025314821 636.94716065925786 0 636.94716065925786 -284.6285072980827 0 0 0 0 337.21586058659159 707.48302319110599 0 707.48302319110599 174.72165401271559 0 0 0 0 -181.10843241066323 175.62614141079302 0 175.62614141079302 21.839195557337916 0 0 0 0 -747.59027888329001 1846.7681405104545 0 1846.7681405104545 400.97134131505663 0 0 0 0 -82.666198416380212 1568.2882862372699 0 1568.2882862372699 351.7323274936773 0 0 0 0 525.02525525464443 1605.3918605849058 0 1605.3918605849058 674.96958414813935 0 0 0 0 3456.5858715916402 2043.632936888901 0 2043.632936888901 231.54724236790707 0 0 0 0 1020.5204716342269 873.40105055801223 0 873.40105055801223 -2.9346483194331086 0 0 0 0 1339.1662996858358 1032.7912604055728 0 1032.7912604055728 774.84376779074137 0 0 0 0 1808.5504691593014 579.06229712117147 0 579.06229712117147 480.05468048898183 0 0 0 0 -2209.3072106847103 730.61438671353812 0 730.61438671353812 21.685581443372939 0 0 0 0 -0.68754808759211983 5.6786794641210179 0 5.6786794641210179 0.99757334730613678 0 0 0 0 -207.05503254311043 635.78121601370822 0 635.78121601370822 -82.122210974544942 0 0 0 0 -207.41732791002141 371.2110474858473 0 371.2110474858473 58.603414075929322 0 0 0 0 -81.094174700643634 44.658555077250639 0 44.658555077250639 -24.047183117378154 0 0 0 0 -203.80003436896368 571.63169802825178 0 571.63169802825178 -152.05916371826061 0 0 0 0 -4.9373232132327303 13.580722606887036 0 13.580722606887036 7.1790805730506975 0 0 0 0 1983.4210645747953 1095.2580714046935 0 1095.2580714046935 310.46236326792769 0 0 0 0 -81.981021195213543 116.0924647126194 0 116.0924647126194 484.78206709923688 0 0 0 0 1509.9476342000708 619.52747923567085 0 619.52747923567085 301.59800955139144 0 0 0 0 -0.25949340370462437 20.578516124673996 0 20.578516124673996 17.460747349626459 0 0 0 0 718.45168642661883 496.1736369958121 0 496.1736369958121 294.89588221243002 0 0 0 0 57.371286161167518 40.227375894468423 0 40.227375894468423 35.359889832141562 0 0 0 0 121.36992851226387 -69.540078433871258 0 -69.540078433871258 -174.2803704942944 0 0 0 0 0.5636911645415239 13.783421486054067 0 13.783421486054067 -95.975772821384453 0 0 0 0 1.2162406080221331 4.0893160300466889 0 4.0893160300466889 -0.2252375758415468 0 0 0 0 1.0933952478808351 87.315998107554151 0 87.315998107554151 -115.80275076965518 0 0 0 0 -25.811326409311732 113.34845597283675 0 113.34845597283675 -140.99088637048584 0 0 0 0 -585.7035397948348 -324.88166565519896 0 -324.88166565519896 35.627312012717084 0 0 0 0 -11.959233252677279 11.543877635404527 0 11.543877635404527 3.8423941296329325 0 0 0 0 -177.81914098450216 191.11767962560407 0 191.11767962560407 -142.6401565321641 0 0 0 0 268.97024835643242 -5.796881891468729 0 -5.796881891468729 -259.58465599315059 0 0 0 0 -1136.4738499021041 1558.8258019574278 0 1558.8258019574278 1916.9439327995642 0 0 0 0 -591.12782264401903 116.27802145920248 0 116.27802145920248 -186.27586983656525 0 0 0 0 -1293.8723301124701 298.19457972892724 0 298.19457972892724 -106.11060848547572 0 0 0 0 -698.50242407331825 -1650.4515290730797 0 -1650.4515290730797 -281.76214712079764 0 0 0 0 1174.6480020128847 -149.33402643720456 0 -149.33402643720456 -1092.8114848026453 0 0 0 0 -2625.0267118042248 1175.1245916125145 0 1175.1245916125145 -472.82018938285 0 0 0 0 -0.51593974058387548 5.8428446550290403 0 5.8428446550290403 -22.815565756099883 0 0 0 0 627.43459234724287 361.63129213904358 0 361.63129213904358 -1376.1460687625658 0 0 0 0 -12.175873556232546 326.20551669516135 0 326.20551669516135 -563.5899460626124 0 0 0 0 144.25665196476621 159.00454599570003 0 159.00454599570003 -468.90067535554044 0 0 0 0 -205.64380824347609 440.22255974925611 0 440.22255974925611 -502.99235463272998 0 0 0 0 -386.01883539305709 828.12058538422502 0 828.12058538422502 -937.4187724447479 0 0 0 0 -397.86795179751061 542.48859187828191 0 542.48859187828191 -417.70594740247054 0 0 0 0 -1119.8612297627551 1147.7331916810303 0 1147.7331916810303 -920.76158950339232 0 0 0 0 -1112.8090806331602 1717.6441617494993 0 1717.6441617494993 -1802.6385830749291 0 0 0 0 -235.1259150816004 928.35330201577597 0 928.35330201577597 -1343.6761343320668 0 0 0 0 0.74899590364657342 714.92936672751057 0 714.92936672751057 -1097.2152591050208 0 0 0 0 -240.28643867147912 678.11608657418674 0 678.11608657418674 -948.26975884522631 0 0 0 0 128.69449372809322 -58.483181323547797 0 -58.483181323547797 -344.76954268307873 0 0 0 0 -53.066688814385998 843.45637959476971 0 843.45637959476971 -249.41899528865724 0 0 0 0 82.416208465496311 17.261228808523811 0 17.261228808523811 712.9197241878901 0 0 0 0 1156.8474558473681 527.6360542995335 0 527.6360542995335 848.74718394075262 0 0 0 0 -0.37882813718169928 621.62039723865928 0 621.62039723865928 1024.6847765130242 0 0 0 0 -436.85632138376241 1212.3231099641825 0 1212.3231099641825 -281.97147416996722 0 0 0 0 -618.9066245778231 2002.7660648244237 0 2002.7660648244237 -1005.0186037116646 0 0 0 0 125.93453586884425 1221.6244502254085 0 1221.6244502254085 -1771.020392900884 0 0 0 0 -377.08826611339464 892.33692766058812 0 892.33692766058812 -466.13571678747849 0 0 0 0 -212.37259198704851 64.125705968253897 0 64.125705968253897 -1891.371854689668 0 0 0 0 -1476.8297539011546 1255.2009376062738 0 1255.2009376062738 -3.9704020395511179 0 0 0 0 -105.76352611495531 986.48087162379488 0 986.48087162379488 32.463174717528091 0 0 0 0 -419.16603173817566 1264.9276899307624 0 1264.9276899307624 1053.406894802094 0 0 0 0 400.02155303675681 728.62040371588591 0 728.62040371588591 1241.5566285808354 0 0 0 0 -87.395729755342472 1125.1691051970492 0 1125.1691051970492 964.87171599892349 0 0 0 0 -738.27458353930706 1686.0477155458675 0 1686.0477155458675 827.61297345657476 0 0 0 0 -505.11244017306308 1311.0208999764509 0 1311.0208999764509 1711.7637786708565 0 0 0 0 -527.21856071866932 543.87867017701501 0 543.87867017701501 3101.2032967149689 0 0 0 0 58.490743289235979 346.89202121952439 0 346.89202121952439 1963.199953915884 0 0 0 0 -367.80976731704141 1266.3322865852942 0 1266.3322865852942 2400.5820815046463 0 0 0 0 1041.0263429999468 791.10334183172108 0 791.10334183172108 2364.1004071383868 0 0 0 0 10.979481446702266 794.671780437704 0 794.671780437704 2377.3386739483867 0 0 0 0 -336.69984828669112 -413.73808650693718 0 -413.73808650693718 6670.1160281543162 0 0 0 0 -101.92951285892923 1359.4755679929367 0 1359.4755679929367 3990.4255251917348 0 0 0 0 357.78221931844018 -441.82268082122573 0 -441.82268082122573 3897.3626628537322 0 0 0 0 -21.347027220530435 633.41769244059651 0 633.41769244059651 2324.7399338092896 0 0 0 0 43.462523781483355 24.974754568403341 0 24.974754568403341 11.763153804838499 0 0 0 0 -95.120625409646891 546.06777246127604 0 546.06777246127604 -453.75549154388864 0 0 0 0 7.353281949590496 8.9287074705105169 0 8.9287074705105169 7.7555277321237739 0 0 0 0 -309.30371202656534 447.67474180917634 0 447.67474180917634 -481.28610029481206 0 0 0 0 -153.47111509804381 534.49357785691245 0 534.49357785691245 -1578.6700348811537 0 0 0 0 -0.7731543453369909 8.0144454830047565 0 8.0144454830047565 5.3973787371296424 0 0 0 0 -146.1531962590816 477.64017988933483 0 477.64017988933483 -125.54115749491757 0 0 0 0 -379.53166016167961 579.01973176476349 0 579.01973176476349 78.681987815863977 0 0 0 0 -13.565531937405467 70.721728397769766 0 70.721728397769766 8.2924288102622086 0 0 0 0 -240.64560877530312 510.33847366069131 0 510.33847366069131 -301.9092717151143 0 0 0 0 -72.963344093259366 484.5634746354317 0 484.5634746354317 -468.60820747038451 0 0 0 0 -62.658189916866831 380.10296304491931 0 380.10296304491931 -289.92285522159364 0 0 0 0 -263.51031448038702 340.47135104197741 0 340.47135104197741 2919.8109996662015 0 0 0 0 -45.476051042525796 134.06712864576548 0 134.06712864576548 127.10311423478379 0 0 0 0 -17.815361801386132 10.955787445703706 0 10.955787445703706 7.0849257413295295 0 0 0 0 216.75475446003838 18.823993048133161 0 18.823993048133161 -158.12088688107542 0 0 0 0 17.923213452813798 301.01876973713297 0 301.01876973713297 1499.5642485240314 0 0 0 0 -66.002405572406133 515.82633031798377 0 515.82633031798377 2550.2045545818619 0 0 0 0 825.42631541288392 -217.46923407830286 0 -217.46923407830286 3087.5320810898229 0 0 0 0 1177.5473888242268 1997.9360455594433 0 1997.9360455594433 4687.0680181244679 0 0 0 0 350.18866224770318 595.17230318251495 0 595.17230318251495 458.30228833695946 0 0 0 0 1131.4736334893678 577.05968792310887 0 577.05968792310887 -1294.1921176704927 0 0 0 0 1048.3240779751604 2059.5820613882097 0 2059.5820613882097 2182.38799019406 0 0 0 0 -0.1410554371541366 610.8513272646187 0 610.8513272646187 1925.4956365523649 0 0 0 0 427.23711577588983 776.55128695215899 0 776.55128695215899 625.95546957085753 0 0 0 0 82.632059335985105 393.29057925838242 0 393.29057925838242 630.4783763233894 0 0 0 0 581.75746695086127 518.44279297709181 0 518.44279297709181 183.56596493328107 0 0 0 0 111.40276858188736 132.45974375401966 0 132.45974375401966 268.49380697441666 0 0 0 0 226.25857459304098 216.19122248639906 0 216.19122248639906 285.44543144242925 0 0 0 0 -13.214500725876235 8.8350140999934013 0 8.8350140999934013 5.5187422035286033 0 0 0 0 93.820205665040703 217.18316297083948 0 217.18316297083948 306.44649531604227 0 0 0 0 0.55147885120919282 252.21557848446014 0 252.21557848446014 393.40968824511947 0 0 0 0 -130.4435583802333 224.41126719386693 0 224.41126719386693 -88.447845216924179 0 0 0 0 -168.22156745110988 194.44522000810321 0 194.44522000810321 -4.654641549785083 0 0 0 0 -147.43608947350731 179.58161478664351 0 179.58161478664351 -16.858211540849879 0 0 0 0 -90.540128187771188 241.87178952270551 0 241.87178952270551 -339.08557566895797 0 0 0 0 -209.58422210605931 255.63853982709043 0 255.63853982709043 136.38954314295188 0 0 0 0 42.471477264363784 245.55712900116669 0 245.55712900116669 147.53526792306366 0 0 0 0 -163.22667957426165 116.18339260499852 0 116.18339260499852 179.99207275402659 0 0 0 0 -10.671935130492784 173.98746276169732 0 173.98746276169732 61.295007851244009 0 0 0 0 -107.56648815615335 39.74842862535661 0 39.74842862535661 210.9949451718312 0 0 0 0 -52.090154115605401 -12.473741613903258 0 -12.473741613903258 80.28971832255138 0 0 0 0 -89.846536309778458 186.91953662052401 0 186.91953662052401 247.69559613756064 0 0 0 0 -78.608460946506113 48.497541291524755 0 48.497541291524755 -12.951492662401726 0 0 0 0 -149.01448406332929 132.15599841382391 0 132.15599841382391 84.600009395209781 0 0 0 0 -113.02319827510291 83.867831371053398 0 83.867831371053398 36.417486514212214 0 0 0 0 -64.09890510546029 79.984590821462007 0 79.984590821462007 17.504534477793641 0 0 0 0 -38.841260525282735 77.095083363177565 0 77.095083363177565 -15.977608677607492 0 0 0 0 -69.485158945834939 69.309462308100521 0 69.309462308100521 -19.037088903217949 0 0 0 0 -93.565745149564464 155.40092816260949 0 155.40092816260949 -27.489323617675836 0 0 0 0 60.796097215714553 50.476555732127437 0 50.476555732127437 11.557624268809219 0 0 0 0 -292.95521135612216 357.70143566693878 0 357.70143566693878 -303.66279638665219 0 0 0 0 -3.0472415500378389 22.457543180246091 0 22.457543180246091 9.3149730501197041 0 0 0 0 -42.312544565764256 71.725821085900861 0 71.725821085900861 -321.49421476629504 0 0 0 0 -53.538698872260284 71.680604767767363 0 71.680604767767363 -46.160356947222681 0 0 0 0 -54.859573460824322 26.262087206804608 0 26.262087206804608 -86.777722012971935 0 0 0 0 -11.857655287865782 234.72782109268883 0 234.72782109268883 -128.67728534587513 0 0 0 0 -53.432902620207642 48.023069695578812 0 48.023069695578812 42.074959337586321 0 0 0 0 -21.321612233994529 196.94271609110729 0 196.94271609110729 -211.81604764783515 0 0 0 0 -55.126830329895085 43.999048421274424 0 43.999048421274424 31.822825955919679 0 0 0 0 -66.057138758697874 45.95442752864912 0 45.95442752864912 -14.593231838085906 0 0 0 0 -102.18394604340574 66.554180752897082 0 66.554180752897082 4.5191329326553387 0 0 0 0 -61.079730414285223 101.11054548417223 0 101.11054548417223 -24.942395482379652 0 0 0 0 -70.083129598468076 74.33382788374729 0 74.33382788374729 7.5423237604336464 0 0 0 0 -302.46565129683586 78.071335744883982 0 78.071335744883982 18.651226547022816 0 0 0 0 19.376541400706628 135.65652763837716 0 135.65652763837716 -296.44153276437282 0 0 0 0 7.4065801354866494 20.345157940875481 0 20.345157940875481 -14.946411620034954 0 0 0 0 -41.01435966698638 83.9179889718651 0 83.9179889718651 -87.441574415730685 0 0 0 0 -223.59438680426683 150.67067900231632 0 150.67067900231632 -151.09605166761321 0 0 0 0 -162.90509288408794 -163.46943268988343 0 -163.46943268988343 138.54390725599478 0 0 0 0 -145.61350143918389 176.9044818712573 0 176.9044818712573 -142.32123799360124 0 0 0 0 -111.62370888761754 45.626593886607097 0 45.626593886607097 56.462034939672336 0 0 0 0 -92.118128649955906 -182.60139844524019 0 -182.60139844524019 -116.55505063329656 0 0 0 0 -293.76284744290751 47.212650508428851 0 47.212650508428851 -88.384487308286111 0 0 0 0 56.81392311793752 99.068378212556127 0 99.068378212556127 -222.66975346639492 0 0 0 0 -130.66047002632695 -77.300130828136844 0 -77.300130828136844 -149.80282515250838 0 0 0 0 -88.431941759190522 80.939591758262395 0 80.939591758262395 -155.30688730399288 0 0 0 0 -30.744841735641515 22.746602548905599 0 22.746602548905599 -14.953039190101482 0 0 0 0 29.650360213796375 109.27560121229726 0 109.27560121229726 -101.69278184642644 0 0 0 0 13.726489092921838 83.927314703334559 0 83.927314703334559 27.914423443704436 0 0 0 0 34.843589712894754 -7.462904762416656 0 -7.462904762416656 -171.21014856265356 0 0 0 0 -278.19651480190805 177.6594825784764 0 177.6594825784764 503.30115499600288 0 0 0 0 -13.055003291879757 10.500879528144459 0 10.500879528144459 -0.7655292456940197 0 0 0 0 5.5593289599637501 53.611489512427852 0 53.611489512427852 148.17920627859712 0 0 0 0 445.85046884861367 170.77669683755357 0 170.77669683755357 164.34677195216682 0 0 0 0 -159.75687985257537 355.17552582078497 0 355.17552582078497 683.83121437002592 0 0 0 0 -4.6794702293324235 3.9880179450030626 0 3.9880179450030626 -0.86271151832374438 0 0 0 0 -333.04355005899561 -162.90392302852888 0 -162.90392302852888 736.96628998174742 0 0 0 0 -682.38566642315709 114.77799938138423 0 114.77799938138423 527.2556350252562 0 0 0 0 16.856719705596333 104.59937751356938 0 104.59937751356938 -1508.6032171194663 0 0 0 0 -474.41196021295036 668.0099609475667 0 668.0099609475667 -481.07805786804056 0 0 0 0 486.53634139124188 312.53723641755823 0 312.53723641755823 -791.50872752315172 0 0 0 0 436.65142148116138 519.99543973465552 0 519.99543973465552 -605.15784886312031 0 0 0 0 -114.96479161074967 308.3231401239002 0 308.3231401239002 -206.44799663103549 0 0 0 0 209.82164371199906 567.55460774757648 0 567.55460774757648 113.78448446642506 0 0 0 0 60.585208703385433 179.96635414831326 0 179.96635414831326 -305.49126891288233 0 0 0 0 75.807219694950618 677.18089514622898 0 677.18089514622898 935.29278368512178 0 0 0 0 -44.198637581517687 1252.9129304614466 0 1252.9129304614466 578.42094166985407 0 0 0 0 -104.78976497970871 826.28477247657929 0 826.28477247657929 1263.5834185493104 0 0 0 0 -23.228223408979829 1112.491288109778 0 1112.491288109778 1180.7602722034608 0 0 0 0 -41.294218375714991 924.85755925225465 0 924.85755925225465 1036.4460382767047 0 0 0 0 -19.140978780338628 12.476805941202354 0 12.476805941202354 0.29188029227011558 0 0 0 0 -202.98863581780461 122.85169853328262 0 122.85169853328262 561.87261428809143 0 0 0 0 -34.206286741886288 302.12566348449946 0 302.12566348449946 364.46235839260999 0 0 0 0 70.948996644117869 207.12745284036646 0 207.12745284036646 -161.26217648689089 0 0 0 0 5.6170182235946413 -11.008760727709159 0 -11.008760727709159 323.80686702810635 0 0 0 0 -134.31281296676025 248.27976126633439 0 248.27976126633439 -62.355167244462791 0 0 0 0 -305.18463222659193 115.20598627030085 0 115.20598627030085 229.12777975419158 0 0 0 0 -264.4447865007678 211.84669622476576 0 211.84669622476576 354.1034757992411 0 0 0 0 49.295858098177632 204.98385867545045 0 204.98385867545045 37.698962201226095 0 0 0 0 -112.48635636921972 -11.607888875521894 0 -11.607888875521894 -232.78904927223266 0 0 0 0 -393.22161735664122 18.479087464562326 0 18.479087464562326 803.08965288418585 0 0 0 0 43.262576401079968 40.608558723742135 0 40.608558723742135 -90.703007676853304 0 0 0 0 38.593846142175607 171.88639978782521 0 171.88639978782521 142.81738007265812 0 0 0 0 -140.40070150507381 60.287886355075898 0 60.287886355075898 245.82836523892547 0 0 0 0 143.12757133942796 29.650914665833625 0 29.650914665833625 -100.54614353054967 0 0 0 0 -4.2237857415059921 -3.6528720292734818 0 -3.6528720292734818 1.5202548488760428 0 0 0 0 84.387494653929025 -262.37973303781291 0 -262.37973303781291 690.57933839200268 0 0 0 0 502.53800482355291 62.032985467150866 0 62.032985467150866 140.42015560635173 0 0 0 0 -17.905070998990254 40.126272956188608 0 40.126272956188608 -22.616550250414658 0 0 0 0 -23.663932915258556 49.455821020962958 0 49.455821020962958 11.270866003634183 0 0 0 0 -0.80426702542899875 34.400930454929494 0 34.400930454929494 -20.8890919661157 0 0 0 0 -11.131576798893548 55.679328313755832 0 55.679328313755832 11.885700910788728 0 0 0 0 25.422347432391689 61.720696665977812 0 61.720696665977812 37.207559186368599 0 0 0 0 -40.847600692591485 33.305012404186478 0 33.305012404186478 3.0292639545858187 0 0 0 0 -0.063200827102731338 2.8821363799502322 0 2.8821363799502322 3.4906588746259786 0 0 0 0 12.986827504597223 40.570217078492149 0 40.570217078492149 -15.998273992915237 0 0 0 0 -0.20628177927937941 76.845889154359611 0 76.845889154359611 39.056625272249221 0 0 0 0 -35.326962774887171 24.415310033601767 0 24.415310033601767 12.693163669255846 0 0 0 0 5.390944842598401 66.254059837745444 0 66.254059837745444 26.367291303125967 0 0 0 0 -7.8667347388523652 68.761225070184622 0 68.761225070184622 -4.9269250177894506 0 0 0 0 -58.82298299815011 90.624739446267995 0 90.624739446267995 46.038513007160873 0 0 0 0 -96.476298089284683 67.998589507616998 0 67.998589507616998 77.076308287426059 0 0 0 0 0.1392104857150116 55.363344579496697 0 55.363344579496697 4.080466735365917 0 0 0 0 -14.482731089600776 67.07645950633821 0 67.07645950633821 -4.4186174864745915 0 0 0 0 -73.37361356609108 63.269523262408256 0 63.269523262408256 2.7773412508195179 0 0 0 0 -126.20242392677756 103.09202944366552 0 103.09202944366552 28.442878244180065 0 0 0 0 -10.971066852572193 57.109946156141405 0 57.109946156141405 8.8653339033027638 0 0 0 0 -92.984094645311416 111.20399820043622 0 111.20399820043622 2.7133789581785095 0 0 0 0 -154.56844016400646 58.258507168543474 0 58.258507168543474 5.8488934138149489 0 0 0 0 -91.606813181075267 83.212737568783268 0 83.212737568783268 10.230650663133929 0 0 0 0 -296.80257386036101 107.03681703978873 0 107.03681703978873 75.387813502508834 0 0 0 0 -187.81318354709947 206.53736818590187 0 206.53736818590187 -54.729600470309379 0 0 0 0 9.4250683868906862 18.103077300755167 0 18.103077300755167 -4.6486732403319335 0 0 0 0 -74.981210836675018 105.15786647993809 0 105.15786647993809 95.952036011204655 0 0 0 0 -96.218777753245377 73.997808991268357 0 73.997808991268357 49.153952409482372 0 0 0 0 -75.994733484083554 113.46316124172881 0 113.46316124172881 -24.855921731362287 0 0 0 0 -72.541410965306568 131.405003188911 0 131.405003188911 19.38219315222068 0 0 0 0 14.688468183328951 32.364999588062801 0 32.364999588062801 96.187355163793654 0 0 0 0 -45.87560770046548 93.127664435347469 0 93.127664435347469 239.53527410432434 0 0 0 0 -18.37549412641971 21.951566796160435 0 21.951566796160435 -0.61089116306293545 0 0 0 0 -46.807841497044137 79.273329880770234 0 79.273329880770234 49.855587643771287 0 0 0 0 11.919383955384546 143.51563850882212 0 143.51563850882212 115.26259321035013 0 0 0 0 97.001316060457611 309.75868596005239 0 309.75868596005239 440.03619729951959 0 0 0 0 1.4533189779831446 321.19735182411887 0 321.19735182411887 870.42398372480784 0 0 0 0 379.50470874452003 152.81306801238134 0 152.81306801238134 118.86604611933308 0 0 0 0 177.79913087456589 235.25644989129501 0 235.25644989129501 223.82195683976533 0 0 0 0 157.04774867963715 232.2621613238025 0 232.2621613238025 605.41910722919783 0 0 0 0 323.31976268009748 251.21268199872611 0 251.21268199872611 596.31800906696367 0 0 0 0 -43.158538625313668 -75.405036799435038 0 -75.405036799435038 443.85708407566932 0 0 0 0 3.516678328139843 6.6821935935845431 0 6.6821935935845431 -4.034582024402372 0 0 0 0 -81.148899061248812 -265.75467668249507 0 -265.75467668249507 1796.4647834511434 0 0 0 0 380.83340964616855 174.23429502523265 0 174.23429502523265 62.787429783358675 0 0 0 0 11.080668569120832 1.5098022780511222 0 1.5098022780511222 -4.696100127000209 0 0 0 0 30.593982018286624 596.80959999766401 0 596.80959999766401 166.85898277928391 0 0 0 0 16.715372607809478 106.60258447442604 0 106.60258447442604 36.878648268395281 0 0 0 0 -5.6650743950121978 603.07500089986843 0 603.07500089986843 439.88554026583006 0 0 0 0 250.6892035139681 303.15719488786272 0 303.15719488786272 -37.987190511644258 0 0 0 0 249.79553283973655 284.6156430583269 0 284.6156430583269 164.94431920201077 0 0 0 0 -42.131334228037304 508.27241458564322 0 508.27241458564322 715.92712882381511 0 0 0 0 175.42561951216339 -330.04738625565369 0 -330.04738625565369 305.45050655338935 0 0 0 0 1076.5688121534859 -760.17692602457555 0 -760.17692602457555 -1179.0279841756928 0 0 0 0 271.0790174060312 291.55937873816038 0 291.55937873816038 -525.3681309739768 0 0 0 0 80.377222780463853 52.765420999717207 0 52.765420999717207 -18.21933568861823 0 0 0 0 10.625761276522901 21.870501784386665 0 21.870501784386665 -10.299421718409338 0 0 0 0 105.22423570274259 24.74253632019645 0 24.74253632019645 -59.363110921349289 0 0 0 0 299.9491432234754 97.813887253795656 0 97.813887253795656 -98.765506468729654 0 0 0 0 11.713350170573491 11.612307734852736 0 11.612307734852736 -4.8124816190562392 0 0 0 0 27.610528176028311 71.622425354262305 0 71.622425354262305 8.5844855309951527 0 0 0 0 90.488183080049566 185.47833252214741 0 185.47833252214741 -130.0593797283218 0 0 0 0 84.801406436290563 167.94790831917089 0 167.94790831917089 -144.68741762358695 0 0 0 0 118.94969891491928 298.54170290002821 0 298.54170290002821 -158.18016644778618 0 0 0 0 -12.798129113729489 98.504634807714467 0 98.504634807714467 28.050589320273907 0 0 0 0 91.172261689924198 205.74181023679739 0 205.74181023679739 78.062338531955902 0 0 0 0 119.94389534863149 35.661490317967036 0 35.661490317967036 53.180554659262043 0 0 0 0 310.55773100447459 98.883112423215721 0 98.883112423215721 -53.71137022754192 0 0 0 0 -28.111209854407207 151.5701439196655 0 151.5701439196655 24.552571747513866 0 0 0 0 -16.771897383834585 120.47830992967465 0 120.47830992967465 9.4425718027305265 0 0 0 0 -32.342171797241463 139.93882797297829 0 139.93882797297829 48.995299496371445 0 0 0 0 115.26621979175252 126.32581083031255 0 126.32581083031255 -67.177810463828791 0 0 0 0 25.215795634641836 139.28249589009465 0 139.28249589009465 -143.66991293386309 0 0 0 0 3.4250029471338905 25.503294844954418 0 25.503294844954418 -0.89440886717537627 0 0 0 0 19.152907950031466 49.864798924532764 0 49.864798924532764 7.2005646754457473 0 0 0 0 -20.992821044545963 109.27933864077477 0 109.27933864077477 24.1742618575081 0 0 0 0 15.680665824460448 88.238887066358075 0 88.238887066358075 -82.495562088841325 0 0 0 0 22.103045167175196 13.453490044530554 0 13.453490044530554 -1.8113301938938093 0 0 0 0 -97.865335560889434 114.67925914156331 0 114.67925914156331 30.116108862624969 0 0 0 0 13.130385643611589 91.900324303789148 0 91.900324303789148 4.663235160336626 0 0 0 0 11.866774109526659 66.259902281857023 0 66.259902281857023 -9.4953285015544679 0 0 0 0 53.880625833247905 89.971557032302371 0 89.971557032302371 -39.715455957353697 0 0 0 0 7.9081010854788474 111.09147160999237 0 111.09147160999237 -40.045028009096995 0 0 0 0 -71.227442911784237 131.44738694307125 0 131.44738694307125 0.057179209897867622 0 0 0 0 -18.67069752585121 92.316983790983613 0 92.316983790983613 55.054001172235076 0 0 0 0 -19.330577371796075 51.352635475798827 0 51.352635475798827 1.2270639975345716 0 0 0 0 69.62463194258271 130.26331052420755 0 130.26331052420755 40.853780784766514 0 0 0 0 24.14002144199651 57.983728800072193 0 57.983728800072193 -8.4104063016895658 0 0 0 0 -102.9716720777069 67.427628578008807 0 67.427628578008807 15.614491872496274 0 0 0 0 -37.19493538279869 32.057194748975782 0 32.057194748975782 1.3621905825014826 0 0 0 0 27.335094192487304 123.17128749419498 0 123.17128749419498 -162.79937690175393 0 0 0 0 -3.4562189519092499 175.48315983509428 0 175.48315983509428 -97.662784259711771 0 0 0 0 -31.005625263671391 156.22774146377924 0 156.22774146377924 12.385148200381082 0 0 0 0 -33.339905120148615 101.80322584530768 0 101.80322584530768 -17.194715040855044 0 0 0 0 -2.0100907427331549 92.296558588602238 0 92.296558588602238 -47.678326481911427 0 0 0 0 19.908900050449422 53.866578884519583 0 53.866578884519583 -4.4684837169025329 0 0 0 0 841.76020881233853 571.22226067822157 0 571.22226067822157 264.37705385530535 0 0 0 0 325.07291867684398 97.321323279398712 0 97.321323279398712 82.942489307095457 0 0 0 0 -13.267442758214202 6.8815148027904982 0 6.8815148027904982 -2.1759513900522212 0 0 0 0 98.110704170668214 -464.42217988019695 0 -464.42217988019695 1526.5072747905979 0 0 0 0 -131.07771230181243 113.62158097649808 0 113.62158097649808 392.37365369010331 0 0 0 0 -128.48604469047859 94.382801474362168 0 94.382801474362168 7.9761381756707124 0 0 0 0 15.474294967469177 224.93513789255303 0 224.93513789255303 -543.23738220991254 0 0 0 0 0.56515143712749705 377.713468003858 0 377.713468003858 -687.52928645736029 0 0 0 0 -238.07213066396071 670.14418485650094 0 670.14418485650094 441.21641019034905 0 0 0 0 -203.09229152731859 103.72121696913018 0 103.72121696913018 -13.47084759212521 0 0 0 0 -408.36852223535243 406.90416320748591 0 406.90416320748591 -228.24998456540561 0 0 0 0 -50.567162088363261 34.860450103606595 0 34.860450103606595 5.4781977827355153 0 0 0 0 -68.133550319493224 103.50409212937211 0 103.50409212937211 68.066262532795008 0 0 0 0 56.892686377294012 -219.28253004929866 0 -219.28253004929866 803.68006203106233 0 0 0 0 -326.58072123095917 107.57765449202543 0 107.57765449202543 528.65587872719698 0 0 0 0 110.47558588649554 77.482396482435433 0 77.482396482435433 8.0966598253984188 0 0 0 0 34.514437766323681 51.506916426853422 0 51.506916426853422 -246.53356953046841 0 0 0 0 -137.86629113923095 222.85428691796744 0 222.85428691796744 -75.226024317467818 0 0 0 0 0.037533868882746901 62.385566031964743 0 62.385566031964743 -22.380040875318571 0 0 0 0 6.0908687076547707 23.715840714777258 0 23.715840714777258 -8.1291496616237815 0 0 0 0 11.898319917396293 42.412233940459373 0 42.412233940459373 -6.7979681517954305 0 0 0 0 -70.51619860833398 110.01077981356707 0 110.01077981356707 -13.178788445235114 0 0 0 0 5.0036905320801246 59.395050065682653 0 59.395050065682653 15.746904881576228 0 0 0 0 13.235349761716861 85.844719031825662 0 85.844719031825662 -10.516237033282778 0 0 0 0 -69.522068443337048 93.891482798357174 0 93.891482798357174 34.176477752447681 0 0 0 0 -40.29819294909754 78.852820965012711 0 78.852820965012711 20.193379900711829 0 0 0 0 7.1525819083035458 62.868176120333374 0 62.868176120333374 13.874384407703474 0 0 0 0 4.6743369623622755 68.183798869003027 0 68.183798869003027 1.0764246461722382 0 0 0 0 -37.400266656847471 64.14563130250778 0 64.14563130250778 -1.8958123301567262 0 0 0 0 -85.880608859635686 153.29961156745867 0 153.29961156745867 141.9260550972831 0 0 0 0 -58.364920535177745 39.1336842201355 0 39.1336842201355 2.5280104369565186 0 0 0 0 -68.98348203356727 11.051523413752875 0 11.051523413752875 156.23470434812884 0 0 0 0 -156.31382043517397 -115.63683071484149 0 -115.63683071484149 40.039463988073294 0 0 0 0 2.3725679172616339 5.7119559520783199 0 5.7119559520783199 -5.6931186301688914 0 0 0 0 61.51329830402392 31.28849624945633 0 31.28849624945633 -339.23838771485225 0 0 0 0 -11.402893045373276 48.993470540479848 0 48.993470540479848 43.719548330334874 0 0 0 0 9.160250627395726 79.285303955095969 0 79.285303955095969 25.95146301976547 0 0 0 0 18.428331986524427 51.504139361003126 0 51.504139361003126 18.40523394410684 0 0 0 0 -8.1928748182607478 8.1414836778424551 0 8.1414836778424551 11.299651967150449 0 0 0 0 -40.880090115808223 52.910165508171062 0 52.910165508171062 23.211266244428515 0 0 0 0 -4.1344689537218073 82.346756346267398 0 82.346756346267398 38.380403958346619 0 0 0 0 -3.6425474931886761 43.649082978025632 0 43.649082978025632 2.1775659480912726 0 0 0 0 8.6640796690480784 53.562480068060665 0 53.562480068060665 22.29202492652621 0 0 0 0 -18.75475940691863 40.226661093948735 0 40.226661093948735 -1.2655267891919646 0 0 0 0 -23.551410441540156 79.842686092767508 0 79.842686092767508 13.057776684180681 0 0 0 0 -25.571066199888719 72.234986686647972 0 72.234986686647972 35.059404527941297 0 0 0 0 7.3844293529073184 84.415858615892375 0 84.415858615892375 37.717893421629924 0 0 0 0 -52.297761120324139 258.50373965950894 0 258.50373965950894 117.92193382692585 0 0 0 0 -55.786392567971795 34.580216904127454 0 34.580216904127454 5.5266755103854877 0 0 0 0 -23.540918794510475 41.9191369432248 0 41.9191369432248 -19.176407462038711 0 0 0 0 102.05177284455567 330.37576768668441 0 330.37576768668441 -231.5025715276538 0 0 0 0 -12.120539139028097 78.755350591228307 0 78.755350591228307 29.062678530210178 0 0 0 0 -21.773171272910758 89.633129743571772 0 89.633129743571772 47.482493946185059 0 0 0 0 57.279453443803504 10.747074598593827 0 10.747074598593827 -32.751377334061544 0 0 0 0 -8.2099548714417097 36.258457677072926 0 36.258457677072926 4.134327982132703 0 0 0 0 -133.2863652096421 167.86388177039953 0 167.86388177039953 -8.8956655598267389 0 0 0 0 -58.801505589268345 70.56318178303809 0 70.56318178303809 -5.5839139551871995 0 0 0 0 -133.0382943928962 50.551159819225632 0 50.551159819225632 241.74496031382296 0 0 0 0 -54.131160005649292 47.26864064612613 0 47.26864064612613 -12.069307841181924 0 0 0 0 -301.23739504976402 -234.07522750577118 0 -234.07522750577118 22.475754163731835 0 0 0 0 -75.22612429376386 57.159449479319846 0 57.159449479319846 28.323576419993515 0 0 0 0 -18.299190146673936 39.48613245944307 0 39.48613245944307 4.7439341753306508 0 0 0 0 -226.8625510453785 76.188309198272236 0 76.188309198272236 46.2441508978809 0 0 0 0 -6.8151238966227439 39.292251402287206 0 39.292251402287206 18.816681376242997 0 0 0 0 -115.72843973634008 88.236498802913957 0 88.236498802913957 17.995728289481121 0 0 0 0 -124.45628692766695 25.555565379959262 0 25.555565379959262 -24.063756608011317 0 0 0 0 -104.8402593044957 -19.212974091305114 0 -19.212974091305114 64.977864172957197 0 0 0 0 -12.582938623292531 29.704527296916993 0 29.704527296916993 23.706586623431548 0 0 0 0 -47.97910499588972 46.251376800653389 0 46.251376800653389 -8.8791934426152856 0 0 0 0 -1.8435352357894317 104.00601770079788 0 104.00601770079788 34.80142568546762 0 0 0 0 -49.917264429615898 89.940430411304988 0 89.940430411304988 9.9471056570555447 0 0 0 0 226.68372621719027 118.98566867235786 0 118.98566867235786 40.524755255326454 0 0 0 0 -1.0041389943921786 79.903358027171635 0 79.903358027171635 9.344099015223037 0 0 0 0 -66.175398069033449 78.48735942213726 0 78.48735942213726 13.560912211984927 0 0 0 0 -57.972743743111565 57.772325473414853 0 57.772325473414853 -17.745106476385253 0 0 0 0 57.46905647013773 79.922968124907129 0 79.922968124907129 -18.429602587387194 0 0 0 0 -36.286375174260222 61.814810038896141 0 61.814810038896141 -41.614193808521094 0 0 0 0 19.750268944317213 -44.46309038563777 0 -44.46309038563777 -227.50802785838823 0 0 0 0 47.433175186532026 -47.089632594805153 0 -47.089632594805153 -91.863604864120134 0 0 0 0 -361.04731952397424 -115.81656457960526 0 -115.81656457960526 790.61747149024086 0 0 0 0 -35.119154092713117 51.878602817246872 0 51.878602817246872 -20.538494622649829 0 0 0 0 -5.3046223696976043 8.781665225555443 0 8.781665225555443 12.727476249753003 0 0 0 0 -174.07181664191012 332.98625129965512 0 332.98625129965512 9.8196933239305508 0 0 0 0 17.161992084340454 214.20465510148642 0 214.20465510148642 -203.74739762787067 0 0 0 0 72.600868190831534 -419.81318333019226 0 -419.81318333019226 -1398.8683098064648 0 0 0 0 61.858165736855881 62.714519834582461 0 62.714519834582461 -166.09703844043906 0 0 0 0 19.490486655537097 114.80443597200792 0 114.80443597200792 -18.625903710725368 0 0 0 0 -40.486249785295513 241.77295108040562 0 241.77295108040562 -19.267643954865207 0 0 0 0 54.551293478099979 37.929075401712907 0 37.929075401712907 -58.372983079803817 0 0 0 0 20.490443693637644 116.28934803624725 0 116.28934803624725 -16.977601795253577 0 0 0 0 35.152673962744302 -28.069619250280084 0 -28.069619250280084 -35.044312724676274 0 0 0 0 -5.0443101215721526 88.527454417871922 0 88.527454417871922 42.5389490154339 0 0 0 0 85.889210124569217 241.27756286911972 0 241.27756286911972 -65.545173236911069 0 0 0 0 78.550061900714354 217.97796423668842 0 217.97796423668842 61.109454768906289 0 0 0 0 -37.005708481205232 46.069455517886446 0 46.069455517886446 -31.477000837538483 0 0 0 0 -77.394733495606488 161.02498231876234 0 161.02498231876234 82.971264413725294 0 0 0 0 -45.524739935004163 318.66183228287264 0 318.66183228287264 263.15888170138351 0 0 0 0 -84.632199936528195 251.15582925401395 0 251.15582925401395 170.7953187186431 0 0 0 0 -135.7434561595619 228.42156969366624 0 228.42156969366624 179.4767859421554 0 0 0 0 -93.786986406837059 282.92501268848537 0 282.92501268848537 315.99486045519006 0 0 0 0 -33.226972743770602 161.50502536652493 0 161.50502536652493 194.47327876542113 0 0 0 0 -34.684938579641312 258.92812127961224 0 258.92812127961224 177.77687917342701 0 0 0 0 -39.271639597820467 283.56063893503597 0 283.56063893503597 275.48861312441295 0 0 0 0 121.26182746597442 284.45774475401777 0 284.45774475401777 262.13622372275859 0 0 0 0 252.54211327597113 491.39482176999081 0 491.39482176999081 401.95188645744929 0 0 0 0 -2.3106687519139086 359.21018004095095 0 359.21018004095095 365.96941999751107 0 0 0 0 -47.577535123599773 269.78034851625489 0 269.78034851625489 580.18913173232431 0 0 0 0 9.7746110611860786 231.45412003605088 0 231.45412003605088 264.25879501376767 0 0 0 0 -37.650569797810022 217.23570968290733 0 217.23570968290733 341.50339944178268 0 0 0 0 299.72028581034647 289.51242852281757 0 289.51242852281757 223.93837781737238 0 0 0 0 -11.886497039584977 3.0879352443182526 0 3.0879352443182526 -4.3344751380656277 0 0 0 0 638.78900369938128 41.114735576808016 0 41.114735576808016 232.96468445196933 0 0 0 0 147.52820352148592 582.42856616543577 0 582.42856616543577 470.11645138402309 0 0 0 0 652.86803874087491 426.64876334965265 0 426.64876334965265 125.75659476638612 0 0 0 0 338.33187686858219 387.00041316597344 0 387.00041316597344 286.86402686130896 0 0 0 0 -23.840957766561587 356.24257256901728 0 356.24257256901728 416.37478383257985 0 0 0 0 418.61006662984892 272.0457282136922 0 272.0457282136922 111.57808597847907 0 0 0 0 125.30806085584118 249.23749272279019 0 249.23749272279019 199.8672156416651 0 0 0 0 -36.623775146930711 1.3327153268473921 0 1.3327153268473921 209.32417896660627 0 0 0 0 5.5646655735279342 12.609101867560689 0 12.609101867560689 -0.045314922767005328 0 0 0 0 33.693208461936592 -0.28094261525257025 0 -0.28094261525257025 38.178807952077477 0 0 0 0 -0.30345790021965513 8.6149711217585718 0 8.6149711217585718 164.68889977029175 0 0 0 0 30.52792671311181 1.4504853427788476 0 1.4504853427788476 52.413364901643945 0 0 0 0 0.71216895623365417 85.173815537971677 0 85.173815537971677 102.94309144948784 0 0 0 0 1.5378918743881513 127.41536164366698 0 127.41536164366698 75.016646323769237 0 0 0 0 9.6586287283789716 52.089387946180068 0 52.089387946180068 132.50802741391817 0 0 0 0 -17.732787782824744 103.82036252842227 0 103.82036252842227 319.51903505270093 0 0 0 0 -32.042257911562047 79.372251349319413 0 79.372251349319413 429.81160204346088 0 0 0 0 -22.360308354591325 -66.095442822206678 0 -66.095442822206678 59.817516670154873 0 0 0 0 10.915039633342531 -85.946416211234464 0 -85.946416211234464 7.3100695386165171 0 0 0 0 37.102532434590103 -11.537938313456834 0 -11.537938313456834 46.492038430107641 0 0 0 0 92.485579119776958 271.53160864521487 0 271.53160864521487 388.71713977394393 0 0 0 0 109.25214465487079 182.14432557721159 0 182.14432557721159 269.35630474500158 0 0 0 0 -9.0849486484653461 109.93500291908634 0 109.93500291908634 89.710523444566036 0 0 0 0 335.01556916586469 233.77385651149234 0 233.77385651149234 94.41162828873712 0 0 0 0 130.17917333376863 115.01121584208522 0 115.01121584208522 92.907547233291552 0 0 0 0 67.213241852216015 279.42230451856767 0 279.42230451856767 122.40092993458438 0 0 0 0 28.992300911493899 50.376497037763855 0 50.376497037763855 -44.534603042601532 0 0 0 0 10.075429592235579 15.659341258284726 0 15.659341258284726 23.023460841348076 0 0 0 0 -6.2657948061605566 131.89363483813486 0 131.89363483813486 -93.282188749482884 0 0 0 0 6.1889537356983055 183.94541389428105 0 183.94541389428105 -68.833786555083407 0 0 0 0 -35.562730064488278 167.21992958782494 0 167.21992958782494 44.9890253981157 0 0 0 0 26.139068576594582 194.11195552641129 0 194.11195552641129 126.52500653412426 0 0 0 0 14.012743777697324 228.29404961411501 0 228.29404961411501 44.056375770975137 0 0 0 0 45.022087351091614 227.40732129503294 0 227.40732129503294 122.47851499723765 0 0 0 0 -14.937012032060011 164.94694723161592 0 164.94694723161592 57.414016862135782 0 0 0 0 -20.82933832947765 187.00567130340335 0 187.00567130340335 54.483530755464017 0 0 0 0 -100.33378610802174 116.81376052511041 0 116.81376052511041 51.111931356917921 0 0 0 0 -55.705934994533891 179.60444853680019 0 179.60444853680019 90.710504705823951 0 0 0 0 -25.80469048112036 75.501540395675875 0 75.501540395675875 36.630848850285474 0 0 0 0 13.168552641048622 54.081382489663213 0 54.081382489663213 41.789659721890132 0 0 0 0 -36.137375906377201 134.08241107976005 0 134.08241107976005 21.505669941539963 0 0 0 0 -37.4041639787647 142.74513524264057 0 142.74513524264057 -37.575917042539004 0 0 0 0 336.17605312754313 29.061881046407507 0 29.061881046407507 -406.0024070589003 0 0 0 0 196.4701254219417 218.79901450388206 0 218.79901450388206 185.31694622923533 0 0 0 0 390.64239659864688 471.21282649891805 0 471.21282649891805 459.79338210044807 0 0 0 0 -28.741614899854667 -21.751891958548939 0 -21.751891958548939 -2.2612348167654517 0 0 0 0 167.91829864642841 208.01031968356256 0 208.01031968356256 253.51794761618658 0 0 0 0 -144.30208856700483 105.37578673931492 0 105.37578673931492 144.92849095191377 0 0 0 0 258.81241497382507 474.50632746227302 0 474.50632746227302 -403.08547087071383 0 0 0 0 55.95203970298455 54.884707441208555 0 54.884707441208555 -41.220494458762744 0 0 0 0 226.33793464882183 223.75714048456621 0 223.75714048456621 90.18746584384462 0 0 0 0 342.51124365291616 118.57105846818695 0 118.57105846818695 -254.5362812142339 0 0 0 0 129.20698154582351 90.918637411661621 0 90.918637411661621 -38.729278593595154 0 0 0 0 143.26214424729551 200.1835852287968 0 200.1835852287968 21.034526143430412 0 0 0 0 4.3609864480167744 50.66032650114721 0 50.66032650114721 6.2138175264894926 0 0 0 0 5.2778317547999904 144.97743532362892 0 144.97743532362892 38.470495306987686 0 0 0 0 162.92669439470774 -33.197510601384238 0 -33.197510601384238 -142.59859833402788 0 0 0 0 155.44510866997371 278.44048884380754 0 278.44048884380754 246.60015835438935 0 0 0 0 173.32706914587288 266.08752216113498 0 266.08752216113498 179.92038032483106 0 0 0 0 154.15300671419254 271.96567822065117 0 271.96567822065117 227.30273325766029 0 0 0 0 136.66873658855366 278.25528118008879 0 278.25528118008879 231.71795582654886 0 0 0 0 16.292840296047473 42.534585390118394 0 42.534585390118394 22.385661508749095 0 0 0 0 384.02070106517203 321.55516260608965 0 321.55516260608965 218.1198604709607 0 0 0 0 -118.58249451067429 73.251131912005064 0 73.251131912005064 146.18201656719322 0 0 0 0 202.61285170534848 229.584139495204 0 229.584139495204 223.78384754956642 0 0 0 0 211.93861444191953 246.24391501082573 0 246.24391501082573 199.43160205169261 0 0 0 0 -80.989057047213663 94.564353975927446 0 94.564353975927446 150.43898759201284 0 0 0 0 151.7917582087739 336.7000337920673 0 336.7000337920673 431.50188929741853 0 0 0 0 316.74597346025985 323.88083467375145 0 323.88083467375145 221.3125802975228 0 0 0 0 37.987421303609153 246.65329355076574 0 246.65329355076574 193.65655394366712 0 0 0 0 21.384575371339452 95.146856808351004 0 95.146856808351004 206.92384805874929 0 0 0 0 27.038513263681047 46.474392683776372 0 46.474392683776372 23.273477488523852 0 0 0 0 53.44205039604617 241.64295592213421 0 241.64295592213421 303.75228701039305 0 0 0 0 97.349917464673581 271.43867463814058 0 271.43867463814058 294.20980036624678 0 0 0 0 -109.77960070255689 68.71205308366288 0 68.71205308366288 164.42927357271788 0 0 0 0 339.74886164380587 362.03188684584893 0 362.03188684584893 345.623337759891 0 0 0 0 61.554988319876429 214.37216902848536 0 214.37216902848536 256.08550398314401 0 0 0 0 68.814859805615924 157.86072260592152 0 157.86072260592152 283.95889325475218 0 0 0 0 3.2315162510931259 257.93510484288527 0 257.93510484288527 224.06881092191725 0 0 0 0 0.053382952624815516 190.96874074034349 0 190.96874074034349 273.23760024463036 0 0 0 0 43.260677449405193 283.78586084808717 0 283.78586084808717 403.12496203968658 0 0 0 0 -112.97864341425884 145.80553429531528 0 145.80553429531528 413.05502096689816 0 0 0 0 0.44224710342678009 196.1128867179923 0 196.1128867179923 258.0375339170696 0 0 0 0 233.97143301185861 570.9766553392692 0 570.9766553392692 785.09666066666216 0 0 0 0 322.43968047689123 288.29161489105081 0 288.29161489105081 179.62394199402115 0 0 0 0 -445.20479326377972 -231.66226842756487 0 -231.66226842756487 115.61827950725547 0 0 0 0 -0.84131533992845675 0.75489820530276575 0 0.75489820530276575 1.1770391216013962 0 0 0 0 506.42119479787652 492.63543880108136 0 492.63543880108136 442.28292092316769 0 0 0 0 528.95297469259822 556.4925045564205 0 556.4925045564205 622.41214337347083 0 0 0 0 398.19265906652072 358.9807167128929 0 358.9807167128929 516.24119593761134 0 0 0 0 435.09861416181229 547.67732294822736 0 547.67732294822736 696.87380153504 0 0 0 0 54.959071364937699 403.5355230102964 0 403.5355230102964 966.65566863119057 0 0 0 0 426.4939206380368 442.63582996329023 0 442.63582996329023 761.04592888446859 0 0 0 0 0.0067279468774472662 -0.29741543189408048 0 -0.29741543189408048 1.3530787833114175 0 0 0 0 -5.7166074708731571 1.9198489465247661 0 1.9198489465247661 3.5645216470226195 0 0 0 0 177.82698873389745 325.98422266870239 0 325.98422266870239 576.4431534377336 0 0 0 0 -11.335619724937715 19.248762604394869 0 19.248762604394869 20.651978963919191 0 0 0 0 -6.1026945517442073 7.3027307824602303 0 7.3027307824602303 36.065041018662669 0 0 0 0 148.78258515517518 266.28059399018275 0 266.28059399018275 543.6220806552451 0 0 0 0 320.07036317401071 286.06554822748649 0 286.06554822748649 269.4349265049932 0 0 0 0 322.50857105495379 277.39331411837088 0 277.39331411837088 276.33721293941562 0 0 0 0 253.81663255864987 337.39475575085226 0 337.39475575085226 427.44322348168498 0 0 0 0 200.40324899330895 249.26056627661774 0 249.26056627661774 311.24664927273261 0 0 0 0 200.53784413218091 214.4640917532206 0 214.4640917532206 300.62938386251426 0 0 0 0 273.19126542941376 243.85398313849964 0 243.85398313849964 212.49067205451138 0 0 0 0 214.57842870271998 190.79714746275931 0 190.79714746275931 178.02051791022859 0 0 0 0 215.72236874116061 183.93757374128245 0 183.93757374128245 132.19484274444039 0 0 0 0 -6.8007672292869756 7.0229198838375453 0 7.0229198838375453 -2.3139272870520635 0 0 0 0 256.36100564704975 178.50208986618327 0 178.50208986618327 148.49382788780076 0 0 0 0 287.07557558083499 190.21290223375763 0 190.21290223375763 136.76948279240605 0 0 0 0 -97.537681713562051 -142.03636944037726 0 -142.03636944037726 -80.510731105796367 0 0 0 0 -125.78915213283472 79.805787904414956 0 79.805787904414956 163.4749082298199 0 0 0 0 241.55530253449979 236.89004479244613 0 236.89004479244613 228.74120662523728 0 0 0 0 302.23183339632669 158.47418258562902 0 158.47418258562902 264.80593628159568 0 0 0 0 -28.266422881588085 12.559908189019708 0 12.559908189019708 -10.749005460164518 0 0 0 0 -112.89667178481614 166.46150329435204 0 166.46150329435204 155.3738191409675 0 0 0 0 114.88779653200618 -4.8605775014685833 0 -4.8605775014685833 -91.319284050263377 0 0 0 0 -4.6588128673372466 3.402868448220886 0 3.402868448220886 2.0735763026202605 0 0 0 0 -672.57402547378297 486.98258658520808 0 486.98258658520808 -5.4275229775721527 0 0 0 0 -887.44852937264659 301.43019379365705 0 301.43019379365705 278.11331560028145 0 0 0 0 -6.4644117384229958 4.4508718436674002 0 4.4508718436674002 -2.8762956893344018 0 0 0 0 -707.14118026772121 -215.60885446214604 0 -215.60885446214604 33.195153874883545 0 0 0 0 -24.836114866135176 341.49023220773688 0 341.49023220773688 -136.13019834571332 0 0 0 0 11.821474074538855 2.1516568473862208 0 2.1516568473862208 -26.445726842287513 0 0 0 0 -67.009758447820786 -56.021416577485979 0 -56.021416577485979 78.138285349521539 0 0 0 0 138.53903658290801 302.76219703956997 0 302.76219703956997 540.41080209410575 0 0 0 0 -5.7145760134922625 1.3430769282956518 0 1.3430769282956518 0.62416417700427829 0 0 0 0 9.1251610908147995 2.9091975555238605 0 2.9091975555238605 20.880186493456677 0 0 0 0 93.100738854001975 177.50409310926807 0 177.50409310926807 496.5214786770407 0 0 0 0 144.60027485359024 143.64489704757671 0 143.64489704757671 308.86115331096516 0 0 0 0 161.32418576610507 169.57643476598787 0 169.57643476598787 228.05478253706497 0 0 0 0 24.615696713124635 234.85632439965502 0 234.85632439965502 216.57113717782886 0 0 0 0 168.46962992027693 232.39951096251752 0 232.39951096251752 194.92015536428971 0 0 0 0 148.52901270159055 259.55154013247409 0 259.55154013247409 214.80888802185291 0 0 0 0 51.450310719956178 276.86088809729472 0 276.86088809729472 143.26433656274457 0 0 0 0 58.423312462133254 401.97752960128435 0 401.97752960128435 332.55256457572068 0 0 0 0 -1.7063863147329812 1.5643730995827241 0 1.5643730995827241 -0.54199679916737864 0 0 0 0 -543.59390400831762 348.65120070791545 0 348.65120070791545 122.82743852655221 0 0 0 0 -413.66886281305779 -36.355423140603307 0 -36.355423140603307 29.007029490693185 0 0 0 0 -371.72653984402132 331.32921961920056 0 331.32921961920056 329.69259775285445 0 0 0 0 -566.05860795998888 109.89204337682895 0 109.89204337682895 188.58706104505109 0 0 0 0 -690.56703898534761 62.493494474975705 0 62.493494474975705 3.7183635010169382 0 0 0 0 -600.14663439410651 147.67665770565327 0 147.67665770565327 213.32719717987311 0 0 0 0 -681.52585573129181 123.29057701216516 0 123.29057701216516 275.54099983503511 0 0 0 0 -577.81785180134466 158.71215223390391 0 158.71215223390391 290.9513830711453 0 0 0 0 -648.47993595407752 322.78742744109786 0 322.78742744109786 193.79207316226893 0 0 0 0 -559.21231069897476 122.94475635936396 0 122.94475635936396 348.4750014412316 0 0 0 0 -359.4404163237341 58.176428682752885 0 58.176428682752885 328.06873262645172 0 0 0 0 -485.54126993091268 278.3317323643189 0 278.3317323643189 234.70845919664862 0 0 0 0 -512.74353552046523 79.125133325516799 0 79.125133325516799 18.419012330348778 0 0 0 0 -418.66964073992858 278.69574197557722 0 278.69574197557722 285.45256653367551 0 0 0 0 -258.06666332206805 193.39254386248103 0 193.39254386248103 151.4858412593112 0 0 0 0 -388.49624255402887 190.90958911425696 0 190.90958911425696 251.62654472942631 0 0 0 0 -262.77683409203019 271.4670329374344 0 271.4670329374344 159.13926786457159 0 0 0 0 -169.83898199252872 176.17595338074466 0 176.17595338074466 131.69305434209309 0 0 0 0 -207.88612134523282 262.75425116794941 0 262.75425116794941 172.80734366045453 0 0 0 0 43.738566556334263 243.82568589339508 0 243.82568589339508 97.831691151396626 0 0 0 0 120.75890893499309 234.03944666908501 0 234.03944666908501 113.637330554242 0 0 0 0 35.843728577276124 201.96324043430479 0 201.96324043430479 129.0554997755462 0 0 0 0 141.49179594317684 186.68775971824971 0 186.68775971824971 120.00962521393012 0 0 0 0 135.08478441911575 181.08380813191889 0 181.08380813191889 98.501532246305942 0 0 0 0 -15.981851442198263 10.325281643597947 0 10.325281643597947 -9.167473497000195 0 0 0 0 -37.389754940195076 26.488185120878171 0 26.488185120878171 -15.828804781165712 0 0 0 0 -127.19254199718853 24.839873518434615 0 24.839873518434615 74.04959340945652 0 0 0 0 19.483341813298011 197.36135316119109 0 197.36135316119109 126.8109853087899 0 0 0 0 -89.844602695135109 -127.73093733064979 0 -127.73093733064979 -87.170399629163512 0 0 0 0 201.15933723804483 97.05601367044801 0 97.05601367044801 19.101035783627594 0 0 0 0 29.605799223150825 85.421046037417909 0 85.421046037417909 79.370327981610899 0 0 0 0 -57.326932901837438 37.171361414623831 0 37.171361414623831 -23.294795661514698 0 0 0 0 -282.87031078485597 175.42035707709647 0 175.42035707709647 157.77693109366157 0 0 0 0 -217.49479804901785 57.894086210845217 0 57.894086210845217 127.42377459465843 0 0 0 0 18.946137993545562 204.69574569846372 0 204.69574569846372 124.21422438241711 0 0 0 0 -311.34730240506178 190.21247654684703 0 190.21247654684703 251.62013770442817 0 0 0 0 -260.05041650912608 196.43644366638409 0 196.43644366638409 -93.035904990095332 0 0 0 0 -532.87291116998676 153.89647186915772 0 153.89647186915772 -7.9252366328710195 0 0 0 0 -320.65133449371206 153.78356933693794 0 153.78356933693794 -9.5273786664378122 0 0 0 0 -404.38757324349717 19.673538797058427 0 19.673538797058427 137.25158721837852 0 0 0 0 -372.32867758996872 112.68332708368507 0 112.68332708368507 189.95590896495014 0 0 0 0 -5.3922126545194402 0.27741152540583869 0 0.27741152540583869 1.597720577217963 0 0 0 0 -688.21410997523344 445.27269540125781 0 445.27269540125781 -230.09222554074222 0 0 0 0 322.2713183568776 223.89132443676499 0 223.89132443676499 66.717971197482257 0 0 0 0 317.36583450024045 95.736084339871013 0 95.736084339871013 32.002148473015041 0 0 0 0 22.014708472694892 14.858014490481708 0 14.858014490481708 12.272081346880263 0 0 0 0 326.16761471570408 189.45263603265425 0 189.45263603265425 129.56770872347624 0 0 0 0 156.79297330608824 46.860399153893013 0 46.860399153893013 248.2125037282276 0 0 0 0 -26.307075046071873 19.716226020262987 0 19.716226020262987 -11.469577647278363 0 0 0 0 81.10778124389617 468.50482062704725 0 468.50482062704725 268.28359638508118 0 0 0 0 -205.7543874992225 479.63457636801627 0 479.63457636801627 273.2431254611256 0 0 0 0 -329.10226427245652 -24.782678215580745 0 -24.782678215580745 240.56442583446187 0 0 0 0 -18.869385845326178 -75.037514469485359 0 -75.037514469485359 -61.74062925148246 0 0 0 0 258.15573714131824 189.94709019399852 0 189.94709019399852 110.05591138745149 0 0 0 0 182.0613657363574 205.22671377596089 0 205.22671377596089 127.84602281016419 0 0 0 0 225.53210319569916 165.65148125462474 0 165.65148125462474 94.031545163643386 0 0 0 0 163.22006052834331 181.340767501546 0 181.340767501546 99.161985692193412 0 0 0 0 167.95179179200204 174.98043566511706 0 174.98043566511706 92.608865455381874 0 0 0 0 -19.491237737056139 11.421299933496954 0 11.421299933496954 -4.6063080055300745 0 0 0 0 -22.98225260714807 20.497520136310399 0 20.497520136310399 -17.354245635870448 0 0 0 0 165.55400043651753 201.61848349390402 0 201.61848349390402 86.57917867327933 0 0 0 0 309.03922591451555 191.75356144464968 0 191.75356144464968 41.309272234359014 0 0 0 0 -85.084529453284631 38.672543995004162 0 38.672543995004162 77.955746480108701 0 0 0 0 316.91477295987715 222.60697762707241 0 222.60697762707241 -15.764146639485261 0 0 0 0 342.07818545663758 121.12715418856169 0 121.12715418856169 22.030870662189045 0 0 0 0 252.86460595121025 189.6886349752931 0 189.6886349752931 41.350567649927143 0 0 0 0 114.13028186000156 50.421650175458126 0 50.421650175458126 62.783208624536201 0 0 0 0 133.23330134665594 141.3303977445139 0 141.3303977445139 62.546217328421335 0 0 0 0 271.63413761807897 145.0464590923948 0 145.0464590923948 56.599375018879073 0 0 0 0 185.5766692852776 85.270014358779918 0 85.270014358779918 124.60772114930296 0 0 0 0 280.96886244358757 136.42111532329182 0 136.42111532329182 37.625799072022346 0 0 0 0 1.9504941439954564 99.703709532277571 0 99.703709532277571 -166.47284380666133 0 0 0 0 429.5134205586437 183.36734814292868 0 183.36734814292868 -13.864865345025464 0 0 0 0 -678.48224405082874 -27.332800236403273 0 -27.332800236403273 309.18330636888277 0 0 0 0 -1.7271551293096721 4.2390642375767129 0 4.2390642375767129 -3.4536401607152527 0 0 0 0 -555.2084832328037 -103.41484152549492 0 -103.41484152549492 31.171426125358266 0 0 0 0 320.56533867962025 103.2893341005647 0 103.2893341005647 3.8365697313929559 0 0 0 0 -84.435083471194957 275.15676984075253 0 275.15676984075253 73.099886985895864 0 0 0 0 189.42432834734791 -17.336130048302039 0 -17.336130048302039 -5.6089123247438692 0 0 0 0 -17.011583277911996 232.8814544043471 0 232.8814544043471 35.154682190320955 0 0 0 0 196.87870132334592 164.46576235795271 0 164.46576235795271 -73.953669908947631 0 0 0 0 -11.404975039395158 101.54283382121665 0 101.54283382121665 13.012742254423543 0 0 0 0 30.842003460580599 155.89768231960261 0 155.89768231960261 35.967454773024656 0 0 0 0 -112.46585387706727 219.09332731400173 0 219.09332731400173 24.018981653091032 0 0 0 0 -11.546131715561632 99.121737386428578 0 99.121737386428578 2.0677450897948546 0 0 0 0 182.71407616806391 97.970320355881995 0 97.970320355881995 -62.192281344148796 0 0 0 0 -92.26211704558591 117.11619654275546 0 117.11619654275546 16.185195813004611 0 0 0 0 -3.3453898667855739 8.6897589524638477 0 8.6897589524638477 -13.784071877470424 0 0 0 0 33.108382465573186 94.22411934916795 0 94.22411934916795 -39.500516785381478 0 0 0 0 -162.88758667934201 -1.0453160100983894 0 -1.0453160100983894 67.868242329026543 0 0 0 0 160.63503727406351 172.32480458833925 0 172.32480458833925 27.792992940883778 0 0 0 0 0.36447404196336564 1.5543902044007751 0 1.5543902044007751 1.584361218482357 0 0 0 0 704.75097073545999 259.8477320692445 0 259.8477320692445 -130.1339695904644 0 0 0 0 261.85175180078659 260.9704681434232 0 260.9704681434232 146.45218661784907 0 0 0 0 171.88508061668836 208.2434914582318 0 208.2434914582318 29.367439047960943 0 0 0 0 308.25954675109824 168.0352138442031 0 168.0352138442031 35.541794179578574 0 0 0 0 -2.0538273156312385 13.718886033606424 0 13.718886033606424 -24.473894951371463 0 0 0 0 5.6797184205934172 118.58715854363982 0 118.58715854363982 10.058993900896894 0 0 0 0 92.571458007543697 8.8556598169907375 0 8.8556598169907375 -14.93083250138443 0 0 0 0 70.698151418400812 84.573322017975443 0 84.573322017975443 -28.539403101316566 0 0 0 0 -0.69132059527706247 18.484328180064693 0 18.484328180064693 -1.2177636233904963 0 0 0 0 17.966656717831938 -4.8334283942540424 0 -4.8334283942540424 -4.0496866610774305 0 0 0 0 152.89197340682585 156.3215537047472 0 156.3215537047472 148.32910724537942 0 0 0 0 -72.634701855109597 61.527506519885719 0 61.527506519885719 30.890087610699993 0 0 0 0 -0.43975074387475521 7.4948930670438614 0 7.4948930670438614 4.4659731585007307 0 0 0 0 80.036318025828223 181.32133543636155 0 181.32133543636155 283.28588300238334 0 0 0 0 -0.10072033687954018 5.5714282886954294 0 5.5714282886954294 -6.8568242876649066 0 0 0 0 -476.46360685398395 380.13767983489197 0 380.13767983489197 -267.19608191207226 0 0 0 0 134.70538369554561 33.735658002849959 0 33.735658002849959 -90.048542399534199 0 0 0 0 65.94922476530337 16.629808601614059 0 16.629808601614059 18.083909233075246 0 0 0 0 221.55917464528466 392.04671692847478 0 392.04671692847478 137.27508460824902 0 0 0 0 110.07769574303893 -39.062840749240422 0 -39.062840749240422 67.472248446865706 0 0 0 0 -1.5578325078683193 7.4416589658182772 0 7.4416589658182772 2.7973218481117641 0 0 0 0 -17.793747549381806 34.250110290493467 0 34.250110290493467 -7.2712606105342275 0 0 0 0 471.84628643686301 315.9785162512635 0 315.9785162512635 -112.3593416247968 0 0 0 0 202.65091650145041 339.28386121695621 0 339.28386121695621 60.805147761129774 0 0 0 0 278.99454865796724 314.32739437423879 0 314.32739437423879 -73.833958416013047 0 0 0 0 347.49463306792313 411.31249586384365 0 411.31249586384365 13.689970973253367 0 0 0 0 482.53782826542738 403.56089803322539 0 403.56089803322539 -284.46950464769179 0 0 0 0 23.424227877083467 306.27410892567059 0 306.27410892567059 761.73302992530807 0 0 0 0 6.5363493723202737 2.4893708995901704 0 2.4893708995901704 -5.8776186219881268 0 0 0 0 397.77022666238918 582.92040475311478 0 582.92040475311478 -56.624586003250442 0 0 0 0 350.74694161574007 431.90004576979118 0 431.90004576979118 82.559128072549356 0 0 0 0 185.80825345267658 792.43459134269506 0 792.43459134269506 416.65529672085904 0 0 0 0 355.35390744697361 814.81130734232647 0 814.81130734232647 -87.43319641405833 0 0 0 0 438.44094395761567 503.29852619965186 0 503.29852619965186 -642.70306351420004 0 0 0 0 97.271898572944338 -21.664467779723054 0 -21.664467779723054 -507.41405753705476 0 0 0 0 -33.542242925976097 -274.9975859629476 0 -274.9975859629476 497.29589477437185 0 0 0 0 -13.444244194015059 107.48154947571342 0 107.48154947571342 -9.0402096791598865 0 0 0 0 -196.34739975627599 64.691090023645302 0 64.691090023645302 -72.121747264656733 0 0 0 0 111.05185991614417 360.24090436720144 0 360.24090436720144 -35.313416508834052 0 0 0 0 316.6823240537633 367.29168579916222 0 367.29168579916222 -56.812101917828841 0 0 0 0 135.03303006185524 138.16445408250411 0 138.16445408250411 -94.240107002508012 0 0 0 0 327.24557605435257 -94.711709525290644 0 -94.711709525290644 -10.489864413787473 0 0 0 0 482.02357498853962 180.28592172780191 0 180.28592172780191 -109.10095439355791 0 0 0 0 -619.00512564191013 666.76910478390346 0 666.76910478390346 -123.50209234794056 0 0 0 0 -522.87595633508681 523.71179337572221 0 523.71179337572221 -426.36962295777903 0 0 0 0 -5.307169816493257 15.098896107993454 0 15.098896107993454 -17.883749604069674 0 0 0 0 -328.89831746323398 0.089807709407068614 0 0.089807709407068614 -315.63387325607437 0 0 0 0 -195.25064316291537 148.39022733642378 0 148.39022733642378 -275.50006663807289 0 0 0 0 -56.695823403201246 56.105117490859655 0 56.105117490859655 -28.895753625722421 0 0 0 0 -335.88823648524703 467.00312170198595 0 467.00312170198595 -366.34995274681205 0 0 0 0 -293.85421583990683 188.77157997892391 0 188.77157997892391 198.31090170704556 0 0 0 0 -280.78709181162412 -62.687549618918638 0 -62.687549618918638 802.2891895202938 0 0 0 0 -182.33157272519747 309.85843050062613 0 309.85843050062613 173.6101449624839 0 0 0 0 -437.81770916588266 425.91834366739181 0 425.91834366739181 177.12210504879113 0 0 0 0 -375.31093944981694 -33.581679931041435 0 -33.581679931041435 -19.07310274845986 0 0 0 0 -337.96707395584963 326.85504590723758 0 326.85504590723758 -182.41665035787446 0 0 0 0 -195.18878505225985 172.66034541749386 0 172.66034541749386 -371.40024580207682 0 0 0 0 -2.8199991635709409 3.696776930253904 0 3.696776930253904 -3.1000922723071653 0 0 0 0 30.184445386985317 -16.267479808144344 0 -16.267479808144344 -121.67133829198428 0 0 0 0 148.96544136332523 374.14324523129108 0 374.14324523129108 -393.31930165923984 0 0 0 0 128.61297777140862 141.14384726071876 0 141.14384726071876 -381.42668028931803 0 0 0 0 133.23832058980042 94.239654349427383 0 94.239654349427383 -4.5330648787567043 0 0 0 0 298.70047992233594 110.57985580892637 0 110.57985580892637 -68.527160080309841 0 0 0 0 147.2483600696869 365.65551988751395 0 365.65551988751395 -178.77404262009441 0 0 0 0 145.42366260550625 145.55905604238978 0 145.55905604238978 220.48886527214472 0 0 0 0 94.868063947724295 264.07577163454152 0 264.07577163454152 185.27331260308347 0 0 0 0 -2.0863128892286227 5.8141026856358238 0 5.8141026856358238 0.44449047558089561 0 0 0 0 -284.94870691365213 261.69292296314416 0 261.69292296314416 -230.28065998552938 0 0 0 0 -145.92161550623132 348.89264424790053 0 348.89264424790053 -347.36951895383027 0 0 0 0 -124.47099434447591 352.1239918850606 0 352.1239918850606 -761.57003639683899 0 0 0 0 -361.53277950397023 511.63447021889078 0 511.63447021889078 -124.81393359807407 0 0 0 0 -1.1571446571857678 0.66796143783599149 0 0.66796143783599149 0.23853820964655981 0 0 0 0 -190.06353578368726 805.11130606178631 0 805.11130606178631 -1167.1074316421782 0 0 0 0 -569.49644916220859 253.54298803910206 0 253.54298803910206 1291.2836869540915 0 0 0 0 -354.97308474977035 820.33341225034383 0 820.33341225034383 327.51787019832409 0 0 0 0 -554.66570032919844 469.23817372271697 0 469.23817372271697 -200.81177908790414 0 0 0 0 -875.79172805468261 624.18018295525144 0 624.18018295525144 -112.65178956290765 0 0 0 0 -200.88544291521976 302.75991408948175 0 302.75991408948175 -24.309071631432744 0 0 0 0 53.807462587943405 63.617066478438574 0 63.617066478438574 46.506506557366521 0 0 0 0 -240.2019617674523 312.27033251136163 0 312.27033251136163 -491.90295619689641 0 0 0 0 -109.57956121626194 186.97023465678831 0 186.97023465678831 -47.101623543952883 0 0 0 0 -101.16074482668773 145.14160232094582 0 145.14160232094582 71.726622791831687 0 0 0 0 -124.33262533397647 237.20409422160446 0 237.20409422160446 94.113199733659712 0 0 0 0 41.957118676690158 78.978029632545699 0 78.978029632545699 38.014880436269053 0 0 0 0 15.515684928475821 195.22454893330541 0 195.22454893330541 -66.393203754116257 0 0 0 0 -68.412745282519609 97.243565148790367 0 97.243565148790367 -43.008435393072432 0 0 0 0 -8.4041176845165069 14.853820876200047 0 14.853820876200047 -2.3739273886442902 0 0 0 0 -59.150454560520302 11.768856441705793 0 11.768856441705793 58.149699509580387 0 0 0 0 8.2001657687651459 182.48386204912094 0 182.48386204912094 -52.479152653017081 0 0 0 0 -54.300707496891079 33.005104068303844 0 33.005104068303844 -18.9488417972197 0 0 0 0 -70.73163889956777 51.55733216596127 0 51.55733216596127 -7.3757084796379786 0 0 0 0 -95.177146911475575 73.362766880251002 0 73.362766880251002 203.24458963302823 0 0 0 0 -53.389690942276502 44.813621801935369 0 44.813621801935369 194.88562383012322 0 0 0 0 -136.11934063682565 63.265960364376951 0 63.265960364376951 286.09325218587765 0 0 0 0 -110.95787102295435 107.39438785199673 0 107.39438785199673 212.68283637963759 0 0 0 0 -97.039587981489603 169.56580092169952 0 169.56580092169952 128.84471960866358 0 0 0 0 -81.597586782445433 75.120566388926818 0 75.120566388926818 182.34289875905961 0 0 0 0 -26.259605634666514 25.241851583909011 0 25.241851583909011 217.41333268086601 0 0 0 0 0.42637799488147721 195.76731645939071 0 195.76731645939071 415.92997430064133 0 0 0 0 -65.45418895498733 59.03363822036772 0 59.03363822036772 262.81169703147316 0 0 0 0 -72.792868606426055 117.68923023779644 0 117.68923023779644 290.25312027687323 0 0 0 0 -149.21167738328222 22.93726204225095 0 22.93726204225095 637.68775766465114 0 0 0 0 -349.30776171837351 157.27759015021002 0 157.27759015021002 219.92810819111764 0 0 0 0 28.506837980239652 116.47718000088935 0 116.47718000088935 507.05568422982469 0 0 0 0 -238.56318634455965 186.93208265231624 0 186.93208265231624 177.16853690942662 0 0 0 0 -4.7728458637544691 10.84816420615536 0 10.84816420615536 -5.004493733885397 0 0 0 0 -9.3993036827741889 157.04277465530322 0 157.04277465530322 -89.936193988440209 0 0 0 0 -13.69282077976149 0.79328960385667813 0 0.79328960385667813 11.776903373142517 0 0 0 0 -102.26244923094055 -42.901580455560179 0 -42.901580455560179 389.62929943667405 0 0 0 0 -18.761127272739941 155.38951790850297 0 155.38951790850297 148.69657171255676 0 0 0 0 -158.88006206904538 10.411805253621424 0 10.411805253621424 68.274714822284295 0 0 0 0 -53.130501525905856 65.14276911109846 0 65.14276911109846 42.161165564088151 0 0 0 0 -105.81666866946034 15.645228114804922 0 15.645228114804922 2.2289800052967621 0 0 0 0 -78.03609666180796 17.127110702157381 0 17.127110702157381 25.111352346615504 0 0 0 0 -46.936883571237558 68.068995252207969 0 68.068995252207969 38.594057103255182 0 0 0 0 -71.064942417098791 47.649879925511414 0 47.649879925511414 32.597403132604086 0 0 0 0 -69.189741798887553 85.730396787042991 0 85.730396787042991 37.865687340061413 0 0 0 0 -46.625097981843282 49.320923489976849 0 49.320923489976849 67.782577495607256 0 0 0 0 -145.61054788051842 338.70209475280262 0 338.70209475280262 -278.43219869268796 0 0 0 0 -18.12636924097751 111.53553533821105 0 111.53553533821105 -116.93163677225675 0 0 0 0 43.304908546581842 67.3991114196306 0 67.3991114196306 42.305957736627704 0 0 0 0 -189.54406565184763 292.50197229567493 0 292.50197229567493 -326.3253891211798 0 0 0 0 0.40323613474603803 9.0514906079263824 0 9.0514906079263824 11.55301165662754 0 0 0 0 -239.23502512185951 197.23578979788726 0 197.23578979788726 -135.75466397498894 0 0 0 0 -66.778518627881567 56.607089049981369 0 56.607089049981369 145.07666998860805 0 0 0 0 35.862881094439217 2.3594836723314074 0 2.3594836723314074 -0.03505448348732898 0 0 0 0 21.914730787879506 38.317504183131831 0 38.317504183131831 26.438773267704761 0 0 0 0 -11.83666854585681 10.521715880939453 0 10.521715880939453 10.597167620357595 0 0 0 0 -37.639223029473214 51.417413463601406 0 51.417413463601406 66.524719674427615 0 0 0 0 2.2611657260980706 34.812711807248377 0 34.812711807248377 58.255274653495462 0 0 0 0 -45.15269531076774 50.129792014800842 0 50.129792014800842 83.870818754287029 0 0 0 0 -36.693866150468239 60.708448615790985 0 60.708448615790985 91.29427256211784 0 0 0 0 -100.63688431747141 89.991284138741321 0 89.991284138741321 147.22607943673211 0 0 0 0 -41.775413434597795 -1.7831975606006836 0 -1.7831975606006836 113.69764309385209 0 0 0 0 -120.6122811770183 -6.0527718262892449 0 -6.0527718262892449 153.14402084278117 0 0 0 0 -107.05185744685878 163.57334247463587 0 163.57334247463587 -166.5003201870004 0 0 0 0 -5.3627623030164671 0.34014801306835807 0 0.34014801306835807 -1.6484683451193689 0 0 0 0 -382.34778185602045 -57.944857255351963 0 -57.944857255351963 332.05502162727498 0 0 0 0 -73.496364756312687 -90.579711425591086 0 -90.579711425591086 38.686386142118863 0 0 0 0 -23.748645863018112 16.057776722463757 0 16.057776722463757 -15.285992763400458 0 0 0 0 51.576500561757712 210.68534128732426 0 210.68534128732426 250.21099254343426 0 0 0 0 -106.42445731541375 139.95681240337581 0 139.95681240337581 350.04414278802597 0 0 0 0 -32.629590269090841 38.973466346818896 0 38.973466346818896 142.30498273349804 0 0 0 0 20.276026437306427 45.946043159201508 0 45.946043159201508 -90.201556110166166 0 0 0 0 2.5856609503243817 456.21566496361629 0 456.21566496361629 -643.11535910394741 0 0 0 0 -295.89890012476826 415.57781916776003 0 415.57781916776003 37.856019046201254 0 0 0 0 -415.23658260183583 720.75645657169662 0 720.75645657169662 -505.94065124476765 0 0 0 0 3.261645781092966 29.613629150498838 0 29.613629150498838 -76.146606804151759 0 0 0 0 -5.430649472415098 35.564230044001306 0 35.564230044001306 -82.893162075466535 0 0 0 0 -3.4747835234593367 25.005209033559368 0 25.005209033559368 -79.865747976404236 0 0 0 0 -30.468905604298925 57.786665501273092 0 57.786665501273092 -85.130899215320824 0 0 0 0 -32.848976839188254 47.365449511693441 0 47.365449511693441 -66.81225167559387 0 0 0 0 2.1223367381795306 32.801712186044398 0 32.801712186044398 -59.051827487025065 0 0 0 0 -22.692957922292408 40.457254210719839 0 40.457254210719839 -74.712278039602097 0 0 0 0 48.467514683812624 15.109070065256674 0 15.109070065256674 -19.879955957760103 0 0 0 0 17.48517734689193 -0.36193327445921852 0 -0.36193327445921852 -38.234224794023191 0 0 0 0 -77.410520076169632 -108.4493726669134 0 -108.4493726669134 -76.806710742006544 0 0 0 0 -7.3427031629084212 42.489739570625659 0 42.489739570625659 -55.634903995512872 0 0 0 0 -1.922268109325401 44.27200569254822 0 44.27200569254822 -37.869102733249576 0 0 0 0 19.118447398805678 43.889869835323573 0 43.889869835323573 -86.012914267096392 0 0 0 0 162.32466927604946 -103.84825618885134 0 -103.84825618885134 -380.50566770584555 0 0 0 0 -15.101539117285938 81.962765049271638 0 81.962765049271638 -31.468995401053689 0 0 0 0 -12.735360073796301 12.369487451664284 0 12.369487451664284 -13.581153591460549 0 0 0 0 -144.75401761237299 97.50690189866873 0 97.50690189866873 -51.574334379023639 0 0 0 0 -66.866895657499157 62.275721187561501 0 62.275721187561501 -20.72464712102046 0 0 0 0 -123.99414657395391 -14.0818836614053 0 -14.0818836614053 -97.15376636851579 0 0 0 0 -47.9546186113148 58.71023505028279 0 58.71023505028279 -59.328372592222877 0 0 0 0 -39.319257624881601 33.564188605134518 0 33.564188605134518 -10.975655978960749 0 0 0 0 -0.01366946526331958 9.1343693008970206 0 9.1343693008970206 -6.2238698079767403 0 0 0 0 14.736760784021286 21.597622368689102 0 21.597622368689102 -58.189741563435717 0 0 0 0 -36.225037385676842 51.823386966458202 0 51.823386966458202 -59.379333878590842 0 0 0 0 76.958698781643761 -14.994387120465035 0 -14.994387120465035 -78.670192151614174 0 0 0 0 4.6032592818583851 6.7386535870970334 0 6.7386535870970334 -13.262878536172302 0 0 0 0 274.84356179035967 365.59032001985906 0 365.59032001985906 275.3167688359099 0 0 0 0 33.875594145385548 14.829643764089269 0 14.829643764089269 -82.221872938112938 0 0 0 0 246.01806176052196 299.30103902494193 0 299.30103902494193 59.119770697579952 0 0 0 0 667.16975392552558 362.87965218124737 0 362.87965218124737 -111.52870803789847 0 0 0 0 407.15439754818362 -112.96685026784871 0 -112.96685026784871 -109.57694817766605 0 0 0 0 196.6273439321667 778.96873468607373 0 778.96873468607373 -513.04777539638053 0 0 0 0 -237.18697434785281 398.97512433364136 0 398.97512433364136 -448.79869519663771 0 0 0 0 -438.35881971665367 431.32043524285109 0 431.32043524285109 -583.67134359130432 0 0 0 0 -183.57102333271177 161.02617272915086 0 161.02617272915086 -428.13263622223394 0 0 0 0 67.866952229043818 619.48712700856049 0 619.48712700856049 -838.20244810931035 0 0 0 0 622.58150456194562 293.73674073703478 0 293.73674073703478 -587.42150569565274 0 0 0 0 -55.601886325908708 616.41073678537578 0 616.41073678537578 -561.25594749502375 0 0 0 0 -388.60006557010638 -258.33987843507566 0 -258.33987843507566 31.217364473122871 0 0 0 0 2.0813835125001674 -1.1683649737081652 0 -1.1683649737081652 -2.634872535418225 0 0 0 0 107.68673167163797 -14.767831870385635 0 -14.767831870385635 33.205741868026962 0 0 0 0 -44.925369743042921 15.082220560720252 0 15.082220560720252 10.915457279925725 0 0 0 0 53.621976276408532 172.93442403950394 0 172.93442403950394 128.87702871444708 0 0 0 0 -20.557253193190263 57.182927383000788 0 57.182927383000788 36.130327264250809 0 0 0 0 106.02575782326494 21.867964961416419 0 21.867964961416419 -82.818537688704964 0 0 0 0 -720.04181371850427 896.07303514611704 0 896.07303514611704 233.03461510187481 0 0 0 0 586.51848820061423 622.5515331155184 0 622.5515331155184 -974.75791371616651 0 0 0 0 -17.012523556942142 -0.74066486677482146 0 -0.74066486677482146 -1.5653701870073888 0 0 0 0 -36.739969772424189 47.963127046390994 0 47.963127046390994 -64.092348974991836 0 0 0 0 -220.37244996284426 294.65492048329543 0 294.65492048329543 472.51985493816028 0 0 0 0 -26.511652771281661 673.71101586215445 0 673.71101586215445 -967.34120838959643 0 0 0 0 18.002260336922518 56.874958373340633 0 56.874958373340633 -245.50589826067153 0 0 0 0 -3.0476715127238236 3.6694230350096717 0 3.6694230350096717 -1.4305094091497494 0 0 0 0 -57.735139128642913 12.87433982823859 0 12.87433982823859 115.82604678573261 0 0 0 0 -81.431289084361197 61.191077724839488 0 61.191077724839488 -15.466573230463837 0 0 0 0 -13.707800487721265 6.7530297695641934 0 6.7530297695641934 -34.076046636863254 0 0 0 0 -4.5059346622940097 23.737409913875272 0 23.737409913875272 -72.070091672505669 0 0 0 0 -722.0893038093418 -1071.8756345844049 0 -1071.8756345844049 -622.69502391037531 0 0 0 0 -280.76024108278216 87.622178009922209 0 87.622178009922209 -212.2159903796869 0 0 0 0 139.63583904058032 17.769011426862562 0 17.769011426862562 -567.2447423353442 0 0 0 0 226.30376352737949 437.38916011943729 0 437.38916011943729 64.003500420716591 0 0 0 0 -413.62299277673083 559.07331141504983 0 559.07331141504983 -166.85827368745231 0 0 0 0 -346.83562329099459 524.65428995586353 0 524.65428995586353 -548.45323534309864 0 0 0 0 -280.37275584216695 160.32747502144775 0 160.32747502144775 294.41038138823933 0 0 0 0 -296.24584510442946 115.06586576309201 0 115.06586576309201 181.86312430023099 0 0 0 0 -0.75861353749291993 -1.2076785170424955 0 -1.2076785170424955 2.4470446534810151 0 0 0 0 -27.867903312420822 131.36751177676342 0 131.36751177676342 -253.38979478485999 0 0 0 0 1005.3728272909502 92.778931602013472 0 92.778931602013472 -860.46518016114715 0 0 0 0 1112.9753247639164 -481.3236013847054 0 -481.3236013847054 -324.98013553855708 0 0 0 0 388.16554309551702 174.19895244962981 0 174.19895244962981 -297.28580897572101 0 0 0 0 152.46738096404442 87.193166633347573 0 87.193166633347573 -163.41429742761829 0 0 0 0 365.44186585654779 -102.13099071740407 0 -102.13099071740407 223.83104685715807 0 0 0 0 265.44920132908737 224.37530719388451 0 224.37530719388451 -106.71241965701483 0 0 0 0 21.562133292311046 241.64407159540133 0 241.64407159540133 -49.221225426859746 0 0 0 0 -0.042115568209027288 6.1666290171976357 0 6.1666290171976357 -1.9588365832965735 0 0 0 0 345.04346527704547 28.548065763356135 0 28.548065763356135 -48.799888862500666 0 0 0 0 205.60239142636419 187.30057726128143 0 187.30057726128143 22.326804985052149 0 0 0 0 -207.67719200350257 486.93874576617964 0 486.93874576617964 -123.30685534431586 0 0 0 0 -58.972117172972503 292.13052860046992 0 292.13052860046992 -1237.6920895440417 0 0 0 0 -177.10818848954659 322.21207740906539 0 322.21207740906539 -240.2791587367974 0 0 0 0 171.42070117675758 101.93717934847518 0 101.93717934847518 -837.00895496622616 0 0 0 0 -192.99257498604857 252.07750858769577 0 252.07750858769577 -46.498001452593599 0 0 0 0 27.456970024570182 199.90329609097171 0 199.90329609097171 -186.60011428536382 0 0 0 0 -96.939719688713012 48.049450867280029 0 48.049450867280029 -168.80940364535491 0 0 0 0 9.9689829214476049 176.28348718907364 0 176.28348718907364 -40.906663255635067 0 0 0 0 38.897780289436923 191.29308428705554 0 191.29308428705554 -33.706076805337943 0 0 0 0 42.911388468012873 69.385540168145127 0 69.385540168145127 -1.1747281479888354 0 0 0 0 76.351405148016056 149.77531562896183 0 149.77531562896183 -45.778980840172153 0 0 0 0 48.751892009015137 88.315044674054661 0 88.315044674054661 -47.358660972324742 0 0 0 0 -69.588422044755134 92.092410809147623 0 92.092410809147623 102.86584671957098 0 0 0 0 2.7831794731265802 81.820567284360209 0 81.820567284360209 6.9654330917423826 0 0 0 0 37.6629571271842 81.812508058414096 0 81.812508058414096 -10.748935586139851 0 0 0 0 183.00571964028495 114.50038566443254 0 114.50038566443254 -113.09750367252855 0 0 0 0 10.616487465679882 -2.1294349403121799 0 -2.1294349403121799 -10.260845881287253 0 0 0 0 -11.492344048077939 132.65408893152198 0 132.65408893152198 -42.869100971365697 0 0 0 0 62.380442910391139 236.00867149000987 0 236.00867149000987 -69.317111429591023 0 0 0 0 181.87689540246356 231.49850066126237 0 231.49850066126237 -112.71138256225095 0 0 0 0 139.39495020359755 154.38776917675568 0 154.38776917675568 -141.38431817494711 0 0 0 0 84.182965084384449 82.405038921757665 0 82.405038921757665 -24.031605251633135 0 0 0 0 -159.63116944947978 79.244030873000156 0 79.244030873000156 -288.54422221337518 0 0 0 0 112.7924571793701 109.23397101606679 0 109.23397101606679 1.2178120951074334 0 0 0 0 166.42137712597832 162.90321136809507 0 162.90321136809507 -329.69913229928352 0 0 0 0 22.346030488362885 219.69908736662182 0 219.69908736662182 -166.72507777286955 0 0 0 0 177.33225425311457 94.715239067346374 0 94.715239067346374 -26.003984436414612 0 0 0 0 90.217407845892012 118.11606270581797 0 118.11606270581797 3.5053234805604916 0 0 0 0 100.11742057012088 72.963960361546924 0 72.963960361546924 11.99862445530016 0 0 0 0 49.161730152922246 106.09982440361637 0 106.09982440361637 -2.6285566940059653 0 0 0 0 57.273985064681256 64.002991218962052 0 64.002991218962052 -4.3203344962967094 0 0 0 0 0.56950487231370062 80.087021754507987 0 80.087021754507987 -9.8876711070970487 0 0 0 0 -11.968289423439273 103.58439915577765 0 103.58439915577765 -53.734725166126736 0 0 0 0 35.700703915271333 75.28157112905501 0 75.28157112905501 -13.560275937961705 0 0 0 0 -25.209097144557745 107.08910657240995 0 107.08910657240995 -3.1136454451598183 0 0 0 0 55.555578101453648 68.513108714381815 0 68.513108714381815 -5.0714092488851747 0 0 0 0 50.651005615584239 69.890594417549352 0 69.890594417549352 -3.7553247408523447 0 0 0 0 -34.384613359824016 51.237218819368536 0 51.237218819368536 52.116837919391401 0 0 0 0 9.788711052689905 127.33879095119664 0 127.33879095119664 -11.335765830059245 0 0 0 0 5.4704344803321874 114.16628499300896 0 114.16628499300896 -26.933476707999944 0 0 0 0 50.756300963927842 71.619307082898885 0 71.619307082898885 -18.678517361631705 0 0 0 0 88.689922369958367 77.39124181153602 0 77.39124181153602 -19.600469518356476 0 0 0 0 113.24098775486345 121.77691394251269 0 121.77691394251269 29.305024157472872 0 0 0 0 199.47847795989651 69.953332123960649 0 69.953332123960649 -4.4008274893349153 0 0 0 0 299.90601673949277 162.4784289427771 0 162.4784289427771 -69.536488286581516 0 0 0 0 359.16697440168537 78.160565896128674 0 78.160565896128674 -29.865696529770503 0 0 0 0 334.95370473739604 221.57600037640259 0 221.57600037640259 -96.793183557100747 0 0 0 0 530.00951652776666 -78.540599074594354 0 -78.540599074594354 16.893206365064543 0 0 0 0 551.97672229966656 320.53267337746661 0 320.53267337746661 24.301225511077064 0 0 0 0 320.55538726077066 222.81639839757918 0 222.81639839757918 148.51248438813127 0 0 0 0 273.51813631843834 326.28841702619866 0 326.28841702619866 134.10194916582805 0 0 0 0 65.763841974210663 280.70917517732732 0 280.70917517732732 151.73788100180536 0 0 0 0 32.237968189074309 174.15492737455088 0 174.15492737455088 -69.308066912810318 0 0 0 0 -243.90610816040135 120.52320974872055 0 120.52320974872055 163.22275253695625 0 0 0 0 52.592933227157907 105.87989273962994 0 105.87989273962994 17.554719609707391 0 0 0 0 64.651799879409737 34.651232198262733 0 34.651232198262733 10.794989186093517 0 0 0 0 154.39005734728471 54.64300286188427 0 54.64300286188427 -13.345090996255749 0 0 0 0 1.8140232979576467 153.46037807938274 0 153.46037807938274 -3.1256905912850925 0 0 0 0 50.104157241748013 101.26147087841147 0 101.26147087841147 24.437754692965882 0 0 0 0 -174.4849948583651 227.97812229334886 0 227.97812229334886 52.173948634012049 0 0 0 0 115.85345168852291 82.000488840219987 0 82.000488840219987 -17.392455163546401 0 0 0 0 69.831078320304343 85.776299769274573 0 85.776299769274573 -6.071086046722769 0 0 0 0 84.535285865493279 150.32959018802649 0 150.32959018802649 -22.756145025449314 0 0 0 0 72.579146982323039 117.26917659936467 0 117.26917659936467 16.367600954791143 0 0 0 0 78.745685872182776 150.60027041259855 0 150.60027041259855 -10.763917797790782 0 0 0 0 -157.77421878567111 97.36998714861511 0 97.36998714861511 237.31321041543197 0 0 0 0 369.20487562798735 320.30466111642454 0 320.30466111642454 10.101581768976757 0 0 0 0 332.59395268445951 155.84044153247487 0 155.84044153247487 -101.8092400981368 0 0 0 0 159.13892615464283 67.496265544938069 0 67.496265544938069 -113.93465542986814 0 0 0 0 234.1479373311231 216.58786477491276 0 216.58786477491276 -66.884992241524742 0 0 0 0 271.07670333429996 219.21942978700827 0 219.21942978700827 -74.312964091635877 0 0 0 0 272.79050649516648 203.81806642533957 0 203.81806642533957 16.890757745051815 0 0 0 0 132.13156988984701 251.17707914887797 0 251.17707914887797 222.89276881098704 0 0 0 0 4.7513255920556503 -0.4732700514319248 0 -0.4732700514319248 0.63618017379531722 0 0 0 0 -14.574905292829499 99.650401389812032 0 99.650401389812032 74.488013707230493 0 0 0 0 -232.5130983251729 43.492267431087384 0 43.492267431087384 -179.33475227515737 0 0 0 0 -747.06774041071185 -469.61425994264573 0 -469.61425994264573 924.24092503973952 0 0 0 0 -65.296560795803089 -121.77010824102035 0 -121.77010824102035 -329.42743414395227 0 0 0 0 88.504743600780401 76.597028851010293 0 76.597028851010293 3.4790157138869864 0 0 0 0 651.26619771665719 148.04987997484932 0 148.04987997484932 -310.26978111905555 0 0 0 0 -288.70951411785791 133.54344187602328 0 133.54344187602328 188.16932184727193 0 0 0 0 -231.95318546717317 119.734374956588 0 119.734374956588 72.680337801451969 0 0 0 0 79.628993699242898 122.73373325505818 0 122.73373325505818 34.309232819651697 0 0 0 0 185.20453428178735 530.64693671914574 0 530.64693671914574 507.08655548379829 0 0 0 0 201.5245413905177 233.68977497864853 0 233.68977497864853 3.8163478742935695 0 0 0 0 226.25457074174119 278.57030073315764 0 278.57030073315764 -21.567265786390635 0 0 0 0 565.54156357570173 449.61991758003569 0 449.61991758003569 45.675645983297727 0 0 0 0 116.01266304865936 97.621279372938091 0 97.621279372938091 3.9252682337722495 0 0 0 0 349.81862252042993 167.03726372230449 0 167.03726372230449 -67.683881398513222 0 0 0 0 129.60406352999962 285.66767769751459 0 285.66767769751459 -56.946374364524672 0 0 0 0 12.356580065082326 27.856003135368923 0 27.856003135368923 2.5372677514484394 0 0 0 0 27.386278930422122 71.002417873587547 0 71.002417873587547 -8.9878842801408609 0 0 0 0 -62.080180322147498 44.024558154666011 0 44.024558154666011 114.967099744812 0 0 0 0 -97.067164036896429 111.53882414749387 0 111.53882414749387 -15.230323592834793 0 0 0 0 1026.5765300341955 114.76960075261195 0 114.76960075261195 -182.51334016106557 0 0 0 0 -2.3116361500424176 -2.6988572420010684 0 -2.6988572420010684 10.218422943827079 0 0 0 0 564.74419005753953 44.562672349882632 0 44.562672349882632 -116.53320396208801 0 0 0 0 239.98212551210599 606.4265051637849 0 606.4265051637849 151.4636999355871 0 0 0 0 -30.733433038651128 271.00594455815371 0 271.00594455815371 -237.32810209803574 0 0 0 0 60.8064405327641 198.21751184245295 0 198.21751184245295 506.71947456687485 0 0 0 0 43.773857265587139 375.33007678359718 0 375.33007678359718 77.875196634391614 0 0 0 0 -87.047578676021658 245.97621347171662 0 245.97621347171662 116.39545003153034 0 0 0 0 -404.98035105565759 331.53860028243071 0 331.53860028243071 385.58222816478519 0 0 0 0 50.644548975012306 106.84018605701917 0 106.84018605701917 35.170138485422314 0 0 0 0 183.27111855164185 94.603099407027912 0 94.603099407027912 -642.68320055458753 0 0 0 0 -121.96246790483929 317.42309544306408 0 317.42309544306408 43.856289190371172 0 0 0 0 -0.31168575125131781 0.73295383785004731 0 0.73295383785004731 -7.5772154159103877e-05 0 0 0 0 283.69484031511092 141.31991574179119 0 141.31991574179119 -431.3851123098575 0 0 0 0 63.37176822048059 39.496048446177156 0 39.496048446177156 -137.77592843107414 0 0 0 0 55.503126909109213 102.23750692412908 0 102.23750692412908 20.312442056895549 0 0 0 0 -284.83973838960264 249.43268231193724 0 249.43268231193724 5.6450997803840437 0 0 0 0 -157.45425166417408 169.74212266863469 0 169.74212266863469 -38.074811762395257 0 0 0 0 -314.95192807033163 160.55928338987724 0 160.55928338987724 20.765273217723006 0 0 0 0 149.76877652410258 -35.446926014377823 0 -35.446926014377823 16.919374081873684 0 0 0 0 -287.10121927249565 442.92726741230217 0 442.92726741230217 309.15744544632616 0 0 0 0 31.255111408428267 110.34619487874922 0 110.34619487874922 3.3160733150425017 0 0 0 0 -378.53572030092437 266.91198170784082 0 266.91198170784082 -29.091800528549356 0 0 0 0 50.354452360773308 30.508682072068694 0 30.508682072068694 -42.855226218037288 0 0 0 0 -207.12567724082874 221.58421096457278 0 221.58421096457278 -158.04913056912483 0 0 0 0 -422.52752201908152 194.69632065028418 0 194.69632065028418 -91.984058082161937 0 0 0 0 -160.66436685332883 209.25493268814898 0 209.25493268814898 -47.503434029305936 0 0 0 0 -174.34406877666333 136.7882648977029 0 136.7882648977029 -29.491057915627607 0 0 0 0 -225.01516825408726 180.51660795455609 0 180.51660795455609 -62.219650801853277 0 0 0 0 -201.85097141780716 148.92805114695511 0 148.92805114695511 -78.71226105025562 0 0 0 0 -159.99213756219979 122.45347299416608 0 122.45347299416608 -79.474082043885574 0 0 0 0 -146.23693142020056 112.85929367051722 0 112.85929367051722 -86.850766827315965 0 0 0 0 -103.06513346559223 133.33778530542622 0 133.33778530542622 -66.522711694269674 0 0 0 0 -154.18839558452237 137.07878894351961 0 137.07878894351961 -43.909138463219278 0 0 0 0 -108.3260120169507 73.122805308426905 0 73.122805308426905 -52.620781198312216 0 0 0 0 -177.48127454770292 162.49844867785578 0 162.49844867785578 -110.6597715386888 0 0 0 0 -167.36578476599607 144.09221915932721 0 144.09221915932721 -92.611693450016901 0 0 0 0 -189.76726151898038 114.95046111402917 0 114.95046111402917 -70.178567491893773 0 0 0 0 71.508145566243329 99.602580200916833 0 99.602580200916833 -117.37253674313686 0 0 0 0 -385.08480666218384 290.50139844304067 0 290.50139844304067 -101.50113562107435 0 0 0 0 -171.91047361666278 137.87009003106505 0 137.87009003106505 -138.34149834012351 0 0 0 0 -25.676313598225533 124.69653299166384 0 124.69653299166384 37.653666269718087 0 0 0 0 69.429656694199366 120.47648109003785 0 120.47648109003785 15.968348195805447 0 0 0 0 30.309111980379384 90.447002574808721 0 90.447002574808721 -22.451471432133985 0 0 0 0 -98.79428025526795 98.656664913345594 0 98.656664913345594 -21.199807848890487 0 0 0 0 -102.65604584135872 126.39275289674697 0 126.39275289674697 40.8196707189054 0 0 0 0 -27.676059329744021 87.151287288827007 0 87.151287288827007 -34.693053118047828 0 0 0 0 -43.412462817155756 183.79359430068871 0 183.79359430068871 -15.781165886524832 0 0 0 0 -121.92069099060609 149.05187435938205 0 149.05187435938205 31.344376598412055 0 0 0 0 -23.392540944736538 135.90770645396333 0 135.90770645396333 94.046078808984021 0 0 0 0 55.254986754276615 202.93288057259633 0 202.93288057259633 71.945671527035302 0 0 0 0 51.05630983597257 150.97625484686432 0 150.97625484686432 114.71920401643729 0 0 0 0 58.130261096794129 183.83023028743264 0 183.83023028743264 172.29617003188469 0 0 0 0 144.15332554813358 272.01608032737568 0 272.01608032737568 163.89191242473316 0 0 0 0 73.632361164798567 304.35355482009254 0 304.35355482009254 56.979652893205639 0 0 0 0 61.155830159954348 305.6650945770034 0 305.6650945770034 316.27880346520396 0 0 0 0 -35.41135628977645 209.12492465014293 0 209.12492465014293 -1.5323046973644523 0 0 0 0 -90.474781460492522 260.29697793570085 0 260.29697793570085 7.2972570398760581 0 0 0 0 304.95168315574847 377.27032467754179 0 377.27032467754179 -28.975685035576134 0 0 0 0 -62.827749703898007 142.24569018851616 0 142.24569018851616 -129.55043986004603 0 0 0 0 165.11171181186728 642.01376605276528 0 642.01376605276528 94.902720137441065 0 0 0 0 238.29623620394068 539.86665074270968 0 539.86665074270968 -220.7950802436535 0 0 0 0 169.86263673917165 719.15717209729655 0 719.15717209729655 683.43020769087889 0 0 0 0 0.65438159878608815 7.1010473184157945 0 7.1010473184157945 -4.9440012839284861 0 0 0 0 26.303402018951601 627.14693635774165 0 627.14693635774165 1243.235645306806 0 0 0 0 96.422796509497857 -360.95815584679076 0 -360.95815584679076 -1652.8459188081179 0 0 0 0 -430.18550403237896 -364.60395989584504 0 -364.60395989584504 -638.57952701174145 0 0 0 0 251.5183535299002 434.21741521293006 0 434.21741521293006 527.30339130835637 0 0 0 0 248.25145345969213 257.13115975167239 0 257.13115975167239 736.9522403114388 0 0 0 0 315.30459091779812 395.83351797130672 0 395.83351797130672 582.17571421626781 0 0 0 0 232.62617122415395 372.63605527902837 0 372.63605527902837 464.47306077565008 0 0 0 0 274.42396528705285 269.8197241241287 0 269.8197241241287 310.94551500064699 0 0 0 0 141.1096093819724 326.77078263260046 0 326.77078263260046 305.65474843567063 0 0 0 0 234.76027427829831 274.71048977231112 0 274.71048977231112 330.63430635041732 0 0 0 0 137.54639322655567 -383.51447975455812 0 -383.51447975455812 -393.77643929560145 0 0 0 0 277.16958729596809 -453.62996986391954 0 -453.62996986391954 -741.33016119879903 0 0 0 0 635.887951267272 -667.15458538042731 0 -667.15458538042731 -616.82539289578563 0 0 0 0 419.36093808704663 106.32399250910839 0 106.32399250910839 -1062.1191747511184 0 0 0 0 894.51833375975548 -53.451637842546916 0 -53.451637842546916 -1016.7626869504202 0 0 0 0 -4.8837062376130689 16.982095314213453 0 16.982095314213453 -10.524519560937392 0 0 0 0 562.5243796230061 -14.725041968107689 0 -14.725041968107689 -800.8683778421946 0 0 0 0 134.04313080241263 429.08806621181793 0 429.08806621181793 780.42595690707094 0 0 0 0 204.01810751981975 365.45882341343895 0 365.45882341343895 -699.00044353872363 0 0 0 0 216.26332172907132 314.63169346020004 0 314.63169346020004 438.05094883889251 0 0 0 0 173.95981966689578 330.982113047241 0 330.982113047241 567.58738784483285 0 0 0 0 191.23686896741856 309.8512159058082 0 309.8512159058082 395.14495812133828 0 0 0 0 174.87563591689104 359.01776972704101 0 359.01776972704101 576.02811012974416 0 0 0 0 92.227197156316834 262.86430692669819 0 262.86430692669819 693.13821140329674 0 0 0 0 124.05742461756017 232.83018895762507 0 232.83018895762507 571.48294041059853 0 0 0 0 125.08465727432099 250.75972414342914 0 250.75972414342914 405.15404426239547 0 0 0 0 157.87459898425732 310.5300089490629 0 310.5300089490629 227.17823833988223 0 0 0 0 122.46519872603676 317.0552494139265 0 317.0552494139265 389.86502926921821 0 0 0 0 163.40707160812599 316.46207483087346 0 316.46207483087346 295.75892793525418 0 0 0 0 148.27858639887563 315.06199844213552 0 315.06199844213552 397.78437648733961 0 0 0 0 143.31829642812227 320.67968910730269 0 320.67968910730269 295.88234999093402 0 0 0 0 177.61050027205783 333.59206565970089 0 333.59206565970089 223.78050778919715 0 0 0 0 214.23716840768611 317.45067458708218 0 317.45067458708218 189.51181290784734 0 0 0 0 158.00064719856891 299.67791053876863 0 299.67791053876863 270.26433997983168 0 0 0 0 215.69450511821196 334.17093944389489 0 334.17093944389489 273.73919863690389 0 0 0 0 233.71150365376889 312.1116736336844 0 312.1116736336844 261.85739840500173 0 0 0 0 186.70130879007047 336.74952717920678 0 336.74952717920678 425.34706997482135 0 0 0 0 176.05866831291496 248.48963052693944 0 248.48963052693944 197.78215373994317 0 0 0 0 158.44174019788625 289.71504439157434 0 289.71504439157434 126.10048567158083 0 0 0 0 169.82882496323873 285.43716631830466 0 285.43716631830466 138.30543409343227 0 0 0 0 108.9874892335356 283.21582425828092 0 283.21582425828092 147.80159291793825 0 0 0 0 140.57725907526037 268.17281234677648 0 268.17281234677648 179.18816856466583 0 0 0 0 153.89021898029023 298.09595882835129 0 298.09595882835129 203.88026106924372 0 0 0 0 147.35838984528527 320.70713684977818 0 320.70713684977818 175.55015259137144 0 0 0 0 148.32076340109052 291.49543627543608 0 291.49543627543608 136.41683010119596 0 0 0 0 131.98905194175677 326.1560336725106 0 326.1560336725106 172.78666412457824 0 0 0 0 151.5239662805543 316.05789165946771 0 316.05789165946771 174.64130563923209 0 0 0 0 143.48094897807096 332.87242523564419 0 332.87242523564419 219.0296593841631 0 0 0 0 142.84915378426376 174.78159309957118 0 174.78159309957118 150.96125139277865 0 0 0 0 132.77623511786078 211.44996054970397 0 211.44996054970397 115.40653894962486 0 0 0 0 130.52974826200079 198.40314249517542 0 198.40314249517542 240.76572080590995 0 0 0 0 226.68473253666889 255.23587276133185 0 255.23587276133185 168.1050361286907 0 0 0 0 178.59804131913552 306.4938621240799 0 306.4938621240799 298.59262815342663 0 0 0 0 186.49298503992941 221.92007192824894 0 221.92007192824894 212.46591836572043 0 0 0 0 219.17205889745674 319.65930286592629 0 319.65930286592629 258.13139215471892 0 0 0 0 172.64783578704373 260.28814907505148 0 260.28814907505148 170.67657655093353 0 0 0 0 170.05929152980389 200.76047978365386 0 200.76047978365386 104.90251570389955 0 0 0 0 169.90505104043405 281.56623507308541 0 281.56623507308541 169.74517340239981 0 0 0 0 166.32452502480737 209.73679510994407 0 209.73679510994407 49.838637900858885 0 0 0 0 126.05971383239375 218.63396696530981 0 218.63396696530981 111.07348955477937 0 0 0 0 106.09179252915783 213.74115994010936 0 213.74115994010936 103.97106158873794 0 0 0 0 140.04973235094803 184.12916773530014 0 184.12916773530014 39.87092012426001 0 0 0 0 71.843128823304141 165.56562111533276 0 165.56562111533276 94.900520384508127 0 0 0 0 114.7807221502444 214.67574605379195 0 214.67574605379195 101.94414780633815 0 0 0 0 122.48023965867469 170.3866377334416 0 170.3866377334416 51.191590616159374 0 0 0 0 79.605380403671006 120.96792541869945 0 120.96792541869945 42.474567458924867 0 0 0 0 41.879671332128055 151.54810149990954 0 151.54810149990954 17.810832216957351 0 0 0 0 42.341620233930371 93.563945933172363 0 93.563945933172363 -10.426482455004589 0 0 0 0 40.493968182319804 91.791350945841259 0 91.791350945841259 -74.441739782909281 0 0 0 0 11.801247653020255 122.60582315624924 0 122.60582315624924 -23.770457244123463 0 0 0 0 67.750271155513474 133.35054547017353 0 133.35054547017353 30.795516560150645 0 0 0 0 73.569045844411448 157.64346790594391 0 157.64346790594391 -21.243819397059269 0 0 0 0 103.72154758176293 215.71851365522889 0 215.71851365522889 50.63645882482524 0 0 0 0 89.132465941467672 161.82640406242717 0 161.82640406242717 -2.8355710018367972 0 0 0 0 44.458168449586083 182.03261946223938 0 182.03261946223938 -11.844264091036166 0 0 0 0 47.235900082610897 134.72466297890787 0 134.72466297890787 -73.40581733554427 0 0 0 0 40.668329526211892 162.18268662953778 0 162.18268662953778 -120.74121333271614 0 0 0 0 11.296521956222932 131.15477792606725 0 131.15477792606725 -138.07077666978876 0 0 0 0 6.8085075490816962 112.93712555045204 0 112.93712555045204 -79.380224649544289 0 0 0 0 -6.8202874952585262 78.768162605541875 0 78.768162605541875 -121.60899920116935 0 0 0 0 -31.165053410644759 110.92753793930024 0 110.92753793930024 -77.119892482616706 0 0 0 0 70.478975900134174 136.65158041209907 0 136.65158041209907 -83.617811923773843 0 0 0 0 99.479797925891035 290.87055434993817 0 290.87055434993817 107.76287263921404 0 0 0 0 109.62052206539374 245.14430763624114 0 245.14430763624114 30.34797057279502 0 0 0 0 117.57447560552464 315.83448973476334 0 315.83448973476334 142.4881627207069 0 0 0 0 127.53647828929024 271.80340257065109 0 271.80340257065109 94.815774625531049 0 0 0 0 134.83361761733249 310.757999655616 0 310.757999655616 123.95734063113196 0 0 0 0 98.025271918391809 282.34855892662017 0 282.34855892662017 91.256904615431267 0 0 0 0 120.23430619901774 229.74848474790633 0 229.74848474790633 22.152341989523848 0 0 0 0 153.10095045630806 250.47579973559186 0 250.47579973559186 77.522536834498169 0 0 0 0 81.622118822597258 238.39723811429212 0 238.39723811429212 84.212849158619065 0 0 0 0 117.14004288374417 238.00577547140711 0 238.00577547140711 13.133476961062115 0 0 0 0 53.715236632790038 196.85436436616556 0 196.85436436616556 -56.973778353261878 0 0 0 0 68.333075900554832 170.18250047555921 0 170.18250047555921 -21.987405726547877 0 0 0 0 59.998875271878205 140.96471683191339 0 140.96471683191339 -107.52953823958524 0 0 0 0 35.030011338094482 213.13604714551184 0 213.13604714551184 -59.177495710289804 0 0 0 0 65.273829150093661 233.7854404892239 0 233.7854404892239 28.123538272688165 0 0 0 0 97.039261710662686 261.463687618525 0 261.463687618525 9.3634988430130761 0 0 0 0 50.996654579223105 232.99242176291591 0 232.99242176291591 47.24438517789531 0 0 0 0 84.564195224564173 193.06647928530219 0 193.06647928530219 -51.272333253647957 0 0 0 0 29.655097170019872 124.33585554653837 0 124.33585554653837 -114.63835567995193 0 0 0 0 32.661652851471445 164.73174363953149 0 164.73174363953149 -18.672782632775125 0 0 0 0 46.544703433235554 196.70218144242517 0 196.70218144242517 -99.93664390243066 0 0 0 0 32.538305692789436 115.82431336841546 0 115.82431336841546 -206.0609823706327 0 0 0 0 47.612926505051291 157.61379526969358 0 157.61379526969358 -256.66884235771431 0 0 0 0 16.492213314850233 164.07246867734648 0 164.07246867734648 -119.36752677097684 0 0 0 0 29.96938849586877 149.5607738654835 0 149.5607738654835 -318.26763382017089 0 0 0 0 38.6211404813439 76.712372849153326 0 76.712372849153326 -381.07249523196879 0 0 0 0 13.94643594383524 98.239813833759399 0 98.239813833759399 -287.29221708376826 0 0 0 0 27.13301774250067 72.000004255027306 0 72.000004255027306 -267.16107198168538 0 0 0 0 64.50234272290254 141.02460079132652 0 141.02460079132652 -414.19244746031109 0 0 0 0 7.9135774745082017 123.99864846921628 0 123.99864846921628 -228.69175447826274 0 0 0 0 -72.006145668936369 113.07876912919892 0 113.07876912919892 -225.84338387569369 0 0 0 0 -24.184764185980384 69.333375302558125 0 69.333375302558125 -190.45360783571959 0 0 0 0 -26.290067206005915 111.27719137912209 0 111.27719137912209 -169.82948725320966 0 0 0 0 -42.116476846405931 99.510415610175187 0 99.510415610175187 -151.72069521392405 0 0 0 0 -2.5173428150519612 125.2073757912367 0 125.2073757912367 -133.6205463398619 0 0 0 0 35.355614891494042 141.27133838486043 0 141.27133838486043 -219.15016164799454 0 0 0 0 7.3914872128443676 121.95723683003052 0 121.95723683003052 -334.74041171360295 0 0 0 0 -3.3076596015816904 118.04175692752324 0 118.04175692752324 -225.63376281303681 0 0 0 0 -44.027026698924601 151.20553532526174 0 151.20553532526174 -341.93584461509636 0 0 0 0 -117.88456476101055 89.101689760431327 0 89.101689760431327 -234.9369306806766 0 0 0 0 -41.217809488614876 135.09341628261063 0 135.09341628261063 -330.4737721944839 0 0 0 0 -39.276699296075094 114.60399054455047 0 114.60399054455047 -230.36102440013565 0 0 0 0 -80.260816745192642 42.189109260920304 0 42.189109260920304 -297.87818664108636 0 0 0 0 -84.844576268937089 85.647016267736035 0 85.647016267736035 -249.50254757298535 0 0 0 0 -64.949445257298066 86.454976799155702 0 86.454976799155702 -177.99273143691244 0 0 0 0 -56.191435190918128 41.247002906009584 0 41.247002906009584 -213.25570498062007 0 0 0 0 -72.214171105344576 74.745351811347064 0 74.745351811347064 -206.58739259505091 0 0 0 0 -69.333579462407215 41.850048216947471 0 41.850048216947471 -175.18607826930383 0 0 0 0 -53.533338484681735 77.188602257581806 0 77.188602257581806 -301.90484259486038 0 0 0 0 -76.484115032915724 32.006830398277089 0 32.006830398277089 -250.17633318763546 0 0 0 0 -45.688011677299073 115.00293804540433 0 115.00293804540433 -331.85715321977477 0 0 0 0 -56.754509338734351 77.27235887144343 0 77.27235887144343 -244.08496692503741 0 0 0 0 -62.457147359229111 83.980988412495208 0 83.980988412495208 -308.3123658796685 0 0 0 0 -101.80393056970638 87.628078683214881 0 87.628078683214881 -145.93711975088809 0 0 0 0 -66.189550554583548 65.330250778606569 0 65.330250778606569 -242.75005353699089 0 0 0 0 -100.5452635813017 92.621302322433621 0 92.621302322433621 -175.64067609131598 0 0 0 0 -100.57904811549179 62.295453388051101 0 62.295453388051101 -112.90045104511955 0 0 0 0 -91.283092427423981 104.32593435544186 0 104.32593435544186 -129.87756245461787 0 0 0 0 -150.90842010178949 125.75832541875752 0 125.75832541875752 -132.53880416091124 0 0 0 0 -100.92707889610756 76.084268948667159 0 76.084268948667159 -114.1938390530986 0 0 0 0 -134.95536154931415 86.986889685241295 0 86.986889685241295 -70.224723544139124 0 0 0 0 -101.06223761606043 77.910121889799029 0 77.910121889799029 -68.235056724734022 0 0 0 0 -50.993635809973057 63.652350624179235 0 63.652350624179235 -64.821285446290858 0 0 0 0 -47.73361493551738 94.978400402540956 0 94.978400402540956 -19.223444197457866 0 0 0 0 3.4438082110136747 124.815333581304 0 124.815333581304 -35.534485697309719 0 0 0 0 -1.1877603417233331 76.331660280397045 0 76.331660280397045 -69.81989018508466 0 0 0 0 -62.996142025374866 79.947339395686868 0 79.947339395686868 -69.402351645461749 0 0 0 0 -9.0518563695950434 76.705229479604895 0 76.705229479604895 -127.81366555692512 0 0 0 0 -62.325093704756 58.268822640040526 0 58.268822640040526 -128.47594867140288 0 0 0 0 -94.116728664898801 81.693527359737345 0 81.693527359737345 -132.42152424299275 0 0 0 0 -60.463862741205958 51.145187922629702 0 51.145187922629702 -113.89284139555093 0 0 0 0 -258.06705047300784 403.90138571664284 0 403.90138571664284 -184.82370157023252 0 0 0 0 -276.71958290220937 359.96834716468948 0 359.96834716468948 -172.88787328235776 0 0 0 0 -293.43261979562521 363.07160491583636 0 363.07160491583636 -212.20747835740985 0 0 0 0 -288.66022240729944 386.91168955849571 0 386.91168955849571 -202.82289888093328 0 0 0 0 -295.95809630931581 344.79521934413015 0 344.79521934413015 -200.2286015166319 0 0 0 0 -272.68151131244667 279.53850831860109 0 279.53850831860109 -99.45171368605952 0 0 0 0 -196.78641305396013 335.73120004516022 0 335.73120004516022 -195.28502546690288 0 0 0 0 -226.86549212317914 362.07373857047423 0 362.07373857047423 -218.22062525626825 0 0 0 0 -77.389492892893031 243.65174779220979 0 243.65174779220979 -255.72457952436707 0 0 0 0 -170.64306329740066 139.55174750918377 0 139.55174750918377 -94.932858587366354 0 0 0 0 -249.74232000152551 150.11693834198013 0 150.11693834198013 -96.082835052548035 0 0 0 0 30.748934798510163 28.102121256957616 0 28.102121256957616 -76.863268369095749 0 0 0 0 -108.29791112562089 136.45927789490088 0 136.45927789490088 -157.63035421961104 0 0 0 0 -126.76132612301444 155.74083601623352 0 155.74083601623352 -83.568538690946298 0 0 0 0 -185.75474539038987 233.26236319696181 0 233.26236319696181 -137.67550829285028 0 0 0 0 -128.81072131373367 201.30459266459366 0 201.30459266459366 -132.17516222504491 0 0 0 0 -190.14868352210033 155.7044743229344 0 155.7044743229344 -39.397452226097812 0 0 0 0 -15.774595480252174 80.522800797283708 0 80.522800797283708 -75.015557986444037 0 0 0 0 -44.63664034962494 54.110590224961925 0 54.110590224961925 14.830817224181374 0 0 0 0 36.82268143958936 46.413991671415715 0 46.413991671415715 -49.201348491988028 0 0 0 0 -95.766629923906294 83.947925950109493 0 83.947925950109493 4.9945952158559521 0 0 0 0 2.0705951300996617 2.3288648684395881 0 2.3288648684395881 -3.2436961267815292 0 0 0 0 -32.91060790510528 31.942253217162943 0 31.942253217162943 33.227667925748392 0 0 0 0 -27.879217714813421 66.709098707189696 0 66.709098707189696 -96.909791839672835 0 0 0 0 -91.72313726608445 125.13159994642524 0 125.13159994642524 -77.875654046671116 0 0 0 0 -242.28104360087309 263.09752971120179 0 263.09752971120179 -98.933740943000885 0 0 0 0 -277.58402573828062 103.57531314143125 0 103.57531314143125 17.839413837034954 0 0 0 0 -433.51899029091874 200.37263794952742 0 200.37263794952742 8.6908547788930264 0 0 0 0 -394.36242326254433 360.10767591247713 0 360.10767591247713 -110.66280169231595 0 0 0 0 -779.62582290016871 237.49028166260177 0 237.49028166260177 -10.39845104264532 0 0 0 0 -211.14590584171674 51.660060006102867 0 51.660060006102867 31.041948030528147 0 0 0 0 10.963522536112578 13.234944867625018 0 13.234944867625018 -4.0366594564839033 0 0 0 0 -1.4295237713502047 5.3301395059326708 0 5.3301395059326708 -8.7978217167458581 0 0 0 0 7.4206992416875437 7.8886363804340363 0 7.8886363804340363 -2.1774590764580353 0 0 0 0 140.81464746423808 -11.85684359519837 0 -11.85684359519837 -128.32103301986353 0 0 0 0 1.1043451201257994 21.836627789358317 0 21.836627789358317 -9.9520720101136249 0 0 0 0 487.42653294482807 254.36721678210051 0 254.36721678210051 68.711134675897483 0 0 0 0 -3.105546428712266 17.889150159892296 0 17.889150159892296 -35.695105865336274 0 0 0 0 362.98217487799411 248.34912763780449 0 248.34912763780449 107.09244575390767 0 0 0 0 298.20723957296286 233.73106845137954 0 233.73106845137954 125.3405554517667 0 0 0 0 201.57376670070516 240.63532096290146 0 240.63532096290146 125.30943789593584 0 0 0 0 391.46052226240863 210.1983730078573 0 210.1983730078573 -6.4312638691189932 0 0 0 0 -3.8353163895955902 5.9181855782638024 0 5.9181855782638024 -4.825961959945289 0 0 0 0 7.6626684982343676 5.9642678663637412 0 5.9642678663637412 -22.766374080819929 0 0 0 0 23.535659001019667 34.571511091344291 0 34.571511091344291 48.86561000396614 0 0 0 0 6.5697705003005069 13.795859622205597 0 13.795859622205597 -18.92137496240511 0 0 0 0 232.55650821881136 226.67360025988091 0 226.67360025988091 86.259609297383577 0 0 0 0 83.826931621006224 125.21078524283803 0 125.21078524283803 76.421061638160609 0 0 0 0 153.78233403054764 79.19490625729668 0 79.19490625729668 -45.657591126182524 0 0 0 0 13.49999736461541 11.114430136563897 0 11.114430136563897 -14.765895610122243 0 0 0 0 38.917227704252582 6.4971383358933963 0 6.4971383358933963 -3.7010809415805852 0 0 0 0 20.086626093760458 7.937642137550327 0 7.937642137550327 -17.776429271001632 0 0 0 0 6.5624200430697215 14.083567694187622 0 14.083567694187622 -9.5114720276667697 0 0 0 0 9.0631940388298347 12.513396802162646 0 12.513396802162646 -20.229057805253319 0 0 0 0 20.460749472262023 10.085490992652474 0 10.085490992652474 -17.849883992994918 0 0 0 0 18.759404154225194 11.810363254964614 0 11.810363254964614 -15.358104500439367 0 0 0 0 23.016620167298242 0.08361422794405371 0 0.08361422794405371 0.80961427945294417 0 0 0 0 40.736760116167716 -5.4985054706121446 0 -5.4985054706121446 -8.1992982985684648 0 0 0 0 10.181656297892914 9.465376583248144 0 9.465376583248144 -0.87541595057700761 0 0 0 0 33.502210425285739 9.7322917046221846 0 9.7322917046221846 -16.147496213612612 0 0 0 0 44.274920054042013 42.332895098646986 0 42.332895098646986 -22.660289667785037 0 0 0 0 44.230263129422383 14.789469938055845 0 14.789469938055845 -29.043736928480939 0 0 0 0 18.293097967537392 20.925203118021415 0 20.925203118021415 -7.8058193864778787 0 0 0 0 12.968606811729842 10.202088100651963 0 10.202088100651963 -48.060944526761887 0 0 0 0 67.07306732829602 67.652323579528456 0 67.652323579528456 -29.557071703238762 0 0 0 0 -32.861156678749779 35.46456949390646 0 35.46456949390646 -32.579501097161739 0 0 0 0 -66.614324232461513 -43.780180285779352 0 -43.780180285779352 -56.299392167205951 0 0 0 0 90.63178961285098 -84.615680034818297 0 -84.615680034818297 74.002534392857342 0 0 0 0 -11.63263705807698 17.735076050784688 0 17.735076050784688 -13.607007172728373 0 0 0 0 82.993511370070337 75.498512689468043 0 75.498512689468043 -35.813594594277674 0 0 0 0 28.148847006668802 17.855057329899864 0 17.855057329899864 1.0787313145556254 0 0 0 0 -0.36969619305455126 34.65063976381316 0 34.65063976381316 -46.441662690573139 0 0 0 0 -0.15465538274668233 4.8915782182808272 0 4.8915782182808272 2.2312603299394311 0 0 0 0 42.365745523078658 -61.785126080241753 0 -61.785126080241753 110.19847471169487 0 0 0 0 -1.2677826511380488 16.529241961278785 0 16.529241961278785 -12.473270537475486 0 0 0 0 187.2343963587191 -224.33937938087183 0 -224.33937938087183 -39.139584246506274 0 0 0 0 174.47472860185371 -51.21511565054243 0 -51.21511565054243 76.598676333771436 0 0 0 0 204.17686041725392 331.84233458537346 0 331.84233458537346 -170.94235223571013 0 0 0 0 172.25236007606418 -16.47450980391568 0 -16.47450980391568 -415.33304237342963 0 0 0 0 201.76945808135315 357.71832051704178 0 357.71832051704178 -427.51789576829469 0 0 0 0 -1241.144826243617 871.74907549785712 0 871.74907549785712 -302.52772981220915 0 0 0 0 -2.2116224489089333 -5.0575457927814682 0 -5.0575457927814682 -7.2771602513736866 0 0 0 0 -9.0704029328708771 19.657923122396824 0 19.657923122396824 -11.193075682852808 0 0 0 0 82.137248949831701 269.56250496124994 0 269.56250496124994 424.48799511166726 0 0 0 0 -1499.7819975049715 296.17128946354205 0 296.17128946354205 195.4651259157763 0 0 0 0 157.91478309868398 457.85384021512436 0 457.85384021512436 -795.69310068687628 0 0 0 0 127.69038664444815 280.5413841196787 0 280.5413841196787 279.36443808938202 0 0 0 0 134.86210695399495 323.6760062196845 0 323.6760062196845 266.70402730317073 0 0 0 0 134.83730664077302 302.98346523874352 0 302.98346523874352 208.85533581583877 0 0 0 0 125.97025509236846 295.03261258774728 0 295.03261258774728 251.43289163605368 0 0 0 0 124.02134103375283 291.08510529727391 0 291.08510529727391 249.2601157459867 0 0 0 0 62.803928352055664 185.45950781377178 0 185.45950781377178 343.08764793117007 0 0 0 0 145.71197790068982 193.65666791191325 0 193.65666791191325 148.11373021593681 0 0 0 0 90.80733699274424 130.59146365855122 0 130.59146365855122 125.98882485605282 0 0 0 0 122.56053172686734 273.84370492565176 0 273.84370492565176 192.07666068298568 0 0 0 0 152.68376407280448 227.61826869419747 0 227.61826869419747 109.90467095018539 0 0 0 0 226.25927192105155 231.54924026303343 0 231.54924026303343 82.498088889711653 0 0 0 0 210.59229553422483 273.08622857004229 0 273.08622857004229 143.53432747545594 0 0 0 0 222.93492905164021 298.33324791835912 0 298.33324791835912 146.37120690802112 0 0 0 0 210.56134474737337 284.43154028250865 0 284.43154028250865 136.38921209521504 0 0 0 0 179.64343161287252 318.58827135225511 0 318.58827135225511 160.71635403075197 0 0 0 0 153.03373313060729 320.5123878068116 0 320.5123878068116 173.00537526592234 0 0 0 0 137.68398515789886 327.8041398118221 0 327.8041398118221 170.66003925740006 0 0 0 0 147.00148844516661 310.85813170673646 0 310.85813170673646 143.1065431694733 0 0 0 0 139.13932420816491 327.67520610088832 0 327.67520610088832 205.95189387074788 0 0 0 0 157.41682358452817 312.98561452089052 0 312.98561452089052 178.10309591380064 0 0 0 0 179.82888011045725 314.78168078900489 0 314.78168078900489 102.51306519733043 0 0 0 0 128.26477164471908 318.75326249278714 0 318.75326249278714 150.91881619654305 0 0 0 0 134.60005465523864 291.15075571346824 0 291.15075571346824 100.24155516660539 0 0 0 0 169.31621109698608 323.53021261992399 0 323.53021261992399 142.96317387487215 0 0 0 0 172.01577376696514 314.49483890516422 0 314.49483890516422 163.21852110779218 0 0 0 0 240.8293869249319 324.67558668240963 0 324.67558668240963 137.85541356226895 0 0 0 0 244.69443738647806 302.65409798947894 0 302.65409798947894 157.74869661180128 0 0 0 0 260.26246913611976 337.31525699469785 0 337.31525699469785 124.20056391246908 0 0 0 0 322.14600866263936 279.60848604188141 0 279.60848604188141 129.03054957457061 0 0 0 0 180.71161445547477 308.0301768050922 0 308.0301768050922 151.00071207980363 0 0 0 0 199.48331739858259 288.65044325333292 0 288.65044325333292 125.63287092544624 0 0 0 0 370.51842868090898 353.7673290824423 0 353.7673290824423 74.027469160755572 0 0 0 0 186.17137963055211 316.79124544863407 0 316.79124544863407 74.275269570134697 0 0 0 0 94.430245995332371 296.41422359622811 0 296.41422359622811 123.45543484942027 0 0 0 0 98.998295146047894 238.58277112834912 0 238.58277112834912 44.146041860927653 0 0 0 0 65.883658748032758 197.12455940903601 0 197.12455940903601 75.666583129230332 0 0 0 0 106.59581865028667 216.538503585336 0 216.538503585336 -109.43280089907785 0 0 0 0 -6.014990786810813 152.10136395343943 0 152.10136395343943 -92.024848936452145 0 0 0 0 113.90685811076764 202.42203540654918 0 202.42203540654918 -327.68750870095391 0 0 0 0 95.502496139732102 152.0126487657526 0 152.0126487657526 -2.9468872966463096 0 0 0 0 156.10054361996299 329.0419050788405 0 329.0419050788405 142.06320561897883 0 0 0 0 312.36167725043015 224.80819267655443 0 224.80819267655443 239.19347874625237 0 0 0 0 311.69180025154856 290.46326058115301 0 290.46326058115301 -284.97813143410895 0 0 0 0 -1.0644286618536967 4.0040666712217927 0 4.0040666712217927 -12.002622208013008 0 0 0 0 1385.1217523458981 439.05185418262408 0 439.05185418262408 -660.13650279576541 0 0 0 0 -4.7904133093257997 14.190649191850412 0 14.190649191850412 -27.507616191483692 0 0 0 0 -234.98280859266742 289.73261119149174 0 289.73261119149174 -209.17701973365911 0 0 0 0 843.42919432074268 537.43924080007855 0 537.43924080007855 99.978868818856427 0 0 0 0 426.57779735035729 223.83637436685694 0 223.83637436685694 117.83356661914877 0 0 0 0 400.45630886679828 329.94353721549669 0 329.94353721549669 129.57282122853212 0 0 0 0 324.97085264294947 293.62977573537137 0 293.62977573537137 180.42715238040546 0 0 0 0 313.71520237831282 301.4651933427449 0 301.4651933427449 138.17208302023937 0 0 0 0 -38.961459977988852 -30.88777519426003 0 -30.88777519426003 82.559016515158874 0 0 0 0 -202.04232711797522 288.27951217588634 0 288.27951217588634 -415.78090843829341 0 0 0 0 -0.63872848404281513 1.5115446689870993 0 1.5115446689870993 -4.0727176369223343 0 0 0 0 -9.9947446557562216 -61.949853437377897 0 -61.949853437377897 -153.93257403386087 0 0 0 0 -356.73581370630563 437.65647456439183 0 437.65647456439183 -413.61022719155153 0 0 0 0 -656.13906992861303 167.99091282132815 0 167.99091282132815 -336.20069032019819 0 0 0 0 -403.29191246005939 376.47375462578202 0 376.47375462578202 -188.13860134610559 0 0 0 0 -314.73974609246943 226.22493382659013 0 226.22493382659013 -70.171241620020737 0 0 0 0 -667.58049169248716 359.63039270280615 0 359.63039270280615 -98.178418470401084 0 0 0 0 -826.07116753236915 247.47258876701744 0 247.47258876701744 47.071884986147779 0 0 0 0 -1764.0696286603052 441.44934238794303 0 441.44934238794303 84.765935085393721 0 0 0 0 -806.06580897352251 944.41873174352804 0 944.41873174352804 -515.37403005282977 0 0 0 0 -170.19896526258526 190.32431771638585 0 190.32431771638585 -97.066592201375897 0 0 0 0 -77.489179161071661 426.7083269911127 0 426.7083269911127 -387.49276815386111 0 0 0 0 -682.57941988115635 583.09631092649033 0 583.09631092649033 -190.78964745403937 0 0 0 0 -346.58148953443015 394.4238597374715 0 394.4238597374715 -186.84068797340296 0 0 0 0 -354.67213166377041 380.48269358157995 0 380.48269358157995 -204.19761923686019 0 0 0 0 -226.47593375794531 285.11363548512236 0 285.11363548512236 -61.306965833500726 0 0 0 0 -160.55653744480514 348.37359853562521 0 348.37359853562521 -273.2715692724305 0 0 0 0 -204.58072034640645 216.98971478782187 0 216.98971478782187 -1.2291673494910356 0 0 0 0 -39.610699085846562 94.855388092918929 0 94.855388092918929 89.216964398178348 0 0 0 0 -38.274856546748197 247.30165854255029 0 247.30165854255029 -105.66328039781365 0 0 0 0 -3.6786947866289665 18.870973437272369 0 18.870973437272369 -26.909730235852521 0 0 0 0 -32.903086760197766 85.639192376311257 0 85.639192376311257 8.1585694759414764 0 0 0 0 -41.908358542568749 65.056047256832244 0 65.056047256832244 26.769314872013638 0 0 0 0 -25.2736874587751 67.087261347483661 0 67.087261347483661 45.791054274040931 0 0 0 0 -48.227329520843341 44.46429320867901 0 44.46429320867901 169.4271287493757 0 0 0 0 -9.4652037601044867 70.611438174528303 0 70.611438174528303 -17.296379639286897 0 0 0 0 -17.960217561650126 43.702678453742806 0 43.702678453742806 51.596147312770995 0 0 0 0 -163.25872304440418 282.87683386362187 0 282.87683386362187 -156.56127575355958 0 0 0 0 -0.093656701888846783 -2.2529417189159631 0 -2.2529417189159631 25.708959261424074 0 0 0 0 -138.42803657628247 279.47268906376485 0 279.47268906376485 -228.55961831317836 0 0 0 0 -263.88381073903111 302.38837784473071 0 302.38837784473071 -273.81960628236993 0 0 0 0 -254.89283456136764 274.64292185226077 0 274.64292185226077 -226.33725949735526 0 0 0 0 -369.95307649114693 283.89078343868823 0 283.89078343868823 -272.48206176098029 0 0 0 0 -228.72106831257406 355.3293037454896 0 355.3293037454896 -237.71658437766746 0 0 0 0 -261.20610371421208 321.89987834175554 0 321.89987834175554 -356.65145988434233 0 0 0 0 -340.1082784862665 375.74757384179975 0 375.74757384179975 -206.82839716089893 0 0 0 0 -302.15184344835143 402.50180062554864 0 402.50180062554864 -285.13513246430375 0 0 0 0 -273.94431186608563 370.23327551562397 0 370.23327551562397 -239.22597234528803 0 0 0 0 -279.68090570074855 328.26329032676585 0 328.26329032676585 -204.19096821674611 0 0 0 0 -283.66765942925122 372.92773334314552 0 372.92773334314552 -176.43310181765264 0 0 0 0 -261.19164273307251 320.31177081561327 0 320.31177081561327 -260.45314661600059 0 0 0 0 -273.13020621621399 319.57664158190164 0 319.57664158190164 -253.55610574364255 0 0 0 0 -9.8445441439544084 105.86537551091897 0 105.86537551091897 -24.223088591170381 0 0 0 0 -10.188237255693821 113.5624488712856 0 113.5624488712856 -53.852238660875287 0 0 0 0 -47.730491520560463 113.12747085923911 0 113.12747085923911 -52.055642620769504 0 0 0 0 -21.041100174235908 93.530954889494751 0 93.530954889494751 -38.108043292741058 0 0 0 0 -0.88126092224410968 96.914515681652119 0 96.914515681652119 -20.293870618101209 0 0 0 0 -24.269746830301301 101.77382402959483 0 101.77382402959483 -24.693065120540268 0 0 0 0 -3.1178388102271128 100.50964655861753 0 100.50964655861753 -26.040951682953164 0 0 0 0 -9.2815986812347546 106.90386590469279 0 106.90386590469279 -24.852111965607037 0 0 0 0 3.1453286877149367 129.18282705004094 0 129.18282705004094 -1.6271656659373548 0 0 0 0 -20.412004639133102 115.53255848849312 0 115.53255848849312 19.241538072703406 0 0 0 0 -32.27429779196973 112.64807439652941 0 112.64807439652941 55.280403563272557 0 0 0 0 -20.108344196625694 120.54507311256748 0 120.54507311256748 23.675054551989888 0 0 0 0 114.25400304209325 238.62320834567072 0 238.62320834567072 -201.33199960135971 0 0 0 0 3.3718664103143965 167.4256502018543 0 167.4256502018543 105.40034060897506 0 0 0 0 -44.541027406982721 88.312715873390516 0 88.312715873390516 94.989243359101238 0 0 0 0 80.662432730721775 121.94521454847563 0 121.94521454847563 -10.436143900791649 0 0 0 0 -13.478447559078631 104.94157514378458 0 104.94157514378458 -17.450152754463488 0 0 0 0 -9.4749273733759765 99.039782137493603 0 99.039782137493603 -8.8218380738107953 0 0 0 0 -23.709714803364477 84.448724283924093 0 84.448724283924093 -3.4633567999517254 0 0 0 0 -101.84655164684227 107.72493223987112 0 107.72493223987112 8.1393090267520165 0 0 0 0 15.485610887531948 41.742177668136719 0 41.742177668136719 19.383283212286187 0 0 0 0 -190.28123740946467 72.497549987878301 0 72.497549987878301 76.330071237272932 0 0 0 0 -509.37542753320304 -281.04260785147198 0 -281.04260785147198 -752.92068228611606 0 0 0 0 -110.72442031375795 199.2036857160183 0 199.2036857160183 -51.969110896025086 0 0 0 0 -41.555756007801762 99.3906463437676 0 99.3906463437676 73.560227087200673 0 0 0 0 -64.721665422955994 137.22225539460123 0 137.22225539460123 -33.899945641198428 0 0 0 0 -62.73597303283168 130.46057737418596 0 130.46057737418596 -22.581771590434073 0 0 0 0 -43.260259044151098 122.88415473990972 0 122.88415473990972 -25.524373448177357 0 0 0 0 -25.183100624584768 93.475830943149049 0 93.475830943149049 -34.33927928628691 0 0 0 0 -54.219895803260442 104.93389610844679 0 104.93389610844679 -15.989774361281889 0 0 0 0 -16.496174342195445 99.184967611938191 0 99.184967611938191 -42.86733054278011 0 0 0 0 -22.4661031611613 113.86261634252151 0 113.86261634252151 -65.773741206881823 0 0 0 0 -14.02581191866193 128.96466668294306 0 128.96466668294306 -42.101445177930145 0 0 0 0 -17.255338443439541 142.06472378413309 0 142.06472378413309 -89.8945856237915 0 0 0 0 -6.0374761877101264 177.46566374335089 0 177.46566374335089 -41.362251852537156 0 0 0 0 -41.324278323296312 149.79378811819333 0 149.79378811819333 -26.225600294797914 0 0 0 0 -49.895179527826258 133.68415197728609 0 133.68415197728609 -42.722270264821418 0 0 0 0 -60.90959276559056 147.66949105870799 0 147.66949105870799 -27.012793587098713 0 0 0 0 -37.043525387802219 146.59995054615865 0 146.59995054615865 -29.744496610925125 0 0 0 0 174.15382275273441 929.10052908198122 0 929.10052908198122 -857.95894531647355 0 0 0 0 113.73149048030609 883.05863866617074 0 883.05863866617074 -676.45927266683066 0 0 0 0 -34.360244996739254 101.00706033566289 0 101.00706033566289 75.528114497977825 0 0 0 0 -204.99036629339571 1102.7666188374537 0 1102.7666188374537 -790.20855119162297 0 0 0 0 35.601371049910085 82.672861231811112 0 82.672861231811112 -744.90504988546309 0 0 0 0 221.6353415249614 880.56910772033734 0 880.56910772033734 -809.36236181136337 0 0 0 0 137.95478444137552 436.81943072778449 0 436.81943072778449 -1099.7328951278105 0 0 0 0 -50.69856177179463 156.10941670248576 0 156.10941670248576 48.353473286835651 0 0 0 0 -23.800942885508817 101.1510575231778 0 101.1510575231778 74.037008459146278 0 0 0 0 -40.36718657559004 66.5459426956686 0 66.5459426956686 -395.91905168969242 0 0 0 0 -13.744699738337658 314.16811220881573 0 314.16811220881573 -280.49303508049843 0 0 0 0 -112.1692410010437 330.65071901887859 0 330.65071901887859 -694.65655955157854 0 0 0 0 -7.2208624304585101 136.27981379584162 0 136.27981379584162 -618.80920306440385 0 0 0 0 -158.89378686481359 129.06930734643538 0 129.06930734643538 265.63246655948751 0 0 0 0 -21.328109867674357 237.42564468416094 0 237.42564468416094 -39.771963106250041 0 0 0 0 -4.0430664124814939 172.25718270300058 0 172.25718270300058 -111.7848029716115 0 0 0 0 26.528149587858934 182.29448078257701 0 182.29448078257701 -116.00672688074701 0 0 0 0 9.4724224035380757 303.21400153023933 0 303.21400153023933 -485.33405798139574 0 0 0 0 8.0317388441981166 -48.502017203285504 0 -48.502017203285504 -351.38597708489397 0 0 0 0 9.8418476439364895 56.070217542393948 0 56.070217542393948 -167.36190102575347 0 0 0 0 14.838719322782708 137.25579482349713 0 137.25579482349713 -188.72415169276064 0 0 0 0 -6.6359714850550517 -26.631395043834345 0 -26.631395043834345 213.3512984001427 0 0 0 0 -4.527844288139022 38.374710635864176 0 38.374710635864176 -78.676743349918979 0 0 0 0 -31.955811771316803 -5.8860836281091906 0 -5.8860836281091906 248.47801456451998 0 0 0 0 -9.3032367516577494 61.907514102791481 0 61.907514102791481 19.157786550348355 0 0 0 0 -34.048704067739891 18.322859375854023 0 18.322859375854023 236.45462433356442 0 0 0 0 -15.303504588155604 -5.8229159257535628 0 -5.8229159257535628 107.37529279323309 0 0 0 0 39.326983461083728 54.153103073898819 0 54.153103073898819 155.7103130404721 0 0 0 0 -14.566492087658844 28.035111613571644 0 28.035111613571644 209.12853987477138 0 0 0 0 -18.905314843301312 4.2069457572943065 0 4.2069457572943065 225.00274288008222 0 0 0 0 -16.690193516955333 -1.8960743813731824 0 -1.8960743813731824 -15.672331899870187 0 0 0 0 46.50520782219246 -0.2039646915072808 0 -0.2039646915072808 6.6148748496343615 0 0 0 0 -33.66903594169932 14.551104748596742 0 14.551104748596742 43.876853372359392 0 0 0 0 2.4813456498022788 0.96837058985855862 0 0.96837058985855862 0.035232702253210846 0 0 0 0 -61.940439434190921 7.6583391323219985 0 7.6583391323219985 43.048372339748312 0 0 0 0 4.6388784027549264 27.469384312571492 0 27.469384312571492 -0.021572317156824283 0 0 0 0 -63.148312633628166 19.966767751720909 0 19.966767751720909 50.172586739208782 0 0 0 0 -59.149675504166225 23.871841455897084 0 23.871841455897084 50.728942792236921 0 0 0 0 -34.287403705900942 21.238446781717357 0 21.238446781717357 30.891209126311878 0 0 0 0 -10.525573166916729 0.95648342040658463 0 0.95648342040658463 203.45023016323103 0 0 0 0 -3.5653607891978538 6.0707586547581798 0 6.0707586547581798 6.5439780094285425 0 0 0 0 -13.955020235238436 7.3036589439919339 0 7.3036589439919339 1.3513625486184964 0 0 0 0 -4.8242590878508054 14.533314948799671 0 14.533314948799671 -26.914978726534173 0 0 0 0 8.4069976848841179 93.166733228717931 0 93.166733228717931 -57.738193032266281 0 0 0 0 25.960910788860929 67.99456024527899 0 67.99456024527899 109.0467033253517 0 0 0 0 -12.215803954197327 10.417992803093512 0 10.417992803093512 29.147503082815092 0 0 0 0 -8.5550288820959395 126.88780987606151 0 126.88780987606151 57.515867686081037 0 0 0 0 5.5633772367255006 18.391493224189617 0 18.391493224189617 30.587860489424202 0 0 0 0 3.2243665901987697 27.715536377298122 0 27.715536377298122 0.034560880492790602 0 0 0 0 15.453066322297673 -5.4797270426497562 0 -5.4797270426497562 -0.016868826016434468 0 0 0 0 -7.7107760199940856 5.7882605540790166 0 5.7882605540790166 -2.7055613159434415 0 0 0 0 29.420971939762239 11.15296927219606 0 11.15296927219606 62.979193994273373 0 0 0 0 -21.728751073707826 52.760813509754371 0 52.760813509754371 163.38047541366541 0 0 0 0 -16.05743001337396 22.571901964212884 0 22.571901964212884 152.98710861655127 0 0 0 0 -46.491875232644816 50.726940325748728 0 50.726940325748728 334.46625838398177 0 0 0 0 -14.252853860918549 131.70256974843505 0 131.70256974843505 626.33360355184413 0 0 0 0 6.5675990770323551 80.014455466167419 0 80.014455466167419 -101.46298685097281 0 0 0 0 -8.943086682713755 65.29953866045841 0 65.29953866045841 9.5881470574355845 0 0 0 0 5.3885123655745701 -98.024151958086804 0 -98.024151958086804 632.58444697722734 0 0 0 0 71.086361770518124 135.29698346828809 0 135.29698346828809 606.03825982981652 0 0 0 0 -1.3284436712375793 2.3888171800634268 0 2.3888171800634268 2.2989652902810462 0 0 0 0 9.1777957426365901 127.29084125890404 0 127.29084125890404 -83.006268433382502 0 0 0 0 -4.6582264110274991 102.81264434725745 0 102.81264434725745 -60.695053046321846 0 0 0 0 -6.2871090894332156 92.956704123396776 0 92.956704123396776 -114.41442917623499 0 0 0 0 4.0047979421651689 100.57028357962554 0 100.57028357962554 -65.451135793937283 0 0 0 0 -34.284931465910631 85.49647625801299 0 85.49647625801299 -53.001202320549055 0 0 0 0 0.11519472813142784 71.1235039770404 0 71.1235039770404 -48.067051689926302 0 0 0 0 -80.19800357677741 132.83347760916513 0 132.83347760916513 56.886177598711583 0 0 0 0 -56.966441955337359 112.38504906107846 0 112.38504906107846 322.41595032133046 0 0 0 0 -46.341561441193335 136.31157627352513 0 136.31157627352513 277.42715501127532 0 0 0 0 -6.24275808134459 67.366249363842172 0 67.366249363842172 14.559398128825194 0 0 0 0 -8.2394595812369573 66.402763565500038 0 66.402763565500038 10.288827682403344 0 0 0 0 9.2811179661439382 33.172505392794847 0 33.172505392794847 182.43827952758875 0 0 0 0 -25.53372737414611 3.472704586252803 0 3.472704586252803 32.777200777825783 0 0 0 0 -40.865798778351746 -35.030505773655022 0 -35.030505773655022 194.63546388942632 0 0 0 0 -163.22115785407368 -26.046977450110717 0 -26.046977450110717 163.96085311131901 0 0 0 0 -30.141414679157606 46.252436482660414 0 46.252436482660414 -33.092329660677933 0 0 0 0 -122.17457363760332 -72.236158591258572 0 -72.236158591258572 -6.0660482184612192 0 0 0 0 -1.5631712145868164 3.9680040533978911 0 3.9680040533978911 -1.77070103043404 0 0 0 0 -416.86095272839884 78.237780137744267 0 78.237780137744267 -0.076871186501316968 0 0 0 0 -196.64509478285618 53.000480851202155 0 53.000480851202155 -218.56611722573871 0 0 0 0 -386.78103447452304 27.198827509666444 0 27.198827509666444 148.59110636959667 0 0 0 0 -245.73200205298053 300.03912958504225 0 300.03912958504225 6.7002449110150337 0 0 0 0 -96.519440739342826 82.75207224857877 0 82.75207224857877 157.62180168399573 0 0 0 0 -134.32627178289658 208.69068473376501 0 208.69068473376501 217.3228067397722 0 0 0 0 -102.92346423326308 61.837330525033394 0 61.837330525033394 193.51035635810695 0 0 0 0 99.637413689677487 279.42402791997301 0 279.42402791997301 200.72704309566689 0 0 0 0 10.160860692520146 244.75652641776469 0 244.75652641776469 219.05726454229443 0 0 0 0 30.974637206090847 218.12540976065793 0 218.12540976065793 132.67213836763403 0 0 0 0 -55.700232689825498 238.23605089724151 0 238.23605089724151 -0.19936572744336445 0 0 0 0 -202.40529663019697 223.91136999436276 0 223.91136999436276 139.67810283883591 0 0 0 0 129.13259161543829 239.9105898649068 0 239.9105898649068 -35.388643692189362 0 0 0 0 230.78889459354104 129.44726800174976 0 129.44726800174976 79.721120071815676 0 0 0 0 282.38845100256731 226.22761543055094 0 226.22761543055094 0.3765122804295285 0 0 0 0 -0.43557012088442093 11.540135171695823 0 11.540135171695823 10.22601667925619 0 0 0 0 3.8018220817718316 69.466215358546123 0 69.466215358546123 6.5252040448168458 0 0 0 0 -3.4279080975557008 11.639390191696293 0 11.639390191696293 131.59831903889426 0 0 0 0 89.961065259034513 133.20616460802557 0 133.20616460802557 238.15545148788078 0 0 0 0 11.412891856562055 64.273807089550246 0 64.273807089550246 -125.28654898909735 0 0 0 0 -10.391308024820972 18.046860401172431 0 18.046860401172431 38.523940387671985 0 0 0 0 -18.284237460262375 123.64679349592188 0 123.64679349592188 -107.84757470370096 0 0 0 0 -2.1561066080030287 93.575053153661429 0 93.575053153661429 -53.592008400308714 0 0 0 0 0.82983352821611334 75.542357858852483 0 75.542357858852483 -60.593602983910387 0 0 0 0 4.7358631384850014 91.334476349831675 0 91.334476349831675 -74.619577389792539 0 0 0 0 -236.91971221376298 131.02954958035843 0 131.02954958035843 1.7771948014888039 0 0 0 0 -116.0375465400648 251.66185634166686 0 251.66185634166686 47.962655916202493 0 0 0 0 -13.730849731304762 50.06209624358096 0 50.06209624358096 -8.8360632133504282 0 0 0 0 -154.56034008632582 47.825750228233233 0 47.825750228233233 177.13572434335947 0 0 0 0 -48.567207754606649 76.401971537986014 0 76.401971537986014 11.294099729608575 0 0 0 0 -35.850575779333077 89.874719388499059 0 89.874719388499059 -39.419100439466092 0 0 0 0 -136.89403549530653 88.851872361949063 0 88.851872361949063 -247.75833889816568 0 0 0 0 -87.600456351169768 144.89227029546041 0 144.89227029546041 60.575449354775429 0 0 0 0 -59.176153903430531 60.990975947373954 0 60.990975947373954 -28.156222374425852 0 0 0 0 -102.81448592821289 126.98854514754203 0 126.98854514754203 -34.247823000463541 0 0 0 0 -75.334704134376807 121.57719079012168 0 121.57719079012168 -46.521033204910054 0 0 0 0 -87.151804246814208 135.35974483885366 0 135.35974483885366 -56.97201461752411 0 0 0 0 -54.898573268132168 151.65197995884955 0 151.65197995884955 -47.335289453578298 0 0 0 0 -94.563115572484094 132.96272774347381 0 132.96272774347381 -52.675375200677081 0 0 0 0 -38.166622886326607 83.235950664413679 0 83.235950664413679 -65.299102948092539 0 0 0 0 -85.546323431080964 125.11894922234205 0 125.11894922234205 -64.568964921661973 0 0 0 0 -11.82648936912301 205.57935713802726 0 205.57935713802726 -215.16597365426423 0 0 0 0 -66.497278329763503 96.723230294006498 0 96.723230294006498 -312.17479518376786 0 0 0 0 -4.0867856427466904 109.3458403599434 0 109.3458403599434 -342.21033337353583 0 0 0 0 -89.484351344286551 25.052864791046886 0 25.052864791046886 -343.06770681161652 0 0 0 0 -4.5296142509933475 85.233855403385377 0 85.233855403385377 -417.38368451961287 0 0 0 0 20.70416552671486 144.77586453347521 0 144.77586453347521 -376.03963916352222 0 0 0 0 -49.690778427153418 124.51732653049839 0 124.51732653049839 -357.24321924324249 0 0 0 0 -0.3192071690345879 -11.87794791014629 0 -11.87794791014629 -3.4091540454182336 0 0 0 0 -50.288357457484381 110.42879399932644 0 110.42879399932644 -674.29816717139693 0 0 0 0 -480.63675141623389 461.70572130457003 0 461.70572130457003 -343.92519870341494 0 0 0 0 -103.40764943897011 97.582312909664324 0 97.582312909664324 -332.16682390795904 0 0 0 0 -227.92197807905177 -3.0281469749947973 0 -3.0281469749947973 -412.94750747752551 0 0 0 0 -212.40719624124654 234.42510772332412 0 234.42510772332412 -433.46521038349601 0 0 0 0 -39.439334624607 112.05281205016217 0 112.05281205016217 -347.46627253471888 0 0 0 0 38.564420350383443 123.13149184641952 0 123.13149184641952 -497.86325447978015 0 0 0 0 66.900474161255261 82.087014416996681 0 82.087014416996681 -448.71329699212947 0 0 0 0 77.23669330123812 194.98505244309854 0 194.98505244309854 -714.32720086480549 0 0 0 0 211.2713784182661 -88.856291752901797 0 -88.856291752901797 -463.45279438313446 0 0 0 0 -61.757263091501954 130.81930225837641 0 130.81930225837641 -410.94707247154292 0 0 0 0 36.093976722924708 139.38028661526641 0 139.38028661526641 -461.32213185867295 0 0 0 0 7.947653576015 137.93637590582694 0 137.93637590582694 -444.22286145024191 0 0 0 0 -29.533181521936058 239.78531836885304 0 239.78531836885304 -583.27099216497299 0 0 0 0 26.238413761173433 252.0823377822162 0 252.0823377822162 -769.8274609517066 0 0 0 0 -18.177048734447055 99.911951376293544 0 99.911951376293544 72.640394902344269 0 0 0 0 -10.860431173652614 167.7263902776067 0 167.7263902776067 -478.00932898583051 0 0 0 0 -10.882815233290302 97.821609020769202 0 97.821609020769202 74.108818129900058 0 0 0 0 -201.29236575133928 -202.48887963093148 0 -202.48887963093148 154.75713238098251 0 0 0 0 146.4118817108756 131.71655500625639 0 131.71655500625639 -151.99192304447206 0 0 0 0 59.469766373036691 223.67278496682411 0 223.67278496682411 -31.036263255111407 0 0 0 0 -628.35891953315149 188.57486177005921 0 188.57486177005921 -22.525856059415673 0 0 0 0 37.300323068481674 218.38598848358788 0 218.38598848358788 -219.51582844886434 0 0 0 0 -35.000215049851249 47.51876816947879 0 47.51876816947879 -102.80714750674088 0 0 0 0 -21.197803286802809 126.81987656108686 0 126.81987656108686 -384.51709513788228 0 0 0 0 145.31442972258992 149.50371372792142 0 149.50371372792142 -249.3296938000567 0 0 0 0 -6.3216483077309391 109.59049603411594 0 109.59049603411594 52.982768658554292 0 0 0 0 8.7337026123714168 62.573000511329155 0 62.573000511329155 -84.173628789118084 0 0 0 0 -34.948422185785603 136.73486876010793 0 136.73486876010793 -190.89896025466442 0 0 0 0 -12.384710521369925 224.26748816890722 0 224.26748816890722 -261.58078519962146 0 0 0 0 -4.9761157248686061 11.709084708788367 0 11.709084708788367 -15.927168547532062 0 0 0 0 -54.373518440060366 62.843631424496834 0 62.843631424496834 -21.717558035170683 0 0 0 0 94.445893869567954 69.03040187091392 0 69.03040187091392 -111.07196028710314 0 0 0 0 -89.925686492799286 96.722409947367851 0 96.722409947367851 11.093147712716018 0 0 0 0 -105.46586933625076 67.112029118932696 0 67.112029118932696 -255.57921849747072 0 0 0 0 -3.8193670285108965 38.446433598845033 0 38.446433598845033 -55.732728934701299 0 0 0 0 -32.278500869216217 44.587634089363803 0 44.587634089363803 -19.376133688435687 0 0 0 0 -64.953503244955755 34.124394485181256 0 34.124394485181256 9.8896910637267865 0 0 0 0 -35.485340620425873 58.575189615338161 0 58.575189615338161 -62.078121723409865 0 0 0 0 0.73759069348923845 10.56884205605499 0 10.56884205605499 -1.5512218416101859 0 0 0 0 -230.24356855761289 512.70293810082512 0 512.70293810082512 -311.68195288750576 0 0 0 0 12.451898241197341 -163.53334056088715 0 -163.53334056088715 -710.26731105444196 0 0 0 0 -276.93731999212469 279.86871179407171 0 279.86871179407171 142.28728852875065 0 0 0 0 15.984565791106434 308.80522604030557 0 308.80522604030557 144.23734993596008 0 0 0 0 161.11881573097526 223.29108143641315 0 223.29108143641315 -108.80767674645176 0 0 0 0 -593.98034158033988 172.78650415933953 0 172.78650415933953 73.462616737102508 0 0 0 0 -445.59610512868676 -102.05261415043788 0 -102.05261415043788 2.2247069980367087 0 0 0 0 47.423647478826751 -8.5664358629437629 0 -8.5664358629437629 34.449908717157086 0 0 0 0 51.306632836101926 -27.488206327325315 0 -27.488206327325315 39.945319759368431 0 0 0 0 -1.3944038295658174 7.2901630360716467 0 7.2901630360716467 11.67346480706356 0 0 0 0 -26.126589719083313 56.855733941005468 0 56.855733941005468 -14.227448883162509 0 0 0 0 0.8232429289605534 8.7513175593757069 0 8.7513175593757069 -4.86924292140381 0 0 0 0 -219.93000070349808 95.687306586056366 0 95.687306586056366 361.27240883868944 0 0 0 0 -25.301907893022872 58.923500442237128 0 58.923500442237128 -57.55102216166415 0 0 0 0 -53.413655599979393 79.701598743224167 0 79.701598743224167 -7.8292753246059874 0 0 0 0 -41.141105667634037 60.188240321618366 0 60.188240321618366 -28.143286522476757 0 0 0 0 -18.849299088280532 36.691261757048778 0 36.691261757048778 -91.429360304799047 0 0 0 0 -11.468961871913052 82.97289598135103 0 82.97289598135103 -129.53337960972567 0 0 0 0 -4.5255685397351044 12.511476793311886 0 12.511476793311886 -12.197312874952331 0 0 0 0 0.20616349268532019 4.8255681326023137 0 4.8255681326023137 4.0530324765773003 0 0 0 0 -1.4624433005192259 16.930019245111907 0 16.930019245111907 -18.19334922885173 0 0 0 0 -6.93567084903043 17.976676008547656 0 17.976676008547656 -0.0034856927959481254 0 0 0 0 -123.07038993723108 79.295341956953052 0 79.295341956953052 -25.124320712362533 0 0 0 0 -95.073384385097597 127.59831359429518 0 127.59831359429518 -133.32636694100802 0 0 0 0 -118.11618824451216 68.037422163892188 0 68.037422163892188 -44.281371821212815 0 0 0 0 -22.715706200049681 87.157012173964176 0 87.157012173964176 -92.585158125191811 0 0 0 0 -58.969110732126865 63.428917183438898 0 63.428917183438898 -29.814052335350425 0 0 0 0 -3.4145694785247542 8.3761188850112376 0 8.3761188850112376 -0.0076912111398996785 0 0 0 0 -50.207709270296618 48.43448608712788 0 48.43448608712788 -115.4898376580386 0 0 0 0 -5.8812695848064322 94.41876882831275 0 94.41876882831275 -175.86178083246341 0 0 0 0 -1.7253437362682007 3.8375718819498843 0 3.8375718819498843 2.8516737732770139 0 0 0 0 -514.40450674955355 152.49942622618983 0 152.49942622618983 20.394288039562525 0 0 0 0 8.2859877447517647 115.60163281125278 0 115.60163281125278 -146.08220474267728 0 0 0 0 -171.4027663359775 366.50276327512256 0 366.50276327512256 -0.91696553729707375 0 0 0 0 5.3511342750298354 33.502094125040458 0 33.502094125040458 0.016492333772475831 0 0 0 0 -0.42881562015899644 -4.4355290937485314 0 -4.4355290937485314 -1.0715327924521603 0 0 0 0 77.007608925989189 22.097529378530453 0 22.097529378530453 -15.362905056972522 0 0 0 0 -11.816810600623512 49.202601256356502 0 49.202601256356502 -17.643834277958376 0 0 0 0 -7.610769490021994 19.884568520406901 0 19.884568520406901 -14.204261055478128 0 0 0 0 159.74196674613358 -97.946503643455799 0 -97.946503643455799 21.672218706662534 0 0 0 0 8.9640503510161729 7.2024686679944807 0 7.2024686679944807 6.4815828965097353 0 0 0 0 58.977133940922613 38.425446777881007 0 38.425446777881007 -134.1589783673553 0 0 0 0 -1.8198634384834889 3.5423685718926379 0 3.5423685718926379 -3.3656640449789847 0 0 0 0 -2.3946909939431862 14.270231326330759 0 14.270231326330759 -7.3372745115484577 0 0 0 0 10.818270419074281 18.007123140844072 0 18.007123140844072 3.440094724179346 0 0 0 0 16.411222109971277 45.582427912668209 0 45.582427912668209 -29.618635588558391 0 0 0 0 58.315947157636401 48.196117784580565 0 48.196117784580565 -15.147009019026882 0 0 0 0 6.8605924006838919 10.79474742365602 0 10.79474742365602 1.4907576164696366 0 0 0 0 2.4217697356980352 115.03608717289171 0 115.03608717289171 62.267904444983287 0 0 0 0 5.6649810035140362 9.1962585211108774 0 9.1962585211108774 -9.4932788807102497 0 0 0 0 -0.25502552176713389 27.26851811887348 0 27.26851811887348 -30.29314706074814 0 0 0 0 23.201970516262008 165.12980950697965 0 165.12980950697965 -40.176883993364754 0 0 0 0 -93.297699150455401 162.980328761696 0 162.980328761696 -559.6116361184977 0 0 0 0 -10.182043229328793 68.957131925897187 0 68.957131925897187 -100.36710354292615 0 0 0 0 -28.894010832367712 144.46804939134745 0 144.46804939134745 -557.39644067890185 0 0 0 0 2.0324043262999041 136.96796897416721 0 136.96796897416721 -571.36658547172556 0 0 0 0 -22.881203025966897 160.08390206017066 0 160.08390206017066 -575.09838604412653 0 0 0 0 -36.092020422186806 67.791841000374859 0 67.791841000374859 53.87024148595944 0 0 0 0 -74.944125674584939 124.80069470595117 0 124.80069470595117 -79.47749154875055 0 0 0 0 -19.308477683858655 173.5616294251231 0 173.5616294251231 -93.936748320749757 0 0 0 0 -4.4857716993777821 23.805378638143011 0 23.805378638143011 -31.013892990980423 0 0 0 0 42.086829555329587 412.20391629224287 0 412.20391629224287 -718.74068898844416 0 0 0 0 -91.879187878901575 113.87993843892036 0 113.87993843892036 -25.017174039887323 0 0 0 0 -36.894867192060637 62.749503654974092 0 62.749503654974092 52.33189729052387 0 0 0 0 -79.844707540648869 156.10033136825223 0 156.10033136825223 -465.37184085151239 0 0 0 0 54.848096076894137 306.95971435817046 0 306.95971435817046 -304.75762019128888 0 0 0 0 -114.27225288441356 236.26537899942196 0 236.26537899942196 -319.64644575180864 0 0 0 0 -86.497419295591541 405.27543101347931 0 405.27543101347931 -569.16416178451618 0 0 0 0 272.49235203131457 42.12908764090389 0 42.12908764090389 -288.22088425106085 0 0 0 0 33.901933408746572 304.99013640853082 0 304.99013640853082 -301.44328454692732 0 0 0 0 -17.446740201499551 20.830215175294143 0 20.830215175294143 -0.033911072023329325 0 0 0 0 0.73354507391373147 3.2822704066717847 0 3.2822704066717847 4.3141694367401726 0 0 0 0 -25.213244007502908 806.66583371739034 0 806.66583371739034 0.94453658605925739 0 0 0 0 899.31736429946341 -160.30554288713029 0 -160.30554288713029 -98.069184665873763 0 0 0 0 -591.32057999945982 350.96763698722498 0 350.96763698722498 -208.82672723202268 0 0 0 0 -826.03883200948871 691.35402031198646 0 691.35402031198646 77.176567526650615 0 0 0 0 -1.4144219099694979 12.979065523008757 0 12.979065523008757 42.411615199838195 0 0 0 0 -43.359451246589742 83.767660900237388 0 83.767660900237388 -5.2280310931382701 0 0 0 0 -299.21494520808938 749.95178762795695 0 749.95178762795695 -388.93404246010687 0 0 0 0 98.664790299048036 91.09519665974949 0 91.09519665974949 24.470441940682349 0 0 0 0 108.88581208232426 89.493317626067437 0 89.493317626067437 0.098449470344348811 0 0 0 0 66.007792975676438 4.5852802336332275 0 4.5852802336332275 -25.540648655237419 0 0 0 0 148.20510748083689 57.085529235657305 0 57.085529235657305 24.261441642651334 0 0 0 0 33.06302080111999 9.4682640406267922 0 9.4682640406267922 -7.268417509429014 0 0 0 0 -45.355901699442256 51.489682832230756 0 51.489682832230756 -7.0001169994793599 0 0 0 0 44.369006646108573 54.052130526564724 0 54.052130526564724 -160.79919709719252 0 0 0 0 6.8771492792165958 33.476072569475832 0 33.476072569475832 -23.024576484245358 0 0 0 0 -5.8661773258972971 61.761941456439672 0 61.761941456439672 -14.905978980881628 0 0 0 0 23.502173508586488 55.141574994957885 0 55.141574994957885 -7.2012421908402189 0 0 0 0 -19.052782407141422 83.646888131937885 0 83.646888131937885 -10.550681866894593 0 0 0 0 -11.546501248233241 23.045419843559387 0 23.045419843559387 -11.175206240386331 0 0 0 0 11.065546061716304 163.8264059378198 0 163.8264059378198 41.963586629470228 0 0 0 0 311.06364823561307 -63.945475297863595 0 -63.945475297863595 -237.04157078804565 0 0 0 0 260.97801868239185 -116.60303642100916 0 -116.60303642100916 57.639696987054776 0 0 0 0 408.14160789385278 130.1318578174396 0 130.1318578174396 7.181936151930131 0 0 0 0 38.151854525577896 69.561324803452123 0 69.561324803452123 -79.96102468168823 0 0 0 0 -108.52676660752945 133.67977806529234 0 133.67977806529234 -108.69666843223968 0 0 0 0 220.12646144329483 -39.896108872810146 0 -39.896108872810146 -21.568118328257697 0 0 0 0 200.37964389100671 47.878498959820718 0 47.878498959820718 -41.311461107145533 0 0 0 0 165.84847401033403 73.781385559852424 0 73.781385559852424 -68.579029005923076 0 0 0 0 211.7037624312652 -59.365064815756341 0 -59.365064815756341 -46.958214168116683 0 0 0 0 -47.94104737251719 37.445553403097648 0 37.445553403097648 44.815717050551243 0 0 0 0 -79.068928737118767 99.330197361683531 0 99.330197361683531 -29.008114435506286 0 0 0 0 -1.5514452381585233 32.455612002045712 0 32.455612002045712 32.279030862216359 0 0 0 0 -69.371000307821305 60.53420862981875 0 60.53420862981875 22.506681437844236 0 0 0 0 -52.969359104518077 57.887142674284519 0 57.887142674284519 25.48251856297307 0 0 0 0 -71.905190555978152 134.5263115414491 0 134.5263115414491 -59.242686312718433 0 0 0 0 -81.175591812237144 105.85046643983151 0 105.85046643983151 -82.935094705288066 0 0 0 0 -77.279850462620743 123.61985585707589 0 123.61985585707589 -77.286187531746691 0 0 0 0 -100.6567298928021 134.31489538557071 0 134.31489538557071 -39.435854883806314 0 0 0 0 -63.015769253255712 160.11317579191382 0 160.11317579191382 -37.297499996947408 0 0 0 0 -40.235093777670954 152.54320007223578 0 152.54320007223578 -57.025090224924497 0 0 0 0 -76.382334977783103 138.41348708027363 0 138.41348708027363 -62.547337239302578 0 0 0 0 -13.454669596687381 166.24092922971613 0 166.24092922971613 -41.125108481181087 0 0 0 0 -76.102387911807909 162.64354245015784 0 162.64354245015784 -30.144164265919244 0 0 0 0 30.545141328697945 94.593062382498815 0 94.593062382498815 -26.302273248408085 0 0 0 0 39.973096046013779 113.5725727766694 0 113.5725727766694 -50.656269201987016 0 0 0 0 -55.584582805103764 133.08446900294257 0 133.08446900294257 -62.165040469277301 0 0 0 0 41.76333990751192 68.422156540601662 0 68.422156540601662 -46.535581293710493 0 0 0 0 -56.06718541191367 125.65175473601994 0 125.65175473601994 -40.73373739917588 0 0 0 0 337.79543874450246 0.94764336699881824 0 0.94764336699881824 -175.45741287787678 0 0 0 0 273.96004436002841 4.7698024451528909 0 4.7698024451528909 -186.33928499155445 0 0 0 0 262.96001035851077 -17.281171863447526 0 -17.281171863447526 -161.90114846493816 0 0 0 0 149.76013893010804 52.082609004430196 0 52.082609004430196 -169.48377178433293 0 0 0 0 48.31283074712519 101.14089595153109 0 101.14089595153109 -174.78573218530801 0 0 0 0 12.295325104510994 72.157751597213064 0 72.157751597213064 -195.1959639613342 0 0 0 0 120.43315668031573 -31.113888615189353 0 -31.113888615189353 -119.36048781118006 0 0 0 0 171.077166406365 31.765586397057632 0 31.765586397057632 -98.58234102078859 0 0 0 0 79.430657258890278 -41.596219162835041 0 -41.596219162835041 -142.43092411127873 0 0 0 0 217.9328426294669 8.9425122281827498 0 8.9425122281827498 -209.29498466601945 0 0 0 0 -3.7916988119190194 31.149576362675219 0 31.149576362675219 -63.909506502385852 0 0 0 0 13.557048645632655 -6.9295814970131175 0 -6.9295814970131175 -8.3025028526541291 0 0 0 0 -35.659830565629818 116.05480133412493 0 116.05480133412493 -63.095370290975552 0 0 0 0 188.09233275721635 -52.906740422346047 0 -52.906740422346047 -54.037130337222152 0 0 0 0 16.325901756252392 18.448859947868513 0 18.448859947868513 -5.0767787906491435 0 0 0 0 33.76828778237541 60.844929613929708 0 60.844929613929708 -60.174469857098302 0 0 0 0 539.85980487756751 -259.89953043702553 0 -259.89953043702553 36.974610911638592 0 0 0 0 248.43079788713658 -18.438871653081151 0 -18.438871653081151 -161.98668944018118 0 0 0 0 247.75970205188059 -16.574032464355696 0 -16.574032464355696 -142.49113780049083 0 0 0 0 217.62345483325043 10.861984275157738 0 10.861984275157738 -155.204112693551 0 0 0 0 7.0615131600974479 3.7144469694422071 0 3.7144469694422071 2.3715904164835138 0 0 0 0 -27.199700860524899 122.19020329159684 0 122.19020329159684 -113.94088903148076 0 0 0 0 -34.045424734867993 150.96981062225677 0 150.96981062225677 193.54561774330796 0 0 0 0 36.154513202731323 66.613416013997266 0 66.613416013997266 -60.607112303056056 0 0 0 0 29.501442578599381 66.310919902432943 0 66.310919902432943 -57.516392284698668 0 0 0 0 24.568402222648729 59.586954145997879 0 59.586954145997879 -58.547950117113942 0 0 0 0 52.026327355379181 26.555627191162785 0 26.555627191162785 -70.637738370889565 0 0 0 0 133.10308609508502 5.7869188941403991 0 5.7869188941403991 -180.59846673866559 0 0 0 0 97.871161881732405 -15.306019593121164 0 -15.306019593121164 -185.98764702535118 0 0 0 0 434.25860976673721 -25.597372516022006 0 -25.597372516022006 -300.13487333795638 0 0 0 0 241.65699570927245 136.90514643743518 0 136.90514643743518 -123.30428795894841 0 0 0 0 352.5859224500382 -190.64669914368278 0 -190.64669914368278 -369.35991586130694 0 0 0 0 300.08664355911424 -156.07170562346619 0 -156.07170562346619 -280.52940172432864 0 0 0 0 58.974616163687379 89.600224769456347 0 89.600224769456347 -158.17985584955517 0 0 0 0 -116.11931468870716 132.79021859899876 0 132.79021859899876 -348.02746361417667 0 0 0 0 -68.349682998679668 63.711140416780665 0 63.711140416780665 -415.11141428374685 0 0 0 0 -24.428514935720365 98.204082604233733 0 98.204082604233733 -74.963986539130275 0 0 0 0 34.650898666459369 35.184239198902418 0 35.184239198902418 -39.470693856719151 0 0 0 0 2704.5005266305525 -478.21146839711582 0 -478.21146839711582 -9.8625756346737035 0 0 0 0 590.79102889113346 1437.8119396528928 0 1437.8119396528928 -349.61931417760206 0 0 0 0 126.59573524750067 241.51775182444726 0 241.51775182444726 -508.32814696799323 0 0 0 0 176.1194567589846 47.305132073692221 0 47.305132073692221 -171.03956723248484 0 0 0 0 100.98625270571392 147.4829786507471 0 147.4829786507471 99.975069671854726 0 0 0 0 218.72194376974949 247.50173443194944 0 247.50173443194944 96.434341349459828 0 0 0 0 -605.37474564022705 397.66975592260496 0 397.66975592260496 425.31312745857576 0 0 0 0 31.887545915702503 -11.945576269972662 0 -11.945576269972662 -134.4521286925883 0 0 0 0 -11.948239235594379 20.514413654519132 0 20.514413654519132 -38.316800224429642 0 0 0 0 -611.05324347927672 339.47159677203308 0 339.47159677203308 27.310228498801735 0 0 0 0 97.368054066319019 -113.58276274500531 0 -113.58276274500531 -352.77766084220639 0 0 0 0 -7.6079235656238495 3.9500136565706043 0 3.9500136565706043 0.082540445307529353 0 0 0 0 -517.03252275272098 513.41108808697027 0 513.41108808697027 -301.08956407277583 0 0 0 0 -33.678335314518336 289.70286280709843 0 289.70286280709843 -197.80254155115108 0 0 0 0 -24.674787737982115 -23.054806111824291 0 -23.054806111824291 19.480321107599593 0 0 0 0 218.98476336256135 134.8563947099392 0 134.8563947099392 -252.46345844512689 0 0 0 0 -19.354717873786285 -25.137514235197159 0 -25.137514235197159 -132.91059600606241 0 0 0 0 -552.86104994026664 -11.248685978362573 0 -11.248685978362573 -99.383233350963565 0 0 0 0 52.938013171953259 -1.6585371717372652 0 -1.6585371717372652 -46.939549813596642 0 0 0 0 -257.312384745499 245.90617095009657 0 245.90617095009657 -142.70997814218572 0 0 0 0 -59.863462633809831 122.0759376704591 0 122.0759376704591 -65.118041539535625 0 0 0 0 36.725403563767031 253.48852549311414 0 253.48852549311414 -221.29836007252743 0 0 0 0 -65.050119542640459 213.49274599085766 0 213.49274599085766 -222.30532472631603 0 0 0 0 -27.578440948029311 288.42549030767987 0 288.42549030767987 -231.16825875593349 0 0 0 0 123.45314952415356 275.80660913095198 0 275.80660913095198 -248.62816664276761 0 0 0 0 116.00533295918285 287.8642162114993 0 287.8642162114993 -323.18959150320006 0 0 0 0 179.49935737279156 166.14836831333196 0 166.14836831333196 -211.33031692086661 0 0 0 0 57.877961977617815 169.37759750276746 0 169.37759750276746 -338.74846020482073 0 0 0 0 101.74709537476883 233.30971480168228 0 233.30971480168228 -324.96882925777754 0 0 0 0 46.230467703710019 56.362603239409509 0 56.362603239409509 -355.17888508274336 0 0 0 0 109.72866400567182 122.58713452583652 0 122.58713452583652 -298.51886328868568 0 0 0 0 53.297479670330205 -6.0818379614019875 0 -6.0818379614019875 -48.241700093601253 0 0 0 0 30.442248794948682 153.87502159549331 0 153.87502159549331 -209.57042953156633 0 0 0 0 46.24996277920755 53.752329254969993 0 53.752329254969993 -181.76812394533772 0 0 0 0 -26.934593071760901 58.659039386933728 0 58.659039386933728 -92.921127933375828 0 0 0 0 12.653620371708882 35.804667235411074 0 35.804667235411074 -39.912576399396272 0 0 0 0 12.11053691039244 12.475558573753972 0 12.475558573753972 -3.808933751141808 0 0 0 0 1418.3490141734001 -252.43582633769256 0 -252.43582633769256 20.222356760816183 0 0 0 0 20.738312013719522 -0.40340657148490777 0 -0.40340657148490777 -9.4136472768261683 0 0 0 0 22.02604359183897 24.517750387349224 0 24.517750387349224 -77.549328272303683 0 0 0 0 53.371644277721657 -6.5998997189511499 0 -6.5998997189511499 -40.534532452568158 0 0 0 0 1.5619961108568532 130.34783074699953 0 130.34783074699953 -141.45911056741897 0 0 0 0 -19.73610358692531 27.965306600410258 0 27.965306600410258 -53.990841589256888 0 0 0 0 29.390612438069184 79.772660247923341 0 79.772660247923341 0.62346468052419368 0 0 0 0 76.245270082072238 4.9864837339991936 0 4.9864837339991936 -22.413816149201011 0 0 0 0 -65.390138068460715 -110.05861063494244 0 -110.05861063494244 -50.172402519485331 0 0 0 0 -65.822219954323373 46.677755524797249 0 46.677755524797249 235.09650349215372 0 0 0 0 33.486952612054139 14.387968005965746 0 14.387968005965746 -27.266266617428641 0 0 0 0 59.184492274802324 42.142419991258066 0 42.142419991258066 100.63996019895421 0 0 0 0 7.6355526357265262 233.79643689778459 0 233.79643689778459 408.91823705492425 0 0 0 0 207.36381447168242 204.70950340243144 0 204.70950340243144 0.19283710146555677 0 0 0 0 90.4835548494666 100.63351698727638 0 100.63351698727638 15.341804972631508 0 0 0 0 127.77256589641911 178.88887592869287 0 178.88887592869287 165.6405445906712 0 0 0 0 1565.4779722105923 918.32290223337623 0 918.32290223337623 235.42313523228222 0 0 0 0 59.186615706869816 417.2723458018927 0 417.2723458018927 907.86333577576443 0 0 0 0 181.61058090137885 7.4466615758137777 0 7.4466615758137777 77.561265109601663 0 0 0 0 547.36677107626383 482.19798796153918 0 482.19798796153918 216.30510323157068 0 0 0 0 649.58346662074746 347.19410414565391 0 347.19410414565391 0.18281598699104507 0 0 0 0 838.85723547564703 527.20819156153448 0 527.20819156153448 0.082551048486493528 0 0 0 0 1623.1930568881291 87.611862506466423 0 87.611862506466423 115.92843492809334 0 0 0 0 398.46083781294874 130.24780310278584 0 130.24780310278584 744.06090015561495 0 0 0 0 85.629846793577599 1035.3932828438992 0 1035.3932828438992 85.933560599230987 0 0 0 0 804.92462648389119 557.70909609476075 0 557.70909609476075 264.94185991748236 0 0 0 0 760.26353956136154 677.58605676091247 0 677.58605676091247 -0.27984206378267767 0 0 0 0 300.42874196810953 198.1236309872329 0 198.1236309872329 -176.95245712733595 0 0 0 0 305.03775396899073 533.29655713081593 0 533.29655713081593 -124.08851274957124 0 0 0 0 1440.7227407569439 111.94808777034189 0 111.94808777034189 -286.23823902306322 0 0 0 0 1400.7604082031862 1526.761466132064 0 1526.761466132064 168.48384121988784 0 0 0 0 -347.26559629251642 656.90044948269133 0 656.90044948269133 456.54112572947633 0 0 0 0 1.5254000250349264 1.7495786812439036 0 1.7495786812439036 2.6912159043396855 0 0 0 0 2336.9283556938317 758.46395038730407 0 758.46395038730407 -53.634871197555185 0 0 0 0 2212.3102058793847 719.5149900315082 0 719.5149900315082 369.21357280174561 0 0 0 0 -1737.637831715474 -24.4116765694489 0 -24.4116765694489 491.60772566122614 0 0 0 0 -5.2899636854191172 12.282222063871643 0 12.282222063871643 -11.478672134973181 0 0 0 0 130.05029109252382 -59.491021019318396 0 -59.491021019318396 -913.09310087663471 0 0 0 0 2.3429618641601735 -2.8214494594639348 0 -2.8214494594639348 2.9233085212271703 0 0 0 0 580.34733325127308 1298.7058457204403 0 1298.7058457204403 676.39091645328153 0 0 0 0 256.7894807139819 2151.5051499812944 0 2151.5051499812944 227.13378657257999 0 0 0 0 1986.7837416924976 1186.9742864807631 0 1186.9742864807631 -225.36506455967901 0 0 0 0 1403.2779917493717 1859.85083317713 0 1859.85083317713 -457.01041681665811 0 0 0 0 3054.9472890861944 1441.9105047780686 0 1441.9105047780686 -110.00349355867365 0 0 0 0 -286.09756360836764 476.93694337316992 0 476.93694337316992 -207.7840776699959 0 0 0 0 -1026.2474023217947 448.41390036451776 0 448.41390036451776 -0.28889832540880889 0 0 0 0 -311.59662482418935 280.93669475864226 0 280.93669475864226 -279.57976802442863 0 0 0 0 104.78187252801581 439.57067677815212 0 439.57067677815212 -261.31132700822127 0 0 0 0 -41.321293075750873 660.50904593290034 0 660.50904593290034 0.31499158083170187 0 0 0 0 1035.9829576942138 42.021737876115367 0 42.021737876115367 -169.32756939058891 0 0 0 0 -0.56501210123261103 0.043444423768768559 0 0.043444423768768559 3.0609048262083434 0 0 0 0 -432.95279638690408 554.72969756244129 0 554.72969756244129 0.050714647542723791 0 0 0 0 2.3412142955916977 3.2453804125866981 0 3.2453804125866981 4.1303358896343525 0 0 0 0 522.75804045434415 73.222857538439712 0 73.222857538439712 -420.19698303951009 0 0 0 0 98.047518587292871 502.08010867583653 0 502.08010867583653 -372.67563349404372 0 0 0 0 -1.7335603008058342 3.7955364831814791 0 3.7955364831814791 2.3915713703549386 0 0 0 0 210.10506325367351 564.07608736758266 0 564.07608736758266 -1041.2324912669865 0 0 0 0 -234.14300346437813 613.20418776232691 0 613.20418776232691 794.48997630974918 0 0 0 0 -183.11047214212886 218.72697698807315 0 218.72697698807315 -429.4436516295973 0 0 0 0 -5.3503778165943459 4.8353500360823034 0 4.8353500360823034 2.8930939342202748 0 0 0 0 -166.72743981740211 601.41614677743678 0 601.41614677743678 -428.52707320488116 0 0 0 0 -524.67541359338793 726.42854474183696 0 726.42854474183696 -414.44628272786213 0 0 0 0 -156.52157468575206 595.09848486482588 0 595.09848486482588 -704.81160159957653 0 0 0 0 -88.05667723454826 750.44196139089036 0 750.44196139089036 -564.97098408636521 0 0 0 0 -1586.8013883014428 1326.5011871045281 0 1326.5011871045281 996.42716236955312 0 0 0 0 111.65963163359993 1262.489769503798 0 1262.489769503798 -699.91645308992884 0 0 0 0 -228.89658880320349 1392.4013259689928 0 1392.4013259689928 676.18517081107711 0 0 0 0 -398.58749221022299 375.17797442576557 0 375.17797442576557 511.18593075245735 0 0 0 0 -959.90827307707696 285.51550127023074 0 285.51550127023074 301.02145530654525 0 0 0 0 -141.32763681519828 405.97260143168933 0 405.97260143168933 507.19333942899539 0 0 0 0 -294.09982963852963 799.98294761107536 0 799.98294761107536 453.13867144999676 0 0 0 0 509.2273508522012 517.91649750548822 0 517.91649750548822 353.65555109571142 0 0 0 0 1029.8977235703078 309.11149161370849 0 309.11149161370849 133.75312719648355 0 0 0 0 529.14468461717479 922.20334343449213 0 922.20334343449213 131.34761987867751 0 0 0 0 677.63028132482577 967.80768343295495 0 967.80768343295495 491.07517186317273 0 0 0 0 405.93388334215706 490.86803949402383 0 490.86803949402383 15.02907120611053 0 0 0 0 -46.942733941294136 935.01738962986565 0 935.01738962986565 -168.4604027591995 0 0 0 0 -287.0209818735093 251.54672278621365 0 251.54672278621365 44.733974874980049 0 0 0 0 -985.98065594802756 884.62747283450881 0 884.62747283450881 208.53781930327932 0 0 0 0 2.158580275931703 27.435255621699795 0 27.435255621699795 40.332236580773042 0 0 0 0 -2535.704051587134 657.36078335279308 0 657.36078335279308 170.73986459427397 0 0 0 0 1516.4886807511048 517.05542169874934 0 517.05542169874934 -41.896180522395298 0 0 0 0 -1409.7301086838706 172.4793940979107 0 172.4793940979107 -366.15095952693082 0 0 0 0 -3657.3814235218815 545.65329641754943 0 545.65329641754943 889.15540251669881 0 0 0 0 1.0209377770917349 11.002267960828647 0 11.002267960828647 14.174370927022892 0 0 0 0 104.12744491913145 259.60440545503297 0 259.60440545503297 -61.647374667722033 0 0 0 0 164.92783754576158 264.61220137006603 0 264.61220137006603 -303.55518033404951 0 0 0 0 510.65574368857779 407.50804496749333 0 407.50804496749333 -395.57382560148835 0 0 0 0 -242.68786277684376 367.66828584752875 0 367.66828584752875 -25.071820727745944 0 0 0 0 212.96229715796653 606.83966575050727 0 606.83966575050727 49.8452723038572 0 0 0 0 2139.4960924228799 1242.3521328687857 0 1242.3521328687857 541.12193424327234 0 0 0 0 -16.560359616613297 33.432988202576738 0 33.432988202576738 -33.801448283219031 0 0 0 0 795.81959738675505 1159.7269413162867 0 1159.7269413162867 421.9258821434546 0 0 0 0 1705.8128581282072 462.28455145905173 0 462.28455145905173 72.054498544544913 0 0 0 0 1708.5594943530741 1130.578295211817 0 1130.578295211817 345.01294845227676 0 0 0 0 -24.401787980463737 47.92067785807221 0 47.92067785807221 -53.179839897279066 0 0 0 0 235.99434604829912 219.59121499750472 0 219.59121499750472 -18.464507625350961 0 0 0 0 130.29825390336191 194.73790899910819 0 194.73790899910819 25.894715064787306 0 0 0 0 83.595979111920315 134.1189690679239 0 134.1189690679239 3.9872017069646972 0 0 0 0 114.64257330355031 161.04462684722239 0 161.04462684722239 -1.8331026819942053 0 0 0 0 164.3266986882154 150.96237515965186 0 150.96237515965186 -42.371453640867912 0 0 0 0 114.81551866520749 199.78338521940168 0 199.78338521940168 -125.11438035356696 0 0 0 0 163.28669231983622 88.041097873214312 0 88.041097873214312 -66.452666671597399 0 0 0 0 87.741044771850284 118.01686117221834 0 118.01686117221834 53.127633963951666 0 0 0 0 172.42754417167453 102.83500386487867 0 102.83500386487867 50.336509351196582 0 0 0 0 29.165357899636547 308.23963241396268 0 308.23963241396268 190.8886013783922 0 0 0 0 -5.3823373280658302 3.7862908171998129 0 3.7862908171998129 -2.0445155800086354 0 0 0 0 104.19587051722465 387.508454311268 0 387.508454311268 -444.76926955267845 0 0 0 0 182.45310575811527 154.85104159799084 0 154.85104159799084 -9.8752602200111141 0 0 0 0 334.77587296177444 274.07460084178638 0 274.07460084178638 -284.82158083967806 0 0 0 0 -31.03844772877158 56.691815013372064 0 56.691815013372064 -63.027363569379304 0 0 0 0 1428.6774632744127 1184.1246341707592 0 1184.1246341707592 -48.63389469194226 0 0 0 0 163.72953974251868 102.53567581919924 0 102.53567581919924 -309.3184591627296 0 0 0 0 262.17246234509003 60.790900511630753 0 60.790900511630753 -398.06930351755 0 0 0 0 221.6982758856102 128.7132630340202 0 128.7132630340202 -413.81556591435219 0 0 0 0 39.61734919680454 30.181448393481418 0 30.181448393481418 -8.5003862233676273 0 0 0 0 -40.861235476600996 441.51239866645483 0 441.51239866645483 -678.13157663840684 0 0 0 0 139.53006978778558 199.34236375016917 0 199.34236375016917 -457.79989328164083 0 0 0 0 69.778600279897546 34.496170437712863 0 34.496170437712863 -397.04006077216764 0 0 0 0 -16.245454708943726 -60.209504219761584 0 -60.209504219761584 -200.74501991241232 0 0 0 0 -33.571283513723756 -87.054352393679437 0 -87.054352393679437 76.353402403674409 0 0 0 0 70.391260789063381 87.0143533212904 0 87.0143533212904 127.83329027525906 0 0 0 0 511.71764097757841 -62.477313641236833 0 -62.477313641236833 -403.70568915738841 0 0 0 0 404.16145393345141 210.19200810115944 0 210.19200810115944 -1021.4691099921474 0 0 0 0 236.21701557585038 -42.03206081539247 0 -42.03206081539247 -747.65543887312015 0 0 0 0 -171.27279985464702 86.310879857577675 0 86.310879857577675 -408.65163637825754 0 0 0 0 -2332.5571638971624 334.47411222687424 0 334.47411222687424 174.57123023524764 0 0 0 0 284.63757188952331 243.21928437245697 0 243.21928437245697 243.6587831043289 0 0 0 0 9.742426670814659 40.912119663659894 0 40.912119663659894 59.802678971993373 0 0 0 0 -8.9806539712252516 -0.85875395450251091 0 -0.85875395450251091 8.978020076550365 0 0 0 0 -917.93309247775323 339.26507980203314 0 339.26507980203314 -356.0824025022448 0 0 0 0 -978.73581947625553 585.91927112426674 0 585.91927112426674 173.14856347668683 0 0 0 0 -444.42896885092341 -97.112505701355985 0 -97.112505701355985 -611.82361594024405 0 0 0 0 201.90603387969895 1217.0410503239182 0 1217.0410503239182 28.859901220588654 0 0 0 0 61.409224602095492 584.76646961999359 0 584.76646961999359 -336.37350375791721 0 0 0 0 348.35446203398533 1112.330674104378 0 1112.330674104378 -22.336897696746746 0 0 0 0 820.70740580251731 682.78884862392442 0 682.78884862392442 126.78036109425557 0 0 0 0 126.49244168110454 683.13024313921778 0 683.13024313921778 135.37565615452149 0 0 0 0 -28.234498071718264 63.074814592436965 0 63.074814592436965 -63.985902170774864 0 0 0 0 -30.391542687470405 79.978534145297175 0 79.978534145297175 -51.582622553263377 0 0 0 0 -190.33886200618872 709.46564086285798 0 709.46564086285798 -991.7232797939123 0 0 0 0 11.600258788379477 20.496209070265024 0 20.496209070265024 -11.340675970664307 0 0 0 0 71.491121898237907 748.988283936691 0 748.988283936691 784.35636257723672 0 0 0 0 -445.84196198688005 -77.083091093678377 0 -77.083091093678377 -713.41656569689803 0 0 0 0 -829.50688573805382 2365.5608529462188 0 2365.5608529462188 680.92232926631914 0 0 0 0 52.572634108691148 52.626370517929075 0 52.626370517929075 48.368985515979944 0 0 0 0 -6.8272942083276575 102.85866991938383 0 102.85866991938383 -28.290462255514285 0 0 0 0 -1.5427595874198232 136.87805351802581 0 136.87805351802581 4.0824902321619447 0 0 0 0 7.7148671447503148 68.218395587915438 0 68.218395587915438 -8.0183948962439899 0 0 0 0 26.087969473781413 101.96021586041024 0 101.96021586041024 27.342043373617344 0 0 0 0 -17.332340106295305 101.18939562996093 0 101.18939562996093 56.916224035681807 0 0 0 0 15.465866124571434 17.668669791810316 0 17.668669791810316 -2.6300729424621636 0 0 0 0 -18.630198434126214 92.265654311451726 0 92.265654311451726 50.025391072180355 0 0 0 0 -45.806636748886376 117.81327178817446 0 117.81327178817446 -119.84862013977545 0 0 0 0 19.053047910918394 68.880219153879807 0 68.880219153879807 -107.11427651149279 0 0 0 0 -50.970776757967542 62.232338393521786 0 62.232338393521786 -105.61560712235223 0 0 0 0 -45.69355101718611 118.5781665693321 0 118.5781665693321 -59.785246620100224 0 0 0 0 -23.15232164637564 73.678882968270045 0 73.678882968270045 -71.694913365645334 0 0 0 0 11.956896170275286 92.680648694338743 0 92.680648694338743 -96.768505859727156 0 0 0 0 11.363164334419707 104.52161187294405 0 104.52161187294405 -71.69210316365934 0 0 0 0 11.314629618589606 95.306323079793401 0 95.306323079793401 -78.301594548480352 0 0 0 0 53.747293229622301 98.329238638310926 0 98.329238638310926 -107.51153703923046 0 0 0 0 60.78982325879042 130.03781049780082 0 130.03781049780082 -88.747338828732609 0 0 0 0 -55.930015618666395 98.797422645231975 0 98.797422645231975 -34.797462033455616 0 0 0 0 123.69039274853276 151.13780250473792 0 151.13780250473792 -97.265696937603934 0 0 0 0 164.49452948921135 556.92775379314116 0 556.92775379314116 402.369529047377 0 0 0 0 60.156979058615434 150.30196666583515 0 150.30196666583515 -71.549469434656203 0 0 0 0 15.920099454139745 133.70420727104238 0 133.70420727104238 -76.95702034891292 0 0 0 0 38.120082231745556 64.008531689965636 0 64.008531689965636 25.471419924360816 0 0 0 0 -131.81898004714276 319.36706006497479 0 319.36706006497479 -477.83926430917927 0 0 0 0 589.54103119242791 531.9763035907381 0 531.9763035907381 -557.65612330824479 0 0 0 0 -204.73327755946957 1158.4737123736631 0 1158.4737123736631 611.11210941782338 0 0 0 0 -25.505812106987214 27.540537848112372 0 27.540537848112372 -7.7771015531712351 0 0 0 0 -1845.9693767768331 358.07440111211326 0 358.07440111211326 1069.1040772377783 0 0 0 0 -170.43034783965777 -551.6238185407492 0 -551.6238185407492 -641.82712895137956 0 0 0 0 -8.3644816148781018 12.975075074152926 0 12.975075074152926 -11.963162480311411 0 0 0 0 956.58762182516148 489.33786302047884 0 489.33786302047884 -1830.8453527685924 0 0 0 0 257.60432361772109 149.2997158660728 0 149.2997158660728 -235.14806664745265 0 0 0 0 176.11332418852908 -48.984492557847261 0 -48.984492557847261 -149.47078779066214 0 0 0 0 295.00903046051098 20.773799208109267 0 20.773799208109267 -114.80755084492557 0 0 0 0 306.32291980825494 161.92634704987131 0 161.92634704987131 -560.20232846509316 0 0 0 0 1.4893132975848857 305.93977412270033 0 305.93977412270033 -269.91453669010662 0 0 0 0 705.4119030135771 -183.24785538490687 0 -183.24785538490687 -333.92445792369108 0 0 0 0 300.06063411033028 -182.62253042096927 0 -182.62253042096927 -27.244374736954342 0 0 0 0 579.24817580633498 748.29987651620468 0 748.29987651620468 -89.835807789204409 0 0 0 0 90.258220643860113 105.20366228761122 0 105.20366228761122 -75.038513616469572 0 0 0 0 62.568963589124905 97.298429195187055 0 97.298429195187055 -80.436560162183014 0 0 0 0 163.31252023787238 230.94249441968714 0 230.94249441968714 -43.306299216299522 0 0 0 0 109.32687399521819 173.49127128449618 0 173.49127128449618 -13.941018286670442 0 0 0 0 -61.958549823954435 88.671975347129717 0 88.671975347129717 -27.943192309486051 0 0 0 0 763.02247471390092 588.41531181878167 0 588.41531181878167 -498.72377828045865 0 0 0 0 262.90784419067495 196.17911150953296 0 196.17911150953296 -92.796687959882547 0 0 0 0 249.30642025073757 83.233542797708651 0 83.233542797708651 -32.873164497694233 0 0 0 0 152.41564450017177 173.49332006830082 0 173.49332006830082 -89.479689985921141 0 0 0 0 164.32788717509652 130.47248698972959 0 130.47248698972959 -86.151078038092237 0 0 0 0 16.089942497041193 83.988299710996216 0 83.988299710996216 -68.102028273995529 0 0 0 0 89.706415295033366 172.50070468606282 0 172.50070468606282 -85.573603576165624 0 0 0 0 81.363130967547477 95.105928384837171 0 95.105928384837171 11.68313258633134 0 0 0 0 32.214282245171489 170.1134043600905 0 170.1134043600905 -97.427358719833137 0 0 0 0 -50.411815982253756 147.4238886925159 0 147.4238886925159 -108.1641119918786 0 0 0 0 20.88166953115433 129.73272449354408 0 129.73272449354408 -103.11084308930731 0 0 0 0 -61.422893269627821 71.741579340559838 0 71.741579340559838 -87.89129175162816 0 0 0 0 -169.27341460027674 310.26925065005344 0 310.26925065005344 -83.354927433167177 0 0 0 0 -10.470384522515815 568.14028829348536 0 568.14028829348536 -81.321939614853363 0 0 0 0 -44.922747485041327 63.792990794432626 0 63.792990794432626 -202.38559605198679 0 0 0 0 201.70632551389826 155.6178234893564 0 155.6178234893564 -198.26702685182681 0 0 0 0 247.78927778222169 509.44384999125214 0 509.44384999125214 10.702652623673202 0 0 0 0 19.893817858828697 302.91474599199864 0 302.91474599199864 513.43162743264111 0 0 0 0 106.16596462279267 200.73806686067837 0 200.73806686067837 -130.75539112563274 0 0 0 0 94.462220087181777 467.20653204515111 0 467.20653204515111 -491.11058879259508 0 0 0 0 142.37735573784448 483.71689882493229 0 483.71689882493229 -494.97429484085296 0 0 0 0 40.842243548977422 498.58122193353483 0 498.58122193353483 86.402819338676636 0 0 0 0 -97.752961480378872 113.15519234271778 0 113.15519234271778 -77.612130770532531 0 0 0 0 -127.50720977515448 128.58726780477446 0 128.58726780477446 -489.63103395502549 0 0 0 0 407.45987407602661 26.368021217840578 0 26.368021217840578 -178.35185470480064 0 0 0 0 108.50787077928089 54.28323546884981 0 54.28323546884981 29.131620962484718 0 0 0 0 158.09105190778791 -183.59977254239493 0 -183.59977254239493 71.979574419441633 0 0 0 0 23.526848104909632 2.2807176963288924 0 2.2807176963288924 -5.7527055918282031 0 0 0 0 -69.596257698431145 179.72866087788134 0 179.72866087788134 155.30206371807071 0 0 0 0 7.1721924907687935 303.45261878672318 0 303.45261878672318 -645.24859442013258 0 0 0 0 -200.65027945920519 140.13173800857112 0 140.13173800857112 -129.59926703276869 0 0 0 0 -31.667940322520735 167.58852307900088 0 167.58852307900088 -214.37952327927815 0 0 0 0 87.351444550049223 32.386925481714883 0 32.386925481714883 12.49951178029545 0 0 0 0 -256.69527188329084 276.0133099852028 0 276.0133099852028 -264.94117355147318 0 0 0 0 -589.30796504282625 379.59038448257343 0 379.59038448257343 -43.330390792616527 0 0 0 0 -401.28648623109257 125.26015667694355 0 125.26015667694355 242.47775281671784 0 0 0 0 -1205.3790807085024 -675.82767898189923 0 -675.82767898189923 -487.69189541846572 0 0 0 0 162.93470391568553 635.79088963861432 0 635.79088963861432 593.7563846208941 0 0 0 0 305.20298776173149 166.49025408743182 0 166.49025408743182 -487.52959810499306 0 0 0 0 -398.47721320946403 135.12203352385268 0 135.12203352385268 -117.90957333764527 0 0 0 0 -1018.9590105821953 780.1080370785603 0 780.1080370785603 -78.377472830572515 0 0 0 0 -222.56720715970732 311.7042249197184 0 311.7042249197184 -1380.8988222494736 0 0 0 0 -218.04142031769879 175.4145752637487 0 175.4145752637487 70.33268089259218 0 0 0 0 -397.86824999894452 880.5174801498797 0 880.5174801498797 -105.59296286825338 0 0 0 0 -520.64967618329683 411.90835478629015 0 411.90835478629015 190.0684692815048 0 0 0 0 74.879831631085835 376.49885842323783 0 376.49885842323783 166.84434184171732 0 0 0 0 5.7800617667890037 487.66927886086341 0 487.66927886086341 211.37618721861509 0 0 0 0 -327.39919682979962 900.08441424079138 0 900.08441424079138 237.49910914066072 0 0 0 0 309.30737086791851 775.67320544284757 0 775.67320544284757 -1649.6238442782269 0 0 0 0 170.31097150847927 -287.06935453352162 0 -287.06935453352162 6.5184045067726402 0 0 0 0 -156.47481919557322 7.9007137669177609 0 7.9007137669177609 1592.8070593291268 0 0 0 0 5.6256419572898722 -4.592023945997397 0 -4.592023945997397 -1.6900538098042759 0 0 0 0 189.58082644020033 102.02258363794317 0 102.02258363794317 371.15742506209062 0 0 0 0 9.0722029827850292 -2.5091357493469388 0 -2.5091357493469388 -3.7255192436674562 0 0 0 0 -116.4792911890836 116.86220478197356 0 116.86220478197356 897.36698144781985 0 0 0 0 -11.495702505111694 335.15067355145584 0 335.15067355145584 321.11004561639857 0 0 0 0 -18.426737825589953 -117.73064123280346 0 -117.73064123280346 402.63614757051164 0 0 0 0 352.8087579881394 462.66393890067411 0 462.66393890067411 -1338.1844935831323 0 0 0 0 -25.453163193509681 891.19364699655489 0 891.19364699655489 156.4518884536883 0 0 0 0 135.51628263294697 624.72273612260688 0 624.72273612260688 -111.86916000814381 0 0 0 0 260.62559994826734 475.86520435554849 0 475.86520435554849 -397.29313664081565 0 0 0 0 -160.23165148837143 -226.23751954073668 0 -226.23751954073668 291.69042955096666 0 0 0 0 -2.9336358650822945 21.805220120621783 0 21.805220120621783 38.967820014670195 0 0 0 0 -157.50605208500929 510.13991688534225 0 510.13991688534225 546.44410041601077 0 0 0 0 -184.56111445366696 29.352244216570398 0 29.352244216570398 207.31215542632708 0 0 0 0 72.604874870963528 134.03599871229224 0 134.03599871229224 120.13586575725952 0 0 0 0 -71.487569074422936 319.52867071775836 0 319.52867071775836 393.72207150724716 0 0 0 0 -12.486700782160995 39.349037658019725 0 39.349037658019725 53.310400676957187 0 0 0 0 142.55805592931574 164.12469602121564 0 164.12469602121564 -35.625628196197795 0 0 0 0 30.452658338279434 133.78467121714129 0 133.78467121714129 91.220991027890705 0 0 0 0 96.924347346153809 169.6606612408068 0 169.6606612408068 107.74170359755226 0 0 0 0 84.537375897195389 94.66406364519554 0 94.66406364519554 96.530408922876404 0 0 0 0 24.134627617533624 183.14508282979841 0 183.14508282979841 86.354656645416981 0 0 0 0 58.568819064414129 127.79536523322167 0 127.79536523322167 45.784789224926499 0 0 0 0 49.497242481720605 124.58943038471625 0 124.58943038471625 165.31247796482057 0 0 0 0 -206.93781725267763 167.24719272924995 0 167.24719272924995 385.2120351084759 0 0 0 0 57.50591889237694 230.57937477338419 0 230.57937477338419 -135.14472437730001 0 0 0 0 97.322235939034726 52.733165490582905 0 52.733165490582905 176.88681128041935 0 0 0 0 -132.69013093196918 388.70745746468947 0 388.70745746468947 36.136949962383369 0 0 0 0 88.924618041175279 74.228928441726595 0 74.228928441726595 65.283783450345254 0 0 0 0 -245.41687145541073 463.48106677100441 0 463.48106677100441 61.870429662332754 0 0 0 0 -321.88433901884127 278.23008782110992 0 278.23008782110992 14.917196225054795 0 0 0 0 10.658056679996662 89.847211133106612 0 89.847211133106612 16.772034883499146 0 0 0 0 161.40510059040389 -55.184056163503556 0 -55.184056163503556 234.90722257166635 0 0 0 0 -18.220460373454387 46.58861470739653 0 46.58861470739653 66.297633694861446 0 0 0 0 0.79207791533571026 -1.8197322154470328 0 -1.8197322154470328 4.4612689920571427 0 0 0 0 34.275961491308408 128.93405542628898 0 128.93405542628898 81.231385333405342 0 0 0 0 23.019930014466809 110.16842644615099 0 110.16842644615099 201.64542281630565 0 0 0 0 32.103234205205808 51.493921905464958 0 51.493921905464958 229.6003907977065 0 0 0 0 24.827451601569464 5.8925970884484968 0 5.8925970884484968 4.3801667495806775 0 0 0 0 -2.5574703588863485 47.16886528151008 0 47.16886528151008 140.32986161639565 0 0 0 0 -129.32480824246886 -71.370495657101856 0 -71.370495657101856 363.9752414234099 0 0 0 0 83.221723552866024 102.75633445252606 0 102.75633445252606 143.03663007491559 0 0 0 0 127.09978508368658 19.540348156471737 0 19.540348156471737 111.38732770181377 0 0 0 0 185.64686154797892 -41.231147805687215 0 -41.231147805687215 61.051571892632637 0 0 0 0 15.096230171686329 -10.110328653434408 0 -10.110328653434408 115.74443061742295 0 0 0 0 91.938089506136748 -133.28355829148859 0 -133.28355829148859 -24.64555256976746 0 0 0 0 -53.215744973545952 142.03195090750523 0 142.03195090750523 -73.911404650294571 0 0 0 0 -221.77647935919958 237.08771333362529 0 237.08771333362529 211.65603290630315 0 0 0 0 110.66336860164665 -95.608324041302694 0 -95.608324041302694 30.056521381484345 0 0 0 0 83.112001794004755 86.768546756262367 0 86.768546756262367 231.78779808926629 0 0 0 0 10.177452693115441 3.8700190878572016 0 3.8700190878572016 -0.50610688076684696 0 0 0 0 17.67272854183102 182.08701956376899 0 182.08701956376899 498.16420695983106 0 0 0 0 94.646237038094114 216.31253030592779 0 216.31253030592779 269.27455691664363 0 0 0 0 100.95066967617458 246.03148993150535 0 246.03148993150535 173.09534562865156 0 0 0 0 54.12732658790992 150.04527883178162 0 150.04527883178162 200.56428971709101 0 0 0 0 102.42546929167293 219.19741140402039 0 219.19741140402039 234.13360378399057 0 0 0 0 97.231585119574447 168.46767108331551 0 168.46767108331551 111.6021516014589 0 0 0 0 31.259205570059038 84.574034015740665 0 84.574034015740665 -5.73468283527124 0 0 0 0 143.59854945060943 158.0552898177848 0 158.0552898177848 -22.911357492550451 0 0 0 0 204.74416834133444 269.23040695858072 0 269.23040695858072 117.72982466638405 0 0 0 0 61.327501262276201 215.49944775504264 0 215.49944775504264 162.17990107781952 0 0 0 0 117.38811652257573 288.85824037475686 0 288.85824037475686 220.3820922721352 0 0 0 0 126.80838744876382 32.693860976782162 0 32.693860976782162 134.4525450041001 0 0 0 0 -66.771052882711956 177.11872013019092 0 177.11872013019092 194.60115267965011 0 0 0 0 12.664493233860412 270.19814631779445 0 270.19814631779445 100.7329938680341 0 0 0 0 1.7396105010411702 133.67697258687986 0 133.67697258687986 34.524536960550904 0 0 0 0 -11.699764075502358 14.039458207696001 0 14.039458207696001 -5.6081519980533443 0 0 0 0 85.618939791034791 71.541314454196254 0 71.541314454196254 58.241105506385793 0 0 0 0 58.242887370135577 131.42953266163386 0 131.42953266163386 -77.758523600077751 0 0 0 0 -18.556202749196643 60.228731256337227 0 60.228731256337227 -38.982677083418395 0 0 0 0 21.232676927650118 -72.11197245160065 0 -72.11197245160065 -249.86332801813114 0 0 0 0 117.54183455656312 37.665483023720299 0 37.665483023720299 -46.015563017688692 0 0 0 0 25.086950000433717 -29.929106830924866 0 -29.929106830924866 160.37299682342564 0 0 0 0 55.03785501990933 20.79299632038601 0 20.79299632038601 206.32877957861638 0 0 0 0 -28.634080928756816 53.60037585559428 0 53.60037585559428 -57.907765661491325 0 0 0 0 91.524342151773453 296.71862721433718 0 296.71862721433718 61.154029118969333 0 0 0 0 127.50495201480953 175.71069467764028 0 175.71069467764028 -769.28984348670019 0 0 0 0 -78.2798641302943 289.79115335909592 0 289.79115335909592 436.25016975808103 0 0 0 0 -2.9429735366493759 2.5017654608610371 0 2.5017654608610371 -0.76564547842477282 0 0 0 0 -150.46302386090974 153.58816766791278 0 153.58816766791278 329.905581127201 0 0 0 0 -8.944497883452982 4.6232770848751272 0 4.6232770848751272 -0.78236754319713953 0 0 0 0 1.1049617110038525 212.4171477322343 0 212.4171477322343 -79.597577947617538 0 0 0 0 -47.039909826220537 -71.909514914583269 0 -71.909514914583269 -130.15646472157823 0 0 0 0 -25.237777336056752 204.11933447949013 0 204.11933447949013 113.45046005840413 0 0 0 0 -15.457404097712157 70.801855383188609 0 70.801855383188609 -62.577327417310769 0 0 0 0 18.698587257109466 170.57905568954448 0 170.57905568954448 -73.616368832605076 0 0 0 0 -8.7725311330486875 220.03491068432777 0 220.03491068432777 79.307488045917125 0 0 0 0 164.25440326257376 355.78792690920818 0 355.78792690920818 -41.12077298121585 0 0 0 0 101.85568152605265 212.12345458369964 0 212.12345458369964 -53.752102521564666 0 0 0 0 83.471314623345734 83.377808104700307 0 83.377808104700307 560.02923346386524 0 0 0 0 240.31781339985173 477.63335604561871 0 477.63335604561871 318.86031105316215 0 0 0 0 2.461905919581028 2.4504460093153284 0 2.4504460093153284 0.27578474055568591 0 0 0 0 -163.30107303139084 317.73541385925637 0 317.73541385925637 983.50168787819712 0 0 0 0 85.299196330081031 323.48930576225393 0 323.48930576225393 -491.55484896938469 0 0 0 0 157.56121821795023 407.72554377541746 0 407.72554377541746 -394.67438261638017 0 0 0 0 -27.831998853373079 339.87263216384599 0 339.87263216384599 -370.91921032965183 0 0 0 0 60.942170353360098 319.74647671169714 0 319.74647671169714 -436.18233038300241 0 0 0 0 58.214235025236803 285.0522293819206 0 285.0522293819206 -269.69255580818572 0 0 0 0 260.71387574281835 175.7300183812913 0 175.7300183812913 -499.10669473470625 0 0 0 0 -38.078739909655269 336.25216494636697 0 336.25216494636697 -409.25742089467531 0 0 0 0 123.25807034374884 263.4372595936693 0 263.4372595936693 -230.05705863390176 0 0 0 0 248.13646445958148 148.43557755056827 0 148.43557755056827 -154.55568724525801 0 0 0 0 56.764224364963873 92.817378341411512 0 92.817378341411512 -130.84105086932996 0 0 0 0 370.98988571654991 96.757492251803342 0 96.757492251803342 -241.04349735313235 0 0 0 0 56.089472023116656 86.926943332172939 0 86.926943332172939 -143.54082148084601 0 0 0 0 -49.964904017979279 153.29768864798098 0 153.29768864798098 -252.63686779280397 0 0 0 0 464.01953610601777 -105.0230330931663 0 -105.0230330931663 -271.54583743226067 0 0 0 0 315.57869530148309 -9.0190054013000918 0 -9.0190054013000918 -255.5427164354187 0 0 0 0 193.33903379485128 137.47355240113461 0 137.47355240113461 -900.46200103880255 0 0 0 0 188.04041459993095 79.572419265565259 0 79.572419265565259 -262.58900904183247 0 0 0 0 234.0417418362922 -111.6168812863034 0 -111.6168812863034 -321.24705690826522 0 0 0 0 316.39187964101166 -19.122353200816178 0 -19.122353200816178 -466.53635022636445 0 0 0 0 104.61016029192615 -52.257696034488617 0 -52.257696034488617 -268.82129597279709 0 0 0 0 -11.516726102832763 -150.48832000128459 0 -150.48832000128459 -320.49394736226168 0 0 0 0 -60.703554676569183 -63.229070038694772 0 -63.229070038694772 -201.51522959822614 0 0 0 0 8.0512499991309596 14.462967959825619 0 14.462967959825619 -151.04464307500166 0 0 0 0 -58.606501394508086 -277.96023005533789 0 -277.96023005533789 -1189.468506394609 0 0 0 0 -511.41037664700707 777.12189775078878 0 777.12189775078878 -1128.4144570699887 0 0 0 0 -1662.3985184299854 452.7353003987082 0 452.7353003987082 -234.36510145899956 0 0 0 0 -4.8879506846472225 7.1536671926823487 0 7.1536671926823487 -12.526123170487381 0 0 0 0 21.505346613332222 -149.9700162615336 0 -149.9700162615336 -48.381740157161403 0 0 0 0 41.283637639702988 908.77227582262401 0 908.77227582262401 -8.1431506439694203 0 0 0 0 -9.8292809922708386 8.1759871644988209 0 8.1759871644988209 -4.6094212339892238 0 0 0 0 300.12563594213134 -151.82863076937792 0 -151.82863076937792 -399.71981589446295 0 0 0 0 480.1220774723588 -57.085254974688723 0 -57.085254974688723 -1082.9947503144358 0 0 0 0 375.30834257870811 98.262622844624275 0 98.262622844624275 -1385.7985534304971 0 0 0 0 210.66596233261509 -5.2573857487473106 0 -5.2573857487473106 -554.90231039439095 0 0 0 0 -382.22458395144349 -500.71487491962762 0 -500.71487491962762 -968.93232409319899 0 0 0 0 210.38609398990229 1.6138669665378984 0 1.6138669665378984 -541.56614951543452 0 0 0 0 106.17804935910681 128.61812219609419 0 128.61812219609419 -312.69461889083323 0 0 0 0 -65.278697674104478 -220.40614832471692 0 -220.40614832471692 -284.33813556155656 0 0 0 0 -257.72134569562695 -6.6828653344127815 0 -6.6828653344127815 -316.18200476806669 0 0 0 0 -269.48780056362739 97.034837652596252 0 97.034837652596252 -65.757687677323702 0 0 0 0 -454.92827450919867 456.46424546254275 0 456.46424546254275 -297.66480330666673 0 0 0 0 -44.186636837283004 290.22037835535411 0 290.22037835535411 -658.52636198063556 0 0 0 0 -1099.9362438947901 160.67951872578124 0 160.67951872578124 -337.70873203789233 0 0 0 0 -0.37286027633672347 1253.4923260771084 0 1253.4923260771084 749.94599724040017 0 0 0 0 443.74733827925593 319.17944424252619 0 319.17944424252619 117.08641369308316 0 0 0 0 432.33956097168266 285.18289277648728 0 285.18289277648728 35.910844573940267 0 0 0 0 530.96750154771144 438.86678167547871 0 438.86678167547871 255.78940191163565 0 0 0 0 426.28255595528026 270.49657380403733 0 270.49657380403733 143.08024870965164 0 0 0 0 -2.2894135314063409 60.683102670494861 0 60.683102670494861 34.019255455175937 0 0 0 0 -493.77501709522039 13.502682053240278 0 13.502682053240278 296.39446967966796 0 0 0 0 2.8260056592189358 97.58335658476426 0 97.58335658476426 30.942842027965526 0 0 0 0 525.72973907247069 40.76005420875299 0 40.76005420875299 -274.45013680008196 0 0 0 0 227.26868240648764 43.244007239394705 0 43.244007239394705 -97.347301593050361 0 0 0 0 211.43520109323435 -197.71034227631026 0 -197.71034227631026 -245.4072571855213 0 0 0 0 666.25362372605014 297.9372646498523 0 297.9372646498523 -127.66104904788153 0 0 0 0 956.10913374675147 -61.512540348892799 0 -61.512540348892799 -281.3704488563526 0 0 0 0 -453.23831254833203 103.68140167255478 0 103.68140167255478 428.61382085358491 0 0 0 0 -62.155037775611618 89.152430450304564 0 89.152430450304564 15.329128594341455 0 0 0 0 0.4294948086574033 73.376554238458311 0 73.376554238458311 1.2864899147604092 0 0 0 0 26.887953944562469 268.10993538593175 0 268.10993538593175 33.807310098578455 0 0 0 0 -25.352914985254756 342.85784701904777 0 342.85784701904777 -69.055031858209986 0 0 0 0 -1.9553507258797538 35.571834841395088 0 35.571834841395088 84.188751652165479 0 0 0 0 899.89048920511414 1175.568387050429 0 1175.568387050429 1232.3613083736273 0 0 0 0 17.949099863295714 13.430366429342598 0 13.430366429342598 8.403734886695176 0 0 0 0 964.27922486091848 1623.4595661970088 0 1623.4595661970088 1932.154324377414 0 0 0 0 3576.8565804485697 1165.620258480023 0 1165.620258480023 1543.9959004842676 0 0 0 0 3189.5956907088112 1804.1151986585755 0 1804.1151986585755 544.07089710565924 0 0 0 0 2.973552452827164 11.879593551901394 0 11.879593551901394 6.9514723477212783 0 0 0 0 -1003.566253932775 471.11372473654046 0 471.11372473654046 307.60225577131496 0 0 0 0 2.4040822765273333 515.88786385873391 0 515.88786385873391 592.41837751993444 0 0 0 0 229.43725911348884 254.93895928731945 0 254.93895928731945 -211.43964122528268 0 0 0 0 2994.4879566934105 -7.4344408900215058 0 -7.4344408900215058 -706.36301458043454 0 0 0 0 2452.327721355643 2001.5417613813279 0 2001.5417613813279 632.60408882400952 0 0 0 0 687.24322553907405 984.56605921055598 0 984.56605921055598 -199.09951719321543 0 0 0 0 813.45456250543066 402.49740973481676 0 402.49740973481676 -164.28510365266266 0 0 0 0 1036.3118478502752 488.27450344753555 0 488.27450344753555 -440.02426357765216 0 0 0 0 1039.0646216609084 819.55550246545124 0 819.55550246545124 -359.79372186365072 0 0 0 0 2.9357119907452045 19.023294884758684 0 19.023294884758684 13.894220334738066 0 0 0 0 601.82168288636603 -207.15674066502834 0 -207.15674066502834 -871.20963984248374 0 0 0 0 662.24112848408549 36.711750624275737 0 36.711750624275737 106.72492845333181 0 0 0 0 4004.8061527653917 619.62085771888087 0 619.62085771888087 -1082.0517336627672 0 0 0 0 376.87985642945569 2784.4693519435605 0 2784.4693519435605 -0.055048152775270864 0 0 0 0 3289.2185495550075 4349.3063808646693 0 4349.3063808646693 -12.50806020537857 0 0 0 0 1.7212093291370891 11.004349314911281 0 11.004349314911281 6.5787159254455787 0 0 0 0 -2052.1130696377513 1502.2913991773894 0 1502.2913991773894 1194.5359275393712 0 0 0 0 -594.14075345729179 50.933159036667121 0 50.933159036667121 67.44986966252327 0 0 0 0 4.3456545635941648 5.8869887240807941 0 5.8869887240807941 9.7286520538905279 0 0 0 0 5136.4292752971523 230.53515779165173 0 230.53515779165173 -783.43716344010318 0 0 0 0 2397.7872042786912 1911.503339029834 0 1911.503339029834 -1.8443972345613662 0 0 0 0 7.140073240427796 8.4842661334177194 0 8.4842661334177194 4.4233651350056107 0 0 0 0 -381.05184790609928 1152.1053012574484 0 1152.1053012574484 1345.2046842905838 0 0 0 0 1611.4118149162896 -1557.1068201920207 0 -1557.1068201920207 578.46951603287016 0 0 0 0 4424.9752005720948 740.97844167460426 0 740.97844167460426 -611.28285157982828 0 0 0 0 -358.47656791774943 136.0599172897397 0 136.0599172897397 148.07876842211408 0 0 0 0 3.3803815297824142 18.588514387101498 0 18.588514387101498 43.943565219940581 0 0 0 0 4191.609920715593 388.43589518568479 0 388.43589518568479 -1142.6815334524726 0 0 0 0 384.51318799034925 756.31359869508015 0 756.31359869508015 -113.6157029029273 0 0 0 0 219.25330738357661 1531.7770018467127 0 1531.7770018467127 81.685478975996375 0 0 0 0 8.5662623949796739 11.114049280006498 0 11.114049280006498 2.8427864660428668 0 0 0 0 648.72950627931277 564.18026215714053 0 564.18026215714053 -312.80476460896898 0 0 0 0 1484.8493013784173 1091.2455345938506 0 1091.2455345938506 -187.86834762842955 0 0 0 0 1494.6323440850829 1980.8399979747192 0 1980.8399979747192 158.65023226918129 0 0 0 0 -84.872543870151276 234.99245714244171 0 234.99245714244171 189.28089409819222 0 0 0 0 586.60736678028479 795.46107803523773 0 795.46107803523773 2171.3507700804621 0 0 0 0 -108.77141305572877 111.1929308005856 0 111.1929308005856 109.57485175222973 0 0 0 0 -128.73471873535891 144.68199176748749 0 144.68199176748749 264.13801230251556 0 0 0 0 53.987414143484784 125.60780582996085 0 125.60780582996085 240.38000563705282 0 0 0 0 161.62102319240512 264.069170432791 0 264.069170432791 249.16077013785252 0 0 0 0 161.57494166947436 137.47085657532443 0 137.47085657532443 201.78143745311536 0 0 0 0 91.619401146992459 117.72967724412592 0 117.72967724412592 90.959279649992823 0 0 0 0 60.397537844895851 228.52073027339065 0 228.52073027339065 120.49017526152602 0 0 0 0 -125.44322071914212 84.442351104487898 0 84.442351104487898 11.104696599621093 0 0 0 0 -84.033139766108434 211.96020969904384 0 211.96020969904384 51.088583450007718 0 0 0 0 -83.322141467582696 74.247119190124067 0 74.247119190124067 4.0900054625963094 0 0 0 0 -202.0717767579772 213.0476164849897 0 213.0476164849897 -0.13760004049981944 0 0 0 0 175.09155874514909 152.47931357896596 0 152.47931357896596 44.130682407907443 0 0 0 0 166.57603404255497 135.34023244937271 0 135.34023244937271 20.439692115876824 0 0 0 0 83.180422809105949 211.47347450954112 0 211.47347450954112 0.041286650903672728 0 0 0 0 152.42293544745189 197.86617052172369 0 197.86617052172369 16.044896895964484 0 0 0 0 161.31184238955029 161.64104101232078 0 161.64104101232078 117.39128734057886 0 0 0 0 -2.9272831112029962 16.313951684060157 0 16.313951684060157 7.9815431504539447 0 0 0 0 126.35343189488322 180.75885382799515 0 180.75885382799515 116.60094483179273 0 0 0 0 -4.348122765176754 7.5143945246194903 0 7.5143945246194903 -4.699183321248313 0 0 0 0 -2.3339089580017571 14.747261175357778 0 14.747261175357778 -6.3404291409339493 0 0 0 0 129.28769205250137 164.18394134155824 0 164.18394134155824 174.86308783115237 0 0 0 0 109.51751188293565 239.76295568761998 0 239.76295568761998 101.02967505970446 0 0 0 0 -3.9916233407101345 10.957388878227505 0 10.957388878227505 -10.71833747868618 0 0 0 0 -0.42339217592962086 19.844113183906302 0 19.844113183906302 -188.97012384091795 0 0 0 0 248.24601456290111 244.64010017341934 0 244.64010017341934 169.24620104051428 0 0 0 0 168.75984701258312 314.30774993519935 0 314.30774993519935 380.22542027768213 0 0 0 0 3.9406692772764131 5.442158557070286 0 5.442158557070286 -5.7215041518680607 0 0 0 0 -10.234133237681817 35.221200647079968 0 35.221200647079968 -17.949463272743742 0 0 0 0 3.1746593377902173 24.687864391336916 0 24.687864391336916 -16.580093718635908 0 0 0 0 0.11009184987051412 2.9416967217548518 0 2.9416967217548518 -55.637649312440772 0 0 0 0 -9.4535725011228351 93.931227619985293 0 93.931227619985293 -92.290597921382869 0 0 0 0 5.4161981469223974 89.338982806613785 0 89.338982806613785 -125.31269909805269 0 0 0 0 13.122879679423932 34.844414823579427 0 34.844414823579427 -53.902999322017422 0 0 0 0 4.3867707496756339 61.96451618363426 0 61.96451618363426 -124.66972689103568 0 0 0 0 6.9845336182479514 91.170987517674803 0 91.170987517674803 85.130815858734422 0 0 0 0 11.289851566956486 81.836876376599719 0 81.836876376599719 11.60697488697231 0 0 0 0 2.3575717593557783 77.048196411393292 0 77.048196411393292 51.985998376840143 0 0 0 0 -6.6547315035859356 88.616307141870493 0 88.616307141870493 -163.2275853593892 0 0 0 0 -5.5714905529312091 80.833283777756151 0 80.833283777756151 -107.3176725981757 0 0 0 0 727.2696409887285 -293.30626487493282 0 -293.30626487493282 -837.42309814871987 0 0 0 0 -105.77760018045956 8.9283582857897272 0 8.9283582857897272 -193.21014146205562 0 0 0 0 1.0961665103973246 4.5705843972109506 0 4.5705843972109506 -6.6853137767885187 0 0 0 0 -165.64764353488863 326.28720826635254 0 326.28720826635254 100.11219566181535 0 0 0 0 -152.18480945755437 252.12530548115319 0 252.12530548115319 343.31155203064554 0 0 0 0 -29.83572974873772 76.878964682414733 0 76.878964682414733 25.031576734954676 0 0 0 0 -914.61885010713013 132.05022864451166 0 132.05022864451166 -49.926031158454862 0 0 0 0 -25.345377943609492 92.00893803910003 0 92.00893803910003 -26.305406335670341 0 0 0 0 -9.7156594677944668 96.232275819180359 0 96.232275819180359 22.323148995936208 0 0 0 0 -8.8449142580303715 65.956006875255156 0 65.956006875255156 13.192009575845255 0 0 0 0 -27.427608088535635 90.236817612441882 0 90.236817612441882 30.974170393717941 0 0 0 0 -13.545591457957926 111.65263731641971 0 111.65263731641971 26.069054787803907 0 0 0 0 -4.1984498024539789 85.53142113564536 0 85.53142113564536 14.402805590791104 0 0 0 0 -19.893942873870401 109.88089154268346 0 109.88089154268346 31.57403982237156 0 0 0 0 9.1955153401067946 105.03449903689761 0 105.03449903689761 31.329184945202542 0 0 0 0 -22.968930154689588 117.60541771124554 0 117.60541771124554 35.870331116311718 0 0 0 0 -15.900254069347284 97.136395388537494 0 97.136395388537494 44.762967333612323 0 0 0 0 -18.046279036119813 89.853490583220264 0 89.853490583220264 32.4328517721151 0 0 0 0 -11.829476876781694 57.875353978046178 0 57.875353978046178 38.688945738634573 0 0 0 0 4.2440356638035155 79.086774963252537 0 79.086774963252537 56.42929172985896 0 0 0 0 55.742891198940924 94.182311712414958 0 94.182311712414958 53.911681737503386 0 0 0 0 -12.113072874621139 106.83808817527461 0 106.83808817527461 42.019277207953564 0 0 0 0 -6.914471027925174 111.71220094003002 0 111.71220094003002 46.581499151638127 0 0 0 0 -77.763293351728237 44.169763092419544 0 44.169763092419544 23.98301669109793 0 0 0 0 -37.555160233925562 228.70585865735484 0 228.70585865735484 95.158731291579898 0 0 0 0 -111.44244860278559 27.449508513120236 0 27.449508513120236 45.418424042160041 0 0 0 0 -130.02112973979092 30.320351164751628 0 30.320351164751628 60.750150018007844 0 0 0 0 -120.16769005854621 71.573096497057122 0 71.573096497057122 143.7995387952833 0 0 0 0 -111.28624499322905 58.410952127123892 0 58.410952127123892 -1.2878960132948123 0 0 0 0 -2.2531593033345416 149.6890551073302 0 149.6890551073302 72.07319489850488 0 0 0 0 -88.477806322202753 52.7725789446379 0 52.7725789446379 13.029643846836564 0 0 0 0 -162.21373244895221 39.778999256181123 0 39.778999256181123 118.08727560014813 0 0 0 0 -56.06354359955003 25.567786078947393 0 25.567786078947393 4.4570886410947423 0 0 0 0 -92.612467646526966 116.16433094416971 0 116.16433094416971 74.539413138074451 0 0 0 0 -124.83955783058627 27.984690810801112 0 27.984690810801112 69.737781982577872 0 0 0 0 -229.82593667369656 -7.7397953203617362 0 -7.7397953203617362 62.862913241464412 0 0 0 0 -391.81835106919243 -85.422106428482948 0 -85.422106428482948 129.76898743535276 0 0 0 0 -565.54682745035097 -98.690902194372029 0 -98.690902194372029 140.37089390541223 0 0 0 0 -48.778116132263676 89.842513342940947 0 89.842513342940947 5.9586605071235681 0 0 0 0 -286.43793140630805 -144.52617571584415 0 -144.52617571584415 -9.9516281941323541 0 0 0 0 -117.53847484005382 -63.855506350839278 0 -63.855506350839278 -100.55739378527505 0 0 0 0 -67.221718026415147 33.889562431088734 0 33.889562431088734 36.979118036311093 0 0 0 0 -78.238529221896897 38.106233256563428 0 38.106233256563428 39.975958218150481 0 0 0 0 116.39013928303029 130.18391022698052 0 130.18391022698052 -1.0933246811036952 0 0 0 0 -214.36037640236827 -29.596032454395754 0 -29.596032454395754 89.391458041180158 0 0 0 0 -116.79499126332303 -45.018163086933782 0 -45.018163086933782 -190.47802795827738 0 0 0 0 -165.30181077979796 70.925358761407551 0 70.925358761407551 27.921220167467254 0 0 0 0 -113.90235655357537 -69.365776635402653 0 -69.365776635402653 105.09537745881244 0 0 0 0 -513.13569967000512 139.0786844308459 0 139.0786844308459 -62.393765625631204 0 0 0 0 -464.93530782956805 192.64324662595027 0 192.64324662595027 -85.267233764665434 0 0 0 0 -35.28845781216333 -13.953774556143742 0 -13.953774556143742 -1.5177689927204767 0 0 0 0 -4.1578402698736454 4.787834010004417 0 4.787834010004417 3.6634827130383201 0 0 0 0 -143.6347106184985 -246.52310746563307 0 -246.52310746563307 -478.99447766554658 0 0 0 0 31.137387605457889 35.684538218906553 0 35.684538218906553 16.91264271594855 0 0 0 0 -5.522334459288686 44.375513154402142 0 44.375513154402142 30.596355328107165 0 0 0 0 78.662260812205204 175.97310867967826 0 175.97310867967826 62.220942668122007 0 0 0 0 -16.02112310299708 18.045870551344706 0 18.045870551344706 -5.2040555842177127 0 0 0 0 -97.463043163756083 104.9156406131151 0 104.9156406131151 -18.187801391948597 0 0 0 0 25.201569789496716 15.680132534827862 0 15.680132534827862 -65.926740787253948 0 0 0 0 -169.4936018064036 37.481482554445392 0 37.481482554445392 8.8622062072754488 0 0 0 0 -18.411367472843864 66.070555911201723 0 66.070555911201723 56.631754283459145 0 0 0 0 -109.09242786939285 38.157048584180302 0 38.157048584180302 11.41122027192614 0 0 0 0 -6.7545740773540501 26.302208150418522 0 26.302208150418522 2.5609406813315587 0 0 0 0 -161.89731098670291 173.84745967579397 0 173.84745967579397 -60.259093252010643 0 0 0 0 1.0633289495563787 59.627182688673685 0 59.627182688673685 -57.809617925684393 0 0 0 0 43.697745226163534 4.5773073182936059 0 4.5773073182936059 28.508133825554978 0 0 0 0 -141.71330964993467 201.03136739765978 0 201.03136739765978 -137.62386836785299 0 0 0 0 -73.752760953182587 114.47764445428038 0 114.47764445428038 -20.527650058269501 0 0 0 0 -300.60976486286381 96.222082964173751 0 96.222082964173751 173.02609856540221 0 0 0 0 -21.175783607613994 191.65058320462413 0 191.65058320462413 -281.84786707974854 0 0 0 0 24.221587834545062 44.058829807276197 0 44.058829807276197 -46.559820334645337 0 0 0 0 -14.369354311951096 42.432477266128075 0 42.432477266128075 -32.669786944250518 0 0 0 0 -92.750460717497845 -47.675778060651282 0 -47.675778060651282 53.634489743388258 0 0 0 0 -3.8133557975894234 -3.7290368108138239 0 -3.7290368108138239 11.059988592500048 0 0 0 0 -83.40902830340201 -32.488698595348978 0 -32.488698595348978 25.074828900891589 0 0 0 0 -66.849183119745987 7.5457190310502256 0 7.5457190310502256 19.759834720677162 0 0 0 0 -58.58377641010884 8.6582521845593874 0 8.6582521845593874 75.0135979684419 0 0 0 0 -12.175892182593714 4.2123672048258527 0 4.2123672048258527 1.0119345458044222 0 0 0 0 -51.577784349501599 -84.268577264723717 0 -84.268577264723717 -58.620916044506885 0 0 0 0 -142.47267629577254 -133.86220751900692 0 -133.86220751900692 67.861592088884208 0 0 0 0 -23.670854027305722 12.116313286459444 0 12.116313286459444 28.887455509175197 0 0 0 0 -62.329525916256017 12.251595347037977 0 12.251595347037977 21.28059361697558 0 0 0 0 -37.350132750347257 35.691189534292789 0 35.691189534292789 13.247949870463344 0 0 0 0 -15.013436766962855 -1.5432481632360577 0 -1.5432481632360577 5.1956785860906507 0 0 0 0 -16.87294050597302 10.375618967973423 0 10.375618967973423 8.9561647074297071 0 0 0 0 -1.8163835822077701 -3.093578523953795 0 -3.093578523953795 0.70364318480756083 0 0 0 0 209.55483145095059 129.69584176472563 0 129.69584176472563 54.875761725736083 0 0 0 0 -36.929985515453154 -25.86867921166413 0 -25.86867921166413 24.321293832850643 0 0 0 0 -1.6440360309660491 4.6152850168936652 0 4.6152850168936652 -4.828162332060117 0 0 0 0 1.3350974338536616 0.89482144470093772 0 0.89482144470093772 -0.45125042255676817 0 0 0 0 -6.1323881355201593 13.941721113798849 0 13.941721113798849 -0.012406322188326158 0 0 0 0 1.930556959403475 21.509333091473422 0 21.509333091473422 5.6471001727913972 0 0 0 0 -45.27247504904517 3.302217653254047 0 3.302217653254047 6.652459713674034 0 0 0 0 1.2113444038592363 -3.9264918534072422 0 -3.9264918534072422 -0.46308597160100362 0 0 0 0 349.52658355732274 174.78936221350887 0 174.78936221350887 -0.025639887768193148 0 0 0 0 1.5142069221124075 2.527976895145855 0 2.527976895145855 -4.211588360695572 0 0 0 0 -1056.6747434260687 -15.143630407634191 0 -15.143630407634191 146.80440549417108 0 0 0 0 9.6346844308136497 10.858173537373659 0 10.858173537373659 0.012015569228908339 0 0 0 0 3.922074843372684 7.1865538286510855 0 7.1865538286510855 3.7915717945870711 0 0 0 0 -0.50386506840385437 4.0319179319198497 0 4.0319179319198497 -5.1678152652527558 0 0 0 0 -16.11338213851559 -43.136421208946558 0 -43.136421208946558 -50.69450634556415 0 0 0 0 -120.87207810675318 151.01960168911683 0 151.01960168911683 -117.06752093181422 0 0 0 0 2.6730795829716953 -369.84224563730822 0 -369.84224563730822 -542.61684540288115 0 0 0 0 -563.93335039405792 -402.28362541843671 0 -402.28362541843671 14.915335396257433 0 0 0 0 -2.4405662774278198 3.3028730467704008 0 3.3028730467704008 -2.6569271941157808 0 0 0 0 73.204620968041127 164.53292924353445 0 164.53292924353445 194.00860690696572 0 0 0 0 -160.7548242239136 55.219077947593178 0 55.219077947593178 -103.71822963273735 0 0 0 0 106.26741740365105 443.03926049391157 0 443.03926049391157 155.93229158154281 0 0 0 0 -215.88845111181581 -33.685519388884131 0 -33.685519388884131 346.30361514209653 0 0 0 0 -96.648288847759687 18.89166565677462 0 18.89166565677462 5.9564258295798425 0 0 0 0 38.879707328684162 -239.46837969285843 0 -239.46837969285843 110.86228191899136 0 0 0 0 -572.58481829471566 200.9435306836458 0 200.9435306836458 757.35515109628614 0 0 0 0 -78.783954646315863 14.611790657204978 0 14.611790657204978 -2.5996160325434801 0 0 0 0 -847.84436583023125 -58.476239276948036 0 -58.476239276948036 786.3844574229588 0 0 0 0 434.10860968759516 268.01186422890169 0 268.01186422890169 -457.59089677864722 0 0 0 0 -417.63326932441123 296.75817840039963 0 296.75817840039963 24.668224476234172 0 0 0 0 -1911.8004738117888 -1436.4105568762898 0 -1436.4105568762898 -461.47425925746211 0 0 0 0 -32.352127613263377 6.2825051004777492 0 6.2825051004777492 -1.8662859885140364 0 0 0 0 -1086.6151773564779 -1206.9846911641507 0 -1206.9846911641507 -459.88948029473249 0 0 0 0 -1273.8005749541589 1611.7964479741968 0 1611.7964479741968 -928.87598871825321 0 0 0 0 -739.39903104853875 -124.45406383251247 0 -124.45406383251247 525.94890260401735 0 0 0 0 -24.910901153441955 360.24889371736936 0 360.24889371736936 -654.22150579122535 0 0 0 0 -1246.2314963593963 860.08798899267276 0 860.08798899267276 -544.57330965710025 0 0 0 0 -1677.0598711051207 692.30336774747411 0 692.30336774747411 -37.352849974980927 0 0 0 0 -1784.7179514374366 674.48664594889124 0 674.48664594889124 -40.060954375934671 0 0 0 0 -1363.1527010062855 475.39607562507445 0 475.39607562507445 0.0066664507561324873 0 0 0 0 -873.39021497994327 483.51820283711277 0 483.51820283711277 -323.92495090761804 0 0 0 0 -1320.4592877160248 155.18740516840626 0 155.18740516840626 81.793119874637341 0 0 0 0 -2048.6892981733981 515.16374753402488 0 515.16374753402488 0.4312060753255077 0 0 0 0 -1948.8924010866613 854.36630358362891 0 854.36630358362891 -70.262614039893379 0 0 0 0 -2691.9479095056704 174.21798732535535 0 174.21798732535535 107.75090476254991 0 0 0 0 -681.39189642199199 -218.13849340068555 0 -218.13849340068555 -175.86918475939456 0 0 0 0 -1788.0250161917065 414.07399456421263 0 414.07399456421263 -921.88223992414714 0 0 0 0 -5.3134116018177053 2.7832280768058411 0 2.7832280768058411 1.8530725940958348 0 0 0 0 -3962.9586769563612 621.64206921649748 0 621.64206921649748 -60.94525139603229 0 0 0 0 -2618.5188995395874 -598.78145278034208 0 -598.78145278034208 -1955.269586431823 0 0 0 0 -4285.3089276226383 372.00174425781734 0 372.00174425781734 35.836079811429954 0 0 0 0 -988.9525499955198 659.16072567556694 0 659.16072567556694 -2222.7116066390772 0 0 0 0 -877.61911147784122 1368.2091860631044 0 1368.2091860631044 -1460.7778563408428 0 0 0 0 -1069.1394427634768 333.16687634494883 0 333.16687634494883 1007.4599902198242 0 0 0 0 3230.270395091763 1919.5945188127562 0 1919.5945188127562 471.40846143569797 0 0 0 0 -84.432922103311284 987.57137056991633 0 987.57137056991633 522.40971836925019 0 0 0 0 -1622.5592503694497 -247.15837230512261 0 -247.15837230512261 823.17527279793285 0 0 0 0 -822.782192227427 -132.9077924980229 0 -132.9077924980229 98.319557406503009 0 0 0 0 -1406.08342301425 148.40810629162297 0 148.40810629162297 18.887728985459944 0 0 0 0 -1452.2413983732258 -341.07899224793073 0 -341.07899224793073 382.01679255602585 0 0 0 0 -2428.2821557456664 -598.43594474545534 0 -598.43594474545534 390.28955767542357 0 0 0 0 -434.77901744366682 40.954292311886093 0 40.954292311886093 -251.81748655594129 0 0 0 0 -325.7255432959173 209.81796273308646 0 209.81796273308646 -182.69640574636287 0 0 0 0 -537.55355771535687 -898.00775979638274 0 -898.00775979638274 -727.0877879603504 0 0 0 0 -2552.0349929469667 438.55791806011985 0 438.55791806011985 -94.133059618703555 0 0 0 0 -7.0138114434956265 -8.4738490600771854 0 -8.4738490600771854 -8.1648587265002561 0 0 0 0 -2104.871554771109 -930.47890166117395 0 -930.47890166117395 -118.87040621094638 0 0 0 0 -995.95580162592523 383.71607714636775 0 383.71607714636775 -884.78878673656436 0 0 0 0 -1871.8844767186965 802.6861981349648 0 802.6861981349648 119.64601120023872 0 0 0 0 -1298.1270662555035 329.00125827388547 0 329.00125827388547 453.27344138020999 0 0 0 0 -2339.6526514528468 -608.8969013522219 0 -608.8969013522219 287.85581547077163 0 0 0 0 -1027.738710761827 -54.808651268220274 0 -54.808651268220274 404.7151372586377 0 0 0 0 -805.43288238394598 -518.71160325459641 0 -518.71160325459641 -184.04711774094017 0 0 0 0 -977.89503908486222 -39.347215950256214 0 -39.347215950256214 377.56837248845841 0 0 0 0 -712.67511229461525 81.737950992566766 0 81.737950992566766 432.80970872259059 0 0 0 0 -651.10368898522574 538.30088100272405 0 538.30088100272405 444.13049949638662 0 0 0 0 -1111.2302143205106 313.75843230862301 0 313.75843230862301 531.94449620012892 0 0 0 0 -1.6893309795123059 551.71068179312715 0 551.71068179312715 348.94794507414917 0 0 0 0 -672.96953490025771 626.23366985873145 0 626.23366985873145 508.6319880959345 0 0 0 0 54.527828569713165 680.30313197994838 0 680.30313197994838 412.73326975275995 0 0 0 0 935.8878352943284 842.22098962060409 0 842.22098962060409 339.87141853186768 0 0 0 0 150.21708909727022 687.10931157937739 0 687.10931157937739 563.68359385879012 0 0 0 0 683.94196189397189 256.12155403852375 0 256.12155403852375 270.30942943986156 0 0 0 0 -1009.0901700878894 271.84683069375751 0 271.84683069375751 201.96548499143682 0 0 0 0 -668.53456311576883 944.56981752990396 0 944.56981752990396 249.87458414436514 0 0 0 0 76.230078098698868 513.75121232126912 0 513.75121232126912 276.32709750978393 0 0 0 0 -326.68267424337682 376.47630305141502 0 376.47630305141502 311.33202112349682 0 0 0 0 -72.303789883124409 391.50368428777438 0 391.50368428777438 237.23543139803223 0 0 0 0 -24.378536284420989 277.53739604071598 0 277.53739604071598 160.78625627089059 0 0 0 0 385.91724931680073 173.72761838855513 0 173.72761838855513 16.921619214353996 0 0 0 0 74.278789515563403 369.51259902384481 0 369.51259902384481 246.26620591621031 0 0 0 0 902.77760951873643 299.87953692045267 0 299.87953692045267 101.63971813140961 0 0 0 0 323.29883959871222 244.60411134045353 0 244.60411134045353 98.574028611154063 0 0 0 0 209.64641119296721 245.94021089121816 0 245.94021089121816 253.43228312501469 0 0 0 0 -361.06324258960376 543.95293470169418 0 543.95293470169418 400.04704562926781 0 0 0 0 80.937236841582489 518.85575586400955 0 518.85575586400955 310.47567851966596 0 0 0 0 -483.39929506694898 339.9089585505244 0 339.9089585505244 401.14077205612557 0 0 0 0 -638.44923289288272 414.43082992422569 0 414.43082992422569 521.14048417449158 0 0 0 0 -656.72800454685785 199.1172593279407 0 199.1172593279407 429.81871919647529 0 0 0 0 -754.21890377267846 7.8096207198541379 0 7.8096207198541379 337.9242871843453 0 0 0 0 -795.71116657144375 136.01436728026965 0 136.01436728026965 401.51331463092356 0 0 0 0 -595.50801729609339 79.838311006478762 0 79.838311006478762 332.86418327954016 0 0 0 0 -506.58893768920098 250.44675315069617 0 250.44675315069617 345.84426670470566 0 0 0 0 -535.95006856348482 210.98454646672326 0 210.98454646672326 308.26506371419237 0 0 0 0 -524.55655117480637 290.55855491198599 0 290.55855491198599 340.23777121270541 0 0 0 0 -349.64323750069161 413.33899369681967 0 413.33899369681967 389.06218350780546 0 0 0 0 -384.07531345759344 327.0135961403721 0 327.0135961403721 317.01884784903086 0 0 0 0 -348.27156252868008 250.01767326256231 0 250.01767326256231 183.49677116799285 0 0 0 0 -292.11669247196551 291.85704360961245 0 291.85704360961245 213.86921347555472 0 0 0 0 -464.94318330605165 271.30934481162694 0 271.30934481162694 278.73876569255663 0 0 0 0 -469.05133839669361 252.40106925287728 0 252.40106925287728 261.05555152671877 0 0 0 0 -500.39562848764035 222.84759449961712 0 222.84759449961712 241.68736734849517 0 0 0 0 -476.47433890923276 247.71860613723766 0 247.71860613723766 158.32774338057789 0 0 0 0 -523.48697179414012 174.57155525078997 0 174.57155525078997 108.96302512469265 0 0 0 0 -510.33302084215666 283.55612756469054 0 283.55612756469054 151.01233324635541 0 0 0 0 -389.90808685956654 253.00764454867021 0 253.00764454867021 183.61668198888947 0 0 0 0 -396.42270913800166 234.5644846312789 0 234.5644846312789 134.53684763499768 0 0 0 0 -268.41393260924087 164.31822891675256 0 164.31822891675256 54.4169997913923 0 0 0 0 -250.06363203984802 195.15607677696244 0 195.15607677696244 37.228905322353967 0 0 0 0 -280.82727868684015 325.88739029263525 0 325.88739029263525 219.55840207890287 0 0 0 0 -168.21093619731255 244.32302696201805 0 244.32302696201805 103.7493676153681 0 0 0 0 -104.52822197420028 240.59159392163565 0 240.59159392163565 102.96593842463335 0 0 0 0 27.629392408009153 95.247393026133068 0 95.247393026133068 6.2670002656122961 0 0 0 0 111.24995485282125 172.19315616406675 0 172.19315616406675 31.092489635368111 0 0 0 0 -37.524182508845115 306.94463901370182 0 306.94463901370182 149.4124864527912 0 0 0 0 -42.079410017977352 168.78273243382864 0 168.78273243382864 41.094175255166192 0 0 0 0 -85.464199496702349 137.3926561463486 0 137.3926561463486 22.256208592298208 0 0 0 0 -90.194491728776484 162.59711061624694 0 162.59711061624694 3.5892687923842459 0 0 0 0 -61.538097747157735 90.457492645640741 0 90.457492645640741 -31.481334506621351 0 0 0 0 -123.84771548501158 132.13354233600694 0 132.13354233600694 -77.887041308698826 0 0 0 0 -199.28007731689286 93.892552110133693 0 93.892552110133693 -30.018222375103505 0 0 0 0 -127.96414411625301 86.882976412096468 0 86.882976412096468 -56.316554208198795 0 0 0 0 -319.72417649494855 181.2915048910545 0 181.2915048910545 -45.753204225300578 0 0 0 0 -260.07987164873339 64.469778676877468 0 64.469778676877468 -95.864875820901943 0 0 0 0 -229.75904525820806 162.73160793900024 0 162.73160793900024 -151.61435609326509 0 0 0 0 -94.975326663610758 124.99446566869301 0 124.99446566869301 -154.38688865878066 0 0 0 0 -245.87022842411534 158.74165657219419 0 158.74165657219419 -86.529716751472733 0 0 0 0 -138.40055465690239 60.264633315829997 0 60.264633315829997 -109.45537636365771 0 0 0 0 -352.88737421033875 91.550263361932593 0 91.550263361932593 -156.35905044045649 0 0 0 0 -352.03337537088009 243.19459775153518 0 243.19459775153518 -234.40254339732928 0 0 0 0 -260.46758595867868 127.30463274813519 0 127.30463274813519 -133.86299543200585 0 0 0 0 -565.15758100602397 271.12166351531414 0 271.12166351531414 -86.074672522525361 0 0 0 0 -430.03103817796364 190.06438417734898 0 190.06438417734898 -98.254680440135417 0 0 0 0 -401.15567856903363 250.68914001857047 0 250.68914001857047 -86.834991755058581 0 0 0 0 -206.80403782446228 214.58519549152697 0 214.58519549152697 -65.467188994507524 0 0 0 0 -110.83851271119784 77.521167050865188 0 77.521167050865188 -80.50419701600913 0 0 0 0 -878.69480600383031 274.43559478703537 0 274.43559478703537 -251.38695367781474 0 0 0 0 -575.69292049445448 215.52339618313545 0 215.52339618313545 -166.18763894107542 0 0 0 0 -836.95638422566117 412.93088768476446 0 412.93088768476446 -199.34313365190246 0 0 0 0 -510.84138695723959 144.80481966098159 0 144.80481966098159 -319.47217255934811 0 0 0 0 -477.31001531872607 221.14598550105438 0 221.14598550105438 -146.74609323251934 0 0 0 0 -1443.3393117312953 653.29274224537221 0 653.29274224537221 -225.9633444323299 0 0 0 0 -621.96478484300314 441.15749691367091 0 441.15749691367091 -636.10911326963105 0 0 0 0 -529.47956289102876 134.6382239010054 0 134.6382239010054 -180.8309170740722 0 0 0 0 -756.39322317340338 285.03985611840289 0 285.03985611840289 -143.64648427022621 0 0 0 0 -401.5309590662655 73.936820534079743 0 73.936820534079743 -184.99697520119844 0 0 0 0 -526.66424493100749 200.23695932781629 0 200.23695932781629 16.629778075846843 0 0 0 0 -400.37414522413928 221.48571272948675 0 221.48571272948675 19.221580722209183 0 0 0 0 -380.83537692562822 106.86258324747178 0 106.86258324747178 -19.124623011273798 0 0 0 0 -624.57256108274032 338.56409011235337 0 338.56409011235337 -4.1116538644564571 0 0 0 0 -446.07852359939352 245.88985715233866 0 245.88985715233866 41.337497598779009 0 0 0 0 -229.25023315464205 322.55072281550383 0 322.55072281550383 -121.06476598554582 0 0 0 0 -466.09022881434066 320.74605330252234 0 320.74605330252234 57.687092816391669 0 0 0 0 -117.31998247124648 204.49861964555748 0 204.49861964555748 -102.27542727984837 0 0 0 0 -419.76348384773883 497.63370052007303 0 497.63370052007303 -338.39198548698914 0 0 0 0 -633.37688640483248 175.02139475403237 0 175.02139475403237 -168.04385869617545 0 0 0 0 257.98802238170174 -37.311299858432903 0 -37.311299858432903 -138.76542036075261 0 0 0 0 2.4886109336078022 6.8535508937935461 0 6.8535508937935461 -7.9850566924708914 0 0 0 0 -58.284881893556303 77.032816893512063 0 77.032816893512063 -44.902395768353017 0 0 0 0 118.31707539025956 132.71174706289457 0 132.71174706289457 -337.67604408714158 0 0 0 0 -28.549643585172817 52.410234468796261 0 52.410234468796261 -10.590933630279324 0 0 0 0 4.5267916776938364 59.80863072143984 0 59.80863072143984 -40.749827339692274 0 0 0 0 10.46358279049673 34.283574265598872 0 34.283574265598872 21.114336069953424 0 0 0 0 -19.828569117606094 42.972269874779158 0 42.972269874779158 -12.952191180675072 0 0 0 0 -15.881827907584011 47.877293154549989 0 47.877293154549989 -106.11154152576637 0 0 0 0 -2.2598320662218612 93.070586225192528 0 93.070586225192528 -20.999358728216066 0 0 0 0 38.035241488882093 55.631907007855261 0 55.631907007855261 -5.7124156124627916 0 0 0 0 42.895753813143529 161.21287597902301 0 161.21287597902301 -0.0814899047036306 0 0 0 0 -89.875846274593641 214.26681679733156 0 214.26681679733156 -138.72778674954861 0 0 0 0 -4.2555346837380057 112.92106699538635 0 112.92106699538635 -31.678338075071224 0 0 0 0 -54.444778574234078 216.44362994211406 0 216.44362994211406 -47.982674176945693 0 0 0 0 -118.86418421442795 189.20121755459695 0 189.20121755459695 9.8628033276036149 0 0 0 0 17.909394964993226 126.1483169547646 0 126.1483169547646 33.090770942173549 0 0 0 0 -111.46821609761537 208.5927487614681 0 208.5927487614681 120.67787126734038 0 0 0 0 2.4488086790825037 185.69114540803275 0 185.69114540803275 6.5408991974836681 0 0 0 0 -66.693364702598046 140.1597985822591 0 140.1597985822591 219.66465887452068 0 0 0 0 -1.0075150563789066 207.05203845890355 0 207.05203845890355 -148.66021944559179 0 0 0 0 -3.3279673520413553 22.36815514204315 0 22.36815514204315 9.0421098098550203 0 0 0 0 -253.29357235678253 206.05359550014691 0 206.05359550014691 76.48184285764728 0 0 0 0 -262.2239649461626 274.79280851616204 0 274.79280851616204 30.580387953896206 0 0 0 0 -111.99859385193486 202.35693881600309 0 202.35693881600309 47.474780826014467 0 0 0 0 -283.7944836798315 233.49746069639514 0 233.49746069639514 98.919042886001989 0 0 0 0 -446.61183736632302 204.2276213181176 0 204.2276213181176 218.16025971446652 0 0 0 0 -270.17303612344767 178.84600294687152 0 178.84600294687152 137.46582433860749 0 0 0 0 -387.8243502256737 249.36046384660585 0 249.36046384660585 119.2577919173782 0 0 0 0 -371.68949283027905 102.90393580978343 0 102.90393580978343 210.48474142586929 0 0 0 0 -309.70932529160928 165.52410529305052 0 165.52410529305052 134.44834318944413 0 0 0 0 -476.58524153942562 176.00256250520761 0 176.00256250520761 215.87089818915047 0 0 0 0 -523.36278987958212 174.31099973042546 0 174.31099973042546 281.41066588915419 0 0 0 0 -529.05799813369958 112.94523462637153 0 112.94523462637153 293.81055198850299 0 0 0 0 -501.56118002396397 55.263558548715082 0 55.263558548715082 193.22959080841974 0 0 0 0 -322.86774362404503 18.028836466684879 0 18.028836466684879 179.62866937906074 0 0 0 0 -323.26556727481329 26.661782250659599 0 26.661782250659599 112.97742597115575 0 0 0 0 -95.860447715407645 69.781790449713299 0 69.781790449713299 69.169768284599741 0 0 0 0 -160.18608352172305 108.82400192494242 0 108.82400192494242 95.786925959502696 0 0 0 0 -53.488399178822874 106.6387860396062 0 106.6387860396062 43.715042582800379 0 0 0 0 -61.407309498096787 73.595170911727621 0 73.595170911727621 2.6054778430560077 0 0 0 0 -23.524951851616606 187.13360529471538 0 187.13360529471538 54.953995327843586 0 0 0 0 -120.32259745902047 208.12051867898845 0 208.12051867898845 -18.673504998223507 0 0 0 0 -71.405313486393425 145.1623852617704 0 145.1623852617704 55.387969052462722 0 0 0 0 -246.78635459723773 128.71836284011079 0 128.71836284011079 91.523202199663501 0 0 0 0 -116.57151199771397 171.50136128808663 0 171.50136128808663 75.808115910833294 0 0 0 0 -37.173208147913101 84.324750529020093 0 84.324750529020093 -1.5716710055457952 0 0 0 0 -15.287022191747383 106.42035491309798 0 106.42035491309798 8.4555825188726885 0 0 0 0 -59.011848325146829 88.118945914013153 0 88.118945914013153 24.731396190571729 0 0 0 0 -29.929779673478492 80.815980953407859 0 80.815980953407859 -11.876201891889934 0 0 0 0 49.526891619309026 144.9580665690446 0 144.9580665690446 -83.164039376730216 0 0 0 0 -89.880898846384298 95.717103148923343 0 95.717103148923343 33.220758855386521 0 0 0 0 -47.075928155903291 62.999957014635555 0 62.999957014635555 23.604804965831761 0 0 0 0 -17.908488597808173 105.2631918185798 0 105.2631918185798 21.451596563012572 0 0 0 0 -38.857089048076887 121.69306159840198 0 121.69306159840198 11.953558372078987 0 0 0 0 -12.001764192802511 116.13439973147615 0 116.13439973147615 35.048385650283308 0 0 0 0 -1.3634280106780352 85.559570870815151 0 85.559570870815151 53.678562070912449 0 0 0 0 18.330803098499018 84.722270755504724 0 84.722270755504724 77.483973977025016 0 0 0 0 20.978373399717384 79.540879037456762 0 79.540879037456762 22.580864672201642 0 0 0 0 76.060055647365516 96.467021395925258 0 96.467021395925258 44.39834338073706 0 0 0 0 35.324586186965462 89.564142732800974 0 89.564142732800974 54.532076941570267 0 0 0 0 -71.268304534605704 66.321440446976339 0 66.321440446976339 -40.468222413619515 0 0 0 0 23.369518459421329 62.352674254257977 0 62.352674254257977 9.2921682962705532 0 0 0 0 15.208412128413329 91.798724818334449 0 91.798724818334449 -52.289462131215259 0 0 0 0 26.969488375296351 65.12095284791576 0 65.12095284791576 -4.1304907760204514 0 0 0 0 -59.677535350812832 112.1804958779685 0 112.1804958779685 0.70271876035258174 0 0 0 0 -6.0204686921861139 81.082223257517398 0 81.082223257517398 18.180906535853865 0 0 0 0 2.5488685845302825 111.89942613233507 0 111.89942613233507 24.674081654869951 0 0 0 0 13.102509176227613 91.638355514565774 0 91.638355514565774 23.966151882341364 0 0 0 0 6.3746283824002603 96.708081574892276 0 96.708081574892276 23.292504286786425 0 0 0 0 95.067261846445035 114.13411279246066 0 114.13411279246066 17.438728929111676 0 0 0 0 53.425609865691513 108.75794995159958 0 108.75794995159958 15.022762227759813 0 0 0 0 52.589784833733574 112.00787295082409 0 112.00787295082409 35.944813562047784 0 0 0 0 -31.685423850807851 61.097015019882036 0 61.097015019882036 19.737483365040703 0 0 0 0 2.1920474620674213 109.17669403246327 0 109.17669403246327 52.767736347872415 0 0 0 0 114.34477569084265 100.04327848083631 0 100.04327848083631 -6.2893149598094169 0 0 0 0 62.774383512864006 185.7381303135262 0 185.7381303135262 98.734527929467731 0 0 0 0 99.696269053165452 144.92661948512978 0 144.92661948512978 101.46468736932729 0 0 0 0 27.513836771491981 7.2921535214766209 0 7.2921535214766209 -4.1893874725883222 0 0 0 0 -39.911083346072701 112.95261973132438 0 112.95261973132438 62.674844906927319 0 0 0 0 92.358810708567034 97.673805020014697 0 97.673805020014697 39.828114287789504 0 0 0 0 20.042928489987105 62.605783319616251 0 62.605783319616251 7.4557598976355095 0 0 0 0 -70.701454788320348 53.844348738578987 0 53.844348738578987 46.780906969000853 0 0 0 0 11.19594576365489 120.36459836298309 0 120.36459836298309 41.56960999435978 0 0 0 0 6.9658514787689398 97.72253937970342 0 97.72253937970342 15.069210417153318 0 0 0 0 20.744346322395359 148.83895712321464 0 148.83895712321464 69.134864513209322 0 0 0 0 88.930683865408355 20.31924345283187 0 20.31924345283187 116.68891585973324 0 0 0 0 -17.706709948826251 97.329854340099786 0 97.329854340099786 32.087558027969351 0 0 0 0 -247.40361246465181 475.42186603901791 0 475.42186603901791 -310.99792609791621 0 0 0 0 -502.75432255124906 16.02738375440822 0 16.02738375440822 372.39952017070027 0 0 0 0 188.69513048703811 10.101530440450006 0 10.101530440450006 -137.56979753636642 0 0 0 0 -139.39801320194965 375.36850457144465 0 375.36850457144465 -69.059150827146368 0 0 0 0 16.716527281145574 12.040505351427697 0 12.040505351427697 -0.66611928960202249 0 0 0 0 -29.61245490549917 69.76771757062761 0 69.76771757062761 3.2074831262215184 0 0 0 0 -10.880666228080372 9.8959161839084118 0 9.8959161839084118 23.433893598557916 0 0 0 0 -27.136075052883825 25.851492287332803 0 25.851492287332803 40.605550095191575 0 0 0 0 -26.126409867400071 35.52781648329983 0 35.52781648329983 -1.7527532126405276 0 0 0 0 -46.228622730413917 73.736768362188741 0 73.736768362188741 0.30804651573998854 0 0 0 0 93.403575263808307 127.12285402002817 0 127.12285402002817 -90.086853576256544 0 0 0 0 150.99823820055281 140.80629456008319 0 140.80629456008319 -45.529123077598342 0 0 0 0 -23.359862257186116 97.359412162758133 0 97.359412162758133 17.312424929280041 0 0 0 0 -32.162644692234608 147.68807025748538 0 147.68807025748538 19.500630980823189 0 0 0 0 -33.593311821226962 135.04313360391097 0 135.04313360391097 74.774947896390586 0 0 0 0 28.429106224388022 48.044119978527625 0 48.044119978527625 1.1166858253499186 0 0 0 0 -43.809133111702977 55.846895080831018 0 55.846895080831018 77.137143974556238 0 0 0 0 -59.505427386029623 75.138084383870591 0 75.138084383870591 12.438859544978186 0 0 0 0 -36.841941846741975 116.67809529236183 0 116.67809529236183 -20.390166118857451 0 0 0 0 -12.340795545020228 119.9780021627048 0 119.9780021627048 -36.909191170372651 0 0 0 0 2.3141039874099079 148.28349863709082 0 148.28349863709082 4.4157204897128395 0 0 0 0 -3.8306494842881023 33.692829507759654 0 33.692829507759654 18.581430885756731 0 0 0 0 252.04681184119545 131.1983326062691 0 131.1983326062691 -49.416982544935308 0 0 0 0 100.23185626218145 82.356172877564575 0 82.356172877564575 -3.3278641980461714 0 0 0 0 -51.655217904553865 113.67336438839266 0 113.67336438839266 -26.639891618629918 0 0 0 0 77.490616711357319 76.670999371694862 0 76.670999371694862 -17.806382632370486 0 0 0 0 -30.313489573920378 145.3682668498659 0 145.3682668498659 27.411557071842253 0 0 0 0 -117.51654436029875 129.89093230056915 0 129.89093230056915 68.051876226885909 0 0 0 0 136.27068496786342 96.238894010868535 0 96.238894010868535 -24.188064780166314 0 0 0 0 -20.266005525754039 101.81298033240692 0 101.81298033240692 9.7890986682479024 0 0 0 0 35.867503506447349 12.595962064547535 0 12.595962064547535 -11.490236917785495 0 0 0 0 126.44177140665124 15.173001161441789 0 15.173001161441789 -33.64838648197474 0 0 0 0 119.55020957623492 55.688376847414474 0 55.688376847414474 -53.46563416319259 0 0 0 0 111.47805451677414 96.236254232302599 0 96.236254232302599 -106.24510752847709 0 0 0 0 70.106803515489446 93.343197780872288 0 93.343197780872288 -35.605981495922606 0 0 0 0 26.866342232399091 9.7460298141019166 0 9.7460298141019166 1.6386231683563608 0 0 0 0 63.93956700688797 43.629093265940213 0 43.629093265940213 -19.140914497904049 0 0 0 0 9.7552341330592753 117.90085623472987 0 117.90085623472987 -26.547808805262775 0 0 0 0 85.45742919692475 31.897297228050668 0 31.897297228050668 -6.7935060104184544 0 0 0 0 84.3024431335798 45.566630935478315 0 45.566630935478315 11.244540168030653 0 0 0 0 94.798814499052241 40.570497325999895 0 40.570497325999895 -20.701719630465959 0 0 0 0 46.288948258731807 17.261739513332742 0 17.261739513332742 -25.938988199533156 0 0 0 0 110.8054515288386 75.062562421546318 0 75.062562421546318 -8.6686871506390162 0 0 0 0 86.511170925281476 34.67463061583112 0 34.67463061583112 -15.077893946872791 0 0 0 0 -113.77663988759741 79.98886920127552 0 79.98886920127552 -23.470836806867737 0 0 0 0 97.33037547954882 44.718417636129743 0 44.718417636129743 -17.315441670885775 0 0 0 0 83.361665013770107 41.108465706129209 0 41.108465706129209 -1.6379119000484934 0 0 0 0 18.164308718152625 47.378702105740643 0 47.378702105740643 -3.8869408486009434 0 0 0 0 58.014437488614931 29.34944736478792 0 29.34944736478792 -6.1995374731486663 0 0 0 0 88.935032480077027 51.324466957676719 0 51.324466957676719 -4.0527501621070314 0 0 0 0 -3.8659479790003388 34.075993285321601 0 34.075993285321601 -2.4391344943433069 0 0 0 0 12.57763662271816 53.842811921401363 0 53.842811921401363 -5.8532020150299218 0 0 0 0 63.242403567419387 1.5914240397250978 0 1.5914240397250978 -28.694335288775619 0 0 0 0 -1.4830301635083742 28.19397300601122 0 28.19397300601122 -9.4682421514880843 0 0 0 0 37.984435854110586 47.45874537238879 0 47.45874537238879 -4.3081603397451431 0 0 0 0 -31.786989680643472 38.458108047029555 0 38.458108047029555 -5.4588618820725117 0 0 0 0 145.74706550443079 85.64073732306133 0 85.64073732306133 -5.7252127890242264 0 0 0 0 86.571528891596245 61.338318167430771 0 61.338318167430771 23.355376990381046 0 0 0 0 103.98552049697901 82.535217681597715 0 82.535217681597715 13.87652942808927 0 0 0 0 60.030861771456841 36.816546993389409 0 36.816546993389409 14.478734573478732 0 0 0 0 71.320200931819272 103.75354952641646 0 103.75354952641646 14.807644334083307 0 0 0 0 81.512893375882413 82.249409418720461 0 82.249409418720461 23.679821799625643 0 0 0 0 83.451067204587162 84.208740193818812 0 84.208740193818812 13.954658143768938 0 0 0 0 42.72428226788179 79.804854200265254 0 79.804854200265254 23.824973400880936 0 0 0 0 30.91082351449586 113.28394165990358 0 113.28394165990358 24.705349364696303 0 0 0 0 33.012259668301994 60.676968379389251 0 60.676968379389251 -9.7953471276457549 0 0 0 0 -101.1350479349494 74.130202851534705 0 74.130202851534705 -23.069741305866046 0 0 0 0 -16.126739686901459 6.2473034823318869 0 6.2473034823318869 -2.0614791248345909 0 0 0 0 194.51758469105698 46.282979226089083 0 46.282979226089083 -14.034116542781703 0 0 0 0 114.6583428587619 125.58527900619811 0 125.58527900619811 27.535276479233289 0 0 0 0 184.26558725058567 91.193535760394298 0 91.193535760394298 -13.732804167259019 0 0 0 0 67.435463468777016 103.4906666625684 0 103.4906666625684 17.612023476875038 0 0 0 0 60.464559628046118 144.77717087656492 0 144.77717087656492 7.7042131580892601 0 0 0 0 59.14499929430167 106.80701448092805 0 106.80701448092805 15.968002996291034 0 0 0 0 58.284588207126944 106.80918589089561 0 106.80918589089561 20.965005785998073 0 0 0 0 117.70904151153081 111.35235823625953 0 111.35235823625953 14.88495566030906 0 0 0 0 48.584618359047454 106.91070347965433 0 106.91070347965433 25.193028964626137 0 0 0 0 56.325284264799848 70.126302445078181 0 70.126302445078181 23.701377711913665 0 0 0 0 10.215838467687718 62.12622140253734 0 62.12622140253734 22.313537328926031 0 0 0 0 41.036906822380843 92.033265419471718 0 92.033265419471718 15.221366921367007 0 0 0 0 41.0661559439759 99.612240524525987 0 99.612240524525987 -38.773917133235955 0 0 0 0 -16.687538569036406 63.489384136577428 0 63.489384136577428 96.577390067861415 0 0 0 0 -44.324543329857988 40.421680752329848 0 40.421680752329848 92.991838336787623 0 0 0 0 1.6983372043780953 39.508907531692955 0 39.508907531692955 32.0633842071598 0 0 0 0 46.927945953830204 66.945141671563761 0 66.945141671563761 27.917454187278054 0 0 0 0 57.26017109053646 62.428888469839876 0 62.428888469839876 24.929663766612066 0 0 0 0 -3.8296491040673573 41.006541601542267 0 41.006541601542267 4.8716850162418268 0 0 0 0 11.48333158378955 37.85256535460212 0 37.85256535460212 5.2528159859139123 0 0 0 0 -6.4943231443194236 5.8124813399036057 0 5.8124813399036057 8.7140305003959213 0 0 0 0 12.687726122192828 15.970215495045174 0 15.970215495045174 12.888628882888042 0 0 0 0 -324.14519056794234 372.05939279358063 0 372.05939279358063 -260.04527726741799 0 0 0 0 -278.68746415938949 418.99507971115236 0 418.99507971115236 -297.92048756442091 0 0 0 0 -569.20142136723734 406.45641456103476 0 406.45641456103476 -260.20850730688835 0 0 0 0 8.3313290322007951 11.23698756312308 0 11.23698756312308 0.26163384903065889 0 0 0 0 48.73858404456405 36.146438338109874 0 36.146438338109874 2.5199780699585972 0 0 0 0 36.728150157243363 37.104597536115762 0 37.104597536115762 3.1388317923847353 0 0 0 0 16.948670117110382 21.666818869257099 0 21.666818869257099 -1.323977347219909 0 0 0 0 36.159407226843427 25.867457626207454 0 25.867457626207454 6.3003434286806055 0 0 0 0 17.622497235643095 260.88217459580483 0 260.88217459580483 -408.55198100988491 0 0 0 0 -36.222268715428072 431.82561997800804 0 431.82561997800804 -372.76227881903469 0 0 0 0 -230.86930557634332 329.3116718001329 0 329.3116718001329 -374.71917384395783 0 0 0 0 10.186865476656521 8.7706548972140723 0 8.7706548972140723 6.8797905172210108 0 0 0 0 -137.74197721555538 359.42926736629306 0 359.42926736629306 -420.58407503931812 0 0 0 0 -23.171511090797139 -16.502667105931323 0 -16.502667105931323 2.3334018250170629 0 0 0 0 -153.77023260167334 291.61179227078173 0 291.61179227078173 -387.27663113611015 0 0 0 0 -0.27769264548565836 212.45735668608137 0 212.45735668608137 -379.43821933501749 0 0 0 0 -251.69736279215431 -265.8017410140892 0 -265.8017410140892 822.04023659555241 0 0 0 0 5.2531895067559731 2.5154133836602313 0 2.5154133836602313 0.68306255817094552 0 0 0 0 2.6546411390991125 -2.3656159646844728 0 -2.3656159646844728 -2.318744882106472 0 0 0 0 -138.21085454674903 -33.671980834871647 0 -33.671980834871647 586.39219219010556 0 0 0 0 280.49566714574757 -51.401851261682168 0 -51.401851261682168 3.4009896019997541 0 0 0 0 -291.75592091388535 323.09694024284545 0 323.09694024284545 373.30395678861532 0 0 0 0 22.52822502469644 0.66916711862722877 0 0.66916711862722877 166.71701787263737 0 0 0 0 15.790879204345401 182.06981205864577 0 182.06981205864577 135.25736019653232 0 0 0 0 16.867601797999669 172.26296114890056 0 172.26296114890056 -3.7979270666255616 0 0 0 0 89.016580697527388 62.016730324437958 0 62.016730324437958 -295.95957365693175 0 0 0 0 120.55832394296885 258.6667503828503 0 258.6667503828503 -101.63265736094036 0 0 0 0 0.984133290083264 348.76388464075717 0 348.76388464075717 -973.62871322184219 0 0 0 0 -524.38101239289972 894.64088073227322 0 894.64088073227322 262.05011483690032 0 0 0 0 -154.91083761514165 -50.505228338588495 0 -50.505228338588495 998.35421045905969 0 0 0 0 155.4952998917579 181.52701814010106 0 181.52701814010106 -745.07707060317625 0 0 0 0 -2.5238992618761245 6.6141104182874528 0 6.6141104182874528 -0.077776123673601205 0 0 0 0 -273.35793845995795 109.62276923717945 0 109.62276923717945 -33.746752101797028 0 0 0 0 -3.7832975141063798 6.278440952366509 0 6.278440952366509 16.818585472814448 0 0 0 0 -98.063329838128993 -215.92161731910892 0 -215.92161731910892 -450.64275557858491 0 0 0 0 -1.0406666082311062 -1.7552760367933899 0 -1.7552760367933899 4.6782430438342999 0 0 0 0 -0.0021976182761136442 8.9205213716923026 0 8.9205213716923026 -1.8448558222298743 0 0 0 0 -3.934964188367303 4.4843690033339954 0 4.4843690033339954 -4.3889232150395401 0 0 0 0 1.0922210886783432 5.766632221864711 0 5.766632221864711 -8.3276513983000768 0 0 0 0 -20.303643486098736 17.186579520981468 0 17.186579520981468 39.339372950809775 0 0 0 0 -8.987645906150874 3.9834255480504339 0 3.9834255480504339 8.5181605485595355 0 0 0 0 26.031950341595802 14.010206427818048 0 14.010206427818048 -81.456387125916081 0 0 0 0 5.5975489415923221 13.178134588874372 0 13.178134588874372 -6.1421055598925847 0 0 0 0 -15.998092181136599 -49.063088079077716 0 -49.063088079077716 -130.10181908705272 0 0 0 0 94.225974569551909 108.99962249592727 0 108.99962249592727 -69.864886752373422 0 0 0 0 34.979056402953574 15.164495546483522 0 15.164495546483522 -106.89384628133848 0 0 0 0 52.358159025883651 60.895703067530121 0 60.895703067530121 -35.983450640691444 0 0 0 0 50.236284497528686 53.185945568033276 0 53.185945568033276 -12.566039123455994 0 0 0 0 -23.617042036377825 58.624903403164353 0 58.624903403164353 21.933597039824235 0 0 0 0 -28.580994983203709 59.423850823885005 0 59.423850823885005 32.840200662452844 0 0 0 0 -0.55357747885298636 39.630001647301754 0 39.630001647301754 12.937585969719692 0 0 0 0 10.528284317581665 19.653880392137609 0 19.653880392137609 -6.2613232816129027 0 0 0 0 -79.769528061620804 21.809846758082131 0 21.809846758082131 7.5028073331050109 0 0 0 0 13.571433075364622 50.053227496731893 0 50.053227496731893 -17.541309533947356 0 0 0 0 74.855804808204994 54.391056571606896 0 54.391056571606896 -112.14523449883563 0 0 0 0 20.055437304494262 39.645992347082938 0 39.645992347082938 12.242302079161163 0 0 0 0 8.0381504819961265 39.117465839546639 0 39.117465839546639 18.197917783625599 0 0 0 0 28.589019639675712 16.174778000975067 0 16.174778000975067 -10.764167221994342 0 0 0 0 -33.132386865688545 16.243586984244331 0 16.243586984244331 9.579125833761438 0 0 0 0 -193.23744899831559 -43.146050777352343 0 -43.146050777352343 22.821534333692398 0 0 0 0 -70.408501782250823 15.311822936797398 0 15.311822936797398 12.761964677522883 0 0 0 0 -5.8770594174424993 66.407948202449262 0 66.407948202449262 60.859881966476621 0 0 0 0 63.898920816311147 79.602686517268012 0 79.602686517268012 42.603342008849722 0 0 0 0 -126.7517669168592 54.951444261612778 0 54.951444261612778 -43.3619674555448 0 0 0 0 -2.7208988165549499 1.895439569117741 0 1.895439569117741 4.3604291092698304 0 0 0 0 395.72239064473251 328.38429057538815 0 328.38429057538815 190.83852245337766 0 0 0 0 353.88226534292335 273.78498085786123 0 273.78498085786123 145.32231157796195 0 0 0 0 2.0938477440219003 -3.9795699246900256 0 -3.9795699246900256 -1.067799711366952 0 0 0 0 135.39012209188513 229.00479862551219 0 229.00479862551219 396.21354688343126 0 0 0 0 -1.6579316138723925 3.7288949439682142 0 3.7288949439682142 9.8842376767845508 0 0 0 0 -20.357525628947769 351.52142572573939 0 351.52142572573939 -208.33540721332565 0 0 0 0 0.070322467014193535 205.15112023819347 0 205.15112023819347 -136.08820690943321 0 0 0 0 -44.273997990399948 144.37119190751037 0 144.37119190751037 -213.19987885736015 0 0 0 0 -91.513209353710408 227.90020231738163 0 227.90020231738163 -128.71220058117615 0 0 0 0 -73.797567785164574 163.53558009368498 0 163.53558009368498 -111.0535265086956 0 0 0 0 -48.888849631417543 195.56942375429571 0 195.56942375429571 -268.59144556902902 0 0 0 0 -89.390701949276263 128.2431875559414 0 128.2431875559414 -266.15576300705345 0 0 0 0 7.708480257584597 159.04868780059951 0 159.04868780059951 -407.72978711717951 0 0 0 0 8.438710798468378 -1.8976933796122211 0 -1.8976933796122211 1.4498346555513155 0 0 0 0 -131.41012031803257 258.79339631209041 0 258.79339631209041 633.90375696119008 0 0 0 0 91.432816203174298 -61.254006864855 0 -61.254006864855 535.22661236697604 0 0 0 0 59.063437771357712 411.90453318496657 0 411.90453318496657 648.09144277028827 0 0 0 0 -199.12179912313877 120.64911923507134 0 120.64911923507134 1376.2086025090102 0 0 0 0 1.9079615853133873 1.3120518268761003 0 1.3120518268761003 0.41221089533101996 0 0 0 0 30.339174665314204 208.9865110459541 0 208.9865110459541 -724.44093182653523 0 0 0 0 -0.054376675267121755 170.347035844723 0 170.347035844723 230.68599331413861 0 0 0 0 38.692398806917481 200.05287030945328 0 200.05287030945328 252.56571557224743 0 0 0 0 92.249131765143829 140.41921530496984 0 140.41921530496984 -75.540073589727399 0 0 0 0 -0.079267083128797822 192.88753795378216 0 192.88753795378216 274.09573132290825 0 0 0 0 -83.832750843226677 26.581060040458397 0 26.581060040458397 402.65828007506207 0 0 0 0 -14.175328234297922 96.10692806741099 0 96.10692806741099 -283.5312030452551 0 0 0 0 -13.135003301664256 160.32381598293796 0 160.32381598293796 -58.737647236370321 0 0 0 0 0.18664558179443702 240.3384493804042 0 240.3384493804042 -237.2657438006936 0 0 0 0 77.455308056752983 265.85403063874696 0 265.85403063874696 -261.03788245636679 0 0 0 0 4.4977828745019792 1.6097942887953565 0 1.6097942887953565 -3.4870585902619382 0 0 0 0 79.861389149215029 232.55940424975915 0 232.55940424975915 -296.15784391471971 0 0 0 0 -219.15552960513742 457.07404917044187 0 457.07404917044187 -312.96843077185622 0 0 0 0 -216.36233552009799 289.43200945769058 0 289.43200945769058 -361.87269170129366 0 0 0 0 0.0035216228861827403 292.28508366653477 0 292.28508366653477 -269.99149816617864 0 0 0 0 -414.63881430360198 618.13607986423995 0 618.13607986423995 -503.98201352336037 0 0 0 0 2.7928090921370199 5.9200913297988791 0 5.9200913297988791 1.5765292080962467 0 0 0 0 40.854033789626556 72.720175110574928 0 72.720175110574928 -779.7490238325845 0 0 0 0 39.989307418465614 42.749580005809548 0 42.749580005809548 -60.020153573670541 0 0 0 0 -694.20841580815613 242.30748520301131 0 242.30748520301131 -13.337230986813665 0 0 0 0 -330.54941098191193 443.61205374010751 0 443.61205374010751 -298.6363692221712 0 0 0 0 -320.69694662542315 394.94193165567413 0 394.94193165567413 -296.27034393613394 0 0 0 0 -371.19745749837602 161.17686142621824 0 161.17686142621824 -697.85325427333009 0 0 0 0 -270.24638627153035 369.38547037339049 0 369.38547037339049 -303.34183699030837 0 0 0 0 -598.83511624528182 361.59114527824386 0 361.59114527824386 -269.85043912948458 0 0 0 0 -74.07234702113783 436.84753129789897 0 436.84753129789897 -739.38850207030191 0 0 0 0 -288.74006191907756 348.33868144071039 0 348.33868144071039 -277.20544023629918 0 0 0 0 -199.7485268660821 444.14370328530458 0 444.14370328530458 -200.40700599034608 0 0 0 0 5.5732018849276983 3.2676201648418299 0 3.2676201648418299 -1.8890076490181684 0 0 0 0 -356.43889716883132 128.02940269718965 0 128.02940269718965 -235.30909205308762 0 0 0 0 -203.59126175529673 -29.217289893891575 0 -29.217289893891575 -56.546851265840814 0 0 0 0 -2.5120598230860196 346.55458185142561 0 346.55458185142561 391.28313987566526 0 0 0 0 -309.70358751612366 453.44747310550792 0 453.44747310550792 404.83461209301458 0 0 0 0 3.811852299520865 2.1042228584753531 0 2.1042228584753531 -1.4950935795045552 0 0 0 0 65.468450488318922 512.67238837096374 0 512.67238837096374 119.94444982859568 0 0 0 0 157.54964212339837 394.14621604809145 0 394.14621604809145 -209.95095899143871 0 0 0 0 126.64594214405952 358.60937229228512 0 358.60937229228512 18.649660352108185 0 0 0 0 86.337505090152263 446.65759460202753 0 446.65759460202753 -173.4945320557963 0 0 0 0 219.20238800827065 230.20597480287415 0 230.20597480287415 -47.019975343166152 0 0 0 0 261.55277776952425 326.20189961085998 0 326.20189961085998 -199.05279101886481 0 0 0 0 141.41778371443797 477.09790125754262 0 477.09790125754262 -360.99330133399781 0 0 0 0 -196.516684862494 248.57131733158167 0 248.57131733158167 -184.32399915204041 0 0 0 0 -173.604446501442 391.60236284195707 0 391.60236284195707 -349.96074775155648 0 0 0 0 -99.290474589895894 359.31426288360581 0 359.31426288360581 -400.57100305786298 0 0 0 0 637.32835105254344 81.357141797770964 0 81.357141797770964 -70.403902882317198 0 0 0 0 495.66633540904877 -264.82123100169883 0 -264.82123100169883 88.33488741448673 0 0 0 0 3.9559277906172952 0.37848143991982397 0 0.37848143991982397 -2.3494626922433781 0 0 0 0 204.36100099931355 117.75577727690325 0 117.75577727690325 -33.131425362822483 0 0 0 0 322.0163615263009 183.26054206539266 0 183.26054206539266 -131.97838362957191 0 0 0 0 199.57723671817075 46.828933447612144 0 46.828933447612144 -183.93779986498703 0 0 0 0 290.54506407221197 -48.62139408045914 0 -48.62139408045914 -173.28145377803594 0 0 0 0 130.35223694817978 -29.070325377906556 0 -29.070325377906556 -10.540148355219571 0 0 0 0 -6.5307403878323385 13.431247536389492 0 13.431247536389492 -442.44764018969727 0 0 0 0 11.446991350868245 1.5546658196455212 0 1.5546658196455212 -7.3954298958180544 0 0 0 0 134.58140188088873 -71.582525842786708 0 -71.582525842786708 36.662787584107718 0 0 0 0 -145.08535060533904 126.20693916651499 0 126.20693916651499 -37.91480990684795 0 0 0 0 14.5710151435851 84.728252210199571 0 84.728252210199571 21.320983121113386 0 0 0 0 -3.743600193777965 52.776449946001023 0 52.776449946001023 17.106012053196849 0 0 0 0 -203.29525333463971 183.34547069099062 0 183.34547069099062 79.031335656931333 0 0 0 0 -62.992856530901918 138.62153010259499 0 138.62153010259499 -229.80697743379278 0 0 0 0 86.923412298057741 123.74828993881366 0 123.74828993881366 -41.05203164678133 0 0 0 0 214.31537778835627 177.77896247107128 0 177.77896247107128 -100.6642541969195 0 0 0 0 45.760364080611666 122.77622045130607 0 122.77622045130607 -13.551500683454265 0 0 0 0 -145.94441115413792 149.43334619079542 0 149.43334619079542 12.096320421478595 0 0 0 0 -82.543326213805614 59.158205709659917 0 59.158205709659917 24.475336303704211 0 0 0 0 -188.67982313537505 111.67066580119717 0 111.67066580119717 -16.583247770671733 0 0 0 0 154.63100598435972 87.030051672083673 0 87.030051672083673 -19.540686872313557 0 0 0 0 302.15991477182615 243.75027300585134 0 243.75027300585134 -62.873691445871373 0 0 0 0 291.37660483681248 202.0241401713065 0 202.0241401713065 -23.690108235165098 0 0 0 0 359.27133679036342 262.26646275961866 0 262.26646275961866 -59.310465360300441 0 0 0 0 1.2497606251810254 162.35083052653897 0 162.35083052653897 -54.775612227423608 0 0 0 0 -160.98557608986448 117.97784775251057 0 117.97784775251057 -32.356807403964922 0 0 0 0 -280.62352176038257 273.06278974174347 0 273.06278974174347 54.03930250673875 0 0 0 0 -189.17572747418671 170.8383238713086 0 170.8383238713086 -83.366660637228051 0 0 0 0 -23.835095054584841 27.514125919449548 0 27.514125919449548 13.388442969354486 0 0 0 0 37.745795509346344 66.606140716778327 0 66.606140716778327 -2.4878025256664102 0 0 0 0 -324.61635907369782 174.24536935443575 0 174.24536935443575 51.975377336173551 0 0 0 0 -349.84595924895984 237.95170641556115 0 237.95170641556115 -55.451764082441514 0 0 0 0 39.303155976820563 49.762683961460425 0 49.762683961460425 -34.158190727470526 0 0 0 0 9.9342193822969023 10.02027954014622 0 10.02027954014622 9.0091417388897241 0 0 0 0 -333.38654547296665 143.3468205651011 0 143.3468205651011 6.6507397729437798 0 0 0 0 -194.64332329253375 97.180145140009699 0 97.180145140009699 -64.074363976957102 0 0 0 0 -236.39188494970949 203.62915848469038 0 203.62915848469038 -148.86667222209508 0 0 0 0 104.84935292588489 305.12525781131262 0 305.12525781131262 -95.990000239675283 0 0 0 0 -113.58160118015803 150.08919704571599 0 150.08919704571599 -89.921772169709584 0 0 0 0 -42.051167080651595 158.81682069347062 0 158.81682069347062 -51.575932624727216 0 0 0 0 -233.17600170759397 149.98526706275152 0 149.98526706275152 45.285647815384436 0 0 0 0 -264.31584363670117 78.741401158225926 0 78.741401158225926 -103.54679903568467 0 0 0 0 -236.00548114092089 372.71178805625595 0 372.71178805625595 280.0684331419543 0 0 0 0 -194.41750155962654 215.79274883613084 0 215.79274883613084 37.667669686939917 0 0 0 0 196.04107473802469 22.504971910695076 0 22.504971910695076 -313.27059436349373 0 0 0 0 -90.563013766208314 275.46575094372747 0 275.46575094372747 -87.004388262351767 0 0 0 0 -20.081432200711845 102.46875037538962 0 102.46875037538962 -1.3459776735331186 0 0 0 0 -148.82654143490799 143.94975905112369 0 143.94975905112369 -98.610718978674413 0 0 0 0 -179.67363736973857 144.5242051278974 0 144.5242051278974 124.18786854309292 0 0 0 0 -22.14851361203138 161.07880101959427 0 161.07880101959427 -47.250649429786989 0 0 0 0 -41.927931602287572 208.67480687887291 0 208.67480687887291 -36.165125685773091 0 0 0 0 -33.351790805307246 286.17165437885842 0 286.17165437885842 329.26012974377954 0 0 0 0 55.853816412301967 123.76149514931967 0 123.76149514931967 122.51243084256203 0 0 0 0 69.533293297849013 249.80205292333267 0 249.80205292333267 410.00953804537795 0 0 0 0 8.3927464705288912 36.167832536980946 0 36.167832536980946 -6.617822264927856 0 0 0 0 -39.096193338293233 201.47136914610383 0 201.47136914610383 59.525723617764015 0 0 0 0 51.459176793374354 182.27797016324621 0 182.27797016324621 -115.37556020219699 0 0 0 0 192.65141447880887 134.33693988603045 0 134.33693988603045 -133.22142440701282 0 0 0 0 -5.4108519456203794 60.615242357163879 0 60.615242357163879 -209.2648162094265 0 0 0 0 34.717084806005005 192.86384659819123 0 192.86384659819123 -116.72637472677707 0 0 0 0 -28.104439909126086 221.52761252364871 0 221.52761252364871 -124.31732076630215 0 0 0 0 33.245826475074864 224.18979380515702 0 224.18979380515702 16.916814581991275 0 0 0 0 85.128943052812247 -84.025246352258364 0 -84.025246352258364 -193.43278444262432 0 0 0 0 441.02372979587381 473.26750240722322 0 473.26750240722322 108.19439166055508 0 0 0 0 -8.3464832470476722 15.312206428555385 0 15.312206428555385 -14.634345144013977 0 0 0 0 244.08331935190654 -93.1865188965985 0 -93.1865188965985 36.748616715314711 0 0 0 0 -147.61729058402125 265.15298880462433 0 265.15298880462433 -228.4118731789722 0 0 0 0 -338.74025785336562 -66.315214229114645 0 -66.315214229114645 -311.23404744832715 0 0 0 0 -48.753500512103457 168.94870473183232 0 168.94870473183232 -24.018952293170472 0 0 0 0 -600.53741791748052 8.0028011546555717 0 8.0028011546555717 155.1395791140385 0 0 0 0 -360.15412715542334 75.446799819319494 0 75.446799819319494 18.861358677132557 0 0 0 0 -4.5731612552352914 7.3544171325722374 0 7.3544171325722374 -4.626134338448054 0 0 0 0 848.84473055353374 227.19319624125637 0 227.19319624125637 -470.03856665315834 0 0 0 0 -1046.8517913344476 78.415894692858274 0 78.415894692858274 107.3388236206174 0 0 0 0 -219.69295182079441 182.80911939077123 0 182.80911939077123 74.352066364650454 0 0 0 0 -421.96808507097012 181.90397704631278 0 181.90397704631278 78.561616136234079 0 0 0 0 -281.32311587553704 152.56203043069581 0 152.56203043069581 84.647246743846608 0 0 0 0 39.614855250976689 81.700758671715448 0 81.700758671715448 -45.984012157203324 0 0 0 0 -80.492717259199708 149.61914014879221 0 149.61914014879221 -15.866287170749274 0 0 0 0 -34.452538842626382 240.40157040472513 0 240.40157040472513 -274.04490962054479 0 0 0 0 67.981696307548475 59.832754117881343 0 59.832754117881343 -8.2114305645712591 0 0 0 0 25.971647714202021 10.99568432885755 0 10.99568432885755 4.1968455992705955 0 0 0 0 61.863201030067103 294.76174116163043 0 294.76174116163043 -245.09777996172488 0 0 0 0 -123.0975327478518 324.30878888950338 0 324.30878888950338 -127.02106413863294 0 0 0 0 -327.45102846872032 461.90681577428768 0 461.90681577428768 -105.03450823198727 0 0 0 0 72.091298104590408 56.827517070843413 0 56.827517070843413 -0.9051068282510073 0 0 0 0 -124.56028226588387 258.44014416530081 0 258.44014416530081 -229.77084522448058 0 0 0 0 -38.284395920094539 369.41676949325119 0 369.41676949325119 -113.421678076018 0 0 0 0 66.351214510708814 398.09170025270032 0 398.09170025270032 -107.12465931918632 0 0 0 0 -127.99748103889783 170.69099355904632 0 170.69099355904632 298.59458606977569 0 0 0 0 -134.99388133087632 289.61066930007109 0 289.61066930007109 -62.28066447974561 0 0 0 0 -201.61794646054113 198.56602205952549 0 198.56602205952549 -185.05345242431576 0 0 0 0 133.24163816736109 240.63888938991295 0 240.63888938991295 509.92954582271705 0 0 0 0 69.745040535999138 58.567442019023332 0 58.567442019023332 4.8130080932042176 0 0 0 0 -353.34015612227086 -277.0043887921056 0 -277.0043887921056 138.62674553808392 0 0 0 0 -446.30034566535323 222.98556602921235 0 222.98556602921235 24.72539784773835 0 0 0 0 -23.79984714564489 -32.447305959580262 0 -32.447305959580262 -85.90786897551834 0 0 0 0 -218.36706508879615 520.29675975360988 0 520.29675975360988 -721.88173288096004 0 0 0 0 255.57250780824688 405.35226872232943 0 405.35226872232943 -451.19372374519298 0 0 0 0 -116.19807023310568 732.57014443885782 0 732.57014443885782 -199.00060319149998 0 0 0 0 -378.68014202261111 200.87628647657766 0 200.87628647657766 170.27835787601362 0 0 0 0 3.5540954681713259 4.5425703669238402 0 4.5425703669238402 1.7866604418198051 0 0 0 0 276.46795692462911 -262.81039815463464 0 -262.81039815463464 -259.52234742342989 0 0 0 0 -438.64215761355445 426.10113842455758 0 426.10113842455758 -120.30054804915562 0 0 0 0 -215.7021973048104 256.22578552080813 0 256.22578552080813 -262.30195801248919 0 0 0 0 -255.77134667168139 202.23922952915746 0 202.23922952915746 43.379238993802574 0 0 0 0 -259.20969270703063 97.669020469900715 0 97.669020469900715 -36.073219528159825 0 0 0 0 -63.990245071312529 81.662913490024948 0 81.662913490024948 -12.168951432278845 0 0 0 0 -244.61447331060117 140.33880305330968 0 140.33880305330968 68.833511374221416 0 0 0 0 73.094272191079625 56.481127875621581 0 56.481127875621581 6.7432384316133351 0 0 0 0 -337.32694051492581 388.16017168427425 0 388.16017168427425 -85.836198655611952 0 0 0 0 75.028762989619281 160.18526931773158 0 160.18526931773158 52.936813290885766 0 0 0 0 -375.42933141445064 284.68408621418166 0 284.68408621418166 -7.283287690137513 0 0 0 0 -177.00544841351802 28.257471379081835 0 28.257471379081835 -71.955988140092813 0 0 0 0 -140.31543309719564 266.75917748489883 0 266.75917748489883 -263.07170539592335 0 0 0 0 -82.187903359175834 -115.63230395215942 0 -115.63230395215942 256.15739129664871 0 0 0 0 44.723817523714388 99.331040025615948 0 99.331040025615948 -76.403932988891029 0 0 0 0 -134.79345880680194 92.953926586487796 0 92.953926586487796 24.381519611204567 0 0 0 0 -131.03835971937588 145.53928693323905 0 145.53928693323905 143.78151375200105 0 0 0 0 98.4349267744401 33.521160172706004 0 33.521160172706004 40.726965177382226 0 0 0 0 8.6536143058498425 22.185306882710947 0 22.185306882710947 20.901523971985171 0 0 0 0 -18.954934132838389 62.616191840152169 0 62.616191840152169 -32.24150530488987 0 0 0 0 -25.502009130939769 57.78802724230809 0 57.78802724230809 -9.9133858180066454 0 0 0 0 11.141557048595132 48.129654534724978 0 48.129654534724978 -25.400421283535252 0 0 0 0 -123.08966476311616 248.01128509337286 0 248.01128509337286 43.731990416512417 0 0 0 0 97.309471105316334 46.739403253246564 0 46.739403253246564 -31.938374788303918 0 0 0 0 -1.1752456359794792 22.593006647877786 0 22.593006647877786 20.134560091122708 0 0 0 0 -16.149929563645856 -177.1421051369216 0 -177.1421051369216 284.65963999027008 0 0 0 0 7.0904448053806846 68.301895541379054 0 68.301895541379054 -61.34475478620152 0 0 0 0 -15.103286347544781 33.305363099922033 0 33.305363099922033 -18.903023262049828 0 0 0 0 94.278550166800414 -118.90416269309935 0 -118.90416269309935 158.24269021717191 0 0 0 0 -4.393239920815887 19.069904159774381 0 19.069904159774381 16.697710630117726 0 0 0 0 84.000585987931117 -126.67352441755611 0 -126.67352441755611 177.95584147845511 0 0 0 0 7.5289086018528906 -0.23153807425842388 0 -0.23153807425842388 172.51953142136699 0 0 0 0 -96.325443126850587 -71.247885436649085 0 -71.247885436649085 124.42239608703676 0 0 0 0 -29.165031669428572 60.851680216455861 0 60.851680216455861 81.749122875962712 0 0 0 0 -168.61566538093757 186.47655845461486 0 186.47655845461486 -124.40091545840914 0 0 0 0 -245.42653234062709 88.323826347364047 0 88.323826347364047 189.49697116392781 0 0 0 0 -0.04732966441224562 -147.66190558383278 0 -147.66190558383278 353.25146209613013 0 0 0 0 -97.162098755747138 -11.975630581397127 0 -11.975630581397127 188.83040394014643 0 0 0 0 -60.250101182129583 153.57452735312108 0 153.57452735312108 219.73258558770976 0 0 0 0 -58.184341809530451 35.904093303288391 0 35.904093303288391 924.02908083977673 0 0 0 0 0.073884782639900948 11.484570165501552 0 11.484570165501552 4.7325144589882768 0 0 0 0 284.54491713724565 -300.27601170463095 0 -300.27601170463095 385.71220193549016 0 0 0 0 -66.584319944315212 385.14906903716837 0 385.14906903716837 60.767255670303712 0 0 0 0 -539.48857814573421 438.15920537420607 0 438.15920537420607 265.98945339876082 0 0 0 0 -299.72054183067303 643.3716214313572 0 643.3716214313572 366.96319239988952 0 0 0 0 -191.49553516587912 362.21291852440481 0 362.21291852440481 -171.4585214494582 0 0 0 0 -688.36340009106789 298.15612165419589 0 298.15612165419589 -138.56053117762531 0 0 0 0 168.54053996754737 -135.28022238780613 0 -135.28022238780613 160.95852771050704 0 0 0 0 -699.37927949230652 -3.6155878983699949 0 -3.6155878983699949 77.974729080917314 0 0 0 0 -0.84455254310955752 0.98905280012606767 0 0.98905280012606767 -1.7588889398126781 0 0 0 0 -678.94904625826166 290.82982923673626 0 290.82982923673626 -189.30982978963584 0 0 0 0 -766.70648198831805 325.11681258823228 0 325.11681258823228 -46.298616937870975 0 0 0 0 25.579245704982895 45.634705236989248 0 45.634705236989248 -64.629645819084544 0 0 0 0 5.1743389939677016 11.918055574210804 0 11.918055574210804 -30.715724134887921 0 0 0 0 -619.21217107115808 287.78888658381402 0 287.78888658381402 -40.504316214457504 0 0 0 0 -516.23129866355157 417.04127290509678 0 417.04127290509678 -128.717004110782 0 0 0 0 -738.98907035461525 419.23907236443483 0 419.23907236443483 -128.09064844204113 0 0 0 0 -1060.8510059472301 385.0830526553782 0 385.0830526553782 -53.304582487762673 0 0 0 0 -807.70004479370982 225.20691085414364 0 225.20691085414364 -161.78678588395996 0 0 0 0 3.7693233677237359 8.3981836521810109 0 8.3981836521810109 -18.436382502244612 0 0 0 0 -238.51991216665192 153.25613621011144 0 153.25613621011144 -97.205833623535 0 0 0 0 -467.23861237222445 222.10781284031691 0 222.10781284031691 45.72362231137231 0 0 0 0 -545.0229519057757 354.26818118512165 0 354.26818118512165 -100.62333906994479 0 0 0 0 -709.45712413834553 361.10185571804686 0 361.10185571804686 149.50320147429193 0 0 0 0 -285.68978608008183 211.24299226518633 0 211.24299226518633 20.762873544917966 0 0 0 0 -343.40064997608715 100.65968815691667 0 100.65968815691667 237.85415199607087 0 0 0 0 -234.61371935625357 326.79520136752035 0 326.79520136752035 -329.00431219191887 0 0 0 0 -4.1656436763089744 3.7907009694956173 0 3.7907009694956173 0.092701129585144315 0 0 0 0 -565.48004811576902 462.31925219676668 0 462.31925219676668 -116.54735322567285 0 0 0 0 -558.70615665725927 346.92708958474759 0 346.92708958474759 -135.94304953733717 0 0 0 0 -897.83226340240799 313.79503139460212 0 313.79503139460212 283.82096537832695 0 0 0 0 -805.70155649678782 185.62296875150423 0 185.62296875150423 276.13965164617298 0 0 0 0 -790.55310319765704 384.37059726986627 0 384.37059726986627 -104.70485738408752 0 0 0 0 -894.19463653350067 -1.5658216116232779 0 -1.5658216116232779 170.39645960864436 0 0 0 0 -308.28368610269536 31.602510102642555 0 31.602510102642555 125.66339700422395 0 0 0 0 -1138.6342332970889 47.934416435758067 0 47.934416435758067 207.2262542722674 0 0 0 0 852.24262040314352 -936.16255553196243 0 -936.16255553196243 508.48842338042596 0 0 0 0 -7.5040933460442716 7.597899757729266 0 7.597899757729266 -1.9589356051257028 0 0 0 0 -889.4737914129488 228.78646470009471 0 228.78646470009471 267.44429144945025 0 0 0 0 -1802.3290660504281 985.19340248854314 0 985.19340248854314 -714.67032880936313 0 0 0 0 -1009.6003547807341 229.91959011224026 0 229.91959011224026 -22.436044123955071 0 0 0 0 -829.37957871878461 -86.164380851874739 0 -86.164380851874739 -396.30091416428695 0 0 0 0 -658.27423986043868 -83.245181005606355 0 -83.245181005606355 78.863609634056047 0 0 0 0 -835.62966089020483 22.277120819086122 0 22.277120819086122 24.861554210383474 0 0 0 0 -644.8183126068252 259.16510377250779 0 259.16510377250779 217.79436251088555 0 0 0 0 -843.1742742565275 228.66774218387036 0 228.66774218387036 328.15603792074398 0 0 0 0 -906.53245516951574 86.692682166638406 0 86.692682166638406 175.92535524513369 0 0 0 0 -580.69857122351823 40.580131917682593 0 40.580131917682593 860.64770571639019 0 0 0 0 312.16816224011563 15.784528265900008 0 15.784528265900008 113.02756144319574 0 0 0 0 4.7824607438233215 255.98983446163766 0 255.98983446163766 121.01511808231589 0 0 0 0 240.70519483953831 521.83685744356262 0 521.83685744356262 350.95634071071254 0 0 0 0 -204.68464906406734 236.85341535787666 0 236.85341535787666 -199.83788223973716 0 0 0 0 78.284656810596061 351.29393961315327 0 351.29393961315327 -159.68688983555694 0 0 0 0 -403.80133063061294 225.39411965492855 0 225.39411965492855 -36.496979527233634 0 0 0 0 -250.22728081449168 43.643852430403058 0 43.643852430403058 115.75997530149561 0 0 0 0 -860.53252331389376 155.87106839706212 0 155.87106839706212 -28.022470593833305 0 0 0 0 -307.6972956479658 339.69208169192916 0 339.69208169192916 -218.86234781419262 0 0 0 0 -714.13251547330583 264.15148534514992 0 264.15148534514992 -228.69961941416841 0 0 0 0 89.369781015037915 392.91999966684716 0 392.91999966684716 -324.35492215901104 0 0 0 0 -15.143657154425455 423.30628742718272 0 423.30628742718272 -275.16377203076991 0 0 0 0 242.08806295699833 405.66074519807626 0 405.66074519807626 -9.5635398814483779 0 0 0 0 -101.37427497467434 373.10063182726299 0 373.10063182726299 -218.36155415742542 0 0 0 0 45.364009979748516 182.43910143362518 0 182.43910143362518 -260.17443157268599 0 0 0 0 8.524130419087669 328.23764434008854 0 328.23764434008854 -484.60744999707094 0 0 0 0 -540.14379834071588 241.05790107270877 0 241.05790107270877 -187.57115936629634 0 0 0 0 -141.52453368717033 515.69045071101982 0 515.69045071101982 -424.20247379469947 0 0 0 0 -1880.1823608148879 704.71300796409605 0 704.71300796409605 -86.516296988831527 0 0 0 0 -8.5777629050559483 11.704822950723724 0 11.704822950723724 -9.5094515523751681 0 0 0 0 -2375.6120184882566 -435.90864519022125 0 -435.90864519022125 30.698976349383884 0 0 0 0 463.06121143860219 266.02775046283841 0 266.02775046283841 389.88440017077664 0 0 0 0 1144.562032419868 567.98382273817242 0 567.98382273817242 -436.57873980497243 0 0 0 0 -17.255533562903622 28.31357925203038 0 28.31357925203038 -28.910234572770364 0 0 0 0 -1077.3135468524415 -284.89600015555698 0 -284.89600015555698 -101.52137310516082 0 0 0 0 784.44888572843411 603.40834192033617 0 603.40834192033617 181.73522513108765 0 0 0 0 -899.3493137795449 -131.9771323226305 0 -131.9771323226305 -106.07495157278208 0 0 0 0 -998.55484028243154 -152.89423671319946 0 -152.89423671319946 88.800071919216862 0 0 0 0 -242.43344077514485 225.63818445680499 0 225.63818445680499 -42.252344486558513 0 0 0 0 -1418.09213587661 226.39740010018249 0 226.39740010018249 -23.644617948502855 0 0 0 0 -323.21885139000369 799.04289029442407 0 799.04289029442407 -287.45251189313603 0 0 0 0 -847.22197599827632 1065.6189251512042 0 1065.6189251512042 -315.44633842344501 0 0 0 0 -187.49942597460176 852.42621463288924 0 852.42621463288924 -266.46622919888068 0 0 0 0 -93.853969172985671 561.09169948742465 0 561.09169948742465 -343.44161150150467 0 0 0 0 156.63314816826369 1045.6639198035618 0 1045.6639198035618 -659.6727419497056 0 0 0 0 -349.53197831360012 -127.46510815088823 0 -127.46510815088823 -954.56613305376482 0 0 0 0 -615.31233304306807 892.86975783329399 0 892.86975783329399 -929.28660587038212 0 0 0 0 469.54123055562377 -195.16719378068501 0 -195.16719378068501 -180.75603089980677 0 0 0 0 351.25583242160064 320.52860576712192 0 320.52860576712192 -528.113325039335 0 0 0 0 31.697036752202251 46.841695161767021 0 46.841695161767021 37.327571610883275 0 0 0 0 32.238242419037832 34.141068800696978 0 34.141068800696978 34.601719578644236 0 0 0 0 -387.64836967453448 140.79641004575024 0 140.79641004575024 161.50035017889149 0 0 0 0 275.4689665364931 -435.95588757447786 0 -435.95588757447786 -13.087781857357186 0 0 0 0 -348.35388223458358 219.87806211588213 0 219.87806211588213 153.56324220857277 0 0 0 0 -30.996527396382589 100.37159483811257 0 100.37159483811257 3.5908833791893073 0 0 0 0 54.678629070011084 -13.749828140307926 0 -13.749828140307926 -89.059947721361539 0 0 0 0 -63.1308754897982 145.69794806548452 0 145.69794806548452 128.17305094944186 0 0 0 0 0.12433770321513293 112.37237992327391 0 112.37237992327391 -23.887075293529733 0 0 0 0 23.941403800446167 33.57759544085777 0 33.57759544085777 33.314303534927618 0 0 0 0 6.1673138403857592 88.878719242656075 0 88.878719242656075 48.124455070566455 0 0 0 0 93.174182981267222 -95.699836370768935 0 -95.699836370768935 262.28599622030106 0 0 0 0 -38.514198370787199 -123.46928587142611 0 -123.46928587142611 288.20489817676207 0 0 0 0 3.3865117031831318 6.7418479146231647 0 6.7418479146231647 10.351509082703693 0 0 0 0 -6.8369077561353606 11.002578661197546 0 11.002578661197546 0.85858203423527968 0 0 0 0 52.284110286142095 21.142202045915838 0 21.142202045915838 287.57666167875277 0 0 0 0 -43.718640087041422 -64.560391729360163 0 -64.560391729360163 -25.970822288132695 0 0 0 0 -213.86813461916609 237.48526743836373 0 237.48526743836373 242.04073754862793 0 0 0 0 101.76142595522106 90.457554672244441 0 90.457554672244441 97.544882011141453 0 0 0 0 21.151212941404083 -3.8574072152141525 0 -3.8574072152141525 294.2720485154241 0 0 0 0 267.72543617148767 81.159513069633249 0 81.159513069633249 85.895120346870499 0 0 0 0 38.33124045810473 21.335657833508321 0 21.335657833508321 198.3203233400418 0 0 0 0 -138.26224421599181 -50.98046438903657 0 -50.98046438903657 320.86034693059992 0 0 0 0 -253.14116490377637 101.85118972805867 0 101.85118972805867 242.67416891556741 0 0 0 0 -71.888320264413778 320.20464158071809 0 320.20464158071809 -69.840107035051915 0 0 0 0 25.907856201054528 208.56505839158854 0 208.56505839158854 56.409396009774355 0 0 0 0 -122.43599571580125 345.50998549839824 0 345.50998549839824 -20.113509516835165 0 0 0 0 -636.92665216825844 546.64214522749262 0 546.64214522749262 -65.146419605927804 0 0 0 0 -474.03416085797653 502.2790626310275 0 502.2790626310275 -350.78744798218031 0 0 0 0 -231.31697585128131 676.91969213545599 0 676.91969213545599 -328.2043290419324 0 0 0 0 -274.08429603689001 780.42148571393136 0 780.42148571393136 -291.20751733147335 0 0 0 0 -420.84872908808757 647.549119298812 0 647.549119298812 -238.06535855578841 0 0 0 0 -467.05352756084176 806.91163158019299 0 806.91163158019299 -363.80008574885142 0 0 0 0 -327.92812401527772 632.1310858760271 0 632.1310858760271 -212.06616701237726 0 0 0 0 -26.771717068913858 446.93668202152912 0 446.93668202152912 -113.20167102038613 0 0 0 0 50.513708799422602 485.07815549379666 0 485.07815549379666 -103.25730120472508 0 0 0 0 -0.46287550662862031 0.10287712932179716 0 0.10287712932179716 1.1244171089517998 0 0 0 0 18.164355039762995 449.57682895339514 0 449.57682895339514 -134.39999214172713 0 0 0 0 -302.68702481611399 520.42300398859788 0 520.42300398859788 -278.83842529553976 0 0 0 0 -1024.1768805646188 143.01728625698729 0 143.01728625698729 -193.7922318980236 0 0 0 0 -5.4235157683459647 2.792358609159507 0 2.792358609159507 -0.43247022972343174 0 0 0 0 -237.74912075410248 684.34837901655192 0 684.34837901655192 -230.75940218399046 0 0 0 0 -785.17133507147082 75.268080761910824 0 75.268080761910824 -98.575096698135894 0 0 0 0 -612.41690823473618 -62.654897546173743 0 -62.654897546173743 -108.48590781424718 0 0 0 0 -721.7922641793557 -158.09846824596934 0 -158.09846824596934 -159.04169610417739 0 0 0 0 -553.7010781991703 -32.55489076183585 0 -32.55489076183585 -95.389504886599752 0 0 0 0 -528.3643700840621 -67.785875290599506 0 -67.785875290599506 -48.746884458159911 0 0 0 0 -473.85541514478973 -210.67757036633884 0 -210.67757036633884 -86.541154995524266 0 0 0 0 -453.52207158990495 23.160041369765167 0 23.160041369765167 -91.315752282418543 0 0 0 0 225.96868007216835 274.18327632923138 0 274.18327632923138 5.3181296309630852 0 0 0 0 460.39216440886958 -62.505119838286191 0 -62.505119838286191 -41.571313375156024 0 0 0 0 -308.16749262277153 -276.51996404028978 0 -276.51996404028978 -141.31590992140264 0 0 0 0 -231.22337823611451 -175.93156095132144 0 -175.93156095132144 -84.759828280000875 0 0 0 0 -176.58112868940225 -284.71668667304766 0 -284.71668667304766 -144.11074559159715 0 0 0 0 -4.159271385458851 -121.64762177270723 0 -121.64762177270723 -99.091217678227622 0 0 0 0 -195.10950674534979 -111.69979267751933 0 -111.69979267751933 -30.367452183803834 0 0 0 0 -56.509225129091647 -242.98352842250279 0 -242.98352842250279 -158.0210760939699 0 0 0 0 -167.39575604647689 -141.59350504075246 0 -141.59350504075246 -26.339273580668078 0 0 0 0 -318.04354709350446 -62.189891588381215 0 -62.189891588381215 12.767400391110641 0 0 0 0 -344.53310175568913 -182.79674570025054 0 -182.79674570025054 -44.330707502298537 0 0 0 0 -284.41307193262037 -41.85697877878556 0 -41.85697877878556 -58.863379332133263 0 0 0 0 -91.224053632337018 -31.364687415275966 0 -31.364687415275966 30.278893439673993 0 0 0 0 -243.34985892096302 -19.88227708048521 0 -19.88227708048521 29.439690961433371 0 0 0 0 -127.18537645603647 -98.052622785466156 0 -98.052622785466156 12.944275268928322 0 0 0 0 -137.99479606584646 -106.25350728408966 0 -106.25350728408966 58.485980731589734 0 0 0 0 -122.88525927093724 -107.30095767594003 0 -107.30095767594003 10.481152257521899 0 0 0 0 -113.7159859992571 -105.79211512487996 0 -105.79211512487996 10.130534690539207 0 0 0 0 -112.30132123670774 -94.362113059085459 0 -94.362113059085459 13.799089293248926 0 0 0 0 -138.01154915850202 -75.903682477754501 0 -75.903682477754501 94.645905778188535 0 0 0 0 -123.07670615012466 -72.786557217144946 0 -72.786557217144946 37.514114261649638 0 0 0 0 -43.062303081232955 21.264884524254633 0 21.264884524254633 34.476553320066692 0 0 0 0 -83.41957214998547 -69.527182474625079 0 -69.527182474625079 -23.376490457931141 0 0 0 0 -91.33710718533257 -49.723058901661716 0 -49.723058901661716 33.368737872096972 0 0 0 0 -91.069214003364323 -58.805041174038706 0 -58.805041174038706 -17.024566191108534 0 0 0 0 -98.683833574410528 -84.560457257351118 0 -84.560457257351118 39.478703389047951 0 0 0 0 -99.647108923905762 -77.339565494054114 0 -77.339565494054114 -8.5662494482185139 0 0 0 0 -96.183977209992008 -47.402120246961204 0 -47.402120246961204 16.451899297309865 0 0 0 0 -119.15914102962415 -63.175542812810363 0 -63.175542812810363 43.54187093290966 0 0 0 0 -113.8294995277829 -42.898609588401087 0 -42.898609588401087 82.411901012971157 0 0 0 0 -74.878559269469406 -1.6834824168620344 0 -1.6834824168620344 51.245557435131559 0 0 0 0 -216.98198452193083 138.66964770691061 0 138.66964770691061 58.211520750004638 0 0 0 0 -120.66468210333187 38.658388585448847 0 38.658388585448847 39.344144537221837 0 0 0 0 -164.32640542953595 10.694147780482581 0 10.694147780482581 50.155142648981951 0 0 0 0 -182.4343233142572 -21.498234398637123 0 -21.498234398637123 91.006632689833737 0 0 0 0 -141.27220259579917 -80.144232874997954 0 -80.144232874997954 122.62884918182863 0 0 0 0 5.8235767083388055 154.11237760733979 0 154.11237760733979 160.73815347973138 0 0 0 0 -16.543524548706955 114.83867281377499 0 114.83867281377499 218.42233408463107 0 0 0 0 -38.841418763331603 -54.195752461004076 0 -54.195752461004076 80.474126899124201 0 0 0 0 -149.64316166426579 -47.210835613098084 0 -47.210835613098084 -95.923278258273513 0 0 0 0 -10.779234851026558 -251.04195407836346 0 -251.04195407836346 977.50167758259704 0 0 0 0 -92.938794875517488 147.68547060017954 0 147.68547060017954 564.27402214423228 0 0 0 0 22.40263004613189 -143.33126592405415 0 -143.33126592405415 494.47253788492708 0 0 0 0 10.910717274454584 8.1239483090845042 0 8.1239483090845042 8.1731176690786889 0 0 0 0 -43.548820528420038 315.71838122500958 0 315.71838122500958 1021.7664020409727 0 0 0 0 588.48032646192223 1530.048548944724 0 1530.048548944724 748.33769475315785 0 0 0 0 308.81483252908947 482.85703523207667 0 482.85703523207667 -43.728196314465606 0 0 0 0 -94.45226068989723 119.65647087679645 0 119.65647087679645 449.15643885100053 0 0 0 0 111.01192773325602 210.78016168250633 0 210.78016168250633 308.23291324990169 0 0 0 0 0.29481276869773865 192.29215723695961 0 192.29215723695961 497.20660060474074 0 0 0 0 -78.112394084451807 81.151693807735683 0 81.151693807735683 444.82077426827891 0 0 0 0 -22.17930431633431 23.471119897529206 0 23.471119897529206 361.3115851393577 0 0 0 0 16.638589368341513 29.309666808812914 0 29.309666808812914 25.235563352127006 0 0 0 0 -15.957532003623783 11.220574783247685 0 11.220574783247685 203.6678389442859 0 0 0 0 -17.851574227024685 54.832797557284721 0 54.832797557284721 179.97316974187652 0 0 0 0 9.9172679141338449 70.495152679814055 0 70.495152679814055 187.16446870059917 0 0 0 0 30.21714045086992 117.96849841735275 0 117.96849841735275 230.00828747672131 0 0 0 0 -10.389680828106066 40.63046362426121 0 40.63046362426121 189.6453307094198 0 0 0 0 -8.8788114552222055 12.069786570438303 0 12.069786570438303 0.3813465924602113 0 0 0 0 40.961202507627604 28.67382090600222 0 28.67382090600222 111.46523687339322 0 0 0 0 -248.52228578972426 6.0722984971280312 0 6.0722984971280312 82.041290617027698 0 0 0 0 -7.8249630857317243 2.4870005607081112 0 2.4870005607081112 140.6826616675462 0 0 0 0 47.651990487109288 85.16572879767341 0 85.16572879767341 121.4923934754479 0 0 0 0 109.27745892713574 -319.58035454749916 0 -319.58035454749916 -569.71244821031723 0 0 0 0 -340.79696940336726 -177.55294399427839 0 -177.55294399427839 -175.65824620963031 0 0 0 0 -137.68827187506213 -9.5584598107760712 0 -9.5584598107760712 -37.296043534726778 0 0 0 0 -154.71462617045472 64.557365671346361 0 64.557365671346361 -4.733162500519029 0 0 0 0 -298.46192000356677 6.9674653035563097 0 6.9674653035563097 20.001621381784389 0 0 0 0 -134.13358638602949 108.97625050454076 0 108.97625050454076 69.714993353471073 0 0 0 0 -149.96959064778275 39.490479402549795 0 39.490479402549795 0.96676477995606547 0 0 0 0 0.13039972851316861 10.115283064819323 0 10.115283064819323 0.90250053092530536 0 0 0 0 -17.430203732314041 12.985785038695845 0 12.985785038695845 17.296780984039412 0 0 0 0 90.966795372220076 87.506408378529443 0 87.506408378529443 78.979198796459059 0 0 0 0 -39.30830323236296 24.167494593274114 0 24.167494593274114 44.272217030426418 0 0 0 0 -18.332912763101461 14.794215003930645 0 14.794215003930645 19.464448033174861 0 0 0 0 -86.891108076039018 32.164420352920757 0 32.164420352920757 36.504094231945601 0 0 0 0 -5.9845840604387774 4.3689427639656202 0 4.3689427639656202 1.5485700084824003 0 0 0 0 -42.740629329909098 10.812437505176973 0 10.812437505176973 194.5756395632161 0 0 0 0 -240.40261549442948 126.80689799845732 0 126.80689799845732 193.83140821532254 0 0 0 0 -213.27042897783394 191.79170871438237 0 191.79170871438237 187.88365076922202 0 0 0 0 -185.53868726711153 203.78076842898577 0 203.78076842898577 149.07871386991064 0 0 0 0 -180.94293509463751 131.82708026793432 0 131.82708026793432 80.765966364472433 0 0 0 0 -232.78107609904691 151.0497685283849 0 151.0497685283849 106.63606500823244 0 0 0 0 -45.455711726041045 286.13194573783039 0 286.13194573783039 163.14858199927949 0 0 0 0 -134.89014853444678 200.35044791655082 0 200.35044791655082 108.35783138429542 0 0 0 0 -267.31821290300286 147.27017791070739 0 147.27017791070739 114.36953089674898 0 0 0 0 -232.05079692817526 162.53916037988893 0 162.53916037988893 162.10843954883148 0 0 0 0 -235.24777414181153 228.11335819358737 0 228.11335819358737 180.2148478456711 0 0 0 0 -265.75885768489388 128.60156622570776 0 128.60156622570776 147.38755721090456 0 0 0 0 -421.47577569686109 22.708921580822789 0 22.708921580822789 97.951893309689694 0 0 0 0 -409.83897861183505 20.754113286933716 0 20.754113286933716 92.245744722113159 0 0 0 0 -458.47965939901769 -310.38149349334344 0 -310.38149349334344 -157.94104590638653 0 0 0 0 -723.39906733611133 -172.52895364426149 0 -172.52895364426149 88.779488387828621 0 0 0 0 -789.45097391099262 -429.4992199834669 0 -429.4992199834669 33.174348386217389 0 0 0 0 -4.0413003638543614 1.0989104090876083 0 1.0989104090876083 -0.18312005945902854 0 0 0 0 -989.68183800166298 -84.144807822138318 0 -84.144807822138318 308.87762476797707 0 0 0 0 -510.83085283461696 42.929744612170907 0 42.929744612170907 204.1087160613024 0 0 0 0 -485.41406537951843 28.229302420715612 0 28.229302420715612 199.03469132698956 0 0 0 0 -347.88487462736521 200.84215691637633 0 200.84215691637633 225.05856677825068 0 0 0 0 4.0651133455976378 313.2993061117395 0 313.2993061117395 650.75540530102808 0 0 0 0 -13.801320452621439 134.57439053735106 0 134.57439053735106 258.2959279924562 0 0 0 0 -185.1294471253932 245.14822968844146 0 245.14822968844146 286.25579574271796 0 0 0 0 -195.2801974969625 -190.99080785096339 0 -190.99080785096339 348.39297815175837 0 0 0 0 -333.0910543563441 240.41387070253995 0 240.41387070253995 381.41706941345365 0 0 0 0 265.69207296217792 -1095.2994955295162 0 -1095.2994955295162 1008.9528444710361 0 0 0 0 -279.13120067957789 -30.118436235266927 0 -30.118436235266927 1161.9355619306498 0 0 0 0 -611.84764603617259 1080.4198541340143 0 1080.4198541340143 -901.15932668361165 0 0 0 0 -2.571661698602469 1.915412125370608 0 1.915412125370608 4.5173187504609373 0 0 0 0 424.57705844622978 -163.47890809860837 0 -163.47890809860837 -264.53315161779756 0 0 0 0 -1005.3919269226608 -296.81088065118092 0 -296.81088065118092 124.40403325457737 0 0 0 0 -3.195890228459632 2.1919679334515934 0 2.1919679334515934 -2.8890608903365198 0 0 0 0 87.316834921150985 312.16280128171388 0 312.16280128171388 481.03306967906974 0 0 0 0 -424.16432402735518 298.19390480055426 0 298.19390480055426 703.56337670615176 0 0 0 0 -28.918850928341271 203.10122494747702 0 203.10122494747702 542.4171867184632 0 0 0 0 -452.17900018136424 114.98741781092576 0 114.98741781092576 50.45569800645535 0 0 0 0 -709.14201842757029 -604.51355428306488 0 -604.51355428306488 331.43729614213407 0 0 0 0 848.5303209278718 675.7431367923682 0 675.7431367923682 -550.13721093205459 0 0 0 0 -4.5602898584381109 6.2747430251544642 0 6.2747430251544642 -2.431420061766147 0 0 0 0 -1490.562208280593 -8.9233196881659751 0 -8.9233196881659751 157.65584665288566 0 0 0 0 -772.82104664024519 764.92936137348806 0 764.92936137348806 -163.50567173768104 0 0 0 0 40.22396346644382 17.711290633939825 0 17.711290633939825 337.24309963975611 0 0 0 0 -8.4921613119845603 12.773571876884986 0 12.773571876884986 -6.7293114373666079 0 0 0 0 184.36640039863414 279.39016385051582 0 279.39016385051582 304.33321411140014 0 0 0 0 112.1047979504765 181.24113120722541 0 181.24113120722541 438.16560710178783 0 0 0 0 -296.26660264596285 236.51785515756274 0 236.51785515756274 -28.432232445326463 0 0 0 0 -588.80839944139007 75.609774902313347 0 75.609774902313347 110.40979441107811 0 0 0 0 -269.83618163803476 -61.73785591364458 0 -61.73785591364458 338.75834543054339 0 0 0 0 -1.4592969344648239 3.7024762590386331 0 3.7024762590386331 -1.8638741290412195 0 0 0 0 60.098264197840763 94.64645399999074 0 94.64645399999074 29.866536516769884 0 0 0 0 -7.1943833840552429 11.940676863725159 0 11.940676863725159 -8.0051789620666334 0 0 0 0 629.39906837306989 516.67126653639468 0 516.67126653639468 -161.76478529545335 0 0 0 0 -213.82281335756852 40.275575038876468 0 40.275575038876468 52.408529343260057 0 0 0 0 -643.6283904163065 -22.672049669320018 0 -22.672049669320018 0.04339763113648587 0 0 0 0 -89.502835601597326 -229.85519699621159 0 -229.85519699621159 399.58169787404336 0 0 0 0 -552.44617750697944 -331.16707817098523 0 -331.16707817098523 390.50053554097218 0 0 0 0 -125.77396535840671 89.839128700367326 0 89.839128700367326 -158.76148399377519 0 0 0 0 -347.19043957280883 18.958922114890356 0 18.958922114890356 188.58615326305244 0 0 0 0 -173.96962152260494 503.73556053882498 0 503.73556053882498 -1101.5535776443328 0 0 0 0 -2.0399357343372735 6.4431487770450104 0 6.4431487770450104 -3.7851685827211501 0 0 0 0 -134.4694566240214 -108.80377697222207 0 -108.80377697222207 77.019073833308084 0 0 0 0 132.0734995079838 207.44516649606203 0 207.44516649606203 -78.20546861342973 0 0 0 0 -1095.0268459259969 -465.85510470504346 0 -465.85510470504346 201.05906047928084 0 0 0 0 -614.73402442956285 29.626744555898767 0 29.626744555898767 57.181436746960571 0 0 0 0 -8.1265641785790734 8.5014464291634226 0 8.5014464291634226 -6.6437468948518825 0 0 0 0 -558.03176575544614 1234.8758757576259 0 1234.8758757576259 -410.56214680012783 0 0 0 0 771.68641792178096 -199.47666576234025 0 -199.47666576234025 269.75927356482885 0 0 0 0 -195.01778312782699 26.561737686842662 0 26.561737686842662 -25.293916968369217 0 0 0 0 -217.10164571931819 76.207447118859818 0 76.207447118859818 1.4391155095945578 0 0 0 0 -77.526798402039276 193.72235345332973 0 193.72235345332973 -31.832098786817369 0 0 0 0 -270.46394780068658 38.8604146902303 0 38.8604146902303 104.44378520210876 0 0 0 0 -257.6240827531692 351.31803508037876 0 351.31803508037876 -268.61697188863081 0 0 0 0 -49.867871991511493 58.768171742319794 0 58.768171742319794 -87.426972722960329 0 0 0 0 -753.46306114207255 23.226921853123997 0 23.226921853123997 30.954608490629845 0 0 0 0 -2.7539041441538785 5.112013470005607 0 5.112013470005607 -4.0351912888621699 0 0 0 0 1016.5730187186473 501.52281930605585 0 501.52281930605585 88.843983971965585 0 0 0 0 -21.960931513678815 23.555088755501316 0 23.555088755501316 -25.242944230295265 0 0 0 0 308.8192660533532 961.4036059484356 0 961.4036059484356 -207.14417903933614 0 0 0 0 -416.5991275636552 76.221237633722922 0 76.221237633722922 0.16919805463112425 0 0 0 0 376.41139572629845 -308.52637286328485 0 -308.52637286328485 -41.224333153571592 0 0 0 0 -333.00707245631202 -14.966928675270537 0 -14.966928675270537 50.574773948519578 0 0 0 0 -48.598085502264439 9.8224438335632271 0 9.8224438335632271 45.450843277604207 0 0 0 0 19.465166501351632 -31.457190403451364 0 -31.457190403451364 60.271560318411275 0 0 0 0 240.61837004407425 47.478334476462436 0 47.478334476462436 -427.69330928031417 0 0 0 0 -15.947043857697281 -19.091111683464987 0 -19.091111683464987 401.36635479806927 0 0 0 0 38.595010101264052 116.37024571852396 0 116.37024571852396 161.90553013906106 0 0 0 0 -10.974544601387692 45.867877015479422 0 45.867877015479422 -37.905266047012738 0 0 0 0 35.980291071900865 165.71524081694378 0 165.71524081694378 297.34459549198459 0 0 0 0 -195.85585805359005 54.722942324890028 0 54.722942324890028 5.3970978718170954 0 0 0 0 -1.3772667724260828 150.59570356251425 0 150.59570356251425 -38.406026392694912 0 0 0 0 -25.741611060513605 44.819152796674871 0 44.819152796674871 -5.7554073285282357 0 0 0 0 -371.20236281401594 200.62250843110542 0 200.62250843110542 -29.599893618708847 0 0 0 0 -351.66788921558327 102.70409883670254 0 102.70409883670254 54.744345665825676 0 0 0 0 -368.85283023315242 144.10235153903614 0 144.10235153903614 130.02909449588515 0 0 0 0 168.58354148486251 153.20874592821292 0 153.20874592821292 -78.267815211716879 0 0 0 0 -2.0126742225412855 6.1496061802201041 0 6.1496061802201041 -1.0616498423220051 0 0 0 0 -767.00653459850582 92.967283007542164 0 92.967283007542164 115.61533767145738 0 0 0 0 2.2543211218599026 144.08156338614754 0 144.08156338614754 135.82468513725689 0 0 0 0 -411.45407145128411 93.851124445978712 0 93.851124445978712 -0.46873840081934759 0 0 0 0 -650.88005955822155 188.46229477288489 0 188.46229477288489 28.790884895599447 0 0 0 0 -74.27313612717262 -153.1915485452364 0 -153.1915485452364 -171.04027515020789 0 0 0 0 -547.22366174889612 423.10960028792579 0 423.10960028792579 90.901883972408996 0 0 0 0 219.87971583051694 267.70762128809474 0 267.70762128809474 77.605999059508122 0 0 0 0 -9.6593393383646884 18.347183630277769 0 18.347183630277769 -18.088521446462138 0 0 0 0 445.303127997704 420.00082225301594 0 420.00082225301594 -90.486224471307651 0 0 0 0 -412.97491508316307 324.15462651796588 0 324.15462651796588 203.02987035779552 0 0 0 0 -871.65103776016622 -64.75679168163424 0 -64.75679168163424 287.01807609900061 0 0 0 0 -38.429237066923179 172.33993596026957 0 172.33993596026957 -24.477291338929987 0 0 0 0 187.66095813745051 224.10610905672183 0 224.10610905672183 -70.723494062884129 0 0 0 0 -23.074403088234249 250.92622306532394 0 250.92622306532394 -36.235745858539303 0 0 0 0 16.37411758241069 186.38494668488693 0 186.38494668488693 -2.2486145197144651 0 0 0 0 -811.30562944666417 183.06941573507061 0 183.06941573507061 232.94353167290683 0 0 0 0 -41.02627741179252 177.30363201417751 0 177.30363201417751 -32.362692222518987 0 0 0 0 70.875266435105004 251.34099302726281 0 251.34099302726281 -48.699544615921241 0 0 0 0 -37.992230425534217 197.78130503912121 0 197.78130503912121 -37.873498447675956 0 0 0 0 -55.789726751536364 257.81855872730011 0 257.81855872730011 -43.037114730260441 0 0 0 0 421.32221996206499 -14.08897377822862 0 -14.08897377822862 -8.9598856226700718 0 0 0 0 -1132.2155665126847 -145.19089552791945 0 -145.19089552791945 156.48300830546697 0 0 0 0 -5.4987504914442837 8.4420028394531812 0 8.4420028394531812 -3.6402015953547053 0 0 0 0 -490.53182962344727 18.599169876832093 0 18.599169876832093 121.80045652152126 0 0 0 0 -219.88587105066108 340.33975507212017 0 340.33975507212017 1.5730331205522816 0 0 0 0 -9.3541790904099287 16.644086302873845 0 16.644086302873845 -13.528665325681587 0 0 0 0 519.70134393781336 380.89056563803115 0 380.89056563803115 56.213090874410227 0 0 0 0 224.21363887363987 56.704620659369084 0 56.704620659369084 90.240551144928816 0 0 0 0 84.3904685694215 165.38294625803417 0 165.38294625803417 33.64305663317009 0 0 0 0 94.751271854096558 104.04255645622879 0 104.04255645622879 329.30385584628903 0 0 0 0 -107.55916387533944 17.789075437573388 0 17.789075437573388 125.66841598531832 0 0 0 0 144.71104918849596 272.51681732704407 0 272.51681732704407 -170.95286142064231 0 0 0 0 -254.48011659886106 178.01083077452358 0 178.01083077452358 -187.8571271931379 0 0 0 0 755.85623164272693 569.93027608116574 0 569.93027608116574 -310.59739280298186 0 0 0 0 -221.69055189407663 781.32136911603379 0 781.32136911603379 -352.20132408331483 0 0 0 0 -703.49299627924484 643.24549520751771 0 643.24549520751771 64.269953445197643 0 0 0 0 -14.718452031964262 441.39024479868181 0 441.39024479868181 -117.85035515595428 0 0 0 0 -347.58181083275122 486.67479143532273 0 486.67479143532273 -36.900379750639331 0 0 0 0 -297.17048162316132 267.18635078605041 0 267.18635078605041 343.72169282210234 0 0 0 0 -427.22002801446797 296.49835017263854 0 296.49835017263854 -16.298384579405138 0 0 0 0 -422.86299719296221 422.88181514224243 0 422.88181514224243 -87.870173382320445 0 0 0 0 -391.24968200722651 305.25234519544983 0 305.25234519544983 -28.947726058721855 0 0 0 0 -697.87802049856691 202.40490827538906 0 202.40490827538906 -20.779653407621311 0 0 0 0 -594.41935488097079 430.72425041236602 0 430.72425041236602 96.283826331303317 0 0 0 0 -130.34485309175761 384.330681136885 0 384.330681136885 -175.55471546507943 0 0 0 0 -125.76145301315364 334.93263472641848 0 334.93263472641848 135.56126102451981 0 0 0 0 -91.193675146299938 188.24870346373245 0 188.24870346373245 -96.585700151907076 0 0 0 0 -91.850614146133012 155.68947392736936 0 155.68947392736936 65.845133570207508 0 0 0 0 -742.000787375051 708.6431590062175 0 708.6431590062175 -308.8036647541403 0 0 0 0 -181.97245384694543 183.11405001176854 0 183.11405001176854 -29.705012199443217 0 0 0 0 -39.020068355145462 174.06966578462021 0 174.06966578462021 -34.377028698182826 0 0 0 0 -39.690374486815429 177.62083378565484 0 177.62083378565484 -43.799927762661426 0 0 0 0 190.57301701308461 422.37821246881731 0 422.37821246881731 -19.205514527050127 0 0 0 0 -141.14978893000807 185.55124770528073 0 185.55124770528073 -21.879207005345052 0 0 0 0 -75.129792939580511 187.86134134321753 0 187.86134134321753 -53.914181439063668 0 0 0 0 -67.193827105031232 147.1764980161015 0 147.1764980161015 -8.4377220840788141 0 0 0 0 -531.39881069711555 -119.50460664019829 0 -119.50460664019829 632.9655776294544 0 0 0 0 598.6008788835843 108.27700445855066 0 108.27700445855066 -108.69408356148233 0 0 0 0 -358.60132335144226 874.16967263369429 0 874.16967263369429 -776.5217651014359 0 0 0 0 -40.750271608672747 179.67366694430888 0 179.67366694430888 -42.862747912591175 0 0 0 0 -56.563931526561646 244.25879235199659 0 244.25879235199659 -17.123725291981827 0 0 0 0 -76.471465433758567 262.08641606744231 0 262.08641606744231 -5.0174612876708125 0 0 0 0 -75.816652039837209 245.41387500571864 0 245.41387500571864 19.154933614172478 0 0 0 0 -73.489151080593729 219.91169533936772 0 219.91169533936772 357.00242125491241 0 0 0 0 82.521623451611958 154.19014235534905 0 154.19014235534905 -3.9789704769229104 0 0 0 0 46.303532085003098 219.78974802866833 0 219.78974802866833 49.916090131066085 0 0 0 0 36.702949258120498 272.89168632206463 0 272.89168632206463 -124.11044710611714 0 0 0 0 10.234985451053944 201.70282786948292 0 201.70282786948292 -3.0690852510336271 0 0 0 0 -6.3261216887040064 231.97833755569832 0 231.97833755569832 -53.235441156073648 0 0 0 0 -98.691692562861135 229.00200005144899 0 229.00200005144899 -52.260779039705511 0 0 0 0 -29.42349723528605 273.75707963365187 0 273.75707963365187 -42.531592963711887 0 0 0 0 -30.41200204618508 319.90125059680759 0 319.90125059680759 -50.463787646342865 0 0 0 0 -44.787876385875279 299.04913993365039 0 299.04913993365039 -78.765754879918006 0 0 0 0 -7.6471255351207219 292.56736383684711 0 292.56736383684711 -78.187385445102336 0 0 0 0 -8.5700963474664604 299.65321650633086 0 299.65321650633086 -131.80723289523667 0 0 0 0 0.009612070964067243 332.77096914896219 0 332.77096914896219 -93.404836151254131 0 0 0 0 -0.091481889685383067 327.6414425051571 0 327.6414425051571 -156.8746912468755 0 0 0 0 54.532353577422327 178.4840515405258 0 178.4840515405258 -25.167692269526924 0 0 0 0 54.453072162755063 193.40260406589809 0 193.40260406589809 -420.61830284800635 0 0 0 0 -2.4691680160736951 -2.5898396694442454 0 -2.5898396694442454 1.4876211900082463 0 0 0 0 -0.00595797726418823 192.23738050351585 0 192.23738050351585 264.89957191403619 0 0 0 0 42.161408746062079 115.05148151985031 0 115.05148151985031 20.202469965908676 0 0 0 0 14.084202850506699 194.92465795074395 0 194.92465795074395 74.383787721973931 0 0 0 0 -3.330414182201082 -1.760450163951333 0 -1.760450163951333 1.3428875130000382 0 0 0 0 -2.4751453542923514 -2.2722534594396961 0 -2.2722534594396961 1.4438527858125827 0 0 0 0 10.84482817776734 253.77322247662596 0 253.77322247662596 -358.78902748644032 0 0 0 0 -93.022854429967992 312.50439586861376 0 312.50439586861376 -78.404494366528525 0 0 0 0 39.776960596238496 165.0694495316402 0 165.0694495316402 -93.400397350960702 0 0 0 0 -19.312816424237099 245.43942216041432 0 245.43942216041432 -64.855474858772141 0 0 0 0 -72.843378936115187 252.67350731317129 0 252.67350731317129 -46.345932010744946 0 0 0 0 -73.161262978406739 238.62184662100844 0 238.62184662100844 -23.23730743815031 0 0 0 0 -52.859365419470123 238.42937150720718 0 238.42937150720718 -109.43235936271805 0 0 0 0 -49.600514735997422 207.92911037728663 0 207.92911037728663 -14.166522101344526 0 0 0 0 -79.685131473688671 192.08968223914781 0 192.08968223914781 -103.45186221236872 0 0 0 0 -29.654746528944088 162.4935732364421 0 162.4935732364421 -112.99231752408377 0 0 0 0 0.019418437805143185 222.58520251080881 0 222.58520251080881 -27.338319876343576 0 0 0 0 -279.32024757906765 405.15583768636634 0 405.15583768636634 -388.66012031252649 0 0 0 0 -239.14676317102567 326.65317979472275 0 326.65317979472275 -245.71012637500371 0 0 0 0 -262.0077254435746 381.84448447661271 0 381.84448447661271 -286.4085015595665 0 0 0 0 -261.03762541767355 424.43289913294211 0 424.43289913294211 -367.15177363611292 0 0 0 0 -347.51543343866797 421.27713174280325 0 421.27713174280325 -282.9966759104118 0 0 0 0 -289.35010136894562 400.66092200556159 0 400.66092200556159 -316.87177767085632 0 0 0 0 -287.70879454188616 295.09612669783837 0 295.09612669783837 -214.74093648493363 0 0 0 0 -306.01848238932143 317.89544765564642 0 317.89544765564642 -145.42579150963957 0 0 0 0 -147.39469561616716 188.16755009423105 0 188.16755009423105 -159.83334485134992 0 0 0 0 -47.608144307396287 67.405129706311982 0 67.405129706311982 -66.773677903573116 0 0 0 0 -259.43206577162346 238.24087568360255 0 238.24087568360255 -26.851396087575267 0 0 0 0 -128.5663037152226 207.87591073849399 0 207.87591073849399 -143.79363559749618 0 0 0 0 -86.938464468163147 160.01092880505348 0 160.01092880505348 -203.95999090868713 0 0 0 0 -254.48984775935969 312.39014507994034 0 312.39014507994034 -226.29988414094259 0 0 0 0 265.4590074281441 110.5573498151798 0 110.5573498151798 -137.16293043725091 0 0 0 0 -154.91932250920217 117.47333983253384 0 117.47333983253384 -32.467184207031096 0 0 0 0 0.73332572311406352 6.3358618950138705 0 6.3358618950138705 4.4147979322591446 0 0 0 0 -7.8668593745655926 -78.439593540715975 0 -78.439593540715975 31.059210987048573 0 0 0 0 -8.5985109727241706 -67.070043109033577 0 -67.070043109033577 224.2943214438892 0 0 0 0 8.9835908423265209 256.07836530616441 0 256.07836530616441 388.76053901597788 0 0 0 0 3.0943683080687947 2.3795066379122574 0 2.3795066379122574 1.8356655800160233 0 0 0 0 -220.43190512295405 -148.13572417181103 0 -148.13572417181103 1221.8018008319686 0 0 0 0 69.145050020662893 18.253336092499922 0 18.253336092499922 416.90401159653356 0 0 0 0 -179.46548104723843 306.15590390563284 0 306.15590390563284 -343.04787094443964 0 0 0 0 -201.53516005411075 281.77704532913049 0 281.77704532913049 -320.53899210248892 0 0 0 0 1.1076027349824358 6.1459469746516646 0 6.1459469746516646 4.3278659731724467 0 0 0 0 -189.45462183611744 290.90371738342719 0 290.90371738342719 -427.1312899466393 0 0 0 0 0.30291887239039283 2.2998080704057147 0 2.2998080704057147 1.5614436468165316 0 0 0 0 -278.79754427461012 502.44178905714398 0 502.44178905714398 -715.39081121941035 0 0 0 0 -435.90465863677673 312.95080049321314 0 312.95080049321314 145.07566869716175 0 0 0 0 -339.27850419754031 473.97843366808956 0 473.97843366808956 -353.18657055788935 0 0 0 0 -389.44708728472324 401.91941327757195 0 401.91941327757195 -416.01908194550742 0 0 0 0 1144.8151385081655 -61.237641258237545 0 -61.237641258237545 -16.797966052054107 0 0 0 0 6.5405172439773338 6.2733276763735404 0 6.2733276763735404 3.8601516051823097 0 0 0 0 -304.76561574501102 410.7052036224668 0 410.7052036224668 -481.47780161265382 0 0 0 0 -777.05631747016423 241.05508946968354 0 241.05508946968354 197.90595057866449 0 0 0 0 16.247074970952255 15.637236255253725 0 15.637236255253725 9.0211694616182854 0 0 0 0 201.79478374381597 1.8783214394220522 0 1.8783214394220522 18.755921963489527 0 0 0 0 -587.59233374256291 651.94406573271772 0 651.94406573271772 -412.85249563678144 0 0 0 0 194.38474693441094 27.855986147143994 0 27.855986147143994 -1.0530080166099651 0 0 0 0 136.62640245910734 113.7578148825487 0 113.7578148825487 -33.500857922319483 0 0 0 0 159.17062295750657 67.325836836689632 0 67.325836836689632 -5.3553261775596184 0 0 0 0 74.307686051528435 -0.22278372965956805 0 -0.22278372965956805 19.367810942742835 0 0 0 0 44.0836933902076 26.316228155455633 0 26.316228155455633 6.6212037550794776 0 0 0 0 14.187384630786255 48.585419028204342 0 48.585419028204342 -69.063078039511311 0 0 0 0 61.594342522759689 -3.9977875797885645 0 -3.9977875797885645 -54.765310965398385 0 0 0 0 43.160123218531226 42.691329826588117 0 42.691329826588117 1.6264168917696225 0 0 0 0 40.890224550545099 -12.845657520985696 0 -12.845657520985696 -96.259402800744283 0 0 0 0 -346.05708321956627 383.87991568547568 0 383.87991568547568 -324.47940452886178 0 0 0 0 -337.03037556221534 371.46177010412248 0 371.46177010412248 -403.57451941784348 0 0 0 0 -411.61850683618104 429.25369526494433 0 429.25369526494433 -339.15797524825939 0 0 0 0 20.801114961600931 19.788817105453411 0 19.788817105453411 14.027787662322439 0 0 0 0 43.277562798251097 -0.36403761048393335 0 -0.36403761048393335 -1.0744484821043443 0 0 0 0 27.03397314560425 51.727323420902394 0 51.727323420902394 -20.539699639442915 0 0 0 0 71.464703175952309 54.044866896289022 0 54.044866896289022 -33.332163564711664 0 0 0 0 -195.41406856869435 277.59231521678703 0 277.59231521678703 -257.70646412606357 0 0 0 0 -259.37677383594564 398.24607572154127 0 398.24607572154127 -322.11115858138237 0 0 0 0 -361.66978590228246 353.77106511089278 0 353.77106511089278 -228.65664319636562 0 0 0 0 5.3085564227076247 75.615011870606395 0 75.615011870606395 169.95228781466722 0 0 0 0 16.310289901133331 64.913250620811709 0 64.913250620811709 45.110829289651967 0 0 0 0 28.3287578756279 29.410849943738953 0 29.410849943738953 8.9909760149068632 0 0 0 0 -220.21299311725124 363.35577767129189 0 363.35577767129189 -337.8477855651945 0 0 0 0 24.312936829568571 57.522975436614615 0 57.522975436614615 -32.070032832092693 0 0 0 0 42.564626712823639 61.521902737091253 0 61.521902737091253 4.9846818057754625 0 0 0 0 17.037696509170928 46.36305747829465 0 46.36305747829465 -43.228998561578919 0 0 0 0 28.338086597894289 73.884526130738777 0 73.884526130738777 -39.700444918657013 0 0 0 0 -7.5234109333664492 70.336152201989535 0 70.336152201989535 195.87463141061016 0 0 0 0 5.0328470352251315 24.245597930777876 0 24.245597930777876 153.09116102056214 0 0 0 0 20.285339925991138 67.004121984995436 0 67.004121984995436 137.36126517641969 0 0 0 0 -6.8241678528283956 63.849843233256252 0 63.849843233256252 160.83604420871416 0 0 0 0 16.289419450957212 36.351550811123161 0 36.351550811123161 119.61606446966107 0 0 0 0 31.094943317439174 79.974894046164991 0 79.974894046164991 148.60529493523063 0 0 0 0 46.707668970619125 46.301603658035674 0 46.301603658035674 98.632818301914085 0 0 0 0 58.377363394343917 55.460482444027271 0 55.460482444027271 9.1281803180739729 0 0 0 0 15.150317804236323 -3.1363056401749638 0 -3.1363056401749638 -15.830310500272134 0 0 0 0 996.15288803831936 1198.0655827722112 0 1198.0655827722112 600.2974999576254 0 0 0 0 135.93108967590524 12.826199282038942 0 12.826199282038942 -346.7528859842314 0 0 0 0 79.141001941694412 48.027266906909063 0 48.027266906909063 -161.03219205962159 0 0 0 0 489.26749593603017 156.67556812088151 0 156.67556812088151 -300.3226225247563 0 0 0 0 -88.331590747402515 170.5674841282671 0 170.5674841282671 80.254416426496391 0 0 0 0 86.287124824826606 99.862578225001926 0 99.862578225001926 -28.813868627126794 0 0 0 0 -207.98410428277566 -7.6724472052192141 0 -7.6724472052192141 374.27669957870239 0 0 0 0 50.740339947828033 2.0666107216293312 0 2.0666107216293312 -144.92603920995316 0 0 0 0 0.48130135775934946 12.603379358363306 0 12.603379358363306 17.263240169361033 0 0 0 0 -32.203452314694005 -30.127032872427662 0 -30.127032872427662 219.64582845318364 0 0 0 0 138.50803897865262 -105.59453947633301 0 -105.59453947633301 247.17452307353233 0 0 0 0 467.86020015730901 153.95943143031036 0 153.95943143031036 -146.5312437965913 0 0 0 0 5.7479004883819442 5.945276278647782 0 5.945276278647782 6.2184403858442465 0 0 0 0 -0.089670226603629999 -266.92806412299979 0 -266.92806412299979 584.31350171188592 0 0 0 0 121.54952803310152 -35.347353852266679 0 -35.347353852266679 -119.7133485890854 0 0 0 0 96.839587890688563 57.496978869865416 0 57.496978869865416 71.799267251644721 0 0 0 0 313.74360544644878 187.12357957846689 0 187.12357957846689 70.919782656346797 0 0 0 0 -121.30946406588919 10.002380361074756 0 10.002380361074756 83.172493853096967 0 0 0 0 93.536549488686433 70.585676031878393 0 70.585676031878393 95.203508572310966 0 0 0 0 17.740683030391196 17.020872583190574 0 17.020872583190574 15.684337335501297 0 0 0 0 -80.048608037982376 197.8766676126761 0 197.8766676126761 -59.602345123101259 0 0 0 0 58.964247509120469 -34.758417728400673 0 -34.758417728400673 -1.2900566744647222 0 0 0 0 22.268085754307322 -45.797389254060818 0 -45.797389254060818 -309.02107637377776 0 0 0 0 -2.3608825991483258 1.5502540260114728 0 1.5502540260114728 -0.87702062221591515 0 0 0 0 -74.443035366937693 26.241344183068577 0 26.241344183068577 279.65933614438836 0 0 0 0 188.297802303965 183.99648235658969 0 183.99648235658969 -99.407612836941553 0 0 0 0 1.6350398729236986 209.65249296440834 0 209.65249296440834 11.538128497530124 0 0 0 0 -145.23048859151459 -59.067182191152824 0 -59.067182191152824 104.6528060029159 0 0 0 0 22.662264243330355 30.75491828338636 0 30.75491828338636 92.623830176329648 0 0 0 0 16.167739951095427 32.699996265844675 0 32.699996265844675 58.822734313351248 0 0 0 0 34.967835482002556 44.965168589613313 0 44.965168589613313 64.684994764364092 0 0 0 0 28.467851443889415 26.701178998543838 0 26.701178998543838 23.731183860820522 0 0 0 0 -76.985153819779953 96.283956228424358 0 96.283956228424358 118.83782852121658 0 0 0 0 25.111114140090649 50.931286977189302 0 50.931286977189302 57.167105064525458 0 0 0 0 20.238465135043953 24.412519748562772 0 24.412519748562772 64.443974699257524 0 0 0 0 129.97312339719065 78.517385894629115 0 78.517385894629115 -244.31675080962304 0 0 0 0 -6.4721834416934598 9.7496872141930027 0 9.7496872141930027 12.693416820827476 0 0 0 0 -4.4487169763960992 1.6479039490659488 0 1.6479039490659488 -54.842496535780811 0 0 0 0 -57.874099603024661 111.78388049193745 0 111.78388049193745 27.354800443794375 0 0 0 0 28.517199947440474 43.792915687534055 0 43.792915687534055 18.933398736799518 0 0 0 0 19.725949500745628 86.050338025554083 0 86.050338025554083 64.894584282243159 0 0 0 0 54.992242489213822 86.60811905634182 0 86.60811905634182 60.965713443066306 0 0 0 0 41.83466043494991 35.347449148335727 0 35.347449148335727 -15.977572474002955 0 0 0 0 -0.38153984937241603 13.446560301593422 0 13.446560301593422 12.383798363328648 0 0 0 0 3.2973179237369266 39.13965394647731 0 39.13965394647731 23.834021263763105 0 0 0 0 14.473575288536267 57.26235793759497 0 57.26235793759497 68.784237262356328 0 0 0 0 24.85978492493814 72.247028509227675 0 72.247028509227675 67.816216313891346 0 0 0 0 31.140078553376952 53.127434022833768 0 53.127434022833768 69.617983268803982 0 0 0 0 14.052848854858894 77.319259182535461 0 77.319259182535461 86.86966593476609 0 0 0 0 -3.239785341649025 72.986951020157377 0 72.986951020157377 44.952319184336346 0 0 0 0 42.269984690799902 20.429095188241718 0 20.429095188241718 -130.23039888827043 0 0 0 0 -156.14084417870617 300.5370561539894 0 300.5370561539894 -53.102321729580581 0 0 0 0 16.872397413482759 43.56752035340353 0 43.56752035340353 79.667096719883546 0 0 0 0 42.018471047347703 56.266614783879049 0 56.266614783879049 63.830261330105714 0 0 0 0 2.4661454332381254 105.53164979983558 0 105.53164979983558 131.72941055662341 0 0 0 0 2.9451024751106161 131.93434319944754 0 131.93434319944754 129.82756452391186 0 0 0 0 28.932517574094135 61.655424020049011 0 61.655424020049011 91.359966425147761 0 0 0 0 -422.35392845902243 327.89509963156343 0 327.89509963156343 187.79378346850717 0 0 0 0 -296.12330754073628 104.96529500655288 0 104.96529500655288 579.09105438109327 0 0 0 0 -470.15549000990904 424.98546841817733 0 424.98546841817733 -234.95339309894553 0 0 0 0 -352.77757469776589 654.52226171206576 0 654.52226171206576 -871.29702837425793 0 0 0 0 -0.92112458681779685 -2.3314894504194008 0 -2.3314894504194008 -0.49192714443879559 0 0 0 0 -221.59617924140184 368.54456909491637 0 368.54456909491637 -349.1897391517432 0 0 0 0 -9.2792102477461356 10.426807630322241 0 10.426807630322241 24.021856692992422 0 0 0 0 -229.87374155613361 352.01391340201553 0 352.01391340201553 -313.96227996634843 0 0 0 0 -233.30473208288095 309.1676080074792 0 309.1676080074792 -201.8464809778452 0 0 0 0 -349.36633106494264 307.47030414743074 0 307.47030414743074 -62.277415119959187 0 0 0 0 -344.29124288102321 419.66155074859489 0 419.66155074859489 -184.09880960791725 0 0 0 0 -328.45089605395333 427.28366138334422 0 427.28366138334422 -321.62231441826589 0 0 0 0 -286.19361768566523 486.13332587774403 0 486.13332587774403 -287.44319220708712 0 0 0 0 -500.1746250796059 424.37355213118462 0 424.37355213118462 -214.96455703636366 0 0 0 0 -337.3606470575105 432.06098345343344 0 432.06098345343344 -217.28922025061547 0 0 0 0 -286.20609436799714 501.75624252466696 0 501.75624252466696 -599.70423226541243 0 0 0 0 -400.64487719118551 293.07560576852666 0 293.07560576852666 -317.61822541029687 0 0 0 0 -72.699484514663709 264.48022458788409 0 264.48022458788409 -397.39267748655402 0 0 0 0 -391.44969462500012 535.37210139799845 0 535.37210139799845 -245.97087765921242 0 0 0 0 -325.51494119424024 -16.343579064512596 0 -16.343579064512596 103.10773774670815 0 0 0 0 -3.9412161534205552 8.6834615877877752 0 8.6834615877877752 17.121754044199854 0 0 0 0 126.04862387038156 48.922052762382009 0 48.922052762382009 93.734325257093587 0 0 0 0 -90.854666239698645 42.880128222268198 0 42.880128222268198 26.433944412039619 0 0 0 0 -381.97987712298345 118.94741666853952 0 118.94741666853952 245.44341642631116 0 0 0 0 -477.50320915042903 95.499052697130537 0 95.499052697130537 241.005263534611 0 0 0 0 -72.153552992305777 441.21010771545662 0 441.21010771545662 -636.02002940848251 0 0 0 0 -620.13752003888658 498.36709498607888 0 498.36709498607888 1489.3132810596653 0 0 0 0 -63.967095554910031 18.437788184421024 0 18.437788184421024 -7.4072099194344929 0 0 0 0 -181.55030909855486 588.14334767254513 0 588.14334767254513 -833.36876661350834 0 0 0 0 -559.95019500406488 681.93535761154817 0 681.93535761154817 -510.07691295880977 0 0 0 0 -277.44456236530095 391.62555657171833 0 391.62555657171833 -299.49833516872968 0 0 0 0 -511.79016567975282 -17.709845089322357 0 -17.709845089322357 -490.6923726759087 0 0 0 0 2295.0113656515896 1331.1459152846328 0 1331.1459152846328 -4014.3946880711155 0 0 0 0 -22.82177731549794 3.0605866307902545 0 3.0605866307902545 -0.75420790074056399 0 0 0 0 -673.844849224668 508.6007636945069 0 508.6007636945069 1995.6379744993865 0 0 0 0 343.45749321507174 -8.2890129354091187 0 -8.2890129354091187 -1234.2393453571585 0 0 0 0 -310.71868013466155 858.43316290446 0 858.43316290446 -414.51957827212755 0 0 0 0 18.235302074593903 -8.9342224947597728 0 -8.9342224947597728 4.7965210205460096 0 0 0 0 -1942.6229350802969 352.36968143106242 0 352.36968143106242 358.97020149519813 0 0 0 0 252.5922681857046 635.17236570782916 0 635.17236570782916 1104.8519510132783 0 0 0 0 420.51583613660478 246.53529744836123 0 246.53529744836123 -415.79754840989517 0 0 0 0 383.06059590700897 226.41172929387176 0 226.41172929387176 155.77529959718845 0 0 0 0 600.06346434947045 717.63613926292555 0 717.63613926292555 210.45070465176832 0 0 0 0 200.86559339979431 296.48935743762922 0 296.48935743762922 179.47194843652687 0 0 0 0 180.77182121499936 271.08436821423311 0 271.08436821423311 362.77688188019238 0 0 0 0 333.60914099897491 369.56022167521587 0 369.56022167521587 368.95317141871851 0 0 0 0 455.35961653643426 383.50595421033358 0 383.50595421033358 226.19875534154562 0 0 0 0 381.88311790474836 300.01085167120436 0 300.01085167120436 216.77264156519232 0 0 0 0 356.06801385694416 291.86070843532798 0 291.86070843532798 290.49213098724977 0 0 0 0 331.83458705380326 282.28551102622805 0 282.28551102622805 287.67979481527436 0 0 0 0 308.92381669361203 191.61095750557797 0 191.61095750557797 166.11416847876444 0 0 0 0 107.88290088030044 214.72266027667865 0 214.72266027667865 289.87694122515677 0 0 0 0 81.945965851873552 108.34097434746309 0 108.34097434746309 92.507985472053406 0 0 0 0 -76.429288412866299 64.571081946434788 0 64.571081946434788 208.6808311853747 0 0 0 0 -135.76710910121619 176.19886167506775 0 176.19886167506775 147.92908669837561 0 0 0 0 -134.93080407645903 285.02169559297909 0 285.02169559297909 -46.097539860083998 0 0 0 0 -192.53857119605527 127.00845367029979 0 127.00845367029979 71.253368408417373 0 0 0 0 -199.09407251015364 257.1189399570103 0 257.1189399570103 -110.59125424554713 0 0 0 0 -285.77074498671391 262.87106215631911 0 262.87106215631911 -22.406629230226827 0 0 0 0 -305.12734700288274 410.23598169443358 0 410.23598169443358 -243.50449531442428 0 0 0 0 -249.60937449861376 469.62891205264714 0 469.62891205264714 -233.76983696320167 0 0 0 0 -248.60029557239613 253.54114629450851 0 253.54114629450851 78.36012910707359 0 0 0 0 180.04935351218683 145.29402979992255 0 145.29402979992255 20.527129289039294 0 0 0 0 140.02410018749651 40.844323691984755 0 40.844323691984755 56.123287037029513 0 0 0 0 -293.68553937562137 170.70512966364186 0 170.70512966364186 50.524516933684936 0 0 0 0 -137.96485344992834 110.6839799229565 0 110.6839799229565 33.45407611936389 0 0 0 0 30.864528409059858 148.82814673587563 0 148.82814673587563 -27.458883604413131 0 0 0 0 -5.4268270613683853 101.33831866816035 0 101.33831866816035 -17.356533431187927 0 0 0 0 57.359624485892709 169.32529845631507 0 169.32529845631507 -18.001851068802353 0 0 0 0 -37.821380774585123 145.41396933109354 0 145.41396933109354 62.114983065053821 0 0 0 0 72.780241610162193 195.55310591887974 0 195.55310591887974 8.1263405806093942 0 0 0 0 639.10288227671117 309.1053105857136 0 309.1053105857136 594.35881671006791 0 0 0 0 -5.6679908330058524 4.5885772607164768 0 4.5885772607164768 -0.63841647591698347 0 0 0 0 56.999669075412385 216.4704108930182 0 216.4704108930182 102.43887005996658 0 0 0 0 107.0861436007981 87.164725368107611 0 87.164725368107611 114.8998555142316 0 0 0 0 16.316242834553726 20.8977920158394 0 20.8977920158394 -2.5329320019380646 0 0 0 0 123.75557430841945 77.907017895788158 0 77.907017895788158 -21.475692588614038 0 0 0 0 700.02254786868616 254.41737776533773 0 254.41737776533773 -171.94586222185899 0 0 0 0 216.26190422227228 230.00507637431292 0 230.00507637431292 -29.004643975291401 0 0 0 0 126.78321102965128 70.983826176408911 0 70.983826176408911 -12.083280426057172 0 0 0 0 116.52625375665957 57.825860064391236 0 57.825860064391236 31.962331099406583 0 0 0 0 587.00864266826102 280.89058133860817 0 280.89058133860817 104.65738033741945 0 0 0 0 -44.046775348253412 84.323694463533172 0 84.323694463533172 -7.5572582064647236 0 0 0 0 112.49696523433522 123.74033862709257 0 123.74033862709257 28.510607338961563 0 0 0 0 4.7142008077020989 42.675602854087607 0 42.675602854087607 -67.187337489107307 0 0 0 0 91.049314393567329 89.422314724979515 0 89.422314724979515 -6.4686007806740236 0 0 0 0 -116.3069847508159 128.41482797575372 0 128.41482797575372 9.0049000537401298 0 0 0 0 46.509561184677295 54.260041145586001 0 54.260041145586001 40.099467792941141 0 0 0 0 195.80909315602548 86.866109949016391 0 86.866109949016391 -43.14738795006997 0 0 0 0 20.13973077895389 133.23718484419715 0 133.23718484419715 44.201263680472039 0 0 0 0 398.2373495996344 462.32167239462251 0 462.32167239462251 -457.49747496507189 0 0 0 0 -13.018688821267183 24.720071614460267 0 24.720071614460267 -43.80329040663068 0 0 0 0 342.56779165809502 -50.891274405113762 0 -50.891274405113762 -68.703501189665985 0 0 0 0 294.41109257196149 -73.281148999150901 0 -73.281148999150901 -66.869241693946606 0 0 0 0 285.33543651117361 226.9969701697446 0 226.9969701697446 241.23494445343931 0 0 0 0 64.503835301794311 -14.785955644971139 0 -14.785955644971139 -6.3181981987661651 0 0 0 0 288.21211377844156 266.37595595368111 0 266.37595595368111 278.3015129251944 0 0 0 0 264.30455591600912 277.51703058316889 0 277.51703058316889 282.97391975733626 0 0 0 0 322.58684175572853 310.82125971892674 0 310.82125971892674 293.68556641284522 0 0 0 0 359.09111402565031 289.85891924607222 0 289.85891924607222 290.65559494515401 0 0 0 0 209.58694275422022 329.53475453540341 0 329.53475453540341 320.1961859340754 0 0 0 0 307.84705211272194 270.53038101956645 0 270.53038101956645 251.00723577316239 0 0 0 0 280.26266830859458 255.46655935338458 0 255.46655935338458 273.60321344732438 0 0 0 0 -29.012313898914726 70.882574409441077 0 70.882574409441077 43.035819612356136 0 0 0 0 14.223651311889199 8.8839493611368852 0 8.8839493611368852 4.8919284600469268 0 0 0 0 74.09418821867439 76.097106315126439 0 76.097106315126439 -50.652374955063351 0 0 0 0 69.333707347617732 33.433120379429681 0 33.433120379429681 -32.39878813142743 0 0 0 0 151.66021427413608 72.813582775291067 0 72.813582775291067 -76.765366837770273 0 0 0 0 103.24178646019573 132.97491509036263 0 132.97491509036263 31.959784718761512 0 0 0 0 51.709455850112136 202.10783625661134 0 202.10783625661134 245.91103312817359 0 0 0 0 224.79265480054892 314.51072540156201 0 314.51072540156201 142.50279429402326 0 0 0 0 238.13931122462964 234.48024104953947 0 234.48024104953947 116.17356858023413 0 0 0 0 149.02712878525926 123.55800544446902 0 123.55800544446902 32.536477006076893 0 0 0 0 154.17131547252939 136.40812436885244 0 136.40812436885244 63.336173383824644 0 0 0 0 167.18158195280557 58.819571512897255 0 58.819571512897255 -2.1072680938377744 0 0 0 0 1.3209608790842964 18.264522798551383 0 18.264522798551383 -12.106136509685683 0 0 0 0 -17.571345337815728 218.70788074408483 0 218.70788074408483 -300.80310278698744 0 0 0 0 461.45244509120676 -55.3836955237457 0 -55.3836955237457 213.87188663187044 0 0 0 0 375.89320503080671 230.75095358764884 0 230.75095358764884 -15.317543176010076 0 0 0 0 276.64357678886154 136.41069100189634 0 136.41069100189634 -78.434488821483683 0 0 0 0 351.66399381752126 193.99406860759336 0 193.99406860759336 8.7479517936299089 0 0 0 0 -2.9270166988197062 50.157437619534079 0 50.157437619534079 -50.779909075253585 0 0 0 0 122.51302449481591 86.516788856650237 0 86.516788856650237 28.508102735431748 0 0 0 0 665.4111320880329 283.74628125464369 0 283.74628125464369 110.99325954405867 0 0 0 0 523.39491838347749 331.58327782490596 0 331.58327782490596 167.25895330808999 0 0 0 0 516.26639157038881 246.44443358247372 0 246.44443358247372 196.70060930206091 0 0 0 0 403.25359287011088 361.67599737265118 0 361.67599737265118 162.61051636401862 0 0 0 0 410.7467126759002 377.48779890443984 0 377.48779890443984 178.01405509725009 0 0 0 0 365.76155952102272 345.75550435837795 0 345.75550435837795 188.82182787880811 0 0 0 0 363.41028969961917 379.43147861914633 0 379.43147861914633 186.28358660168306 0 0 0 0 407.07919842383126 308.94066836301135 0 308.94066836301135 191.37292576472828 0 0 0 0 434.05859780072933 362.83707880444854 0 362.83707880444854 170.7214183377655 0 0 0 0 457.74714918015525 269.17339001178334 0 269.17339001178334 212.2350699904564 0 0 0 0 143.61189063653001 454.81989854294807 0 454.81989854294807 -240.06349873438012 0 0 0 0 412.75819945678813 328.01676454888729 0 328.01676454888729 130.38736311257526 0 0 0 0 -23.311208634863355 35.464297274445158 0 35.464297274445158 -44.27837457820398 0 0 0 0 404.31251737458479 347.81526095916729 0 347.81526095916729 158.25246031091956 0 0 0 0 420.87574531203063 307.10651866304488 0 307.10651866304488 69.167487433238421 0 0 0 0 281.66215911429026 290.90415863032104 0 290.90415863032104 128.97177980108245 0 0 0 0 347.35337757450179 328.45253986420721 0 328.45253986420721 149.8435901710036 0 0 0 0 345.10445515299216 327.02328376450168 0 327.02328376450168 151.64723168084674 0 0 0 0 284.67921220899007 367.48054277529627 0 367.48054277529627 188.68900345524162 0 0 0 0 345.27736681446549 328.46738114025356 0 328.46738114025356 154.0383691980096 0 0 0 0 347.21798752466566 329.74280892533716 0 329.74280892533716 151.9969338150695 0 0 0 0 275.97541788620583 356.22374028494778 0 356.22374028494778 191.15245997191687 0 0 0 0 212.2252037154467 312.86194960686407 0 312.86194960686407 191.59020384354517 0 0 0 0 275.9166150761157 273.69654438674843 0 273.69654438674843 79.23736933435066 0 0 0 0 226.76209311403363 396.04464329244729 0 396.04464329244729 225.26687897121883 0 0 0 0 241.47789938962524 405.83809761251268 0 405.83809761251268 225.18076805995952 0 0 0 0 311.48460986748978 386.38528519824831 0 386.38528519824831 197.78984141729597 0 0 0 0 284.76764352916507 437.27270885301186 0 437.27270885301186 179.6297616026568 0 0 0 0 355.5420791690558 411.72550475563912 0 411.72550475563912 144.03540794717992 0 0 0 0 238.78114604130678 436.20417576822183 0 436.20417576822183 130.19654219047493 0 0 0 0 201.52047229874006 459.25292277281733 0 459.25292277281733 277.80835811549696 0 0 0 0 207.26648968067457 388.62086240852295 0 388.62086240852295 246.14010934191901 0 0 0 0 237.94921230315231 366.07146278189975 0 366.07146278189975 280.76152311074293 0 0 0 0 217.1447274393613 364.76860562352795 0 364.76860562352795 303.71035670883794 0 0 0 0 204.94189353187539 309.88748821621084 0 309.88748821621084 247.16663030051131 0 0 0 0 303.10636717596935 238.35836472895971 0 238.35836472895971 465.31928553042962 0 0 0 0 391.33682406994922 304.239705823853 0 304.239705823853 283.14754947100846 0 0 0 0 433.49319507888868 350.6759364508107 0 350.6759364508107 319.12045457923523 0 0 0 0 316.93933611320608 318.06050334904546 0 318.06050334904546 -86.366101722131134 0 0 0 0 271.15542885722971 540.39148749372362 0 540.39148749372362 322.95258913194448 0 0 0 0 270.24944146314374 427.05776337394218 0 427.05776337394218 33.612263999228162 0 0 0 0 181.76043524214037 286.51071199335775 0 286.51071199335775 -106.48808407273646 0 0 0 0 123.66617286576366 308.20980220031561 0 308.20980220031561 44.718278153726715 0 0 0 0 8.706381499330746 127.24209627319715 0 127.24209627319715 -173.21679608446357 0 0 0 0 125.77630098363443 286.70266352411545 0 286.70266352411545 -130.21866796334507 0 0 0 0 152.70595155528281 208.97767694807317 0 208.97767694807317 -107.42084987587077 0 0 0 0 173.7245447862806 227.72408342751351 0 227.72408342751351 -206.99889344222538 0 0 0 0 238.75802371728787 369.52114432230792 0 369.52114432230792 -9.9127523741517507 0 0 0 0 110.83418577505654 255.19319859229108 0 255.19319859229108 -4.0258434970673989 0 0 0 0 203.18893025525904 347.23021214721666 0 347.23021214721666 139.31744195332294 0 0 0 0 282.75288272646503 387.82111226777306 0 387.82111226777306 16.142211794995092 0 0 0 0 290.35732018108683 339.3860197466729 0 339.3860197466729 195.31294309919031 0 0 0 0 179.92839282584464 313.74848946314432 0 313.74848946314432 52.690688574108208 0 0 0 0 333.50132556542667 308.75435900320645 0 308.75435900320645 -143.67895735479033 0 0 0 0 481.48648321893415 250.79165079878658 0 250.79165079878658 -117.6709514974691 0 0 0 0 334.80105824811835 254.96421777502474 0 254.96421777502474 151.23970351137541 0 0 0 0 401.85693380240991 446.91064855725563 0 446.91064855725563 199.54808344434014 0 0 0 0 616.73433984038638 403.86848404501325 0 403.86848404501325 133.20828099492792 0 0 0 0 -2.1603721714232051 4.4716246746081731 0 4.4716246746081731 3.7193952371706445 0 0 0 0 -103.69890167724952 28.094678348910747 0 28.094678348910747 82.754405111000779 0 0 0 0 -91.784520648550824 161.74644576038372 0 161.74644576038372 39.133386103847442 0 0 0 0 -15.995231404995138 -12.894187575817341 0 -12.894187575817341 64.134065002297575 0 0 0 0 -18.629735232673738 -48.469956287068669 0 -48.469956287068669 194.91501084820629 0 0 0 0 43.804007056547562 87.878767235190026 0 87.878767235190026 172.16291687525882 0 0 0 0 59.026283258506737 -10.748403810061063 0 -10.748403810061063 194.70022528813934 0 0 0 0 47.055795383392251 59.561527159537945 0 59.561527159537945 287.53498880789772 0 0 0 0 203.89822026745242 227.20973874036645 0 227.20973874036645 465.20989642255881 0 0 0 0 -40.167946068424499 -215.14905465114862 0 -215.14905465114862 394.43503141472138 0 0 0 0 296.66687612098758 377.95467921477757 0 377.95467921477757 386.36016649536941 0 0 0 0 342.94746089856199 302.13760422930136 0 302.13760422930136 413.16809347116941 0 0 0 0 264.96736556582619 177.31100306005101 0 177.31100306005101 423.89475172736638 0 0 0 0 290.7982585990685 408.44449115813404 0 408.44449115813404 743.09088153500488 0 0 0 0 171.62482391876983 383.73932291992605 0 383.73932291992605 792.62720849050675 0 0 0 0 0.14680486673742621 1.0404836461649136 0 1.0404836461649136 -1.7243119637966799 0 0 0 0 0.15056563169639503 2.3958091942762181 0 2.3958091942762181 -1.7701770922869571 0 0 0 0 372.52243033433479 391.26454599320095 0 391.26454599320095 374.1448526066597 0 0 0 0 3.1081964782086686 2.1054835364989231 0 2.1054835364989231 -0.15520293902444848 0 0 0 0 -13.414807089699025 1.8763960788073746 0 1.8763960788073746 37.368811517808354 0 0 0 0 50.169129606380011 303.50310228851504 0 303.50310228851504 443.54905625601896 0 0 0 0 -5.2952055243062546 3.2187841361543619 0 3.2187841361543619 2.9419179228751098 0 0 0 0 -14.416181013002642 9.3662810547266417 0 9.3662810547266417 -13.846829438592067 0 0 0 0 19.359095942947533 -28.667163386146967 0 -28.667163386146967 -68.948980025401397 0 0 0 0 5.7169887176240195 3.8941456751614254 0 3.8941456751614254 -9.2058133290788859 0 0 0 0 4.0068787749473671 3.8615390605901112 0 3.8615390605901112 2.0866440520117777 0 0 0 0 -47.960068820408196 79.240639117737373 0 79.240639117737373 8.6375332882453222 0 0 0 0 -66.045855546268285 46.757726242534773 0 46.757726242534773 -173.61939140312825 0 0 0 0 -251.57347910554017 232.98987999400333 0 232.98987999400333 -119.21987936968799 0 0 0 0 -92.102594269344991 195.19424211472597 0 195.19424211472597 -183.84193508396856 0 0 0 0 -113.84500763288816 115.7873333427433 0 115.7873333427433 -185.08535659767216 0 0 0 0 -176.47378591897723 147.92945898432481 0 147.92945898432481 -156.31189767755495 0 0 0 0 3.1627409574484204 3.6752012547375017 0 3.6752012547375017 2.9125322090520456 0 0 0 0 6.73825433402817 9.7867874373573613 0 9.7867874373573613 -59.418007858866986 0 0 0 0 -268.94730971696117 254.35961077431602 0 254.35961077431602 -276.04616465645086 0 0 0 0 -266.53500698087737 208.34885787271014 0 208.34885787271014 -196.82555124510691 0 0 0 0 6.2761452578701125 4.0066808076723959 0 4.0066808076723959 -8.1670056220678191 0 0 0 0 -88.944429842384125 -20.674382185387003 0 -20.674382185387003 24.992003211522388 0 0 0 0 -86.09382415334403 18.726700285444167 0 18.726700285444167 -1.4888157750829123 0 0 0 0 -39.351784819271415 41.281493767579377 0 41.281493767579377 11.230198494395154 0 0 0 0 -53.222252539955662 -24.285713993556783 0 -24.285713993556783 -63.400155605751934 0 0 0 0 -15.986507674522727 -18.940601967598582 0 -18.940601967598582 -16.660329021637153 0 0 0 0 -19.934864584851312 15.177568326829714 0 15.177568326829714 -19.944095846025448 0 0 0 0 -59.056946256314404 -10.381749576799848 0 -10.381749576799848 -17.93714396921132 0 0 0 0 11.38909832968784 -77.754652578119931 0 -77.754652578119931 -27.962399132748033 0 0 0 0 -2.8366694301803363 -16.512134014075855 0 -16.512134014075855 -89.574862019593638 0 0 0 0 -38.099226022895891 -39.188654781370133 0 -39.188654781370133 165.90781077022621 0 0 0 0 -32.043306805047905 -12.866301545142051 0 -12.866301545142051 24.602952203304085 0 0 0 0 -49.704329805161251 -33.767666122641003 0 -33.767666122641003 24.191250648687856 0 0 0 0 15.896272239275277 62.470008793692614 0 62.470008793692614 -34.805664114035608 0 0 0 0 -29.971527895817417 34.667199859610264 0 34.667199859610264 69.469234656229673 0 0 0 0 30.183480376334046 138.67628552949645 0 138.67628552949645 128.0646734248171 0 0 0 0 12.432435848750174 89.371442668283635 0 89.371442668283635 10.343262017595407 0 0 0 0 -9.9155557477497496 105.40087960001438 0 105.40087960001438 18.580054212987307 0 0 0 0 49.85619533676072 137.09292912065575 0 137.09292912065575 35.684072962900245 0 0 0 0 17.876698689971818 105.75795273512995 0 105.75795273512995 -20.206488963718584 0 0 0 0 22.088547715713503 97.005606340600934 0 97.005606340600934 2.9932354098455107 0 0 0 0 30.217574115566094 95.856473124886179 0 95.856473124886179 -2.3675263330878806 0 0 0 0 25.394346799352206 124.7596206117887 0 124.7596206117887 23.964861815649783 0 0 0 0 74.435730700337444 97.837349925896888 0 97.837349925896888 -0.7253030904357729 0 0 0 0 115.01451606824412 93.914615312885871 0 93.914615312885871 -2.9658568861923413 0 0 0 0 137.18642691704736 132.13140914860378 0 132.13140914860378 -10.421918323227146 0 0 0 0 168.33209717809223 -57.780329974406413 0 -57.780329974406413 -105.25850372785499 0 0 0 0 344.14138773180457 -0.27272079705971919 0 -0.27272079705971919 -121.83427482143452 0 0 0 0 -26.850239069026429 10.061485034808356 0 10.061485034808356 17.667413324157678 0 0 0 0 -1079.6304209396767 765.83360482095395 0 765.83360482095395 -617.05723724825657 0 0 0 0 -483.22964378142206 342.59184163782629 0 342.59184163782629 -194.28057136091775 0 0 0 0 -441.51471268275054 406.96275639416672 0 406.96275639416672 -470.61289920249328 0 0 0 0 -457.64658930494625 341.01533809977445 0 341.01533809977445 -443.5298892387882 0 0 0 0 1.2120845234414617 1.0803011252175168 0 1.0803011252175168 -1.7486206285485295 0 0 0 0 -722.63343738760159 783.34731614246448 0 783.34731614246448 -29.491566223381597 0 0 0 0 844.59466135464027 -81.874742766137388 0 -81.874742766137388 -104.4216980753539 0 0 0 0 -675.14993460234837 598.23209502842474 0 598.23209502842474 -513.79769581636356 0 0 0 0 2.2063220964307106 3.5534177356358327 0 3.5534177356358327 -1.7368528974366342 0 0 0 0 -38.973638554583886 493.05982083547406 0 493.05982083547406 -253.26714145067763 0 0 0 0 -164.56232387891578 349.68452714751152 0 349.68452714751152 -403.71523437941141 0 0 0 0 -198.21564253629185 462.53723467719828 0 462.53723467719828 -477.51441331671595 0 0 0 0 -261.93473402992822 464.78788028103372 0 464.78788028103372 -484.67658729483446 0 0 0 0 -294.41594500046631 442.52135052733001 0 442.52135052733001 -383.87436772480942 0 0 0 0 -199.28449051448843 409.07688018020053 0 409.07688018020053 -392.05165239414418 0 0 0 0 -149.90870897379136 249.11258367791379 0 249.11258367791379 -373.98871798297114 0 0 0 0 7.1883692335225788 4.9010489033432236 0 4.9010489033432236 -8.0832522393040307 0 0 0 0 -443.09069358733541 420.3178984567985 0 420.3178984567985 -323.38549608082576 0 0 0 0 -22.152996887816698 24.054249163078566 0 24.054249163078566 -37.465222326478397 0 0 0 0 -386.93173386529088 517.99347667542679 0 517.99347667542679 -395.43477124047786 0 0 0 0 -0.19438870183152801 3.3620840691157596 0 3.3620840691157596 3.4617370465970509 0 0 0 0 -369.76660669878765 289.97618342131318 0 289.97618342131318 -331.20275468015825 0 0 0 0 14.55124812349095 71.467431936165667 0 71.467431936165667 -66.99224797720467 0 0 0 0 -236.33588266545848 215.59585388490268 0 215.59585388490268 -294.81037037568149 0 0 0 0 -213.65845277944754 228.68400164200557 0 228.68400164200557 -336.5373516943182 0 0 0 0 -134.05712508923898 166.96508541379626 0 166.96508541379626 -289.03397739751927 0 0 0 0 -75.961205616913503 171.42033046501274 0 171.42033046501274 -367.8116169857276 0 0 0 0 -57.799630555440672 115.17970310941291 0 115.17970310941291 -342.94717022663554 0 0 0 0 -89.998678735561043 146.99253534913896 0 146.99253534913896 -357.92956765832969 0 0 0 0 -134.46789442474983 167.47130299139189 0 167.47130299139189 -270.40375746701102 0 0 0 0 -77.37480428582785 118.95376681811467 0 118.95376681811467 -384.17691776667652 0 0 0 0 105.99053342248226 254.40613235378805 0 254.40613235378805 -418.01199728582873 0 0 0 0 -152.29388447305973 235.49948354082244 0 235.49948354082244 -416.41430397728982 0 0 0 0 3.0223465248780883 -0.010962679819503052 0 -0.010962679819503052 -1.1550565552001704 0 0 0 0 53.750580825391808 436.42829054988124 0 436.42829054988124 -76.433990707575731 0 0 0 0 -2.8667535718050203 155.23560237755692 0 155.23560237755692 -462.6991942206314 0 0 0 0 -80.404219387863122 245.43913042647841 0 245.43913042647841 -128.47240761287048 0 0 0 0 59.50242555756995 406.43624165883716 0 406.43624165883716 1.3382078810454914 0 0 0 0 -76.342307131650159 477.25430338568731 0 477.25430338568731 56.789811455476865 0 0 0 0 49.687905939099437 388.55401794137401 0 388.55401794137401 9.496777579161062 0 0 0 0 42.868123087318963 508.39038192377666 0 508.39038192377666 19.169274620799115 0 0 0 0 -25.382375803754258 550.61082814485599 0 550.61082814485599 50.152235853278398 0 0 0 0 -230.52486463586683 541.30404458228486 0 541.30404458228486 49.810969333972025 0 0 0 0 379.56956660996366 373.36264576033841 0 373.36264576033841 -14.50565857283982 0 0 0 0 148.58607277979172 865.3728781727591 0 865.3728781727591 -65.301228328356956 0 0 0 0 -215.2291305614126 379.95135571578066 0 379.95135571578066 25.042655301250306 0 0 0 0 -172.9832784175087 530.47925871355437 0 530.47925871355437 -84.790770555090603 0 0 0 0 -113.62764801727826 539.71425400870976 0 539.71425400870976 -366.21064438411304 0 0 0 0 347.80396244465373 324.51384740029334 0 324.51384740029334 -149.98439267209415 0 0 0 0 334.8514102869849 232.88782017486528 0 232.88782017486528 -283.09525383635446 0 0 0 0 299.93977951374836 202.63195671459016 0 202.63195671459016 -181.85556952690104 0 0 0 0 3.3828345297353337 -0.28546558208995343 0 -0.28546558208995343 -1.4527461049297443 0 0 0 0 225.46389832285786 70.8876044488768 0 70.8876044488768 -529.95528453282532 0 0 0 0 409.37727942255879 294.9012735309725 0 294.9012735309725 -567.33223743840426 0 0 0 0 123.52671097726852 331.35966265099978 0 331.35966265099978 -269.54250444353329 0 0 0 0 -34.590042100217033 70.876452588630627 0 70.876452588630627 -324.0057231806004 0 0 0 0 -20.181341762166994 193.46326077813865 0 193.46326077813865 -179.68520142470652 0 0 0 0 -52.319078322601854 88.261310291656628 0 88.261310291656628 -276.44190388898278 0 0 0 0 5.5979388289569272 0.67639247144082049 0 0.67639247144082049 -1.4768822387880682 0 0 0 0 -8.2774114460044075 175.24616086760034 0 175.24616086760034 -459.10767003009914 0 0 0 0 2.9984502494335175 293.57663279006238 0 293.57663279006238 -509.14701287658818 0 0 0 0 60.292941770745529 140.70012207218019 0 140.70012207218019 -389.39494769075463 0 0 0 0 7.6703256999753648 305.13424861248859 0 305.13424861248859 -175.60506796892241 0 0 0 0 119.80283939278161 188.63528964797365 0 188.63528964797365 -412.14189886091481 0 0 0 0 7.3553556825499982 56.876079869577097 0 56.876079869577097 -492.05959857305515 0 0 0 0 151.47538744994381 168.05847877245378 0 168.05847877245378 -407.66598875440104 0 0 0 0 172.07823527061555 210.82693806241514 0 210.82693806241514 -588.15653432040926 0 0 0 0 -39.9883697215555 335.42685577540578 0 335.42685577540578 -428.4922058174734 0 0 0 0 76.740633173911192 193.82220504867018 0 193.82220504867018 -284.07613258770652 0 0 0 0 -37.728739275065891 346.99849364193369 0 346.99849364193369 -147.22490122411773 0 0 0 0 -422.08166444090602 355.11256030199365 0 355.11256030199365 -248.6534493620311 0 0 0 0 -296.5221213209079 185.92353279166662 0 185.92353279166662 -2.3675099936845072 0 0 0 0 -44.189518249506364 183.22549514591401 0 183.22549514591401 -184.52917261563971 0 0 0 0 -231.26130653789733 66.695728758047153 0 66.695728758047153 -67.121022056786458 0 0 0 0 -366.9624928061603 229.73770852977486 0 229.73770852977486 -242.14133873121318 0 0 0 0 -534.66205403470667 119.84638233736587 0 119.84638233736587 -68.302368304833806 0 0 0 0 -597.54374446647853 365.89963582920609 0 365.89963582920609 -306.88834642499933 0 0 0 0 -788.42650809699262 392.61735338722974 0 392.61735338722974 -309.95444014092573 0 0 0 0 -312.05884137848625 415.66725309996582 0 415.66725309996582 -588.46642945736676 0 0 0 0 -51.255232881769189 277.5581941926921 0 277.5581941926921 -567.83443136925405 0 0 0 0 -1071.5041088365761 649.67341482880101 0 649.67341482880101 -513.44842298142612 0 0 0 0 -496.44786539531196 642.42794543327727 0 642.42794543327727 -983.79906187864253 0 0 0 0 -307.49507336686656 426.12412920573843 0 426.12412920573843 -811.97699862648005 0 0 0 0 -70.901612156856572 256.65914080655693 0 256.65914080655693 -503.29794248316284 0 0 0 0 -186.71659449642175 177.471242654663 0 177.471242654663 -608.5035249964094 0 0 0 0 -345.58773467340507 525.10124235795047 0 525.10124235795047 -439.76489198526542 0 0 0 0 -988.06278720529372 132.60028047932155 0 132.60028047932155 -625.7862908300558 0 0 0 0 57.7040533541076 -16.383212573552086 0 -16.383212573552086 361.76654476758029 0 0 0 0 59.761897418888111 169.07809821702813 0 169.07809821702813 -10.634743647396135 0 0 0 0 -145.80507404007949 -15.038297674766 0 -15.038297674766 128.18591856220019 0 0 0 0 -57.835531730739604 199.10917907486385 0 199.10917907486385 213.99420883664197 0 0 0 0 139.98769600389642 204.92406361156441 0 204.92406361156441 -72.039872566340136 0 0 0 0 305.4830319813118 303.66323854566662 0 303.66323854566662 239.272063531469 0 0 0 0 210.54484120317647 239.86806613586901 0 239.86806613586901 247.88139833902869 0 0 0 0 48.454895000009856 378.44206846824784 0 378.44206846824784 173.97014575041158 0 0 0 0 113.25013753225358 209.45647131980604 0 209.45647131980604 -120.5220102766466 0 0 0 0 122.28190070023629 430.37049987333796 0 430.37049987333796 412.31738149160583 0 0 0 0 208.67865457740209 492.54655526393867 0 492.54655526393867 857.7879035382623 0 0 0 0 540.16230072853068 507.00254955257128 0 507.00254955257128 666.02277770370756 0 0 0 0 239.5428380251933 341.78723280124655 0 341.78723280124655 541.05307884307081 0 0 0 0 209.45899085378187 386.42711288220266 0 386.42711288220266 651.31359455523443 0 0 0 0 299.56133092330128 366.09919048182746 0 366.09919048182746 502.9509276807679 0 0 0 0 98.193263627566921 226.07725543153981 0 226.07725543153981 468.28805702444379 0 0 0 0 218.61009668349288 352.01421831524334 0 352.01421831524334 538.98031974812363 0 0 0 0 55.918574325660302 312.38273528827347 0 312.38273528827347 536.16686202513051 0 0 0 0 68.198122531168337 232.48335602425229 0 232.48335602425229 547.71655719060925 0 0 0 0 46.230503774302633 234.82371344672219 0 234.82371344672219 550.85067322221846 0 0 0 0 196.11647568515036 189.24759755022978 0 189.24759755022978 311.45853911208405 0 0 0 0 -34.050870417820988 156.42235744727947 0 156.42235744727947 515.23427937222823 0 0 0 0 -2.2344033312745921 0.90816108267624429 0 0.90816108267624429 7.4474377233845974 0 0 0 0 -60.473428619428887 -153.80090149972 0 -153.80090149972 158.7562576154755 0 0 0 0 -26.635595497950817 286.4783346622861 0 286.4783346622861 697.44258735329117 0 0 0 0 -31.06125340172548 715.16913318572961 0 715.16913318572961 454.05522726301285 0 0 0 0 43.544162757540562 475.41650280255135 0 475.41650280255135 289.08131965270331 0 0 0 0 -17.218517520363093 391.55068268093737 0 391.55068268093737 190.72565483468259 0 0 0 0 -91.674556656245841 390.11023908085781 0 390.11023908085781 83.203910279205957 0 0 0 0 -19.420575820804743 442.30980986894735 0 442.30980986894735 110.49908824270096 0 0 0 0 -53.181072249979479 474.46789456913302 0 474.46789456913302 88.532507372763803 0 0 0 0 3.3479441809522541 480.35149135942237 0 480.35149135942237 5.004922090922264 0 0 0 0 77.735893757963822 521.81694419832263 0 521.81694419832263 111.14111107847293 0 0 0 0 -2.243832433312491 458.72750752084721 0 458.72750752084721 61.421121417178028 0 0 0 0 109.62618035745982 422.83112780391025 0 422.83112780391025 1.9302241231701913 0 0 0 0 153.44266094056002 522.67065305253402 0 522.67065305253402 176.79973947118015 0 0 0 0 201.22131824740063 320.63920337050502 0 320.63920337050502 127.28170644760462 0 0 0 0 83.376978949803743 439.95202856777564 0 439.95202856777564 19.127377559466822 0 0 0 0 56.563392530326382 380.8736815857003 0 380.8736815857003 378.91140584924165 0 0 0 0 3.6299146394667332 435.70726795383621 0 435.70726795383621 670.71503521212753 0 0 0 0 255.11591153030167 412.79102742101861 0 412.79102742101861 375.79160920661531 0 0 0 0 381.26178488546429 287.25116099671448 0 287.25116099671448 490.50180852831289 0 0 0 0 163.96260726514447 388.42454685196913 0 388.42454685196913 1062.2063252023338 0 0 0 0 -0.95772582118109995 -1.2878116827468915 0 -1.2878116827468915 5.7603497032952324 0 0 0 0 569.80909742636868 922.94557607072863 0 922.94557607072863 1042.882379670051 0 0 0 0 -210.25378331771935 -71.096322112252693 0 -71.096322112252693 367.14475494175491 0 0 0 0 -219.79468414207076 79.14176682020684 0 79.14176682020684 664.2992558892721 0 0 0 0 -64.971519692684524 135.51929546586172 0 135.51929546586172 306.29286035525706 0 0 0 0 -100.74844346581085 251.30269311540258 0 251.30269311540258 347.56006366156407 0 0 0 0 -132.62182743535959 390.31743045488156 0 390.31743045488156 203.12650392428441 0 0 0 0 56.585076386571018 263.88950389759987 0 263.88950389759987 125.70726220054212 0 0 0 0 -48.098732480295439 210.67191935706774 0 210.67191935706774 355.77330190107534 0 0 0 0 -79.42941320790851 101.9647891532079 0 101.9647891532079 295.52502669878976 0 0 0 0 -198.31497793829476 162.23684261088511 0 162.23684261088511 286.73795411633728 0 0 0 0 -108.03123232879443 416.53645198132722 0 416.53645198132722 159.48542854311881 0 0 0 0 -201.90308479200758 307.69230183273271 0 307.69230183273271 -39.340548143866727 0 0 0 0 -536.70592726994073 345.45617706371036 0 345.45617706371036 141.6295749663991 0 0 0 0 -370.60692862998258 286.99387173155355 0 286.99387173155355 -102.49466126483617 0 0 0 0 -297.47111861165467 432.37541473982469 0 432.37541473982469 115.58845398637868 0 0 0 0 -193.71201321593981 297.71823251733895 0 297.71823251733895 17.102029244999585 0 0 0 0 -153.82563731145638 62.695363581457286 0 62.695363581457286 40.984494506382134 0 0 0 0 -551.07062555938501 302.66574525090539 0 302.66574525090539 140.59677225949417 0 0 0 0 -1024.838932510087 411.33514826955081 0 411.33514826955081 156.89600040980656 0 0 0 0 -804.95275028034666 228.85693126988349 0 228.85693126988349 143.1658605130774 0 0 0 0 -788.6489255388442 395.08198058952348 0 395.08198058952348 -131.23599849275615 0 0 0 0 -4.8838141131090538 1.3372431338908477 0 1.3372431338908477 0.45646276921426754 0 0 0 0 -114.06265963178157 213.1458050324502 0 213.1458050324502 -889.20160459048634 0 0 0 0 -535.95978958380874 213.96301488085214 0 213.96301488085214 904.50414328744273 0 0 0 0 -568.76535004969628 343.04721850091914 0 343.04721850091914 612.0133559519254 0 0 0 0 -519.90502394307714 462.44445155219614 0 462.44445155219614 105.38404554775843 0 0 0 0 -173.40604608313151 194.39069885822983 0 194.39069885822983 116.11068862308684 0 0 0 0 -450.96745309895778 175.30836552433175 0 175.30836552433175 127.66106023463988 0 0 0 0 -334.94919838750502 309.9566185691117 0 309.9566185691117 360.31629095070184 0 0 0 0 -145.28204556330456 345.70815245388872 0 345.70815245388872 84.522776179437642 0 0 0 0 -118.89019206650846 451.1877391087437 0 451.1877391087437 61.677071112354952 0 0 0 0 -293.82053770821949 340.67409983475955 0 340.67409983475955 155.13366104532133 0 0 0 0 -326.93925854140252 268.2722523389084 0 268.2722523389084 121.60940463224233 0 0 0 0 -272.79330434238182 413.45161635950541 0 413.45161635950541 94.522769539486035 0 0 0 0 -93.488234104952426 405.10163211982763 0 405.10163211982763 29.713451818431167 0 0 0 0 -45.482537823423627 410.00215539033707 0 410.00215539033707 28.215650887902939 0 0 0 0 10.333469024248188 443.45473160453639 0 443.45473160453639 -69.272897209739313 0 0 0 0 132.88353390955308 481.14327524017426 0 481.14327524017426 -60.352775445565385 0 0 0 0 -7.2967872816589079 293.65746616576939 0 293.65746616576939 36.094245412725286 0 0 0 0 140.48911993543152 392.18887140726747 0 392.18887140726747 19.552581026379585 0 0 0 0 121.54508502714452 414.07293953018052 0 414.07293953018052 217.91587550541226 0 0 0 0 -298.08775378397695 280.69423237367255 0 280.69423237367255 65.739315153619827 0 0 0 0 -152.87219079331408 258.55370678977033 0 258.55370678977033 -80.344732981709058 0 0 0 0 -94.431479461156414 397.97639436185023 0 397.97639436185023 -70.445357334260734 0 0 0 0 -312.94610050660413 200.74331161167515 0 200.74331161167515 -240.24647949484097 0 0 0 0 -633.53509012350696 671.34931569318451 0 671.34931569318451 -296.89779621124444 0 0 0 0 -452.4001184730223 166.72301347224266 0 166.72301347224266 1832.1013230608396 0 0 0 0 -3.0804935699810869 4.0205726897783842 0 4.0205726897783842 0.68643901591540835 0 0 0 0 28.435713153950928 502.07197218796023 0 502.07197218796023 -1463.9364061366814 0 0 0 0 -300.57583577663172 371.05124875507136 0 371.05124875507136 283.99042238917718 0 0 0 0 29.680217354587512 -369.83753988336002 0 -369.83753988336002 523.29403498750389 0 0 0 0 33.063643174300523 377.55060496863416 0 377.55060496863416 -63.169879803130243 0 0 0 0 6.661738752904796 7.9615370057433257 0 7.9615370057433257 5.9100177982533495 0 0 0 0 -34.150405508804397 -31.617928494149965 0 -31.617928494149965 650.49161812666534 0 0 0 0 -269.12105189729118 54.966555455447633 0 54.966555455447633 158.86372475056123 0 0 0 0 -44.908781483045459 410.37090221851395 0 410.37090221851395 57.661034085884239 0 0 0 0 -5.0785815678245854 360.05554368896537 0 360.05554368896537 -503.80855176162186 0 0 0 0 151.22834914977284 388.88779820462753 0 388.88779820462753 -58.12947900571271 0 0 0 0 3.7440967933944194 187.35412691775582 0 187.35412691775582 43.650596640818549 0 0 0 0 133.50659019455406 222.4645765378732 0 222.4645765378732 53.127145747555915 0 0 0 0 191.79267607153452 273.04884592293092 0 273.04884592293092 -43.377243251583423 0 0 0 0 179.82100033616553 320.44036638804982 0 320.44036638804982 -51.950821975256986 0 0 0 0 196.07043732819147 354.12296971978412 0 354.12296971978412 -13.630621708036415 0 0 0 0 453.84829996670305 317.56001797138197 0 317.56001797138197 -63.002176346672059 0 0 0 0 735.49841440143427 542.80701852418565 0 542.80701852418565 22.530681851918416 0 0 0 0 -157.01454812302109 312.88687228882554 0 312.88687228882554 135.89865291594469 0 0 0 0 -180.78263924510247 377.00012717802565 0 377.00012717802565 56.953855965450884 0 0 0 0 2.2250784070274108 4.1687141608307456 0 4.1687141608307456 3.9005566079425371 0 0 0 0 -363.4722943545712 488.79383692932606 0 488.79383692932606 -347.74755661699783 0 0 0 0 -56.43006409733789 851.11463074200219 0 851.11463074200219 -459.56634757202482 0 0 0 0 752.66035353520419 116.5095101633633 0 116.5095101633633 -2071.6471403139922 0 0 0 0 0.10771063658546609 5.8879023169506581 0 5.8879023169506581 -1.5307601745661445 0 0 0 0 449.89790923634428 706.45154575635752 0 706.45154575635752 -523.30605299484523 0 0 0 0 726.50508077201084 113.89178933181756 0 113.89178933181756 -239.57606232396392 0 0 0 0 -58.696269719595875 -371.70144809643989 0 -371.70144809643989 -1298.3461715980447 0 0 0 0 561.43683032697299 450.29475168908175 0 450.29475168908175 -1805.7539827776636 0 0 0 0 -571.46012029744452 893.82657853070668 0 893.82657853070668 950.83081710561646 0 0 0 0 -737.82501372133993 855.40436838198912 0 855.40436838198912 651.95129165743128 0 0 0 0 254.23707214331444 880.18369124947469 0 880.18369124947469 625.60080684461718 0 0 0 0 -238.82342919318398 279.84016728965707 0 279.84016728965707 -163.59263199044653 0 0 0 0 113.49539700052264 807.72929575569106 0 807.72929575569106 400.47654461792627 0 0 0 0 -174.15227756233799 156.06406162536314 0 156.06406162536314 65.17096765143242 0 0 0 0 -141.81787625050492 229.59686516785405 0 229.59686516785405 171.35589702584002 0 0 0 0 -129.50984557493211 -128.73464003649497 0 -128.73464003649497 874.9895297749672 0 0 0 0 227.51638374369941 321.95507150246885 0 321.95507150246885 646.80426574305193 0 0 0 0 6.5467917591070091 9.074482402605387 0 9.074482402605387 7.0096154030247 0 0 0 0 -5.4698203212063845 12.29391358931629 0 12.29391358931629 2.6887102264461191 0 0 0 0 -231.7897295714065 -245.4287848183294 0 -245.4287848183294 1683.291864781826 0 0 0 0 -162.94828695196702 454.63922118955281 0 454.63922118955281 -258.69686918068601 0 0 0 0 -162.85311446944979 61.693389418477636 0 61.693389418477636 -528.43930360862714 0 0 0 0 -94.832641498855082 254.82993461072419 0 254.82993461072419 -111.23999592703649 0 0 0 0 142.01429354853462 289.8192066170775 0 289.8192066170775 -666.84726373571721 0 0 0 0 -131.7864691951836 235.82691708684433 0 235.82691708684433 -85.092992637186853 0 0 0 0 -208.31988479434222 183.04326982991006 0 183.04326982991006 -110.95600012525915 0 0 0 0 -104.95781947168871 213.94638194287984 0 213.94638194287984 -123.43036269455388 0 0 0 0 -4.8766859851530171 21.589172426239564 0 21.589172426239564 0.26722559685803171 0 0 0 0 -113.99202884144324 162.41301997624942 0 162.41301997624942 -195.65334339972844 0 0 0 0 -136.98122349661935 -122.74769133604468 0 -122.74769133604468 1795.9793287910707 0 0 0 0 201.87536596230348 397.31415293975806 0 397.31415293975806 1379.1028425067216 0 0 0 0 -4.4819935582040813 14.911300362173392 0 14.911300362173392 -5.979140380508376 0 0 0 0 -128.47509809822077 422.94316170068487 0 422.94316170068487 1519.82065223881 0 0 0 0 -167.740766170813 341.27381346504808 0 341.27381346504808 1536.9540722212878 0 0 0 0 -153.82614211081818 104.59961563061324 0 104.59961563061324 -119.6098899321014 0 0 0 0 -2.1927333970670588 90.667911334052064 0 90.667911334052064 -150.3520024788495 0 0 0 0 -77.486013343220918 55.173619817927879 0 55.173619817927879 -13.339395301499064 0 0 0 0 -257.68634818578721 295.68736730972341 0 295.68736730972341 111.17466984725525 0 0 0 0 -275.34445825645525 369.88280142267195 0 369.88280142267195 -50.962864778355197 0 0 0 0 -153.0827358113238 245.47821518584442 0 245.47821518584442 -180.75312265306184 0 0 0 0 -596.21265438251612 -69.757133730345117 0 -69.757133730345117 176.59975983475942 0 0 0 0 -12.734681149968509 3.6469169836723694 0 3.6469169836723694 7.1522245004737428 0 0 0 0 -396.06845269307087 113.25223694621673 0 113.25223694621673 629.50305735241909 0 0 0 0 -78.000184247035065 52.403215097590675 0 52.403215097590675 -27.158247033598315 0 0 0 0 -199.66072029068891 52.299754988781388 0 52.299754988781388 189.60800098764048 0 0 0 0 -220.82110193482367 32.701484494809847 0 32.701484494809847 173.15918348540799 0 0 0 0 143.50191982407705 121.40413894474113 0 121.40413894474113 -47.525276759281041 0 0 0 0 7.6599023070884869 204.1843391749062 0 204.1843391749062 376.68010355719798 0 0 0 0 275.67195268907381 465.20832551584181 0 465.20832551584181 -56.531316988186461 0 0 0 0 -88.427609137885156 423.33539701097152 0 423.33539701097152 621.34546935122944 0 0 0 0 316.67464962505619 87.46157420587042 0 87.46157420587042 434.64981540848839 0 0 0 0 -6.5527218861305414 13.066710299876391 0 13.066710299876391 -11.427265490096252 0 0 0 0 -89.886305860985885 -44.528552863815207 0 -44.528552863815207 -3.7532563458726145 0 0 0 0 198.46223373121757 125.92569389861251 0 125.92569389861251 -312.21196889292582 0 0 0 0 -49.097835947803588 52.734245611616551 0 52.734245611616551 -50.523451804774105 0 0 0 0 61.491452992555423 1164.9123105258313 0 1164.9123105258313 827.98898159715827 0 0 0 0 -1858.2616510074877 561.7626949596015 0 561.7626949596015 980.73331710721072 0 0 0 0 1412.296092626435 500.77194486204553 0 500.77194486204553 -1938.8758283881343 0 0 0 0 1463.30734858192 1749.2054035256633 0 1749.2054035256633 -580.35667848376397 0 0 0 0 -26.72892407495614 40.133334586897384 0 40.133334586897384 -52.717143659284282 0 0 0 0 -26.084580955350248 481.42053415040618 0 481.42053415040618 -161.00720601807529 0 0 0 0 -290.91795277733399 -106.63242473576975 0 -106.63242473576975 201.35772060929958 0 0 0 0 -162.19204623651785 -106.31615925552978 0 -106.31615925552978 -22.700038845465315 0 0 0 0 -264.82559469870466 -105.34560741361383 0 -105.34560741361383 139.40170974553348 0 0 0 0 -506.1813680709638 -109.0724027733163 0 -109.0724027733163 418.25534856865488 0 0 0 0 -453.06731566204689 -229.0693097357871 0 -229.0693097357871 115.92479687856735 0 0 0 0 -930.51184699674377 -1001.8610658246421 0 -1001.8610658246421 -1130.4091023999463 0 0 0 0 -15.627390420449956 -110.49349997183162 0 -110.49349997183162 -23.422522912140266 0 0 0 0 -177.55657424186938 -398.53501309834155 0 -398.53501309834155 -441.40291023904865 0 0 0 0 273.40232173665936 106.59130112349067 0 106.59130112349067 -366.09691907326487 0 0 0 0 268.35987577184278 350.8643040842835 0 350.8643040842835 -665.32707784313789 0 0 0 0 -48.505003075000772 50.013655237190321 0 50.013655237190321 -54.095846717914768 0 0 0 0 87.115360466323182 422.47481504948655 0 422.47481504948655 146.31660826010557 0 0 0 0 -37.86148444417384 39.998013976539738 0 39.998013976539738 -35.969458769358411 0 0 0 0 -171.90172857192192 -267.0206629062186 0 -267.0206629062186 109.92916962839445 0 0 0 0 -1389.7166084429628 883.64171429426824 0 883.64171429426824 -934.68124323267807 0 0 0 0 -1722.9057159131407 53.939963674523824 0 53.939963674523824 381.19144494802731 0 0 0 0 -19.725137058066608 11.192024710420059 0 11.192024710420059 -7.0214912206997724 0 0 0 0 -204.53535282427765 -413.11817327443623 0 -413.11817327443623 -767.65548265387588 0 0 0 0 -44.450507458785978 444.6089169396447 0 444.6089169396447 441.35685441541682 0 0 0 0 917.26986600820965 -231.19021699973928 0 -231.19021699973928 -399.64455231134525 0 0 0 0 -1813.7194790032299 467.78494878814081 0 467.78494878814081 668.78172097853167 0 0 0 0 -9.3073039332838334 11.282747039618442 0 11.282747039618442 -15.250024308280086 0 0 0 0 -207.7766752216703 -1002.7798608890953 0 -1002.7798608890953 -1567.5281384709365 0 0 0 0 -1859.7438820051866 227.88280005862907 0 227.88280005862907 694.08390572796156 0 0 0 0 357.53359182459099 777.83475672451095 0 777.83475672451095 -1189.8208137859292 0 0 0 0 189.27043488119443 -194.22703581794826 0 -194.22703581794826 -290.38472199022362 0 0 0 0 334.38633906787209 965.60203313466161 0 965.60203313466161 -113.75321574064947 0 0 0 0 -19.461940055407467 33.948648792415156 0 33.948648792415156 -47.302024385016004 0 0 0 0 229.43094287926942 -361.16281586881632 0 -361.16281586881632 -1283.5985466274287 0 0 0 0 -110.08590014475989 47.594788145235043 0 47.594788145235043 9.3901583772396329 0 0 0 0 -1124.8115467048883 242.20535811130685 0 242.20535811130685 -186.93354697933682 0 0 0 0 -2041.1965208207257 -293.5492035827383 0 -293.5492035827383 757.24493030835401 0 0 0 0 261.1243859386924 721.39781651652993 0 721.39781651652993 -21.284161753013905 0 0 0 0 -8.2533011600009409 9.2490457811503717 0 9.2490457811503717 -9.9498460847867136 0 0 0 0 -1661.1939301353868 853.76452556395452 0 853.76452556395452 859.60216152744397 0 0 0 0 224.65075550418987 -132.01076423920154 0 -132.01076423920154 -257.64126272902649 0 0 0 0 108.69283045042789 -756.88390737121972 0 -756.88390737121972 -1083.4667299100765 0 0 0 0 496.450366922174 310.9408379732281 0 310.9408379732281 -578.53230043743315 0 0 0 0 -24.563269818875106 30.684087222068044 0 30.684087222068044 -13.396985473062163 0 0 0 0 -43.523163948162953 49.592612322585587 0 49.592612322585587 -57.475693791666245 0 0 0 0 190.52479249233875 992.5304362169536 0 992.5304362169536 -1183.1255745287267 0 0 0 0 -1221.2078390364363 61.056241095267978 0 61.056241095267978 202.57054745435016 0 0 0 0 -260.89064497736399 -46.459162796978489 0 -46.459162796978489 113.08585035673786 0 0 0 0 -269.08053727546758 73.612329194202175 0 73.612329194202175 -138.9927349491627 0 0 0 0 147.60531415333935 329.77632070922846 0 329.77632070922846 -201.68258992374467 0 0 0 0 -39.147636689971861 4.8473620384463914 0 4.8473620384463914 33.244912148550185 0 0 0 0 507.62661795576787 1289.5917583323462 0 1289.5917583323462 -1829.8868724028289 0 0 0 0 -787.75350624803104 453.24434294940147 0 453.24434294940147 -110.55086243872211 0 0 0 0 -256.7391741534725 119.8156483077546 0 119.8156483077546 -28.650316120318166 0 0 0 0 -8.3318935009092208 10.213773667009164 0 10.213773667009164 -1.9544741285478722 0 0 0 0 79.248915305912305 152.20098824367597 0 152.20098824367597 310.50704551330273 0 0 0 0 131.82270524578144 263.52049697445 0 263.52049697445 268.15748317859106 0 0 0 0 -1222.750995820867 -287.23998939146804 0 -287.23998939146804 82.579599358242376 0 0 0 0 366.62024559760857 501.01131560998601 0 501.01131560998601 448.71178600803614 0 0 0 0 -3.8172174944618789 3.230449929066495 0 3.230449929066495 -1.08710944550009 0 0 0 0 -705.09278694453951 -108.43513700293988 0 -108.43513700293988 135.65888663229998 0 0 0 0 -1465.8509614757036 -119.81545393826491 0 -119.81545393826491 292.51730455950747 0 0 0 0 -22.05049751793274 24.588276773618091 0 24.588276773618091 -23.006701393360515 0 0 0 0 -214.71570974477572 301.32502892697084 0 301.32502892697084 572.72643358311325 0 0 0 0 -270.32943019173285 416.8608399095674 0 416.8608399095674 458.10211611019622 0 0 0 0 -1200.9025927913908 -167.6700668578469 0 -167.6700668578469 300.22507286220389 0 0 0 0 -285.51026501577326 337.95043692738909 0 337.95043692738909 96.875428403756814 0 0 0 0 -468.08731002878449 -25.539032350490743 0 -25.539032350490743 278.4700615650363 0 0 0 0 -126.14202925374912 105.54628895627229 0 105.54628895627229 405.75357384982635 0 0 0 0 -195.47152927252955 -85.313066070088098 0 -85.313066070088098 223.93461772412229 0 0 0 0 -1.7076330570730924 -0.89223928011634968 0 -0.89223928011634968 -0.068113656662603717 0 0 0 0 -271.95363992061766 61.789953511570275 0 61.789953511570275 47.217827795473568 0 0 0 0 -372.05290178087034 243.34732469858318 0 243.34732469858318 161.7891592216738 0 0 0 0 -578.56742322770469 170.17344160639004 0 170.17344160639004 145.42867497971019 0 0 0 0 160.43198671680875 380.24623577809143 0 380.24623577809143 -19.237281101413828 0 0 0 0 -258.38888870252595 527.12924279806612 0 527.12924279806612 448.15320150072148 0 0 0 0 -712.49403348214764 -90.650375718087162 0 -90.650375718087162 290.37285451916978 0 0 0 0 -266.99127869739914 181.18715909043749 0 181.18715909043749 234.42489131398179 0 0 0 0 -361.87182354071138 -63.576873137979419 0 -63.576873137979419 164.67588221965707 0 0 0 0 -861.07330395464487 180.82175231603833 0 180.82175231603833 45.13346569697751 0 0 0 0 -506.13604457735164 -9.1402874952509592 0 -9.1402874952509592 -356.47135026180695 0 0 0 0 -978.1577994097097 896.72854250690216 0 896.72854250690216 -735.25342787672162 0 0 0 0 -846.5581973291537 480.09821434308833 0 480.09821434308833 224.94805446380633 0 0 0 0 -933.31889088562184 376.32977927164939 0 376.32977927164939 104.57719394285959 0 0 0 0 -290.63042918735209 -293.59861803268905 0 -293.59861803268905 343.87433546624379 0 0 0 0 -415.6232445266387 -468.23819108161842 0 -468.23819108161842 532.53994531000353 0 0 0 0 10.275408357047127 197.19453833943771 0 197.19453833943771 45.387039408137753 0 0 0 0 -36.308585801614754 1097.5486924243996 0 1097.5486924243996 1190.6856161896794 0 0 0 0 803.04588502038314 1119.5055068009096 0 1119.5055068009096 222.40909285319503 0 0 0 0 183.80017636244156 219.5597089333678 0 219.5597089333678 630.54277868754798 0 0 0 0 1145.3870150376461 17.978060168868979 0 17.978060168868979 386.43088597020687 0 0 0 0 350.44656909133118 717.01759028925153 0 717.01759028925153 325.1535013500179 0 0 0 0 -24.529287294613557 29.018652464220935 0 29.018652464220935 -27.778442244060088 0 0 0 0 618.54648533755699 218.6685992087605 0 218.6685992087605 -72.204847259774397 0 0 0 0 -385.01655891655173 316.37184709328722 0 316.37184709328722 345.96925865988305 0 0 0 0 -286.73374612265934 453.40674351368853 0 453.40674351368853 9.0292993134717108 0 0 0 0 -14.277884591710517 393.19771940766987 0 393.19771940766987 492.23275295482017 0 0 0 0 44.664447591239878 215.08841173952896 0 215.08841173952896 144.99445798286979 0 0 0 0 148.0644803705336 60.242942730343202 0 60.242942730343202 -236.08247489260975 0 0 0 0 -292.28426196027249 290.97382476679559 0 290.97382476679559 -583.70423742429557 0 0 0 0 -193.566421634785 10.516538545751246 0 10.516538545751246 96.793991608774377 0 0 0 0 718.52302960564612 621.04450466954586 0 621.04450466954586 144.29543294270115 0 0 0 0 775.68787094839081 125.26228562771576 0 125.26228562771576 167.47908567337436 0 0 0 0 564.22071340879847 325.47349926132665 0 325.47349926132665 -4.5520725553797092 0 0 0 0 6.2094516439519793 136.47634903879225 0 136.47634903879225 171.94736339344308 0 0 0 0 440.86554765980236 542.13432917341925 0 542.13432917341925 331.55786614247336 0 0 0 0 -31.149875527919903 3.7277744610073569 0 3.7277744610073569 329.47446350105866 0 0 0 0 -261.59292181614092 -285.30878436337662 0 -285.30878436337662 -455.36025760028133 0 0 0 0 -190.3328980422084 -46.196268110237725 0 -46.196268110237725 -25.031106538313907 0 0 0 0 -92.859814482955699 -242.98064748697288 0 -242.98064748697288 -136.60003337293529 0 0 0 0 -25.527505827053545 10.69384023740502 0 10.69384023740502 -9.8050019975258067 0 0 0 0 -684.36580682425301 -189.14765181780967 0 -189.14765181780967 -121.02190611711194 0 0 0 0 -998.28304328582817 313.65358716075571 0 313.65358716075571 112.35808782301319 0 0 0 0 -527.48155397160735 53.536651164155046 0 53.536651164155046 239.22440896212879 0 0 0 0 -765.56563581962359 -141.09285309557936 0 -141.09285309557936 169.66816066781394 0 0 0 0 -67.550295767314594 50.7030926284868 0 50.7030926284868 -31.302275725105488 0 0 0 0 -505.63739698748395 652.55095000427355 0 652.55095000427355 -189.15041325565426 0 0 0 0 -5.0239308914138263 5.5411815859804889 0 5.5411815859804889 -3.2044558114982991 0 0 0 0 -788.14905350806657 345.67912053221153 0 345.67912053221153 1513.50460890057 0 0 0 0 -175.77352705631347 689.51151718417896 0 689.51151718417896 -1247.7651455550331 0 0 0 0 -472.25598631103344 525.11498124953005 0 525.11498124953005 -221.44396304033944 0 0 0 0 -1163.2659111412067 -139.99870765876403 0 -139.99870765876403 17.824485802864729 0 0 0 0 -324.04587012062984 391.1459871674233 0 391.1459871674233 -506.38082178658533 0 0 0 0 -583.45911014228477 299.52728575443871 0 299.52728575443871 161.92171961143686 0 0 0 0 -695.41450594594062 974.60638519921122 0 974.60638519921122 -411.68329166039621 0 0 0 0 -84.899581658979514 75.093741286164914 0 75.093741286164914 -28.621871285329689 0 0 0 0 132.11025581780996 134.35985720691679 0 134.35985720691679 -362.37177179523133 0 0 0 0 -21.127343479473524 19.396736248533429 0 19.396736248533429 -14.545881258639824 0 0 0 0 -89.825872753473959 50.340187026840795 0 50.340187026840795 -33.303891956275038 0 0 0 0 -350.51974349605371 -171.57283665825526 0 -171.57283665825526 -123.2215474243676 0 0 0 0 -47.212592953436392 43.987591520638205 0 43.987591520638205 -43.817968725212012 0 0 0 0 -95.486746003727177 48.535074678578482 0 48.535074678578482 10.6666377993512 0 0 0 0 -22.556146259012166 -318.43757947741551 0 -318.43757947741551 527.8590873267533 0 0 0 0 -115.07715756125253 76.159028459742331 0 76.159028459742331 -59.697073122504662 0 0 0 0 -19.16005923547533 29.677576133477615 0 29.677576133477615 -18.502265114534339 0 0 0 0 186.10532770217105 -68.711835881786101 0 -68.711835881786101 -245.80223519072752 0 0 0 0 106.45553272784582 23.169985131247813 0 23.169985131247813 -248.750121183999 0 0 0 0 -273.70417347959301 -37.107260373591998 0 -37.107260373591998 -199.42984892345885 0 0 0 0 -246.14061421728911 -225.60026038112846 0 -225.60026038112846 -306.06368258261136 0 0 0 0 -336.50193877568199 -112.18411060062863 0 -112.18411060062863 -166.48233514908497 0 0 0 0 -66.247058011909758 90.814910944768599 0 90.814910944768599 -25.68485911638345 0 0 0 0 -1265.6460084896535 -764.59928350256416 0 -764.59928350256416 1541.4070070647997 0 0 0 0 -91.817871572582504 67.081646080974792 0 67.081646080974792 -9.0499971451610115 0 0 0 0 -76.367376057516623 51.884618388305995 0 51.884618388305995 -20.262681817245465 0 0 0 0 124.7636317686929 91.423554392529695 0 91.423554392529695 -585.14876943517811 0 0 0 0 249.40735886201583 -69.109576579370696 0 -69.109576579370696 -57.005832947781983 0 0 0 0 -100.505731256958 54.86562158005276 0 54.86562158005276 -5.3442141705437542 0 0 0 0 -60.317175742014967 52.248284080583076 0 52.248284080583076 -35.365196589925375 0 0 0 0 938.03178884305089 -122.85967112457274 0 -122.85967112457274 -666.250884011469 0 0 0 0 -104.52328531275271 2313.337933697775 0 2313.337933697775 -408.33442100248413 0 0 0 0 291.97381895359285 17.782486419307759 0 17.782486419307759 -1256.4200652590689 0 0 0 0 -1207.0172295495158 921.9182626613665 0 921.9182626613665 -424.49814967298607 0 0 0 0 -375.56750672491034 443.69585448774922 0 443.69585448774922 -163.38958299807223 0 0 0 0 -883.10678426026061 -50.006162473828766 0 -50.006162473828766 220.39762347759756 0 0 0 0 -1563.925973143505 73.709916635172277 0 73.709916635172277 200.9466541919744 0 0 0 0 -8.7860142607711964 14.248987123294256 0 14.248987123294256 -22.921792874677461 0 0 0 0 170.71135131183109 -105.49913912268016 0 -105.49913912268016 129.70377150993761 0 0 0 0 -126.73815088941774 63.434200995346032 0 63.434200995346032 -28.542660013059617 0 0 0 0 -19.273237251076502 16.722308693700839 0 16.722308693700839 0.78294145550513683 0 0 0 0 248.13354797397551 -328.08833254711141 0 -328.08833254711141 -332.42606872437659 0 0 0 0 145.28897691531893 -340.91563773510859 0 -340.91563773510859 298.5586546437853 0 0 0 0 -81.85519638988626 283.5728594147206 0 283.5728594147206 -183.98425340940639 0 0 0 0 -299.42015200684364 221.93816788710757 0 221.93816788710757 34.237456313944676 0 0 0 0 243.48458719447808 28.30725249735417 0 28.30725249735417 -14.333334393001905 0 0 0 0 1.0722545898181011 -1.4358394716186211 0 -1.4358394716186211 3.4436647992473546 0 0 0 0 43.641639334760839 84.005885171643953 0 84.005885171643953 -24.363110640445697 0 0 0 0 18.610216389562993 152.18274179957385 0 152.18274179957385 82.277077786556291 0 0 0 0 -55.299586532673857 137.86355464279066 0 137.86355464279066 266.70866958189958 0 0 0 0 -51.608885690686293 62.638399967673763 0 62.638399967673763 -26.558311843721299 0 0 0 0 -68.446454365650425 6.457626440597096 0 6.457626440597096 20.629359017438162 0 0 0 0 -16.270026079218951 62.020154755439904 0 62.020154755439904 -9.8792556627668091 0 0 0 0 -39.720532462830306 31.796693321220687 0 31.796693321220687 16.847842008964562 0 0 0 0 -81.607009008919704 25.084775455843214 0 25.084775455843214 -7.7106381360901395 0 0 0 0 -41.839654264054843 13.253489168523515 0 13.253489168523515 -58.482056212026237 0 0 0 0 -50.571538853284437 92.954051931197569 0 92.954051931197569 21.49161957544797 0 0 0 0 -49.174539478546649 76.558607087792637 0 76.558607087792637 76.001925551280181 0 0 0 0 -84.008144365128828 60.759465842867598 0 60.759465842867598 14.459758939643166 0 0 0 0 -42.552782934559218 99.714425455317254 0 99.714425455317254 37.70713291196239 0 0 0 0 -24.640551740718365 81.283824128526575 0 81.283824128526575 19.357793364839154 0 0 0 0 -35.427790379282669 126.63920429835082 0 126.63920429835082 101.82115813605151 0 0 0 0 -66.715221542875952 41.917292504353341 0 41.917292504353341 263.07644276459246 0 0 0 0 -53.98058281624435 74.716840021345718 0 74.716840021345718 97.358977402759706 0 0 0 0 -96.875294818550174 46.869911943732674 0 46.869911943732674 49.152356587780815 0 0 0 0 -69.554384546267102 89.692581592032383 0 89.692581592032383 107.49546557418347 0 0 0 0 -79.371708742997725 31.085246516478968 0 31.085246516478968 62.634958329460652 0 0 0 0 -212.69784068042804 -174.81318847210642 0 -174.81318847210642 18.219292077478713 0 0 0 0 -19.882749890833082 23.286255952227322 0 23.286255952227322 0.9808581257976452 0 0 0 0 -17.449588408489575 16.535942845452613 0 16.535942845452613 7.8520822940245898 0 0 0 0 -12.152054972742917 19.105361674312007 0 19.105361674312007 -43.966117559277336 0 0 0 0 -74.29682953003794 21.623174386822228 0 21.623174386822228 44.59371673475809 0 0 0 0 -34.946173426476889 73.839622909710044 0 73.839622909710044 -9.95547643506859 0 0 0 0 -52.730552658707893 50.237330170205055 0 50.237330170205055 48.192474327049467 0 0 0 0 -8.4597506515439136 3.6669098095568131 0 3.6669098095568131 -13.89106919827001 0 0 0 0 48.797338033829874 273.83748282739543 0 273.83748282739543 -892.65623373475682 0 0 0 0 132.17906265553756 273.83963565463819 0 273.83963565463819 -942.57193516432744 0 0 0 0 -47.363151499248943 39.935792347751828 0 39.935792347751828 11.212551231550632 0 0 0 0 326.59287829702953 66.338576053796714 0 66.338576053796714 -2139.7468165034225 0 0 0 0 -148.23347224394092 508.07256311013771 0 508.07256311013771 -830.61137640955803 0 0 0 0 -526.48281434963792 656.34942489824971 0 656.34942489824971 -568.51504656053658 0 0 0 0 1016.3875496532237 79.857145521712482 0 79.857145521712482 -1052.8312638000098 0 0 0 0 -0.11193968935781839 2.9553409849920556 0 2.9553409849920556 -9.6975115499591453 0 0 0 0 -620.73562216547361 765.51905681764492 0 765.51905681764492 -800.22967570915353 0 0 0 0 324.42980607143545 385.11840841424055 0 385.11840841424055 -1187.3947457541053 0 0 0 0 -63.409480971291487 -27.416676522429043 0 -27.416676522429043 -23.983177775108743 0 0 0 0 -294.51307267271477 319.82595580860288 0 319.82595580860288 -132.0772538793135 0 0 0 0 -200.43269944029453 225.25338098952489 0 225.25338098952489 -246.8059594416809 0 0 0 0 -46.666864596183586 146.38522143797309 0 146.38522143797309 -327.25533828047264 0 0 0 0 -62.893712705284997 195.89239310284574 0 195.89239310284574 -423.71476871794948 0 0 0 0 -35.773812548832211 287.93256564184958 0 287.93256564184958 -539.43962685654878 0 0 0 0 -133.31241074353602 382.62965140426058 0 382.62965140426058 -470.81722747356253 0 0 0 0 -113.11359974194784 334.91930375692755 0 334.91930375692755 -497.63495148586298 0 0 0 0 -105.88569449246279 367.9774374459812 0 367.9774374459812 -533.49115751282807 0 0 0 0 -40.886895463976543 331.66639068998848 0 331.66639068998848 -604.5654119743017 0 0 0 0 -357.54211857675182 415.87438338285847 0 415.87438338285847 -451.81944677569845 0 0 0 0 -148.15044985682471 411.38011869598631 0 411.38011869598631 -594.99921471796506 0 0 0 0 -98.112284947390435 340.35539550818066 0 340.35539550818066 -521.23942858007649 0 0 0 0 -1.9051997267938816 -0.048881975022950996 0 -0.048881975022950996 1.5128989786082805 0 0 0 0 -48.675621066060557 43.657525772284828 0 43.657525772284828 -83.369525692338811 0 0 0 0 85.427327585886815 50.187467492138239 0 50.187467492138239 -370.27907772143226 0 0 0 0 -205.57510182595433 314.61716286471346 0 314.61716286471346 -419.17494543454995 0 0 0 0 -275.06847570741775 209.20872035393404 0 209.20872035393404 -69.060455827084297 0 0 0 0 -65.614959351544428 41.785153676208694 0 41.785153676208694 8.5631190543405662 0 0 0 0 -106.67865297268145 140.32128179095162 0 140.32128179095162 -221.45947213934232 0 0 0 0 -84.830562260263832 195.0631678219288 0 195.0631678219288 -793.85017303343193 0 0 0 0 -67.021032964694314 320.09486886935338 0 320.09486886935338 -733.48722348521551 0 0 0 0 -118.34895140402659 250.9471933459572 0 250.9471933459572 -640.84390776031069 0 0 0 0 -103.13782567356247 291.43087930844194 0 291.43087930844194 -536.00604042595569 0 0 0 0 201.29371653267299 493.63219372743765 0 493.63219372743765 512.17218011341902 0 0 0 0 189.6032994521338 494.50381276217149 0 494.50381276217149 594.83498054195661 0 0 0 0 248.69175295202695 429.42989287704802 0 429.42989287704802 349.25241244150675 0 0 0 0 249.34243670212163 299.22107829255719 0 299.22107829255719 328.24392155113674 0 0 0 0 332.19892338107456 345.16539675030344 0 345.16539675030344 77.547837693854149 0 0 0 0 178.21374423365341 397.92292874499071 0 397.92292874499071 636.91283135712365 0 0 0 0 357.86255238871672 431.57081751218197 0 431.57081751218197 418.62978942463724 0 0 0 0 511.53567815122369 414.39525157456501 0 414.39525157456501 533.64941892274192 0 0 0 0 239.73997091666661 401.44929913451858 0 401.44929913451858 571.64982837701791 0 0 0 0 299.77102479829045 406.49663862673833 0 406.49663862673833 549.44677975002833 0 0 0 0 262.88049981762379 361.92209256972956 0 361.92209256972956 833.43937693435146 0 0 0 0 540.35246713597735 631.55870860462483 0 631.55870860462483 695.27818873881188 0 0 0 0 -167.18862391011498 654.30494166072822 0 654.30494166072822 864.12785839057665 0 0 0 0 143.35912351998559 474.41500501325663 0 474.41500501325663 1250.68054722177 0 0 0 0 127.99134880177735 0.93063169113338517 0 0.93063169113338517 -37.709253898842917 0 0 0 0 5.4962787771802084 3.1585461661385814 0 3.1585461661385814 -7.7367358897949643 0 0 0 0 -12.179602994038348 19.534226671185429 0 19.534226671185429 8.7553907261018225 0 0 0 0 262.07271902362118 588.15033086478797 0 588.15033086478797 846.64029408519718 0 0 0 0 47.97979381244113 190.23887605817742 0 190.23887605817742 648.66726377078703 0 0 0 0 171.01345147253596 404.91569120740178 0 404.91569120740178 728.6292620218228 0 0 0 0 87.512813262092095 30.506645192443557 0 30.506645192443557 13.958900345682196 0 0 0 0 387.72455447574612 705.0150224805011 0 705.0150224805011 938.52820314325527 0 0 0 0 314.27029887789104 512.44503787762756 0 512.44503787762756 716.38034928874731 0 0 0 0 329.34448967382195 567.60144280983741 0 567.60144280983741 702.78054289392185 0 0 0 0 327.53286875612139 570.40688367271423 0 570.40688367271423 702.03163523876174 0 0 0 0 322.64858948595065 530.74742349704957 0 530.74742349704957 632.05381815159024 0 0 0 0 -2.1540852507218915 -4.5271757532464676 0 -4.5271757532464676 16.611954464773401 0 0 0 0 314.5759755871768 531.99242754576198 0 531.99242754576198 707.95474643639841 0 0 0 0 -92.254691831680248 15.792826049925822 0 15.792826049925822 47.883894771337509 0 0 0 0 -13.886641746195806 21.277883659958313 0 21.277883659958313 -7.2012793553846777 0 0 0 0 150.82968751748558 -141.95784879560597 0 -141.95784879560597 -1012.9967376901654 0 0 0 0 -15.374527337109612 28.229854053353847 0 28.229854053353847 -31.823394322147578 0 0 0 0 -0.36263106066269302 0.42765167299059215 0 0.42765167299059215 2.3333766914215346 0 0 0 0 219.82036547629104 -230.96541917527065 0 -230.96541917527065 -905.07813126541078 0 0 0 0 289.052004093081 -357.86988420490678 0 -357.86988420490678 -818.19606609440962 0 0 0 0 275.99454438897374 -85.317408913893814 0 -85.317408913893814 -808.67307290758981 0 0 0 0 314.85835154009692 219.87291959985669 0 219.87291959985669 294.84848098906332 0 0 0 0 368.01479299044877 -86.005431078292531 0 -86.005431078292531 -883.11672733557498 0 0 0 0 572.18213939134148 -400.49665759747313 0 -400.49665759747313 -496.2204227794864 0 0 0 0 -86.016249326625257 -332.85498276400176 0 -332.85498276400176 -523.34251192160445 0 0 0 0 -83.587892718118383 -283.83848651601147 0 -283.83848651601147 -801.58945387983113 0 0 0 0 -178.073818939185 -514.03795648850792 0 -514.03795648850792 -824.43181194952922 0 0 0 0 -190.58997383806854 -252.80321161976281 0 -252.80321161976281 -821.26937545957117 0 0 0 0 -14.597415849808527 21.855943244783674 0 21.855943244783674 -20.1305942442918 0 0 0 0 -544.83001647485071 318.42237416064199 0 318.42237416064199 83.212420308112542 0 0 0 0 564.58359374230349 495.58191886633358 0 495.58191886633358 111.50119986824211 0 0 0 0 -5.5883555056373382 5.8455730648353921 0 5.8455730648353921 -8.4780118196281862 0 0 0 0 -499.19483143257094 -916.17137193844155 0 -916.17137193844155 -1573.1250956938293 0 0 0 0 -402.34375245174306 440.42258574815241 0 440.42258574815241 -1329.9654468862871 0 0 0 0 213.02006514121604 190.71230551380177 0 190.71230551380177 -1698.8874840982517 0 0 0 0 -573.20693354227114 -694.31908050682614 0 -694.31908050682614 -912.51207142006569 0 0 0 0 223.91365663745091 -232.2895221773615 0 -232.2895221773615 -557.82644128505262 0 0 0 0 463.22430788383645 280.45951487616185 0 280.45951487616185 -617.60167877761342 0 0 0 0 204.00243350995879 427.64707912662095 0 427.64707912662095 -216.87467224908687 0 0 0 0 243.66903095871021 794.32764720388832 0 794.32764720388832 307.76083155177912 0 0 0 0 -18.665120384470356 700.79862822046107 0 700.79862822046107 292.05184731188456 0 0 0 0 619.39211996798986 594.51454824953908 0 594.51454824953908 -364.24178702589415 0 0 0 0 -49.791198260307283 1085.8385929374131 0 1085.8385929374131 -678.16139874005603 0 0 0 0 -397.4902718002304 -18.246394107569358 0 -18.246394107569358 11.449305193418695 0 0 0 0 -143.82769877247119 -118.39624586130685 0 -118.39624586130685 -319.64356459293049 0 0 0 0 -236.41526963060096 -247.71417216299915 0 -247.71417216299915 -303.64290972191156 0 0 0 0 -325.26197644021886 -60.126371962207486 0 -60.126371962207486 -234.25422125051358 0 0 0 0 -1140.0349506183629 -72.135585018862912 0 -72.135585018862912 -234.40648043259353 0 0 0 0 -508.93527120113504 223.90189899346251 0 223.90189899346251 59.762543978180474 0 0 0 0 -168.00705272355117 -8.4515171525599726 0 -8.4515171525599726 -28.982544935407532 0 0 0 0 -43.23687696664274 344.72240158266322 0 344.72240158266322 225.96983283737427 0 0 0 0 450.6428619361468 341.46633008370554 0 341.46633008370554 203.38891216920638 0 0 0 0 185.0024281667429 518.26420790923385 0 518.26420790923385 157.87035511638169 0 0 0 0 -4.9259971789288102 182.21540894466125 0 182.21540894466125 36.892427423294066 0 0 0 0 395.72871978131298 361.65860581024026 0 361.65860581024026 -245.12716678663855 0 0 0 0 -2.6746928453576402 351.59417303578994 0 351.59417303578994 -341.80644452378328 0 0 0 0 -164.33420365655184 -80.311782600685547 0 -80.311782600685547 -391.68613775388803 0 0 0 0 -105.982167477845 237.21994810568117 0 237.21994810568117 -44.036916879071214 0 0 0 0 71.436715533011011 186.23319302061464 0 186.23319302061464 19.632708187109529 0 0 0 0 1197.5944328227488 574.02413631659874 0 574.02413631659874 -237.44754979654954 0 0 0 0 463.00211137779115 160.49399885240837 0 160.49399885240837 282.84227760959038 0 0 0 0 -3.1352804632808287 12.827722508732435 0 12.827722508732435 -14.016987209604487 0 0 0 0 56.833919418459118 3.2053907456302113 0 3.2053907456302113 -15.937544737658754 0 0 0 0 582.14810054736154 598.77274808489801 0 598.77274808489801 175.18322402827653 0 0 0 0 -389.03313795824943 -740.48038636900674 0 -740.48038636900674 -942.70351434725308 0 0 0 0 3.49280337320981 4.0429749587160444 0 4.0429749587160444 -4.492632008720463 0 0 0 0 112.49590487773821 -220.90649014154405 0 -220.90649014154405 -592.67335878989252 0 0 0 0 655.2494863867214 -143.60617386945523 0 -143.60617386945523 -1309.6100349287663 0 0 0 0 875.58897365334269 366.99593966989414 0 366.99593966989414 -890.39719966193661 0 0 0 0 -297.34253746901231 423.41003555350471 0 423.41003555350471 381.34881306101761 0 0 0 0 184.14081785894086 -217.07043912091467 0 -217.07043912091467 -1264.7908277534843 0 0 0 0 -349.79259459643208 -454.32673087786463 0 -454.32673087786463 -441.66582674399251 0 0 0 0 187.62975455791968 -330.0381864244921 0 -330.0381864244921 -1625.3384391320033 0 0 0 0 -123.28448722174653 326.00615409708826 0 326.00615409708826 -719.51453442571801 0 0 0 0 265.85844694383559 514.83558966010605 0 514.83558966010605 505.91616096451617 0 0 0 0 2.7541037123059482 6.5923059874799463 0 6.5923059874799463 -6.9187857935937984 0 0 0 0 215.55915160402947 393.27754254052343 0 393.27754254052343 463.5127360409424 0 0 0 0 312.46049217890686 391.83414507613293 0 391.83414507613293 291.44061913016048 0 0 0 0 221.56928771769458 251.83086977013528 0 251.83086977013528 247.66837612572635 0 0 0 0 96.914106675492803 497.7240124642899 0 497.7240124642899 -163.45873380819467 0 0 0 0 -6.1875099969474832 574.66699891468488 0 574.66699891468488 945.47213299967552 0 0 0 0 -233.09083387819555 216.39013507522031 0 216.39013507522031 220.98800827863124 0 0 0 0 -169.86067038222973 186.37856879101673 0 186.37856879101673 -381.18640616863559 0 0 0 0 -0.61335705157929965 1.561255821888075 0 1.561255821888075 -1.3294611013189446 0 0 0 0 -162.87275809998391 324.33915430454908 0 324.33915430454908 -722.63931702071022 0 0 0 0 -294.52346773333193 347.76994144955643 0 347.76994144955643 -188.23496515376246 0 0 0 0 -125.68015053791896 239.22483141705743 0 239.22483141705743 -437.20380172444857 0 0 0 0 -234.61817696135586 168.01466023802777 0 168.01466023802777 -225.67942423242857 0 0 0 0 -6.5117491445229518 12.3791788066676 0 12.3791788066676 -7.6112754399690985 0 0 0 0 124.88102988232276 791.8580643796995 0 791.8580643796995 957.09894741728567 0 0 0 0 751.6776183065158 516.40452448971337 0 516.40452448971337 -689.51350869589805 0 0 0 0 83.90440347510048 -125.7145932947351 0 -125.7145932947351 -383.80052164142035 0 0 0 0 22.051359836041229 123.72591818309957 0 123.72591818309957 -1380.4303559402542 0 0 0 0 -83.529755643328826 318.04531052552193 0 318.04531052552193 -551.00203046754541 0 0 0 0 -106.55826213164255 144.59597565761942 0 144.59597565761942 -70.622629539439004 0 0 0 0 -167.52558954399865 154.86555597745064 0 154.86555597745064 -155.41174191415485 0 0 0 0 34.762347287391094 -23.889810798935287 0 -23.889810798935287 -133.94189209793694 0 0 0 0 136.58365971591229 26.862507213734261 0 26.862507213734261 -82.82845619634827 0 0 0 0 -2.8571657127858927 9.1007201115524126 0 9.1007201115524126 -18.248235704270897 0 0 0 0 -3.5947115745948395 -24.329855960690111 0 -24.329855960690111 -9.396096801128806 0 0 0 0 -32.576417640568252 7.5199036841568159 0 7.5199036841568159 32.852399128387333 0 0 0 0 2.3690014501627559 11.024454777597668 0 11.024454777597668 -8.3750419756903725 0 0 0 0 59.006270336831221 409.47224018210909 0 409.47224018210909 352.1463832314912 0 0 0 0 321.87485581086366 103.280519877595 0 103.280519877595 -352.33246113042514 0 0 0 0 15.362642003710164 7.0631343836689284 0 7.0631343836689284 -11.30864140258068 0 0 0 0 190.39749712742196 229.98154139409235 0 229.98154139409235 -195.18047802235378 0 0 0 0 388.71135626223622 687.96359682044249 0 687.96359682044249 71.808269450923035 0 0 0 0 76.650013582340762 121.69620125684833 0 121.69620125684833 -285.88494269154717 0 0 0 0 41.164246519580047 340.91819074976047 0 340.91819074976047 -227.63261845262423 0 0 0 0 -59.579596396193296 49.882260104791342 0 49.882260104791342 -40.791269693865615 0 0 0 0 435.01870873893677 622.47792087381913 0 622.47792087381913 -65.88472732547234 0 0 0 0 530.23222164886101 367.49168586329506 0 367.49168586329506 13.955301905109081 0 0 0 0 -249.66008263021286 -53.955593749127729 0 -53.955593749127729 377.79618395075431 0 0 0 0 183.18477939295553 412.04773365879191 0 412.04773365879191 -196.96783338523528 0 0 0 0 -63.187846346603699 49.368817744761344 0 49.368817744761344 -34.393333937870629 0 0 0 0 75.759903271027724 -483.00560590541318 0 -483.00560590541318 -320.4853378753487 0 0 0 0 -257.35354631659357 1003.2958964200916 0 1003.2958964200916 175.57571209425078 0 0 0 0 66.246600639134158 553.57380311089946 0 553.57380311089946 -50.962945935432799 0 0 0 0 -1052.8421934960061 424.999290132022 0 424.999290132022 71.738150494193178 0 0 0 0 266.63130579497374 283.33863800163817 0 283.33863800163817 -672.91683925831057 0 0 0 0 -193.95705963743967 586.5618572004787 0 586.5618572004787 -807.08343051333213 0 0 0 0 114.67132234667952 -106.61761460115122 0 -106.61761460115122 425.9614791218919 0 0 0 0 352.33997798512246 -283.19464017952123 0 -283.19464017952123 -4384.3560947951628 0 0 0 0 -576.38607423455323 150.19841582045774 0 150.19841582045774 23.416161853529047 0 0 0 0 589.34299650622461 -201.58635824649718 0 -201.58635824649718 -401.51597066641261 0 0 0 0 -0.37539706853660704 -0.79638303506034802 0 -0.79638303506034802 -1.3433046170727039 0 0 0 0 -409.00427790556932 253.92638089778484 0 253.92638089778484 -200.51259243011009 0 0 0 0 -383.0369931822097 -126.69401933970948 0 -126.69401933970948 80.132844661427953 0 0 0 0 15.709043309526578 -188.21448130587214 0 -188.21448130587214 155.30041262797749 0 0 0 0 75.809242059563985 41.147825116629974 0 41.147825116629974 -136.29794744502578 0 0 0 0 1.0265729606632794 3.7316610255787452 0 3.7316610255787452 4.9832573218353531 0 0 0 0 -2.4749119250820968 210.5976518214452 0 210.5976518214452 221.3732012193941 0 0 0 0 -241.8724729098667 136.74219752279532 0 136.74219752279532 109.49014415412239 0 0 0 0 262.53293936429509 -228.15137713793047 0 -228.15137713793047 -525.05625276019418 0 0 0 0 -20.844213115118691 114.1400649196039 0 114.1400649196039 -122.90837142192322 0 0 0 0 -5.5926976606307583 7.465562655953299 0 7.465562655953299 -11.680080809174655 0 0 0 0 -876.42747652151593 92.885081739319503 0 92.885081739319503 5030.3903391219646 0 0 0 0 -360.83588614472228 -737.59739747849471 0 -737.59739747849471 282.54991993893054 0 0 0 0 129.25088008113744 -58.639962476527216 0 -58.639962476527216 -457.77257714719963 0 0 0 0 404.32733908966838 260.81906968919429 0 260.81906968919429 -747.89499791998242 0 0 0 0 457.34135023741646 526.4185824650358 0 526.4185824650358 -243.18613162064867 0 0 0 0 233.87458304252959 380.33881500364987 0 380.33881500364987 -17.536543547874317 0 0 0 0 -315.190752758499 306.01652059254502 0 306.01652059254502 -88.592817287512389 0 0 0 0 -50.705961215052781 54.048601422479635 0 54.048601422479635 -41.266287784347412 0 0 0 0 83.118870638222688 122.59128620313777 0 122.59128620313777 -81.086322239807487 0 0 0 0 71.758048258700001 182.2000998675785 0 182.2000998675785 -259.6333770314086 0 0 0 0 136.08594677796282 20.402831161020003 0 20.402831161020003 -36.056962520651723 0 0 0 0 -19.466032447032866 25.484468137827619 0 25.484468137827619 -34.269948215351988 0 0 0 0 115.37920429243559 206.1764159585266 0 206.1764159585266 33.619912570313318 0 0 0 0 -334.42366134243639 9.0228842316901137 0 9.0228842316901137 60.586498212718652 0 0 0 0 -100.20365836080964 161.37721437881555 0 161.37721437881555 -42.793434288836579 0 0 0 0 97.59617954361056 55.986208405151046 0 55.986208405151046 -33.058278808544856 0 0 0 0 26.778578089324583 160.93524508717474 0 160.93524508717474 52.33226117724189 0 0 0 0 15.947997904847229 53.535110800563295 0 53.535110800563295 9.7053024762895461 0 0 0 0 -17.046823321245853 49.694495179757574 0 49.694495179757574 -52.670751544041593 0 0 0 0 -88.979068431484848 86.570395972350525 0 86.570395972350525 -22.190196310282772 0 0 0 0 -25.288150231699547 105.20503529097186 0 105.20503529097186 -24.194399571744725 0 0 0 0 -126.88211332409628 126.09131520320625 0 126.09131520320625 19.575898117145698 0 0 0 0 29.965293440302048 249.99904237130795 0 249.99904237130795 -54.072866076970968 0 0 0 0 -0.065927739952478248 0.30641456605549422 0 0.30641456605549422 3.501493630995471 0 0 0 0 -55.23945991997789 60.816255005375751 0 60.816255005375751 24.986979308931041 0 0 0 0 2.2783479920646368 11.694916274282821 0 11.694916274282821 22.710663420354038 0 0 0 0 149.04142766995847 71.013890963062295 0 71.013890963062295 43.908726218302036 0 0 0 0 23.155199990431356 -50.972102658128279 0 -50.972102658128279 -8.4937208803348767 0 0 0 0 -135.715194004566 321.15925568843704 0 321.15925568843704 -390.0455676625279 0 0 0 0 31.158884760193359 -19.486874904436263 0 -19.486874904436263 238.34126178071892 0 0 0 0 -506.27955189568638 317.02073720647513 0 317.02073720647513 -62.466403412385262 0 0 0 0 -326.19396192550266 157.35713018565639 0 157.35713018565639 -162.99484139424021 0 0 0 0 -290.12595216587579 227.60779503503363 0 227.60779503503363 -339.51825455329526 0 0 0 0 -383.08236260227568 180.88857956607171 0 180.88857956607171 -171.82533695228267 0 0 0 0 -218.95889549393905 93.964162334288631 0 93.964162334288631 -201.80509563487067 0 0 0 0 -210.91136266955891 214.39625001395893 0 214.39625001395893 -92.588874552959169 0 0 0 0 -194.55793652321881 156.4205559973434 0 156.4205559973434 -5.1745590816026379 0 0 0 0 -40.68423379847809 358.48652361685345 0 358.48652361685345 -26.084883036557585 0 0 0 0 55.624709554795118 203.21856123619909 0 203.21856123619909 -133.83827389148792 0 0 0 0 -262.91577797885111 244.33163278874599 0 244.33163278874599 -116.21465385394185 0 0 0 0 161.63187279037083 435.69341074039039 0 435.69341074039039 91.992878345736244 0 0 0 0 352.13686353241792 458.5486011895191 0 458.5486011895191 15.557299948843138 0 0 0 0 465.12227360726683 323.64237042762215 0 323.64237042762215 59.217601369062322 0 0 0 0 441.58493535422895 272.01137488093445 0 272.01137488093445 36.175652043411901 0 0 0 0 36.282907610368966 374.52524438358557 0 374.52524438358557 146.84287850175315 0 0 0 0 -60.528509104129625 -30.70725958982257 0 -30.70725958982257 -411.96199893305493 0 0 0 0 -161.48615205918395 152.80618693248471 0 152.80618693248471 1.527890833625861 0 0 0 0 222.18237415487238 371.23969029588625 0 371.23969029588625 -214.15294297010496 0 0 0 0 356.69092630313753 455.6329714333524 0 455.6329714333524 183.92347577074543 0 0 0 0 281.41090998794243 183.25511316252596 0 183.25511316252596 -97.605273827906785 0 0 0 0 -10.789112873328186 7.3124131591754491 0 7.3124131591754491 12.872359647414449 0 0 0 0 1960.5459875923989 499.07634987547408 0 499.07634987547408 -349.80969614114292 0 0 0 0 392.12820372924034 207.67299697272392 0 207.67299697272392 -90.596305595136073 0 0 0 0 841.54753679338319 1144.5036099711251 0 1144.5036099711251 248.17667461073461 0 0 0 0 978.59644504958669 12.351848079695856 0 12.351848079695856 264.98300207493594 0 0 0 0 435.56834549885934 236.64783487657405 0 236.64783487657405 204.30955099219864 0 0 0 0 1054.7965988289361 435.61523494808898 0 435.61523494808898 -34.339109697964886 0 0 0 0 566.79183734735125 446.59869369653461 0 446.59869369653461 194.96178771902282 0 0 0 0 708.66478023934906 262.77375472398307 0 262.77375472398307 104.29062456251995 0 0 0 0 550.61458932317328 285.1209355668143 0 285.1209355668143 162.09061677998034 0 0 0 0 1237.2632745571318 543.39159809100238 0 543.39159809100238 458.97183184167807 0 0 0 0 19.185366623585367 3.4527050400772765 0 3.4527050400772765 -11.530256867497926 0 0 0 0 647.00418445310788 171.96363422325521 0 171.96363422325521 230.85067347012227 0 0 0 0 -3.3237613522184049 52.868855179294243 0 52.868855179294243 -14.591846693450961 0 0 0 0 543.41807909191994 326.15966119642599 0 326.15966119642599 6.6770616822177544 0 0 0 0 409.22353751585615 -19.14047106635735 0 -19.14047106635735 -4.8965634256892372 0 0 0 0 599.5085882821586 382.83237991186252 0 382.83237991186252 28.725108512371662 0 0 0 0 500.31748698517913 346.65410258132033 0 346.65410258132033 29.11089530330355 0 0 0 0 524.26143396322368 389.29008503537716 0 389.29008503537716 -18.705068088536791 0 0 0 0 499.58037140521628 279.03778726280507 0 279.03778726280507 58.171326224997756 0 0 0 0 370.68238825167646 374.93355793155933 0 374.93355793155933 -9.0731022597028641 0 0 0 0 561.18498203912168 321.66613055592461 0 321.66613055592461 -62.115681436109298 0 0 0 0 495.63661027465423 239.73031390787582 0 239.73031390787582 -138.57305039002313 0 0 0 0 -13.944678981287538 4.7736923607033077 0 4.7736923607033077 2.7224199151061015 0 0 0 0 -125.36738521009102 60.107774494754267 0 60.107774494754267 175.32123639592101 0 0 0 0 195.98310507408314 108.89134691990967 0 108.89134691990967 10.862837515545834 0 0 0 0 228.99098929423781 304.70632454917359 0 304.70632454917359 107.52153746462136 0 0 0 0 157.48898498500057 357.41691974910282 0 357.41691974910282 165.83137357179658 0 0 0 0 303.88517298878287 252.20820936973905 0 252.20820936973905 208.38491006234835 0 0 0 0 249.55586341228263 410.15993978881215 0 410.15993978881215 82.650482597222435 0 0 0 0 177.7485247091754 372.17940807942432 0 372.17940807942432 136.25275737713673 0 0 0 0 109.55242199738859 419.26755155087449 0 419.26755155087449 167.73098042685888 0 0 0 0 137.32547025282111 512.30083023143743 0 512.30083023143743 210.03320739530136 0 0 0 0 148.87845222654141 549.15362841717069 0 549.15362841717069 71.458940104552312 0 0 0 0 213.95361364072596 474.45479014441662 0 474.45479014441662 84.825747892311483 0 0 0 0 241.39542783579964 428.50528173723069 0 428.50528173723069 3.9963599838702066 0 0 0 0 351.77994461059279 361.46555845278999 0 361.46555845278999 103.99081717535591 0 0 0 0 252.95795054370683 462.9139162204483 0 462.9139162204483 48.245559621042048 0 0 0 0 399.30022498546168 441.19255349722516 0 441.19255349722516 73.230326928643535 0 0 0 0 365.66547031203663 383.01359102360038 0 383.01359102360038 2.1305135929869721 0 0 0 0 -330.58165732830821 75.032180099135985 0 75.032180099135985 -26.109142105891806 0 0 0 0 85.107796706508452 188.66600431588313 0 188.66600431588313 -237.39924793344835 0 0 0 0 92.450180514513704 272.07016576544402 0 272.07016576544402 -33.920536411915236 0 0 0 0 241.36974059072963 492.50998786804485 0 492.50998786804485 -20.386219996293221 0 0 0 0 270.6582650924538 443.59236391060767 0 443.59236391060767 -92.709195333911339 0 0 0 0 498.76605699962965 543.30713034287328 0 543.30713034287328 16.204015256287676 0 0 0 0 383.82074253068822 402.02764326281385 0 402.02764326281385 -145.23179230309688 0 0 0 0 22.718013760211761 556.68939815263002 0 556.68939815263002 265.06687492302626 0 0 0 0 229.76241642740206 668.70733806442513 0 668.70733806442513 248.1597624465212 0 0 0 0 -1047.5109576228169 577.2401346291108 0 577.2401346291108 711.86539695156171 0 0 0 0 3.6139548162900468 7.0424273144900837 0 7.0424273144900837 8.3994009683839721 0 0 0 0 8.6570157587559606 14.921008248266475 0 14.921008248266475 15.032864099057861 0 0 0 0 8.7919877381215201 138.25283967160274 0 138.25283967160274 12.936937512429616 0 0 0 0 88.650501903190161 394.43113616187475 0 394.43113616187475 -891.91094008692744 0 0 0 0 -197.41846919266391 187.22430467508093 0 187.22430467508093 -201.7655951043489 0 0 0 0 13.241247572790598 119.92598745616851 0 119.92598745616851 -444.84746551330318 0 0 0 0 31.290354289085343 22.291535704419658 0 22.291535704419658 20.004556411509583 0 0 0 0 -118.37434792060412 689.80409355023198 0 689.80409355023198 696.47059876484491 0 0 0 0 -130.02060256134428 352.56470793446715 0 352.56470793446715 -468.32022755047274 0 0 0 0 323.27966317222308 944.97257995670589 0 944.97257995670589 766.00938174973999 0 0 0 0 -521.52105227553693 -673.32717347498328 0 -673.32717347498328 404.36804527617642 0 0 0 0 -621.33936385819106 -12.407412846070656 0 -12.407412846070656 1302.7402345191076 0 0 0 0 38.349890010562376 -493.87252271525358 0 -493.87252271525358 -847.89333503349917 0 0 0 0 -96.607699903965113 28.532025166885433 0 28.532025166885433 171.75292014869046 0 0 0 0 -169.8260885973159 408.2908895904111 0 408.2908895904111 -302.50054880398602 0 0 0 0 13.241247572848806 119.92598745619762 0 119.92598745619762 -444.84746551328863 0 0 0 0 13.241247572848806 119.92598745619762 0 119.92598745619762 -444.84746551324497 0 0 0 0 39.222447536318811 48.52227644063953 0 48.52227644063953 2.5150469896637659 0 0 0 0 119.27827074548986 386.26865892730711 0 386.26865892730711 -959.04187155383352 0 0 0 0 -248.50548475884716 282.14713534465409 0 282.14713534465409 -240.40889434926794 0 0 0 0 0.41430882574712768 19.549354649408158 0 19.549354649408158 -36.439788067037682 0 0 0 0 -142.66610560865956 398.9642071579292 0 398.9642071579292 -324.23291681641422 0 0 0 0 -159.95300468715141 303.86678818527434 0 303.86678818527434 -281.98775339153144 0 0 0 0 -117.91659409928252 342.6649244530563 0 342.6649244530563 -300.3501560066361 0 0 0 0 -61.363430705518113 287.95428305094902 0 287.95428305094902 -285.88042612271965 0 0 0 0 -55.580990011891117 259.64667193359492 0 259.64667193359492 -233.68615833684453 0 0 0 0 27.911487340694293 283.09982504481013 0 283.09982504481013 -328.5592911164058 0 0 0 0 -8.9451702923615812 356.08389364167124 0 356.08389364167124 -409.45147856343101 0 0 0 0 -34.324267952397349 387.96540001242465 0 387.96540001242465 -384.65934240075876 0 0 0 0 -97.791229714664041 16.356054770901665 0 16.356054770901665 55.672548884111166 0 0 0 0 41.812809246475808 202.46483021882159 0 202.46483021882159 -382.82191587161833 0 0 0 0 37.541958521964261 481.73882735683583 0 481.73882735683583 201.59770791331903 0 0 0 0 -51.455048316187458 426.66288245294345 0 426.66288245294345 325.9824619354622 0 0 0 0 -26.704374860556527 253.3626054715121 0 253.3626054715121 44.070223738417553 0 0 0 0 55.28900214942405 349.39455231360989 0 349.39455231360989 151.32478760984486 0 0 0 0 -51.270460317769903 252.24047601563871 0 252.24047601563871 46.687088140068226 0 0 0 0 -11.97882710761769 143.8075755803784 0 143.8075755803784 -89.468846360745374 0 0 0 0 15.756337553902995 241.59483470850682 0 241.59483470850682 -244.60093740782759 0 0 0 0 -39.342944218573393 174.74646874128666 0 174.74646874128666 -142.60143186638743 0 0 0 0 -58.260558382688032 129.98077003703474 0 129.98077003703474 -62.887828795763198 0 0 0 0 19.056187146197772 219.95559366425732 0 219.95559366425732 -118.37104765686308 0 0 0 0 68.431591508779093 196.91218008819123 0 196.91218008819123 -28.13547874136566 0 0 0 0 57.50536379594223 176.08819235125509 0 176.08819235125509 12.137570154111017 0 0 0 0 -41.463831159184338 22.615806925066863 0 22.615806925066863 -15.650798071277677 0 0 0 0 -165.08842893133988 58.602867299254285 0 58.602867299254285 -22.394950626337959 0 0 0 0 -86.792319395884988 172.05467887345003 0 172.05467887345003 -111.42679088972363 0 0 0 0 -144.71140473717242 58.719137981875974 0 58.719137981875974 -31.579855556832626 0 0 0 0 -188.4171054433682 109.06392290884105 0 109.06392290884105 -89.497275614456157 0 0 0 0 -616.74200406523596 318.59553078435965 0 318.59553078435965 -82.870058619962947 0 0 0 0 -266.56913934436557 114.88954028417868 0 114.88954028417868 -80.716068333334988 0 0 0 0 -263.62306773968157 253.36513607156667 0 253.36513607156667 -160.8866518054856 0 0 0 0 -145.0696129493881 278.21813111253505 0 278.21813111253505 -248.7067024926364 0 0 0 0 -162.98861609617597 175.23476303539064 0 175.23476303539064 -100.74487843090901 0 0 0 0 -70.378115947896731 215.7614172343965 0 215.7614172343965 -221.3264152068441 0 0 0 0 -82.812101124873152 238.16227582706051 0 238.16227582706051 -193.67650558071182 0 0 0 0 -19.432629974122392 239.55000955571086 0 239.55000955571086 -268.50185404268268 0 0 0 0 -71.919837610781542 262.1092424298331 0 262.1092424298331 -304.03315459955775 0 0 0 0 -93.877300482214196 270.92646666110522 0 270.92646666110522 -269.69944697142137 0 0 0 0 -120.08866278265486 244.60274960691459 0 244.60274960691459 -225.87965092015475 0 0 0 0 -11.867079833173193 259.97651019685873 0 259.97651019685873 -304.18630918178178 0 0 0 0 -92.7940797937772 190.65199515853601 0 190.65199515853601 -277.55399123282405 0 0 0 0 -225.15800158889033 188.95676384986291 0 188.95676384986291 -260.04200726571435 0 0 0 0 135.80186779273208 313.62777640546119 0 313.62777640546119 -333.8636442909883 0 0 0 0 -94.089282037180965 341.02174212654791 0 341.02174212654791 -330.53627725850674 0 0 0 0 -378.64550702057022 453.56564501145112 0 453.56564501145112 -224.96372053453524 0 0 0 0 -195.42602191252809 282.20794548777849 0 282.20794548777849 -248.95044142055849 0 0 0 0 -209.10309197113384 311.8326999264973 0 311.8326999264973 37.314912029425614 0 0 0 0 -6.5620658086475601 17.38449425710624 0 17.38449425710624 -32.669945957061117 0 0 0 0 -151.50546892810962 247.05496015550307 0 247.05496015550307 -192.52460913601681 0 0 0 0 -287.30533511687099 678.02180082365885 0 678.02180082365885 669.36032192397397 0 0 0 0 -12.46294971766001 85.152452703600375 0 85.152452703600375 79.918667943123751 0 0 0 0 -165.32837484225456 441.10076757399293 0 441.10076757399293 -299.42110892998608 0 0 0 0 163.77026197133091 -30.670060791417654 0 -30.670060791417654 -161.91617654383299 0 0 0 0 76.819716325473848 97.971284957277817 0 97.971284957277817 -262.37900570134468 0 0 0 0 -85.827201331775399 75.88420244973284 0 75.88420244973284 147.36595573639732 0 0 0 0 -68.477720640250482 209.27097117039375 0 209.27097117039375 -318.41929128524498 0 0 0 0 -9.6862769178207202 95.883668596493038 0 95.883668596493038 -51.074853836358983 0 0 0 0 -608.29757222585613 1161.2340043227159 0 1161.2340043227159 -897.05224217829527 0 0 0 0 -3.1694307710262706 2.5954755590090599 0 2.5954755590090599 4.0429432257456028 0 0 0 0 -731.96911098665805 1061.2670609054621 0 1061.2670609054621 -288.53077887545805 0 0 0 0 5.0184202295858995 848.33404731696646 0 848.33404731696646 -425.4232164096029 0 0 0 0 -429.21413711719651 737.43152125195775 0 737.43152125195775 -185.71579391760315 0 0 0 0 -84.863840477126359 424.40739092373406 0 424.40739092373406 -734.37433000419333 0 0 0 0 -126.39777641266119 228.26615638122894 0 228.26615638122894 -349.69131463320809 0 0 0 0 -91.042050114708786 154.62211448215513 0 154.62211448215513 95.976105103792449 0 0 0 0 -399.1857066690518 337.89560863309816 0 337.89560863309816 -260.17941844568122 0 0 0 0 -101.82880347072569 502.21033080099005 0 502.21033080099005 -520.98203964055574 0 0 0 0 3.0068493616272463 443.12739759753458 0 443.12739759753458 -495.05441597569006 0 0 0 0 124.94804755518271 248.19791512857046 0 248.19791512857046 -747.91738306994375 0 0 0 0 -27.643338418084006 62.860160215776936 0 62.860160215776936 -61.529993821695712 0 0 0 0 -5.4465854743611999 152.28612054978657 0 152.28612054978657 -95.136159361522004 0 0 0 0 39.903083310568036 60.417858223467192 0 60.417858223467192 -103.85229332240942 0 0 0 0 -71.104360653518654 132.4934105141806 0 132.4934105141806 -63.20549091425346 0 0 0 0 146.41147166627479 -10.528409505938725 0 -10.528409505938725 -24.748041025333805 0 0 0 0 -495.41971026564715 245.28154622459624 0 245.28154622459624 -44.737519692258502 0 0 0 0 0.37334098657683423 2.0514063478857238 0 2.0514063478857238 -3.3312467564299766 0 0 0 0 -74.873242892123017 174.38463019724441 0 174.38463019724441 -83.190462187470985 0 0 0 0 -172.68206545790235 190.1196069573889 0 190.1196069573889 -61.278831665840698 0 0 0 0 -219.91124693835172 155.33415078821781 0 155.33415078821781 -72.840224723287974 0 0 0 0 4.086926415774073 7.3086383520052394 0 7.3086383520052394 -10.570558843473918 0 0 0 0 57.151926880582778 40.913866135629178 0 40.913866135629178 -18.798358885236667 0 0 0 0 -124.92399874779585 143.1617890845373 0 143.1617890845373 -143.78687316985088 0 0 0 0 -81.235011869850496 182.19390503940303 0 182.19390503940303 -129.03174044300977 0 0 0 0 -82.134040199451192 177.16452665104953 0 177.16452665104953 13.206503506730314 0 0 0 0 -56.174698450437063 161.07697995119815 0 161.07697995119815 -60.817665972368559 0 0 0 0 -28.293314050849403 94.878723689910657 0 94.878723689910657 -40.120355551174725 0 0 0 0 -38.883361184007299 120.49548422617227 0 120.49548422617227 -36.798956408325466 0 0 0 0 -6.9566699259717097 120.01115135370492 0 120.01115135370492 -67.101000786540681 0 0 0 0 9.4786042537318735 84.662630682204508 0 84.662630682204508 -37.630153770041943 0 0 0 0 20.738534035477642 25.163251851032328 0 25.163251851032328 -25.869793321151519 0 0 0 0 168.37599522950768 133.54981690256318 0 133.54981690256318 -16.180166215926874 0 0 0 0 12.900553319779073 21.150945204943341 0 21.150945204943341 -0.20059941973354967 0 0 0 0 -152.78697108580673 45.587013746087905 0 45.587013746087905 -29.04211720082094 0 0 0 0 29.893810750450939 14.771404487706604 0 14.771404487706604 -12.28274664033961 0 0 0 0 143.73882205213886 147.11125546573749 0 147.11125546573749 -15.881825075517781 0 0 0 0 87.337203134651844 22.195877162164479 0 22.195877162164479 -59.846209845069033 0 0 0 0 70.764509645751971 2.9138834374928564 0 2.9138834374928564 -10.550384392131363 0 0 0 0 10.655144904712152 60.976671327797646 0 60.976671327797646 8.7245885416892861 0 0 0 0 23.307055613802241 36.82392311018166 0 36.82392311018166 -34.934322763792679 0 0 0 0 12.849692954038449 3.5299393778818597 0 3.5299393778818597 -2.9647541564127664 0 0 0 0 -670.66066842588043 111.18066932433248 0 111.18066932433248 -12.191976561414776 0 0 0 0 37.374921133206954 82.41404683455039 0 82.41404683455039 -53.336160781953367 0 0 0 0 166.72247059216897 -17.613201015234154 0 -17.613201015234154 -54.049097556089691 0 0 0 0 147.92828564076626 11.250285090558464 0 11.250285090558464 5.752245484465675 0 0 0 0 -272.81195874567493 40.848952386237215 0 40.848952386237215 60.806482833024347 0 0 0 0 6.8590296026789019 0.37958899261588641 0 0.37958899261588641 -2.5904893082730069 0 0 0 0 21.452257324465549 56.018191968999162 0 56.018191968999162 -31.033625784326503 0 0 0 0 62.271417441974336 70.161216969248926 0 70.161216969248926 -35.857825882437282 0 0 0 0 17.511478551812615 88.147126878458948 0 88.147126878458948 -52.761166144895469 0 0 0 0 15.040387179734353 92.839895941830036 0 92.839895941830036 -32.604650207118539 0 0 0 0 -117.91555017202063 154.12439221118257 0 154.12439221118257 -162.0871301770203 0 0 0 0 12.123877451160858 74.123906705404153 0 74.123906705404153 -3.2158285186761759 0 0 0 0 -91.926155828834453 136.10969268375629 0 136.10969268375629 -61.732734955992782 0 0 0 0 31.985458381274839 117.61622052347957 0 117.61622052347957 35.827965652075363 0 0 0 0 -91.518296475891091 111.86594025107607 0 111.86594025107607 -9.2190013377926334 0 0 0 0 -54.482464387372005 104.48593276932696 0 104.48593276932696 39.106817742268284 0 0 0 0 -320.46733497679816 132.67571697401581 0 132.67571697401581 -291.96894117487864 0 0 0 0 -28.066832973869168 205.69148490209773 0 205.69148490209773 -152.49713116221392 0 0 0 0 52.239339435487523 82.765347116129632 0 82.765347116129632 -112.03382830756375 0 0 0 0 256.84353242847283 111.09712515455612 0 111.09712515455612 -420.0692471151342 0 0 0 0 -193.25994769817044 201.03077911442233 0 201.03077911442233 -70.875581246124057 0 0 0 0 -113.29022894606896 120.34498140987853 0 120.34498140987853 8.8398532845894806 0 0 0 0 -215.51247826301551 -574.23234729946125 0 -574.23234729946125 -183.85919673665194 0 0 0 0 -78.091048403757668 46.636597889966652 0 46.636597889966652 -133.81983828541706 0 0 0 0 7.6406681603601712 91.523944261029911 0 91.523944261029911 -32.661345940833542 0 0 0 0 39.806623018939717 12.4965223092222 0 12.4965223092222 -157.27497451114687 0 0 0 0 -192.8043029659143 361.40784942192113 0 361.40784942192113 -119.71430251668789 0 0 0 0 -3.1216945270775209 23.926089430082797 0 23.926089430082797 -26.522554367673024 0 0 0 0 40.120767232800972 87.789924152188178 0 87.789924152188178 -226.37690319919784 0 0 0 0 18.310193862809683 -7.1080433499955689 0 -7.1080433499955689 -48.592563504400459 0 0 0 0 -41.314859664827964 47.910790625923255 0 47.910790625923255 129.91536174931025 0 0 0 0 -11.452883042114347 87.300325051224974 0 87.300325051224974 34.70741758749849 0 0 0 0 -14.287837781679627 14.163324298246152 0 14.163324298246152 44.668143547634827 0 0 0 0 -333.63301062084975 17.382430528185068 0 17.382430528185068 185.64601047227188 0 0 0 0 74.054409901267263 221.52278719166497 0 221.52278719166497 -218.71420144351578 0 0 0 0 -38.865576456497365 194.21577923245422 0 194.21577923245422 -41.573364590323763 0 0 0 0 -25.122089488508372 80.080512264169926 0 80.080512264169926 30.660712484646389 0 0 0 0 22.433791345792997 199.47022439695866 0 199.47022439695866 -191.55984207590518 0 0 0 0 -90.283053683676371 137.87018592537788 0 137.87018592537788 -0.62634132351377048 0 0 0 0 33.908787445823691 164.75656991581491 0 164.75656991581491 -18.265527553399806 0 0 0 0 -136.1691990269216 158.0767812608201 0 158.0767812608201 51.746899833451607 0 0 0 0 -66.261068971872191 165.33626084589923 0 165.33626084589923 16.810529653732374 0 0 0 0 -42.063699360357774 84.077051784713333 0 84.077051784713333 38.717981339653711 0 0 0 0 -5.685931977237189 45.463294699271401 0 45.463294699271401 6.8762120318768325 0 0 0 0 -6.5856045402529233 60.949448912804698 0 60.949448912804698 -10.10695524223172 0 0 0 0 -7.7176559784238634 125.12402365384696 0 125.12402365384696 -54.81995258796087 0 0 0 0 87.108511068287044 116.73593123012688 0 116.73593123012688 -179.07179099274981 0 0 0 0 36.607024104840093 219.60590363607844 0 219.60590363607844 -146.81445895525394 0 0 0 0 113.93098063574507 41.287225985117402 0 41.287225985117402 -84.31050123940804 0 0 0 0 50.22981704198537 61.706526749097975 0 61.706526749097975 -6.9859357850727974 0 0 0 0 77.71968606118935 62.081005558346078 0 62.081005558346078 -33.44824628882634 0 0 0 0 85.52240791976692 74.083053235157422 0 74.083053235157422 -17.086513066227781 0 0 0 0 75.287973971791416 75.485533948195098 0 75.485533948195098 -25.136203240625036 0 0 0 0 50.701973842779353 59.719166714527091 0 59.719166714527091 -8.4741560990514699 0 0 0 0 57.857419328538526 62.875682394173054 0 62.875682394173054 -8.1326731642329833 0 0 0 0 51.0825946750887 46.985180132004771 0 46.985180132004771 -7.2734101928542998 0 0 0 0 23.660956148370133 67.089955102776003 0 67.089955102776003 -17.03120128309456 0 0 0 0 68.033051166861696 51.666128868595479 0 51.666128868595479 12.283982568435022 0 0 0 0 55.467174512579732 66.973124171980089 0 66.973124171980089 12.894637505072751 0 0 0 0 48.115622569028346 63.477123537348234 0 63.477123537348234 2.1223997072083876 0 0 0 0 68.915682014481717 74.880663038398779 0 74.880663038398779 4.8974833877946367 0 0 0 0 52.143436827216647 60.479236865605344 0 60.479236865605344 0.54395520818070509 0 0 0 0 6.8418594976572553 11.526134865427593 0 11.526134865427593 -5.2706080581676815 0 0 0 0 44.052756664688786 45.682512194107403 0 45.682512194107403 -9.1143110153061571 0 0 0 0 17.846373143527153 24.750798612956871 0 24.750798612956871 13.696902771855314 0 0 0 0 23.436934094504977 38.698127821669914 0 38.698127821669914 -7.8639249915431719 0 0 0 0 45.68005081472802 42.385727883287473 0 42.385727883287473 -11.658596321387449 0 0 0 0 -61.113685331227316 57.545534144970588 0 57.545534144970588 22.538655485608615 0 0 0 0 32.279902771027992 67.943371478817426 0 67.943371478817426 10.897380556358257 0 0 0 0 36.755695413448848 44.488447653115145 0 44.488447653115145 -7.7469380325410384 0 0 0 0 52.901009751629317 42.914573854912305 0 42.914573854912305 -12.071646134827461 0 0 0 0 58.623162207626592 53.847214800936854 0 53.847214800936854 -11.083445251264493 0 0 0 0 57.492155616415403 48.260707448382163 0 48.260707448382163 -35.359100228850366 0 0 0 0 45.891429504357802 59.148839906250942 0 59.148839906250942 -5.3743274552070943 0 0 0 0 -42.241908048958067 15.352839563442103 0 15.352839563442103 -9.6699937876328477 0 0 0 0 50.163203027283998 157.35111701128699 0 157.35111701128699 -121.27140489905287 0 0 0 0 -13.084070204681204 57.050540818200282 0 57.050540818200282 14.207869050870935 0 0 0 0 -5.4566687755177554 39.040896572099882 0 39.040896572099882 -128.75768419477754 0 0 0 0 -0.19219132016067419 51.031245305958109 0 51.031245305958109 -23.079763401448986 0 0 0 0 -49.88487460849683 54.590491754261166 0 54.590491754261166 -31.33305872110941 0 0 0 0 -38.226887842589349 27.289596534334123 0 27.289596534334123 5.6782215547791566 0 0 0 0 6.8425331207527051 84.064993546737242 0 84.064993546737242 5.1465237671000068 0 0 0 0 -44.358907401586293 57.40893248377688 0 57.40893248377688 123.28022316392162 0 0 0 0 78.460628419899422 174.59137101635497 0 174.59137101635497 94.007734088896541 0 0 0 0 2.5348087998900155 96.978823358473164 0 96.978823358473164 65.743366761846119 0 0 0 0 7.7424303905718261 104.17906470856542 0 104.17906470856542 24.554660820251229 0 0 0 0 -5.2554175977538762 109.22694679115784 0 109.22694679115784 55.2896719644923 0 0 0 0 34.918353035098406 92.373095109867478 0 92.373095109867478 21.226661657850762 0 0 0 0 -26.366914713757978 142.02756520506227 0 142.02756520506227 40.441685772610072 0 0 0 0 2.4404231182488729 106.08004729652021 0 106.08004729652021 55.637560349583509 0 0 0 0 36.213299005775703 84.010590920072303 0 84.010590920072303 26.913255218852171 0 0 0 0 91.827993502939535 120.94124812578957 0 120.94124812578957 -33.494204991409788 0 0 0 0 12.850711568826227 124.90586225117295 0 124.90586225117295 73.183528611130896 0 0 0 0 104.20115647560624 150.88757479136257 0 150.88757479136257 34.620024415882654 0 0 0 0 -121.61320208894813 76.71285850496497 0 76.71285850496497 191.23369666649523 0 0 0 0 5.4459899403005867 26.044384134333995 0 26.044384134333995 24.900511949491261 0 0 0 0 280.69698559870903 173.23275939180894 0 173.23275939180894 53.297974225286453 0 0 0 0 60.357688759817393 85.696785118227126 0 85.696785118227126 119.66239399919868 0 0 0 0 -132.9047677809358 287.05427493267052 0 287.05427493267052 325.0429711711331 0 0 0 0 -404.01343520927367 38.383706089145562 0 38.383706089145562 131.71896577753796 0 0 0 0 658.22026989368896 -231.95460847890354 0 -231.95460847890354 -41.414691835685517 0 0 0 0 -129.04802172378831 -15.910686676944124 0 -15.910686676944124 -20.431171598989749 0 0 0 0 -0.28312415655870993 0.53426620844815176 0 0.53426620844815176 5.0452079454719296 0 0 0 0 2.327460329988063 -6.1285918617013451 0 -6.1285918617013451 0.2831015245330093 0 0 0 0 -285.85298213116403 -37.144304302961245 0 -37.144304302961245 52.389932654699805 0 0 0 0 411.39064950846523 285.93381975069133 0 285.93381975069133 35.588361489688396 0 0 0 0 216.92000898709375 55.371203229864477 0 55.371203229864477 81.653875608881208 0 0 0 0 -66.682177609858627 -82.90236269363777 0 -82.90236269363777 292.55177661021298 0 0 0 0 22.545484436959669 -9.0193365234727025 0 -9.0193365234727025 -100.89945285141584 0 0 0 0 210.54888834541998 -121.0110301412933 0 -121.0110301412933 33.869654666268616 0 0 0 0 84.176917770504588 348.38009952699576 0 348.38009952699576 198.50585618701552 0 0 0 0 643.0589739620591 102.38283903744014 0 102.38283903744014 -254.70250935370859 0 0 0 0 -82.916424266923514 414.15819327563531 0 414.15819327563531 -845.50792977974197 0 0 0 0 20.516626177604849 125.9700420422696 0 125.9700420422696 -323.85965807275352 0 0 0 0 -209.07753161726396 861.1385978674989 0 861.1385978674989 -983.66126575229282 0 0 0 0 -346.8775117721525 646.81800383044174 0 646.81800383044174 -319.58462620110583 0 0 0 0 -142.60973501910212 315.88540382817519 0 315.88540382817519 -190.19018522521947 0 0 0 0 17.489353462756753 496.32468225034972 0 496.32468225034972 -594.55053519792273 0 0 0 0 246.19337858252402 414.74741544060089 0 414.74741544060089 -250.39529872019034 0 0 0 0 -654.26396236033725 876.2368964700363 0 876.2368964700363 -634.1145566741634 0 0 0 0 -198.59669713282892 441.10742901050617 0 441.10742901050617 -645.56673642765236 0 0 0 0 -223.85455600798559 595.35140968686028 0 595.35140968686028 -1013.07388845065 0 0 0 0 -177.64730628810685 -44.042936681544234 0 -44.042936681544234 115.88631990043359 0 0 0 0 187.88328304833703 273.32986426415664 0 273.32986426415664 189.05757899790478 0 0 0 0 24.618279030424674 593.95869297719037 0 593.95869297719037 359.35174110545631 0 0 0 0 141.47092481690561 89.96636610034966 0 89.96636610034966 -286.02972820535069 0 0 0 0 -325.38063871581289 -172.82142413621477 0 -172.82142413621477 -413.16663011864875 0 0 0 0 3.002227840109736 16.49377776883372 0 16.49377776883372 -1.0773027920763525 0 0 0 0 68.765540506257821 50.112082003128307 0 50.112082003128307 147.19353028838668 0 0 0 0 -16.879955223481375 177.52868639613735 0 177.52868639613735 -233.7712181186107 0 0 0 0 165.75521101191771 213.30674710240419 0 213.30674710240419 -226.7807123579405 0 0 0 0 93.156387481190905 55.980539646712714 0 55.980539646712714 -294.51958934048889 0 0 0 0 93.156387481161801 55.980539646872785 0 55.980539646872785 -294.51958934005961 0 0 0 0 93.15638748118181 55.980539646792749 0 55.980539646792749 -294.51958933996502 0 0 0 0 149.16215946289776 257.27658879563387 0 257.27658879563387 -484.52062903912156 0 0 0 0 -226.26344553597664 514.65837299797568 0 514.65837299797568 -457.31905727674712 0 0 0 0 -447.70911310224255 483.80696113083104 0 483.80696113083104 -437.7913084863394 0 0 0 0 -114.63977080362292 192.9906875534698 0 192.9906875534698 -215.63718028560106 0 0 0 0 7.8171679716089884 50.955040390425872 0 50.955040390425872 5.4365271969128131 0 0 0 0 69.682933973732816 64.645111508276386 0 64.645111508276386 -218.47863431837322 0 0 0 0 135.00806681229005 17.208611388705322 0 17.208611388705322 -176.6816522676404 0 0 0 0 -461.72093068546201 530.92007821751758 0 530.92007821751758 -470.22626456631406 0 0 0 0 3.4636755160356127 -15.051112174506233 0 -15.051112174506233 -72.139035391669623 0 0 0 0 -488.77993503255493 493.61039536122189 0 493.61039536122189 -503.60887905223353 0 0 0 0 -488.08513375620259 642.70080823812896 0 642.70080823812896 -563.35881204184989 0 0 0 0 -180.93057237921312 532.99144029379386 0 532.99144029379386 -531.58048656949541 0 0 0 0 -405.43280322517057 751.23041370165811 0 751.23041370165811 -424.12319215666139 0 0 0 0 -1111.7447321807467 851.74816121120966 0 851.74816121120966 -491.3799415304893 0 0 0 0 -193.75789522061768 256.63112473852016 0 256.63112473852016 1215.1712823054404 0 0 0 0 -91.859597228360144 893.30271790711413 0 893.30271790711413 -1967.0402123835847 0 0 0 0 -4.9097679206590428 5.2818175099884854 0 5.2818175099884854 -2.5131478272927765 0 0 0 0 -244.41660666275493 690.15621638281846 0 690.15621638281846 -810.87196102685266 0 0 0 0 -342.33781201379952 801.70240819329774 0 801.70240819329774 -623.9612533424297 0 0 0 0 -342.59016959995114 792.29086428602693 0 792.29086428602693 49.801595118602563 0 0 0 0 203.29193282518827 298.04261140799099 0 298.04261140799099 -217.96423351245903 0 0 0 0 47.707116748649241 53.020558078886097 0 53.020558078886097 -47.030464902440599 0 0 0 0 -248.72921786308234 347.85012861257565 0 347.85012861257565 -155.71050808479413 0 0 0 0 -0.49588724384656757 -0.17686081747591231 0 -0.17686081747591231 -2.0190800326129192 0 0 0 0 -102.76408159645916 198.10703357502553 0 198.10703357502553 -163.89885728246009 0 0 0 0 -20.691378843959228 328.67073581973091 0 328.67073581973091 -30.324367299232108 0 0 0 0 -697.93779715623532 508.47781381201457 0 508.47781381201457 -728.26086665469484 0 0 0 0 -579.67003399944815 701.61443331463579 0 701.61443331463579 -413.92243880446767 0 0 0 0 -261.27214409592034 372.24076383723514 0 372.24076383723514 -421.71835725175242 0 0 0 0 -372.66535744937391 227.50133704017026 0 227.50133704017026 -52.606565000414776 0 0 0 0 -1.9459329656484883 -1.2689965184102974 0 -1.2689965184102974 -1.9322809598812398 0 0 0 0 -577.66599033823695 319.87441450648475 0 319.87441450648475 28.277718729596472 0 0 0 0 -147.55933011361503 -142.40560881866077 0 -142.40560881866077 -595.84981261223584 0 0 0 0 98.202559395515436 251.45228078388209 0 251.45228078388209 -1922.2038609613883 0 0 0 0 -1.3696436531241893 -3.3187064275288662 0 -3.3187064275288662 -13.979871830301704 0 0 0 0 -1868.3137136089231 1613.444367445858 0 1613.444367445858 -1103.9163185632788 0 0 0 0 300.0852924413357 56.748128883049503 0 56.748128883049503 60.518921150447568 0 0 0 0 1602.6174518887801 -292.71515002425804 0 -292.71515002425804 -765.1157923453793 0 0 0 0 1229.7541921604056 591.84642221697413 0 591.84642221697413 -2101.9860433260328 0 0 0 0 -9.8746941228764804 13.204467948338767 0 13.204467948338767 -15.998148733018851 0 0 0 0 -1898.8907913779067 1010.5460672066802 0 1010.5460672066802 -38.849091812295228 0 0 0 0 -1581.1921987631322 207.19458126202881 0 207.19458126202881 199.90177156515165 0 0 0 0 1145.2515100365822 901.28599888521103 0 901.28599888521103 -1115.4432257672306 0 0 0 0 -1387.4340322900744 1644.1234122935457 0 1644.1234122935457 -275.37503185337846 0 0 0 0 -814.25799982263561 1155.2978502389014 0 1155.2978502389014 -420.16973145393786 0 0 0 0 0.14656550267112589 0.14067765974595403 0 0.14067765974595403 -8.738880298158378 0 0 0 0 0.088680686588597624 -0.41126497376355076 0 -0.41126497376355076 -9.1711593752054341 0 0 0 0 223.8966806040462 -90.90992981413001 0 -90.90992981413001 -418.12622299221039 0 0 0 0 331.67936935907073 55.803915575919746 0 55.803915575919746 -83.232690603355877 0 0 0 0 -1421.3823947883302 -1088.9170428500547 0 -1088.9170428500547 -874.58408121891534 0 0 0 0 -727.05437676700149 1310.542129341713 0 1310.542129341713 -1017.6135813983319 0 0 0 0 400.3730215835119 390.21831031407055 0 390.21831031407055 -266.49952217030659 0 0 0 0 -121.14833797792062 75.68111746384966 0 75.68111746384966 231.50838096577354 0 0 0 0 -254.74806096466591 608.25413699378441 0 608.25413699378441 -146.08701461002784 0 0 0 0 -875.22857673411545 201.88005254587915 0 201.88005254587915 259.10035812582646 0 0 0 0 21.556584669924632 80.288909330880415 0 80.288909330880415 -7.0146368205557224 0 0 0 0 7.6207926345524033 7.9047882292484744 0 7.9047882292484744 7.1447832578376449 0 0 0 0 26.043363869968744 21.251116523737437 0 21.251116523737437 10.083353693839854 0 0 0 0 92.499582292462037 35.600742307929977 0 35.600742307929977 -23.739222835989494 0 0 0 0 -21.632355806814758 35.258744914007366 0 35.258744914007366 55.973019531469618 0 0 0 0 -245.97773934387067 258.3799123598601 0 258.3799123598601 3.515112484965357 0 0 0 0 -31.896600859051432 57.44859241652739 0 57.44859241652739 8.742054760499741 0 0 0 0 12.712636150218998 129.02894255177216 0 129.02894255177216 -10.480581928160973 0 0 0 0 4.4993674574512372 20.459498846263301 0 20.459498846263301 2.1629109867432845 0 0 0 0 124.36174417221355 98.409866120971856 0 98.409866120971856 -36.589864246579964 0 0 0 0 240.6152953920473 213.26605680850116 0 213.26605680850116 -138.03309909354175 0 0 0 0 -175.80807482254284 233.05307219101064 0 233.05307219101064 -109.99649868768756 0 0 0 0 125.54180603739678 21.116996327775269 0 21.116996327775269 -35.904109379365764 0 0 0 0 3.7572694076729931 107.76542626537048 0 107.76542626537048 -79.881522489602503 0 0 0 0 630.73483814198335 27.47159910661685 0 27.47159910661685 -120.15759190304379 0 0 0 0 -1.4034610170173512 -9.8340233435058408 0 -9.8340233435058408 -41.920003327600455 0 0 0 0 209.40054178489436 280.37330781926175 0 280.37330781926175 -14.52095746617124 0 0 0 0 -147.32347102169206 342.6763326545406 0 342.6763326545406 -8.8324902402309817 0 0 0 0 195.15793735770694 277.1631870759993 0 277.1631870759993 -3.1988562518472463 0 0 0 0 -127.24479700274969 143.26413281457826 0 143.26413281457826 -144.53901294088428 0 0 0 0 -97.576757141418057 187.86374414834427 0 187.86374414834427 -152.71252100303536 0 0 0 0 -0.75484779852558859 222.51270751451739 0 222.51270751451739 -141.551144554036 0 0 0 0 -189.72574225263088 241.26674208340364 0 241.26674208340364 -58.67750069800968 0 0 0 0 -173.94797435578948 154.34879789919432 0 154.34879789919432 -110.07824316689994 0 0 0 0 -190.45823677466979 169.04485015296086 0 169.04485015296086 -89.333116756090021 0 0 0 0 -37.017314182781035 30.173475891396947 0 30.173475891396947 -6.9147017541460372 0 0 0 0 -262.51464439119445 229.76769081509519 0 229.76769081509519 -171.4224512487126 0 0 0 0 -217.16465341345975 139.94202816871939 0 139.94202816871939 -103.62782137348768 0 0 0 0 14.180936334606997 3.5046934763600746 0 3.5046934763600746 0.5896834607309529 0 0 0 0 -180.49667444449733 195.28672013360301 0 195.28672013360301 -122.49027602574233 0 0 0 0 -214.3869610861293 143.79806008973901 0 143.79806008973901 -91.87799058285691 0 0 0 0 -253.49128454769379 242.5254357434178 0 242.5254357434178 -143.60079787024006 0 0 0 0 -215.59010422375286 176.06993551900996 0 176.06993551900996 -33.870783616284825 0 0 0 0 -214.33890084857558 173.82045757161404 0 173.82045757161404 -33.310401631224522 0 0 0 0 -208.97289010834356 182.80181711695423 0 182.80181711695423 -31.832371575885645 0 0 0 0 5.4856823492343096 4.7381079509135873 0 4.7381079509135873 0.29374345130222679 0 0 0 0 -251.35514423569111 175.19656726662288 0 175.19656726662288 -32.793936949266936 0 0 0 0 -111.1657653177972 173.70056666238088 0 173.70056666238088 -148.02022265255073 0 0 0 0 0.16739147540647537 155.54803887178241 0 155.54803887178241 -174.50336014142704 0 0 0 0 -100.92532920907433 125.37806001044646 0 125.37806001044646 -136.03255982986593 0 0 0 0 -0.24713648878969252 84.538629546420907 0 84.538629546420907 -119.49859416344907 0 0 0 0 4.9531841410757806 2.1859896861822392 0 2.1859896861822392 -2.4814380075637175 0 0 0 0 -211.55604986165417 164.1369046437926 0 164.1369046437926 420.37937430451802 0 0 0 0 -200.24142566258888 136.03881325294572 0 136.03881325294572 35.152565908616452 0 0 0 0 -0.22319117707957048 419.05676452071998 0 419.05676452071998 129.06689998154548 0 0 0 0 -90.282973084511468 326.77240743944139 0 326.77240743944139 36.970184481574961 0 0 0 0 -91.413154881658556 328.47166761930521 0 328.47166761930521 43.174750274872167 0 0 0 0 -90.175707416111891 328.91802835005961 0 328.91802835005961 43.257870499048295 0 0 0 0 -48.538144849895616 315.45882766139925 0 315.45882766139925 -51.454216720216948 0 0 0 0 0.0013310192380858719 372.72019197963795 0 372.72019197963795 16.095905831538403 0 0 0 0 -142.10617467996781 249.74418672372894 0 249.74418672372894 -28.191649024601702 0 0 0 0 -116.6811094828663 273.96961428789399 0 273.96961428789399 -7.196487348271603 0 0 0 0 -232.00386814892408 210.74832489138771 0 210.74832489138771 58.034474823215078 0 0 0 0 -222.69470319586253 194.49201876984898 0 194.49201876984898 -11.762861776573118 0 0 0 0 -206.28077949836734 249.28500115936822 0 249.28500115936822 182.40359065864777 0 0 0 0 -217.737590304474 184.32359459019153 0 184.32359459019153 15.387205295594867 0 0 0 0 -217.19620462561033 138.48577896246036 0 138.48577896246036 0.25473852422146592 0 0 0 0 -246.39178582519526 173.19263305352342 0 173.19263305352342 40.609105238626398 0 0 0 0 -38.393070134577982 168.03623080639639 0 168.03623080639639 -1.9732728859633397 0 0 0 0 -267.48589586502203 126.41346853318623 0 126.41346853318623 -19.997032990810112 0 0 0 0 -340.99375247966964 139.61088548775115 0 139.61088548775115 57.659647147158466 0 0 0 0 224.69333897095203 124.65549831825774 0 124.65549831825774 -69.536553640024067 0 0 0 0 85.943329105160956 162.11860272712238 0 162.11860272712238 68.673847497962925 0 0 0 0 -276.89126737257175 164.49022532138156 0 164.49022532138156 2.7619781417824925 0 0 0 0 -38.296122505036948 169.1340784600514 0 169.1340784600514 -20.121383087426409 0 0 0 0 97.985396087700792 -16.810789091327024 0 -16.810789091327024 4.5542158655216554 0 0 0 0 453.06181287443906 156.83025606852016 0 156.83025606852016 -128.34165710922298 0 0 0 0 495.91891278201456 335.4330858998606 0 335.4330858998606 -253.27059752978494 0 0 0 0 -141.91430526978232 198.29694094147922 0 198.29694094147922 -36.420416369842769 0 0 0 0 -91.538418342170189 210.37037445009673 0 210.37037445009673 5.3409200009900815 0 0 0 0 -189.83530463579336 8.1487554748907769 0 8.1487554748907769 -393.65473087455666 0 0 0 0 -189.65161347760204 143.06315883447598 0 143.06315883447598 85.087912766774025 0 0 0 0 -194.01996470977974 120.44858265370976 0 120.44858265370976 40.788412034525209 0 0 0 0 71.762532332798401 41.01174781778542 0 41.01174781778542 -83.243781691182448 0 0 0 0 -150.83487943102955 41.568687845575369 0 41.568687845575369 42.277147870549015 0 0 0 0 -236.04648965698652 226.11519962870852 0 226.11519962870852 53.011183032733243 0 0 0 0 36.489440994137112 91.994929049868006 0 91.994929049868006 -87.142389393591657 0 0 0 0 32.548802945439093 113.36299791587408 0 113.36299791587408 43.994756735392002 0 0 0 0 -73.028738680179458 41.290510785517796 0 41.290510785517796 6.6836578221764427 0 0 0 0 -24.717583005605825 153.52873895310859 0 153.52873895310859 -63.322318310172889 0 0 0 0 -187.13032618719444 157.68728014255794 0 157.68728014255794 -82.784607845300343 0 0 0 0 -112.91445563569141 201.58332405122746 0 201.58332405122746 -101.6513519399432 0 0 0 0 -0.49656776565143446 73.198246278729812 0 73.198246278729812 41.978999603120116 0 0 0 0 -73.515672539453817 174.56577662486623 0 174.56577662486623 -135.92764788995555 0 0 0 0 -127.38999258627155 154.16777727207227 0 154.16777727207227 -121.10372847852705 0 0 0 0 -29.371712330876854 148.44949923914481 0 148.44949923914481 -66.893932341452953 0 0 0 0 -94.969577095689601 184.34520656420136 0 184.34520656420136 -125.73690805492151 0 0 0 0 -65.151736346386315 156.18228125526366 0 156.18228125526366 -110.45784930754598 0 0 0 0 -43.41488201856555 189.17684368158552 0 189.17684368158552 -130.55430763711047 0 0 0 0 -42.03665228956379 186.09366238336952 0 186.09366238336952 -134.83341312902121 0 0 0 0 33.992586103791837 171.93478915894229 0 171.93478915894229 -167.47010424560631 0 0 0 0 -40.774718007145111 254.40959718190391 0 254.40959718190391 -172.10343798921531 0 0 0 0 63.579963074895431 66.815085793743336 0 66.815085793743336 64.941872654234544 0 0 0 0 -211.32043809852621 256.65838797050128 0 256.65838797050128 9.2862934367058187 0 0 0 0 59.638275793460963 52.469128859888386 0 52.469128859888386 53.539159323931905 0 0 0 0 -73.541075464349873 187.6218950049782 0 187.6218950049782 -133.69655641632562 0 0 0 0 215.05020872026944 470.26238627763814 0 470.26238627763814 54.034899841653896 0 0 0 0 -159.49341193572764 65.797108108614339 0 65.797108108614339 421.88591210055165 0 0 0 0 702.98047938828677 339.9189714664044 0 339.9189714664044 -346.14470051738863 0 0 0 0 -6.4519819157503662 664.61590294043708 0 664.61590294043708 -291.2014867503442 0 0 0 0 664.8514695967724 -377.60117584235769 0 -377.60117584235769 -21.806455151639966 0 0 0 0 3.7248051265691089 3.1690196947236871 0 3.1690196947236871 4.4845234491350965 0 0 0 0 -64.325576499737508 113.20675489342739 0 113.20675489342739 72.784831454657251 0 0 0 0 28.74049435134657 66.496219233582451 0 66.496219233582451 -101.19423483657738 0 0 0 0 -20.232686247542006 47.667368596215056 0 47.667368596215056 -91.006092530238675 0 0 0 0 30.373645165280323 33.368455126239496 0 33.368455126239496 -177.66433640384639 0 0 0 0 19.240682641531748 219.72318886944959 0 219.72318886944959 -160.43411604525318 0 0 0 0 7.7977878880337812 207.21503243125335 0 207.21503243125335 -173.83602479913239 0 0 0 0 191.65018477557169 397.62258306955846 0 397.62258306955846 -59.873142858915344 0 0 0 0 90.106196001856006 349.20745670494216 0 349.20745670494216 179.30548989682029 0 0 0 0 -24.338481995728216 202.82700287945318 0 202.82700287945318 -7.8212980444841378 0 0 0 0 16.090945778596506 350.0133290938129 0 350.0133290938129 -28.536340723438116 0 0 0 0 -9.0582104677632742 426.72045634911865 0 426.72045634911865 -213.3476151278519 0 0 0 0 -288.24096436683249 194.26110503122072 0 194.26110503122072 676.36853090245677 0 0 0 0 119.94772259833553 335.21433397323653 0 335.21433397323653 -28.605934575430638 0 0 0 0 154.88344840133868 285.32982206328552 0 285.32982206328552 19.775645956025983 0 0 0 0 -5.9422811403341314 4.0308729118407172 0 4.0308729118407172 -0.70759251824132541 0 0 0 0 504.80712069881702 232.25527961451871 0 232.25527961451871 -142.05289278806231 0 0 0 0 35.663134858565172 155.94324108038745 0 155.94324108038745 -116.80506390571099 0 0 0 0 102.62783269812644 149.94055423758437 0 149.94055423758437 -499.93573399881507 0 0 0 0 -2.6206300390350066 1.4135183810282843 0 1.4135183810282843 -0.32174774857914201 0 0 0 0 -168.08930414427596 -14.65607341998475 0 -14.65607341998475 465.09740699527333 0 0 0 0 -173.9051114233298 277.75955850766695 0 277.75955850766695 318.51138936330972 0 0 0 0 28.399367583067942 232.89277290998189 0 232.89277290998189 -69.051412359702226 0 0 0 0 -197.37702423781343 368.86884895573098 0 368.86884895573098 -374.53497543779304 0 0 0 0 -168.90644607802824 202.30464158404175 0 202.30464158404175 -73.555527395884383 0 0 0 0 -215.79331741119677 59.773710533191661 0 59.773710533191661 13.176803690495035 0 0 0 0 -577.97637093504454 310.80363873062288 0 310.80363873062288 -134.6124500506703 0 0 0 0 -187.28574432677487 363.84894982034848 0 363.84894982034848 -618.98356361109472 0 0 0 0 -166.23206081442913 439.62940117082326 0 439.62940117082326 -350.11649643033388 0 0 0 0 -427.044807090213 570.76522532504623 0 570.76522532504623 -557.32521933612588 0 0 0 0 -52.001611859421246 381.72839303065939 0 381.72839303065939 -614.4628993680235 0 0 0 0 -289.94869408841623 557.25190792483227 0 557.25190792483227 -450.89432345459318 0 0 0 0 114.14467905055608 775.07274453720856 0 775.07274453720856 -398.62208358894168 0 0 0 0 -127.09697129695996 -66.452825741951528 0 -66.452825741951528 850.87715852069573 0 0 0 0 -6.4390013126523229 7.8473879964989806 0 7.8473879964989806 15.353874882419628 0 0 0 0 -623.04572685407584 804.81337744031896 0 804.81337744031896 -708.20913877763996 0 0 0 0 -398.78058053688437 502.76771210079642 0 502.76771210079642 -915.30732044680656 0 0 0 0 -602.50625263966504 455.03850453955965 0 455.03850453955965 -607.16841492031017 0 0 0 0 -285.42984524498752 360.3216094931322 0 360.3216094931322 -424.78593412303326 0 0 0 0 -388.88929126399307 576.32104047394887 0 576.32104047394887 -579.60375444934471 0 0 0 0 -549.46733728804247 556.74068237850952 0 556.74068237850952 -589.48311853064843 0 0 0 0 -416.81953597240499 691.38929456313508 0 691.38929456313508 -455.07880758754982 0 0 0 0 -166.10214439981837 439.46099569826924 0 439.46099569826924 -378.91636761646805 0 0 0 0 -101.04343995149247 134.15213967890031 0 134.15213967890031 -20.588627092536626 0 0 0 0 -68.552904715463228 415.21810423589341 0 415.21810423589341 -448.99673004496071 0 0 0 0 -458.65806430845987 749.31674158878195 0 749.31674158878195 -691.55304751048425 0 0 0 0 -3.3171463443863161 2.6208012607797055 0 2.6208012607797055 -0.51385879059478867 0 0 0 0 -667.09230051667691 546.12479932139468 0 546.12479932139468 -277.81515345250227 0 0 0 0 -452.99229467617988 505.25410092759012 0 505.25410092759012 -305.83724170619644 0 0 0 0 -869.87206488780794 428.20157823677982 0 428.20157823677982 -157.57129739058519 0 0 0 0 -487.35070280823129 654.01391445556692 0 654.01391445556692 -71.393831777413652 0 0 0 0 -2.5256665111249106 17.767377355534542 0 17.767377355534542 24.15894140969257 0 0 0 0 -480.46024999130145 338.72244239421741 0 338.72244239421741 -142.88075236725126 0 0 0 0 -487.67494368072948 483.05178633507057 0 483.05178633507057 -362.46263179920334 0 0 0 0 -571.88684832814761 626.68319547226656 0 626.68319547226656 -456.65351215332976 0 0 0 0 -4.7295765187306813 13.194005223235621 0 13.194005223235621 22.950477063025144 0 0 0 0 -51.47336068470031 142.8984643037461 0 142.8984643037461 110.44798120576706 0 0 0 0 -48.310344684397251 38.341883103571689 0 38.341883103571689 53.422583762715476 0 0 0 0 -123.60956021265883 83.069792192811292 0 83.069792192811292 449.00116466786267 0 0 0 0 -11.406015989472507 186.80482931261986 0 186.80482931261986 235.84284171759509 0 0 0 0 -114.14914065164339 66.693401832894097 0 66.693401832894097 405.12482780841128 0 0 0 0 -76.233824654758791 -16.794838636621535 0 -16.794838636621535 499.49772011194 0 0 0 0 -44.19667333412508 3.4158881794044191 0 3.4158881794044191 199.35785856159328 0 0 0 0 2496.3534828248303 -136.03178498293028 0 -136.03178498293028 -740.6753579955066 0 0 0 0 -2.0536566190070857 2.5968741990931221 0 2.5968741990931221 -0.99721942089016835 0 0 0 0 257.29838968303466 489.08535167915807 0 489.08535167915807 496.4458516301911 0 0 0 0 -81.600423938798485 -277.83450096615798 0 -277.83450096615798 197.43198013031906 0 0 0 0 31.651772231234645 160.32384856275758 0 160.32384856275758 364.11000360166145 0 0 0 0 -18.143698363441217 156.28166363818991 0 156.28166363818991 364.48937584592159 0 0 0 0 154.38560755547223 254.24361995229719 0 254.24361995229719 -46.178989914003068 0 0 0 0 17.025472653218458 -4.29962594938047 0 -4.29962594938047 -107.76129021383261 0 0 0 0 700.01457467545697 478.60059476286187 0 478.60059476286187 504.58712817620858 0 0 0 0 774.48718760409974 804.23991364683388 0 804.23991364683388 613.14163720265788 0 0 0 0 1251.7791565535281 997.32832846249721 0 997.32832846249721 135.01544195892893 0 0 0 0 771.7856029549439 957.24079584957099 0 957.24079584957099 148.82883831931031 0 0 0 0 -1.4105549914227424 12.61226885428642 0 12.61226885428642 -22.5884376111892 0 0 0 0 43.952260129975912 86.800946527612837 0 86.800946527612837 -80.317295795248356 0 0 0 0 -3.569085182486333 6.0471002746789466 0 6.0471002746789466 6.2980648925722775 0 0 0 0 1333.3647601663833 311.89607250562403 0 311.89607250562403 561.669839244998 0 0 0 0 2104.8705130163144 313.88436490780441 0 313.88436490780441 48.408291964384262 0 0 0 0 1983.6521905644477 247.90575011498731 0 247.90575011498731 271.39354769454803 0 0 0 0 1388.4697870493401 576.90536628418704 0 576.90536628418704 96.786273392375733 0 0 0 0 1939.3152451468486 441.941924402523 0 441.941924402523 33.979660981611232 0 0 0 0 1218.0882651872525 603.61140463398806 0 603.61140463398806 24.255573615493631 0 0 0 0 2048.1022409583475 1136.360081037124 0 1136.360081037124 -208.98785091305035 0 0 0 0 404.39140446217789 378.50987774190799 0 378.50987774190799 28.088964659993508 0 0 0 0 564.71986448233656 362.2005555330179 0 362.2005555330179 -2.3663038711456466 0 0 0 0 909.90457361812878 588.75615051390196 0 588.75615051390196 117.2903673509245 0 0 0 0 938.64908057299908 466.23757208509051 0 466.23757208509051 510.31779324216041 0 0 0 0 628.45537843531929 194.39399780929671 0 194.39399780929671 125.92344030333942 0 0 0 0 242.22995078586973 76.373006536268804 0 76.373006536268804 -174.96741602059865 0 0 0 0 645.18347549791361 300.76727236712577 0 300.76727236712577 -296.5819113145335 0 0 0 0 723.8434791269101 252.88318990130665 0 252.88318990130665 -344.2493731557006 0 0 0 0 -81.136499710064527 157.57142793856337 0 157.57142793856337 -300.63517102395235 0 0 0 0 -319.47559921361972 271.14660380323585 0 271.14660380323585 -340.41765220454545 0 0 0 0 64.447985941034858 13.659461295758774 0 13.659461295758774 -289.21952025714381 0 0 0 0 157.39428074830357 354.73170397715057 0 354.73170397715057 -440.07180332359394 0 0 0 0 -88.916171727843903 554.80448877825347 0 554.80448877825347 -153.58999038176989 0 0 0 0 597.65541071500047 236.57655950300796 0 236.57655950300796 -124.68168162665006 0 0 0 0 815.18533998972271 1326.8396835632821 0 1326.8396835632821 169.64000374323768 0 0 0 0 -87.079138031702314 599.72742643562106 0 599.72742643562106 -179.90663853888873 0 0 0 0 -224.03691317365156 735.05895826127198 0 735.05895826127198 -145.20901948273331 0 0 0 0 -473.54438651413875 596.22323943908123 0 596.22323943908123 43.894101947800664 0 0 0 0 -582.54855367699929 574.08239019318626 0 574.08239019318626 189.84033127142902 0 0 0 0 -536.8259194094062 689.30465527290471 0 689.30465527290471 -88.420918004636405 0 0 0 0 -534.54719888117688 695.59567075966515 0 695.59567075966515 -258.07433596870032 0 0 0 0 -642.61512257278082 502.7098568703168 0 502.7098568703168 142.3952274686053 0 0 0 0 -255.46248778693553 342.0707662732093 0 342.0707662732093 138.80300264354082 0 0 0 0 -413.40833014831878 512.57033495863834 0 512.57033495863834 93.304259135487882 0 0 0 0 -252.63603749078902 373.76543442585444 0 373.76543442585444 41.062286469346873 0 0 0 0 -469.52676285860798 378.68834524444173 0 378.68834524444173 85.950812407372723 0 0 0 0 -1086.2182578895154 764.62835636689033 0 764.62835636689033 -101.17078462996506 0 0 0 0 -166.30172127096739 820.04279914404106 0 820.04279914404106 -1545.3415943065593 0 0 0 0 -40.503715297381859 401.10560962030104 0 401.10560962030104 -356.00814220933671 0 0 0 0 -36.207743530208973 357.20232116641591 0 357.20232116641591 -488.22829463790549 0 0 0 0 112.14512141630985 -170.84765952639282 0 -170.84765952639282 -461.54958783714994 0 0 0 0 -51.858902320760535 -211.39234541190854 0 -211.39234541190854 -1093.3006803926355 0 0 0 0 -0.85481889157947322 3.819091487438186 0 3.819091487438186 2.0499825756173138 0 0 0 0 -3.4373768364434198 7.009501633601829 0 7.009501633601829 -4.9074030235572152 0 0 0 0 -793.63529535671114 3.0449945771033526 0 3.0449945771033526 59.572615895373019 0 0 0 0 -569.23106291015574 579.65627601297092 0 579.65627601297092 -181.43778078097421 0 0 0 0 -329.24009905707499 259.24927323748125 0 259.24927323748125 -348.9475401766349 0 0 0 0 -450.20415794294422 243.87920931881035 0 243.87920931881035 -210.57897824935208 0 0 0 0 787.30013499815323 -228.08101257006365 0 -228.08101257006365 -1089.4831706075765 0 0 0 0 4.1094753736910405 4.9082073146097116 0 4.9082073146097116 0.53841785031038114 0 0 0 0 -627.67836261081902 768.581617759045 0 768.581617759045 -549.73279096845226 0 0 0 0 -445.31602952203684 66.748061145672182 0 66.748061145672182 -256.36472779278938 0 0 0 0 9.1213346005228289 12.595211913647461 0 12.595211913647461 7.3750222240759911 0 0 0 0 -512.23959597969224 390.61508259019502 0 390.61508259019502 -300.41223754270322 0 0 0 0 -85.854798912509068 551.97850370597371 0 551.97850370597371 -441.79781591855863 0 0 0 0 -21.182424179147347 406.84584375262102 0 406.84584375262102 -130.84289129587341 0 0 0 0 -280.3312104719862 135.71539759444204 0 135.71539759444204 -28.533983008524956 0 0 0 0 -6.5277401745707735 18.841961548881343 0 18.841961548881343 3.5353390028651575 0 0 0 0 20.94541701117123 26.366161787294459 0 26.366161787294459 2.5049323510211252 0 0 0 0 -133.6486143703878 73.979058907911167 0 73.979058907911167 -10.134833637570409 0 0 0 0 -0.095378794585013082 21.015607210915149 0 21.015607210915149 3.5786983613203631 0 0 0 0 -112.00324600706517 7.9152402299750975 0 7.9152402299750975 27.158322292103549 0 0 0 0 -16.315208843188884 42.392205065603775 0 42.392205065603775 -129.90073823960483 0 0 0 0 95.640219701519527 -77.443833478460874 0 -77.443833478460874 -54.785069051227765 0 0 0 0 -103.7456730659178 -164.12517543765898 0 -164.12517543765898 308.98381024139962 0 0 0 0 10.614060776024708 46.149143113451814 0 46.149143113451814 35.888840095206035 0 0 0 0 -14.111426682830853 1.7708516866184709 0 1.7708516866184709 6.7133030148695525 0 0 0 0 -234.44753625342855 39.7240127276782 0 39.7240127276782 20.961004991184382 0 0 0 0 -332.08374505437678 151.08085867598493 0 151.08085867598493 428.26225823228742 0 0 0 0 -311.43305364303524 265.62062203008099 0 265.62062203008099 61.254439746202479 0 0 0 0 -103.88605247646046 -46.898668255336815 0 -46.898668255336815 139.39075550660345 0 0 0 0 -128.62391995362123 20.100921380573709 0 20.100921380573709 273.15321740051877 0 0 0 0 -27.542229082307998 3.5069514065020115 0 3.5069514065020115 29.954841435042844 0 0 0 0 -166.95397373178275 263.64091799580638 0 263.64091799580638 279.51706872365685 0 0 0 0 -160.48598250978989 145.55700694497364 0 145.55700694497364 148.73787438064028 0 0 0 0 -167.75706713883847 237.37357997823347 0 237.37357997823347 248.75204518607643 0 0 0 0 -160.6499340979226 312.4902857179336 0 312.4902857179336 974.79553451292304 0 0 0 0 332.70153183497314 658.20948067962308 0 658.20948067962308 187.84325101477225 0 0 0 0 261.00364551273378 -363.5395740859849 0 -363.5395740859849 436.17388767775992 0 0 0 0 630.44825936246343 497.7999483643539 0 497.7999483643539 -183.83796434595934 0 0 0 0 -963.99111858198012 1100.8598395895224 0 1100.8598395895224 481.65592814132106 0 0 0 0 10.429642392225588 6.7441475486734248 0 6.7441475486734248 4.226544848184048 0 0 0 0 237.84296463242936 343.02039124461953 0 343.02039124461953 -430.17657645799045 0 0 0 0 -407.96152440381411 -261.4621913856563 0 -261.4621913856563 1693.2587832268673 0 0 0 0 -80.573520636353351 -135.6777712041403 0 -135.6777712041403 -727.19810335342663 0 0 0 0 -3.6602142413903493 85.330863526509347 0 85.330863526509347 -323.04921525175632 0 0 0 0 -204.90050718905331 306.82634736774708 0 306.82634736774708 -277.44956864447158 0 0 0 0 173.48463746115158 237.08138029521797 0 237.08138029521797 -280.27538282027672 0 0 0 0 75.560508466143801 288.5873323287633 0 288.5873323287633 -1024.5816804212227 0 0 0 0 -363.26224945238209 447.42798019415932 0 447.42798019415932 -1072.8505201517983 0 0 0 0 43.817833410960134 128.41586552189315 0 128.41586552189315 51.335697496761114 0 0 0 0 -10.656843825156102 362.1463041909301 0 362.1463041909301 -645.95105281711585 0 0 0 0 -67.871690842577664 308.68137091540848 0 308.68137091540848 -657.03651703137439 0 0 0 0 -79.706217631877735 243.67658127943105 0 243.67658127943105 -324.95492179431312 0 0 0 0 -38.950699302295106 521.29935087176273 0 521.29935087176273 -666.04019943870662 0 0 0 0 -16.114748830521421 149.72399994623265 0 149.72399994623265 -228.13930565468036 0 0 0 0 -15.222248636084259 218.9940775632349 0 218.9940775632349 -349.00345699632453 0 0 0 0 8.1422696687659482 300.97322433741647 0 300.97322433741647 -386.84339311985241 0 0 0 0 -36.058148070747848 235.51012250467829 0 235.51012250467829 -404.65992050567002 0 0 0 0 28.406001056733658 248.0296366959592 0 248.0296366959592 -229.88701191940345 0 0 0 0 -15.329679344926262 192.76821929176367 0 192.76821929176367 -236.06733695089497 0 0 0 0 -42.281306895594753 470.13532479017886 0 470.13532479017886 -27.336166224900808 0 0 0 0 77.897111287079497 215.11107919820734 0 215.11107919820734 -296.68389444169588 0 0 0 0 71.117666308732169 291.07899595287245 0 291.07899595287245 -190.00783364861854 0 0 0 0 38.688398602156667 131.39396700364887 0 131.39396700364887 -41.458253529279318 0 0 0 0 48.683785611858184 -49.330258412701369 0 -49.330258412701369 -1599.4416763383852 0 0 0 0 -125.6722013968465 254.09840746768896 0 254.09840746768896 362.54151571464899 0 0 0 0 -4.5184078240956467 4.6939249200405015 0 4.6939249200405015 -1.1449798766151105 0 0 0 0 543.69324519281508 768.84558301797369 0 768.84558301797369 -2427.7825140288496 0 0 0 0 52.559537196748352 378.01622034157924 0 378.01622034157924 175.75730085826217 0 0 0 0 68.975501714368875 202.29344307568317 0 202.29344307568317 -194.50915839174922 0 0 0 0 74.814037269768306 141.01193760608336 0 141.01193760608336 47.176483090454468 0 0 0 0 -6.2496418405680743 280.45392187072139 0 280.45392187072139 31.887584383897774 0 0 0 0 16.022282954334514 182.52485751704808 0 182.52485751704808 142.79440892716957 0 0 0 0 -0.22794074832927436 141.48870346583863 0 141.48870346583863 45.201462125121907 0 0 0 0 -13.66856700516923 87.546194354723283 0 87.546194354723283 93.30519871902024 0 0 0 0 -25.637085167751593 96.113870572797055 0 96.113870572797055 49.650666220723735 0 0 0 0 -62.703896734008595 117.31379315413506 0 117.31379315413506 79.571486483226181 0 0 0 0 70.330151218891842 583.51179187139496 0 583.51179187139496 -1003.32105311747 0 0 0 0 -119.26081997239089 4.0671585025211243 0 4.0671585025211243 -722.39266597470851 0 0 0 0 0.66762295847001951 204.63742565929715 0 204.63742565929715 -309.55796923552043 0 0 0 0 -419.51481184081058 1104.0658096127881 0 1104.0658096127881 -1507.1229194501357 0 0 0 0 -879.70236477669096 538.26737043878529 0 538.26737043878529 -1372.2600912959097 0 0 0 0 -12.764160606219605 9.6303244890995359 0 9.6303244890995359 -0.62646589744636572 0 0 0 0 5.6079326768328741 62.133741179424732 0 62.133741179424732 18.060165585093955 0 0 0 0 58.554622817508061 -119.46120434677869 0 -119.46120434677869 -1847.874008661136 0 0 0 0 33.089805603442983 175.80198960588314 0 175.80198960588314 -285.09186310248333 0 0 0 0 -14.500774078856921 228.21009864532971 0 228.21009864532971 -185.81199207257305 0 0 0 0 -12.790348309761612 212.84910879214294 0 212.84910879214294 -315.33952423460141 0 0 0 0 -69.296395307523198 191.22989509869512 0 191.22989509869512 -276.40252603610861 0 0 0 0 -58.561139664220718 119.23183945997516 0 119.23183945997516 -547.68349653520272 0 0 0 0 -66.570415246518678 305.57993829587213 0 305.57993829587213 -222.82635772853246 0 0 0 0 -63.453762327568256 237.10993145284738 0 237.10993145284738 -189.14459727700887 0 0 0 0 -43.088320719663898 265.49462193482032 0 265.49462193482032 -159.05776354759291 0 0 0 0 14.688573634673958 282.91472147621243 0 282.91472147621243 -223.51149445422197 0 0 0 0 124.18117573711061 -5.9507080484909238 0 -5.9507080484909238 -213.25723963969358 0 0 0 0 -28.240380225601257 342.26019170160725 0 342.26019170160725 -179.31342610945285 0 0 0 0 -232.02946784728556 285.90736713178194 0 285.90736713178194 -505.97658929127647 0 0 0 0 -47.749188846719335 193.42189511677316 0 193.42189511677316 -473.93663736179587 0 0 0 0 -86.606218643559259 346.34921085211681 0 346.34921085211681 -311.74609800570761 0 0 0 0 -168.62350443302512 -0.044713449439768738 0 -0.044713449439768738 -860.89719304596656 0 0 0 0 -142.640663921542 379.08641952206381 0 379.08641952206381 -519.44729141164862 0 0 0 0 -7.6400453646495237 1.8105499328939629 0 1.8105499328939629 -0.25893464958214096 0 0 0 0 -957.17471560399281 285.628783421751 0 285.628783421751 1325.6853156890429 0 0 0 0 -200.46669689469854 -341.50919104932109 0 -341.50919104932109 273.20125258213375 0 0 0 0 -16.105499432180949 8.6514475353987166 0 8.6514475353987166 0.070567513493905665 0 0 0 0 -401.91300890909042 360.72156326714321 0 360.72156326714321 -27.698531256452043 0 0 0 0 -5.0892904441716382 268.13212110383756 0 268.13212110383756 -830.39579676531139 0 0 0 0 -20.372374954356928 818.8804700773253 0 818.8804700773253 -721.73171423246094 0 0 0 0 188.06974237323448 541.61719617478957 0 541.61719617478957 -1601.277249729872 0 0 0 0 -22.910412247904929 82.339299543699042 0 82.339299543699042 30.742664136358087 0 0 0 0 -113.61347313033184 234.73948415576888 0 234.73948415576888 378.31398789459126 0 0 0 0 215.18513042927952 661.61696502687118 0 661.61696502687118 -1998.8731602692133 0 0 0 0 -27.875284507894548 74.094379430179032 0 74.094379430179032 12.410579694022985 0 0 0 0 416.54289778929888 -233.23071836822419 0 -233.23071836822419 -1116.7069270489446 0 0 0 0 -302.74822869623313 420.95501198408601 0 420.95501198408601 -966.9862841272552 0 0 0 0 -754.87473165418487 567.76998450885003 0 567.76998450885003 -914.58430614008103 0 0 0 0 503.67405530511314 35.818068060281803 0 35.818068060281803 -465.6868293385196 0 0 0 0 28.364557249107747 142.95398270616715 0 142.95398270616715 234.4150367920156 0 0 0 0 -400.84819032482119 -284.81880016071136 0 -284.81880016071136 361.85969529496651 0 0 0 0 -12.809212510052262 2.4217219847760987 0 2.4217219847760987 25.67555159781972 0 0 0 0 0.75505178656590033 -0.83972631682046028 0 -0.83972631682046028 3.4981474753427335 0 0 0 0 -109.26811439415906 357.2696579264084 0 357.2696579264084 80.865510102012195 0 0 0 0 309.34423920950212 419.24206774037521 0 419.24206774037521 317.3113755516606 0 0 0 0 -1024.1766567029117 267.38027488467924 0 267.38027488467924 495.48481274711958 0 0 0 0 -220.44764825972379 -224.8363274765361 0 -224.8363274765361 -87.730648212123924 0 0 0 0 -270.15876671377919 104.72186661690648 0 104.72186661690648 377.873162686039 0 0 0 0 -6.3877339424408603 3.6913143550054954 0 3.6913143550054954 -3.7245926869166794 0 0 0 0 -839.7545338209311 -487.03229492562241 0 -487.03229492562241 33.572104000631953 0 0 0 0 100.6094812353258 127.2928237481101 0 127.2928237481101 -133.5395712436075 0 0 0 0 21.757352682805504 303.12599651851633 0 303.12599651851633 -99.793019690871006 0 0 0 0 -119.93888724621866 387.08691043875115 0 387.08691043875115 136.59405363052792 0 0 0 0 28.007113820684026 177.66894511050486 0 177.66894511050486 192.2412449302501 0 0 0 0 14.990058552357368 135.97503373314248 0 135.97503373314248 65.71801623612555 0 0 0 0 60.635777050018078 119.24823685229785 0 119.24823685229785 70.833723849849775 0 0 0 0 10.133154924224073 129.00713112312042 0 129.00713112312042 59.82005589963228 0 0 0 0 -14.905206914829396 48.501001238627531 0 48.501001238627531 98.566691248798136 0 0 0 0 30.320573306662482 99.62993056722371 0 99.62993056722371 87.056742710381513 0 0 0 0 16.359751040276024 93.926710090476263 0 93.926710090476263 85.646913228920312 0 0 0 0 24.809514534645132 94.417694312156527 0 94.417694312156527 92.571680355045828 0 0 0 0 36.433198230191977 57.671649939820298 0 57.671649939820298 57.617221249823245 0 0 0 0 53.388222888068412 94.067974751160364 0 94.067974751160364 91.698620529205073 0 0 0 0 0.18708689499180764 59.955086878297152 0 59.955086878297152 30.969458441832103 0 0 0 0 -10.226755301730009 48.304290043595756 0 48.304290043595756 22.306679306042497 0 0 0 0 78.307680394791532 103.0877949989117 0 103.0877949989117 80.75657996769587 0 0 0 0 52.735901238193037 109.16126842983795 0 109.16126842983795 81.945421071962301 0 0 0 0 -2.1127267473332836 29.573103339516894 0 29.573103339516894 7.5790371682236355 0 0 0 0 80.788870546157909 81.939706135549258 0 81.939706135549258 63.49724400794944 0 0 0 0 -285.25651775729784 14.823791850794805 0 14.823791850794805 49.356913650830393 0 0 0 0 26.988721274443378 88.007767905404762 0 88.007767905404762 16.290450356307701 0 0 0 0 32.00923320674633 51.459952521205778 0 51.459952521205778 1.5550341932205782 0 0 0 0 5.6113736107508885 62.286292357417551 0 62.286292357417551 30.065986651781714 0 0 0 0 13.793372408907402 30.241944856842622 0 30.241944856842622 22.008954389808096 0 0 0 0 3.890685493737692 31.565172036525382 0 31.565172036525382 1.6222148587148695 0 0 0 0 10.446967558571487 71.232849269861617 0 71.232849269861617 36.624732245778432 0 0 0 0 24.116138981931726 63.057479394035909 0 63.057479394035909 -92.979763409260613 0 0 0 0 6.9925158302221178 13.600782014470283 0 13.600782014470283 -13.551412631512491 0 0 0 0 14.742860875801554 15.941088278765079 0 15.941088278765079 2.7728359682609067 0 0 0 0 29.186016921004921 22.310444041118899 0 22.310444041118899 -90.141943593219139 0 0 0 0 120.72156358247594 223.72527182088243 0 223.72527182088243 -228.89596106127647 0 0 0 0 245.5897989548248 -80.755804455340694 0 -80.755804455340694 -93.683328573708422 0 0 0 0 269.1756414683914 63.41859322552466 0 63.41859322552466 -285.89607879343384 0 0 0 0 23.283036984037608 -104.83491431123912 0 -104.83491431123912 130.89346709143047 0 0 0 0 75.452841791933906 74.323816031082544 0 74.323816031082544 71.258500179246369 0 0 0 0 -78.811171657995146 319.45994181140486 0 319.45994181140486 -131.01875770094921 0 0 0 0 133.83078127221961 182.2388118886156 0 182.2388118886156 -110.12330309606477 0 0 0 0 70.457343657966703 110.80915454180649 0 110.80915454180649 33.621188514807727 0 0 0 0 12.814350315500633 268.16323587097577 0 268.16323587097577 103.3531665424307 0 0 0 0 -14.036462047486566 163.20812780293272 0 163.20812780293272 341.31665496553615 0 0 0 0 -155.29793592062197 273.15553744580393 0 273.15553744580393 30.252473218235536 0 0 0 0 -128.71743074219557 346.21609318588526 0 346.21609318588526 198.13979604009364 0 0 0 0 -74.415649788788869 241.48568725160294 0 241.48568725160294 101.25033316739791 0 0 0 0 -7.3060541529865191 148.01896921930944 0 148.01896921930944 11.738969111749611 0 0 0 0 -43.180699320393614 207.24187976282701 0 207.24187976282701 124.401028226981 0 0 0 0 -0.1551304722961504 128.20049236456543 0 128.20049236456543 115.81972105930618 0 0 0 0 -13.210201929119648 250.68274748743715 0 250.68274748743715 227.42985547806165 0 0 0 0 -6.4643697977007832 214.9269034058525 0 214.9269034058525 -13.275526814475597 0 0 0 0 -25.73433455893246 180.33943153562359 0 180.33943153562359 -24.824983476733905 0 0 0 0 -11.577655407367274 157.60146184651967 0 157.60146184651967 -110.22447674905561 0 0 0 0 -59.102656004179153 191.74106245525763 0 191.74106245525763 -19.373134363559075 0 0 0 0 -92.581381364514527 178.9451415138119 0 178.9451415138119 -28.330020817753393 0 0 0 0 -53.888937799682026 194.71456122672316 0 194.71456122672316 -101.30258615953244 0 0 0 0 -38.258286860854135 152.35896181856805 0 152.35896181856805 -62.26267421251697 0 0 0 0 -275.67166565222578 212.11219934992187 0 212.11219934992187 23.329421401671425 0 0 0 0 -78.472570894280295 36.087945582394184 0 36.087945582394184 -5.8694106142830265 0 0 0 0 -113.68023405989516 233.10115124386357 0 233.10115124386357 -166.42824600383028 0 0 0 0 -197.8349733934474 179.41703451377589 0 179.41703451377589 -2.912412702164147 0 0 0 0 -190.48034453441505 301.09949860518827 0 301.09949860518827 -15.683284847949835 0 0 0 0 -185.72032961489913 260.08398308211736 0 260.08398308211736 10.697722245742625 0 0 0 0 -106.83150780797587 225.09119048398134 0 225.09119048398134 24.666331589905894 0 0 0 0 -112.68916926129168 213.66943667796659 0 213.66943667796659 157.7796863528929 0 0 0 0 -163.39646576334781 269.99391789070069 0 269.99391789070069 252.75665883802867 0 0 0 0 -194.26389683835441 322.14724218425545 0 322.14724218425545 193.49488426688185 0 0 0 0 -177.36185490601565 250.20433736327868 0 250.20433736327868 271.00845874815423 0 0 0 0 -648.21709166225628 471.13856003921683 0 471.13856003921683 530.04918844094937 0 0 0 0 298.59163526527846 544.57823866497711 0 544.57823866497711 -76.446224263476324 0 0 0 0 645.45317955751671 -7.6860829073593777 0 -7.6860829073593777 -697.83583054006886 0 0 0 0 -258.35556972131235 887.41688201652141 0 887.41688201652141 -274.92029771542002 0 0 0 0 -9.8349628811887442 0.47116042341548336 0 0.47116042341548336 -0.41071571317407063 0 0 0 0 -353.80989601086185 85.775711095848237 0 85.775711095848237 984.13508742400882 0 0 0 0 -11.600329363451692 183.37249498539745 0 183.37249498539745 277.0125711155124 0 0 0 0 -16.868394195815199 63.986415761097305 0 63.986415761097305 479.5652882127979 0 0 0 0 1.253484938031761 186.32585479072441 0 186.32585479072441 273.69163837166343 0 0 0 0 -64.902473439462483 205.00049989305262 0 205.00049989305262 268.52052372116304 0 0 0 0 -82.630547052845941 179.20936217049166 0 179.20936217049166 185.40486438017979 0 0 0 0 86.978859492170159 181.91344405271229 0 181.91344405271229 218.71295051845664 0 0 0 0 66.043731103171012 229.15341473354783 0 229.15341473354783 232.93861891141569 0 0 0 0 7.8310952626779908 210.63093016149651 0 210.63093016149651 247.70859314656991 0 0 0 0 41.359610836865613 162.93668133301253 0 162.93668133301253 210.83369065583247 0 0 0 0 -33.486758395525499 2.5509146065278685 0 2.5509146065278685 -7.195719949937299 0 0 0 0 47.824460726042162 183.67272213896467 0 183.67272213896467 265.02008087674039 0 0 0 0 28.870771044996218 151.20534386273357 0 151.20534386273357 243.96169686445501 0 0 0 0 5.8562373522800044 153.77532951798275 0 153.77532951798275 316.79475779978384 0 0 0 0 189.22633108137234 546.93082775839139 0 546.93082775839139 -2045.4768173212142 0 0 0 0 3.3418277407005093 37.038372710434921 0 37.038372710434921 -89.17734449945786 0 0 0 0 -797.53442893178726 306.22959611333499 0 306.22959611333499 -1059.6138910625014 0 0 0 0 -1005.1461678422056 1698.291396395507 0 1698.291396395507 -2492.4774336882037 0 0 0 0 -0.38127212032503621 0.21357815202878783 0 0.21357815202878783 -12.458933903670474 0 0 0 0 -588.7453298397304 143.14938918635016 0 143.14938918635016 -315.81509593869851 0 0 0 0 14.535400575274252 50.41204327592277 0 50.41204327592277 -111.64229360338504 0 0 0 0 -551.24524453870981 648.01973512177574 0 648.01973512177574 -922.37397837024037 0 0 0 0 39.056982423509169 28.454005370693011 0 28.454005370693011 -15.120396061613926 0 0 0 0 45.858192747007706 21.112444307735132 0 21.112444307735132 -122.26921083819616 0 0 0 0 45.265490238895381 -5.2346495491277665 0 -5.2346495491277665 -89.403402008087141 0 0 0 0 127.10628567071399 715.63569248019485 0 715.63569248019485 -1789.4191205203588 0 0 0 0 -522.16067576390924 1191.5560947340709 0 1191.5560947340709 301.49174535388011 0 0 0 0 616.53547864349093 732.19758185517276 0 732.19758185517276 -1999.3377056224272 0 0 0 0 39.299405532190576 97.681820708341547 0 97.681820708341547 -174.07747709794785 0 0 0 0 -1.8841124030463527 18.975621512612136 0 18.975621512612136 -0.81744069148874132 0 0 0 0 464.94955389053212 275.29943443562661 0 275.29943443562661 887.07677736525466 0 0 0 0 -0.12087903593524629 29.857361269879782 0 29.857361269879782 -80.070354032505406 0 0 0 0 -1607.9222709421083 1058.1449698314245 0 1058.1449698314245 1280.7322534379055 0 0 0 0 -157.21803825184179 -27.120394161480363 0 -27.120394161480363 -18.899482338048983 0 0 0 0 122.75767561321845 305.89578809003433 0 305.89578809003433 -544.4729063417617 0 0 0 0 -1.5790274937969544 28.557441369367723 0 28.557441369367723 -57.351454608863435 0 0 0 0 29.583460375593859 63.883947144269769 0 63.883947144269769 -111.65634528806549 0 0 0 0 5.0268642606530847 21.735867982609214 0 21.735867982609214 -70.079117544742587 0 0 0 0 34.63570845571553 25.88048008679425 0 25.88048008679425 -53.742569484951673 0 0 0 0 -63.275992830102041 255.34521845923155 0 255.34521845923155 -43.875557856837986 0 0 0 0 -15.042438881454387 24.113256603917677 0 24.113256603917677 -35.343264961745462 0 0 0 0 14.899662173978868 36.102968995655829 0 36.102968995655829 -58.191400262890966 0 0 0 0 -109.86717000837962 117.72130068604019 0 117.72130068604019 -148.29768910425628 0 0 0 0 -28.373101445293287 -88.438685661887575 0 -88.438685661887575 68.506283577095019 0 0 0 0 0.84160529924605498 5.4538170021778569 0 5.4538170021778569 -10.388445258057118 0 0 0 0 214.69437793895486 -41.456496322363137 0 -41.456496322363137 -145.22097665630281 0 0 0 0 0.46800910039654564 12.883590939513937 0 12.883590939513937 -52.545524338423718 0 0 0 0 -5.1494069551994954 6.4281297230729422 0 6.4281297230729422 -12.782389828000078 0 0 0 0 64.515761832255521 -99.762475008938054 0 -99.762475008938054 -318.85183000282268 0 0 0 0 -1076.360145313578 182.69078013838589 0 182.69078013838589 29.137666691400227 0 0 0 0 257.13900311147154 70.954914096328139 0 70.954914096328139 -225.12390833469181 0 0 0 0 -37.786325002234463 61.554997528992111 0 61.554997528992111 -53.250080050357042 0 0 0 0 85.817066079791402 223.70700755077269 0 223.70700755077269 -282.16281095809973 0 0 0 0 35.599185459519504 71.620566966033948 0 71.620566966033948 -144.7157804276867 0 0 0 0 29.13619871690446 35.01155479084926 0 35.01155479084926 0.0039558068143605851 0 0 0 0 279.63670286737033 112.59998882652872 0 112.59998882652872 -588.29980584976147 0 0 0 0 -2154.525240774703 -40.667512891937804 0 -40.667512891937804 77.033194056628417 0 0 0 0 -12.388742211572264 31.886902716452937 0 31.886902716452937 0.26858258554322845 0 0 0 0 -1.6593654004427663 110.09472581885711 0 110.09472581885711 -166.88884863124986 0 0 0 0 428.80675589381644 2390.577848213813 0 2390.577848213813 -853.97434520779643 0 0 0 0 6.9542018220381578 95.875884079818206 0 95.875884079818206 -171.77463277507195 0 0 0 0 -15.636719785328751 87.247648449614644 0 87.247648449614644 -138.09624339225411 0 0 0 0 75.90398488228675 58.305946461892745 0 58.305946461892745 -154.06777564763252 0 0 0 0 426.27395040587726 883.82989823991011 0 883.82989823991011 -2661.0639586834295 0 0 0 0 89.09130858028999 54.505005484132326 0 54.505005484132326 -15.893778670734127 0 0 0 0 -454.7963986125269 45.568542147042535 0 45.568542147042535 56.696010034094797 0 0 0 0 -24.234087248923856 153.81061233961427 0 153.81061233961427 -65.732343762508634 0 0 0 0 -2.9437286593286558 41.922628495612145 0 41.922628495612145 -16.750184757172001 0 0 0 0 -126.9230080753041 127.02987594570368 0 127.02987594570368 -71.386241089749319 0 0 0 0 0.19129036570677727 -7.8524760220146277 0 -7.8524760220146277 -1.0387296856536583 0 0 0 0 -395.06421658073668 1006.3445372484075 0 1006.3445372484075 -267.88093451588065 0 0 0 0 -657.2632512604614 290.20535675049177 0 290.20535675049177 -219.37510740026482 0 0 0 0 -25.836500659352168 131.08310161205009 0 131.08310161205009 334.26468371378724 0 0 0 0 294.27561399905244 30.946935633888643 0 30.946935633888643 -232.05922684721327 0 0 0 0 -7.0387892532135936 0.45368859270070061 0 0.45368859270070061 -15.679424709921079 0 0 0 0 0.12452407853561454 203.18602051500784 0 203.18602051500784 -84.211311524893972 0 0 0 0 -4.7132970917086823 84.579876144940727 0 84.579876144940727 -81.860995070806808 0 0 0 0 -10.800007906756946 99.040104514504492 0 99.040104514504492 -156.67687705163553 0 0 0 0 -32.188600214395706 41.254259848492495 0 41.254259848492495 -10.01153181561375 0 0 0 0 507.1254947281268 353.0421441912622 0 353.0421441912622 -1063.1632679417526 0 0 0 0 327.8865472394391 219.16062982125368 0 219.16062982125368 -352.97210118276416 0 0 0 0 -10.155614213655753 81.707194367981486 0 81.707194367981486 -82.448060121844748 0 0 0 0 407.08502747642342 260.50836967352734 0 260.50836967352734 -521.65545589334215 0 0 0 0 -225.61008146454697 101.13218422274076 0 101.13218422274076 145.16183714414365 0 0 0 0 473.57607157342136 -425.48935683299351 0 -425.48935683299351 670.65904684980342 0 0 0 0 704.97720941998705 -130.67495523963953 0 -130.67495523963953 -1940.9793548913149 0 0 0 0 4.2514722958502205 3.7760925540015933 0 3.7760925540015933 -0.85117143615801183 0 0 0 0 476.75490078670555 -79.229289447121118 0 -79.229289447121118 -160.45033138629515 0 0 0 0 -694.25503107780241 81.570845814254426 0 81.570845814254426 -1237.5062576114942 0 0 0 0 17.133448309730738 996.9283869871324 0 996.9283869871324 -1143.0561930658878 0 0 0 0 326.40645548333123 173.18640621594022 0 173.18640621594022 -313.63984262646409 0 0 0 0 -697.54268898168812 607.77450606092316 0 607.77450606092316 -198.50547573959921 0 0 0 0 128.14125018371851 59.817640444243807 0 59.817640444243807 -33.549384998041205 0 0 0 0 143.93796385411406 11.273481877949962 0 11.273481877949962 52.22242258611368 0 0 0 0 104.21411839159555 90.306615544999659 0 90.306615544999659 -6.6989135275871377 0 0 0 0 92.169800609830418 76.344383024923445 0 76.344383024923445 -22.352021777434857 0 0 0 0 -180.61274984668125 168.06503924808567 0 168.06503924808567 143.52810947709634 0 0 0 0 151.48071394479484 58.480903752017184 0 58.480903752017184 -23.059542710747337 0 0 0 0 -22.166260165629097 17.668423948707925 0 17.668423948707925 -0.60200699122455603 0 0 0 0 -3.3341577615577052 79.532279894870044 0 79.532279894870044 -61.524663421352386 0 0 0 0 75.185920196014195 -51.785453579075693 0 -51.785453579075693 -168.16647665656637 0 0 0 0 -0.0350125713594025 110.25994130425534 0 110.25994130425534 -40.710262516542571 0 0 0 0 -14.745305889038718 55.569817899340705 0 55.569817899340705 -103.19244181554677 0 0 0 0 61.826743423240259 117.02205374777986 0 117.02205374777986 -37.889751085334865 0 0 0 0 -5.2966317074169638 113.28321964809584 0 113.28321964809584 -60.686588091019075 0 0 0 0 15.054217744880589 84.402324025213602 0 84.402324025213602 -19.700362736570241 0 0 0 0 151.05379505862402 112.42118662004441 0 112.42118662004441 -76.786468415652052 0 0 0 0 20.240213418648636 40.733015718474235 0 40.733015718474235 -171.13609856399125 0 0 0 0 -2.0560241749044508 91.266751734168793 0 91.266751734168793 -47.437804898938339 0 0 0 0 -32.662964998540701 119.19649292114627 0 119.19649292114627 -214.78451459098869 0 0 0 0 0.0053597423539031297 100.38743753561357 0 100.38743753561357 -173.71402715849763 0 0 0 0 -17.964788085810142 114.92694114390906 0 114.92694114390906 -279.95504582579451 0 0 0 0 1.8594956002780236 51.840416883267608 0 51.840416883267608 -299.27489216270624 0 0 0 0 -197.3765093961556 417.44575055294263 0 417.44575055294263 -422.97901403724973 0 0 0 0 -30.051410560234217 64.950021801963885 0 64.950021801963885 -352.54665889948956 0 0 0 0 -24.519432674496784 93.016487125394633 0 93.016487125394633 -352.86001468726317 0 0 0 0 -121.33458135869296 190.89852688971587 0 190.89852688971587 -370.09619120282878 0 0 0 0 -350.02943001763197 124.43055838654982 0 124.43055838654982 -303.75972513496527 0 0 0 0 -382.08380032583955 -5.8044677533034701 0 -5.8044677533034701 -420.91398622115958 0 0 0 0 12.583742037780553 4.9734522411232263 0 4.9734522411232263 -2.6929959700343034 0 0 0 0 -111.79249463914311 77.694459186659515 0 77.694459186659515 -146.75223328836 0 0 0 0 -163.25267661642283 71.899105569755193 0 71.899105569755193 -232.57123577606762 0 0 0 0 -356.3179479225073 220.786546677773 0 220.786546677773 93.828662364183174 0 0 0 0 -190.50770523922984 365.01974088686984 0 365.01974088686984 -862.09648201447453 0 0 0 0 -311.2583060929901 102.1363368803577 0 102.1363368803577 -228.35474317896296 0 0 0 0 -143.11756504094228 160.13616349619406 0 160.13616349619406 -319.72032905173546 0 0 0 0 -109.81425939927431 141.06613473847028 0 141.06613473847028 -238.2659163975477 0 0 0 0 -104.69509375072084 129.82514477422228 0 129.82514477422228 -299.71775045037793 0 0 0 0 -51.954357380454894 107.8820066401604 0 107.8820066401604 -221.72114469810549 0 0 0 0 0.011813959325081669 92.075928716572889 0 92.075928716572889 -253.19259741547285 0 0 0 0 -54.240692123770714 112.00516058120047 0 112.00516058120047 -120.67044365251786 0 0 0 0 -31.618364727473818 87.434682716484531 0 87.434682716484531 -129.8307756500526 0 0 0 0 -67.271889199451834 42.425549289439004 0 42.425549289439004 16.821470480354037 0 0 0 0 -26.719860538723879 21.766936714746407 0 21.766936714746407 -29.144887771519279 0 0 0 0 -0.085830636526225135 35.606428177381531 0 35.606428177381531 -44.798850795385079 0 0 0 0 -28.52954389329534 28.885779763746541 0 28.885779763746541 -13.409491347993026 0 0 0 0 -162.1450030682754 147.68773715898897 0 147.68773715898897 -105.17287037425558 0 0 0 0 3.3476901242268866 4.454782392031575 0 4.454782392031575 -2.4202114326702429 0 0 0 0 -109.15241107769543 126.36832233047608 0 126.36832233047608 -113.40199046611087 0 0 0 0 -147.14854866011592 112.58317579176946 0 112.58317579176946 -59.685084138416642 0 0 0 0 -67.252443762001349 63.635043564989246 0 63.635043564989246 -96.761619290155068 0 0 0 0 -146.7823194941011 160.79320861903761 0 160.79320861903761 -142.87187926434308 0 0 0 0 -175.96249342492956 88.618526578113233 0 88.618526578113233 -95.02249805831525 0 0 0 0 -34.201632497132238 151.41593175441497 0 151.41593175441497 -66.15042205411865 0 0 0 0 -195.21188812166474 163.57097107182881 0 163.57097107182881 -110.3037672808714 0 0 0 0 -167.92057288107753 165.35101771425434 0 165.35101771425434 -117.49062616527954 0 0 0 0 -143.51335506918258 184.37490627412353 0 184.37490627412353 -103.55203356982383 0 0 0 0 -235.12737244962773 157.2269492881569 0 157.2269492881569 -94.51972078289873 0 0 0 0 -159.49923763470724 171.70464487966456 0 171.70464487966456 -91.792369849936222 0 0 0 0 3.6848804971186837 3.6599839841581741 0 3.6599839841581741 -3.2734645144623613 0 0 0 0 -279.65124405101233 223.38120741959028 0 223.38120741959028 -62.190995095867947 0 0 0 0 -0.0091295662707365395 12.922239546074978 0 12.922239546074978 -6.7721525110318908 0 0 0 0 -174.62368884930402 146.65383056381188 0 146.65383056381188 -104.61851322105213 0 0 0 0 84.34947277023457 -24.543816313758725 0 -24.543816313758725 -51.869941274133453 0 0 0 0 -58.116831697523594 -105.1063173769071 0 -105.1063173769071 -169.31801021852152 0 0 0 0 1.4108890454990615 9.8661868329867275 0 9.8661868329867275 -23.269014121820476 0 0 0 0 277.31830387958325 -133.8607730409567 0 -133.8607730409567 -218.1684228968079 0 0 0 0 0.012264991688425653 7.7553098003372725 0 7.7553098003372725 -0.14714447734877467 0 0 0 0 -114.77811634534737 -29.37842176315462 0 -29.37842176315462 25.875418430550781 0 0 0 0 -3.2817690699295099 3.3064462405457675 0 3.3064462405457675 1.4699493399639891 0 0 0 0 -2.8351860038947052 5.2867051931494302 0 5.2867051931494302 -13.53932009314542 0 0 0 0 221.24943053036986 -34.856970686560089 0 -34.856970686560089 -216.80737221965683 0 0 0 0 249.17676667973865 -174.36693621894665 0 -174.36693621894665 -322.66335712609725 0 0 0 0 -396.10335587216832 -237.4658671888028 0 -237.4658671888028 5.8872948936914327 0 0 0 0 166.34462722767785 -53.122087671581539 0 -53.122087671581539 182.11697618148901 0 0 0 0 8.6850807072478347 356.18663694490533 0 356.18663694490533 -293.71467700788344 0 0 0 0 729.22390162851661 -58.148795837172656 0 -58.148795837172656 -296.55526231254044 0 0 0 0 -15.023131920801603 75.061254388047473 0 75.061254388047473 -57.70509211663358 0 0 0 0 -217.95390605780995 297.66098389062245 0 297.66098389062245 79.625434704968939 0 0 0 0 5.6924888710363177 17.596063243238348 0 17.596063243238348 6.6728511622931705 0 0 0 0 -40.444446772977244 67.647478878760012 0 67.647478878760012 -44.782993414846715 0 0 0 0 -360.56480885994097 326.6964207756464 0 326.6964207756464 -43.516621916583972 0 0 0 0 -351.81267905849381 332.88935237140686 0 332.88935237140686 -140.33068769707461 0 0 0 0 -216.02128254460695 232.61938398279017 0 232.61938398279017 -273.22424232850335 0 0 0 0 -214.27414598272298 465.54566662547586 0 465.54566662547586 -254.47811017850017 0 0 0 0 3.9936706462613074 52.885504380930797 0 52.885504380930797 -34.661796395711917 0 0 0 0 12.67168356576795 13.97074316230362 0 13.97074316230362 -2.9823543272469806 0 0 0 0 -18.46771889665979 70.620302228060609 0 70.620302228060609 -11.03631804525503 0 0 0 0 19.716221485970891 51.47489036116167 0 51.47489036116167 -34.616612543346946 0 0 0 0 104.23107610354782 83.112127714062808 0 83.112127714062808 -306.31615686347868 0 0 0 0 693.03200744115748 149.02294584362244 0 149.02294584362244 -55.130702517926693 0 0 0 0 169.04195724013698 93.780949418276577 0 93.780949418276577 -101.45899533329066 0 0 0 0 -204.35581953319934 82.060401002490835 0 82.060401002490835 -351.21566875232384 0 0 0 0 -697.88644450332504 641.98115260672057 0 641.98115260672057 210.79190498759272 0 0 0 0 20.713366917228967 -5.9436181308201981 0 -5.9436181308201981 -11.296723534198463 0 0 0 0 -11.493951465978483 82.969995005908629 0 82.969995005908629 -38.206448229398916 0 0 0 0 -35.014411433941461 44.097540515772351 0 44.097540515772351 -3.747271291509378 0 0 0 0 234.91832296608482 8.3298882098169997 0 8.3298882098169997 -286.51936503769684 0 0 0 0 -14.367199898221145 11.465280217814438 0 11.465280217814438 -8.9078079649889617 0 0 0 0 615.98560675536282 -306.17326572787715 0 -306.17326572787715 -328.92617137124762 0 0 0 0 -80.043158931192011 63.280312191287521 0 63.280312191287521 -32.020771096402314 0 0 0 0 95.795297459568246 31.907920047095104 0 31.907920047095104 -14.498066502070287 0 0 0 0 -81.356675190239912 74.811965491440787 0 74.811965491440787 -23.504190768609988 0 0 0 0 22.892448475395383 37.597023668138831 0 37.597023668138831 -14.689605710763431 0 0 0 0 -54.445817866158905 54.410653328784974 0 54.410653328784974 -24.449844242742984 0 0 0 0 -7.32676400088679 37.921581296303941 0 37.921581296303941 -14.327125217075036 0 0 0 0 29.273177150430456 40.299764480787871 0 40.299764480787871 -24.846722606700496 0 0 0 0 -6.936257906440602 30.596794015397911 0 30.596794015397911 -23.139778570753492 0 0 0 0 32.965254532828112 67.531468548448174 0 67.531468548448174 -27.072075678646797 0 0 0 0 73.64320178872731 77.509686549325124 0 77.509686549325124 -45.263998820038978 0 0 0 0 -6.246097514357956 33.420742511159119 0 33.420742511159119 -20.322026469140496 0 0 0 0 -24.972969213995384 43.020646386401495 0 43.020646386401495 -11.193164002499543 0 0 0 0 -11.113877275376581 56.080171072710073 0 56.080171072710073 -25.460986612051784 0 0 0 0 -24.586867583545427 41.694971924916572 0 41.694971924916572 -22.235101262028138 0 0 0 0 12.784410416003084 40.97989780345597 0 40.97989780345597 73.787849901098525 0 0 0 0 -25.6212441233547 74.001408045201515 0 74.001408045201515 0.43530328333145007 0 0 0 0 -34.523965329106431 6.8961596651170112 0 6.8961596651170112 0.83035411825403571 0 0 0 0 -5.1406340792101446 5.7729740211087801 0 5.7729740211087801 1.2713273237930025 0 0 0 0 -8.2931605244666571 -9.1895189259266772 0 -9.1895189259266772 -13.743116159836063 0 0 0 0 -3.7478420522310216 10.126832946080555 0 10.126832946080555 -16.45820635929843 0 0 0 0 -2.823031513077126 4.6771377867523825 0 4.6771377867523825 -1.980311683963123 0 0 0 0 0.037467201487743296 25.364865568135428 0 25.364865568135428 29.931586197853903 0 0 0 0 11.00183025226579 3.675330002042756 0 3.675330002042756 -5.1169861707603559 0 0 0 0 14.4106000548054 20.117366493599548 0 20.117366493599548 10.466609093840816 0 0 0 0 28.64863209440955 13.084115957855829 0 13.084115957855829 -9.5062835960125085 0 0 0 0 29.728721574851079 65.726243799712393 0 65.726243799712393 45.378298905212432 0 0 0 0 19.943679485724715 62.949021465959959 0 62.949021465959959 92.485014467354631 0 0 0 0 2.6064062374197761 0.53074593135204395 0 0.53074593135204395 -5.236466237021574 0 0 0 0 46.221164867689367 47.140171229351836 0 47.140171229351836 35.222788906597998 0 0 0 0 21.077847677661339 56.441183218877995 0 56.441183218877995 31.784200904934551 0 0 0 0 0.047179690809571184 83.609746808891941 0 83.609746808891941 -2.6150685106840683 0 0 0 0 34.74617956916336 80.466579328760417 0 80.466579328760417 -30.372419920458924 0 0 0 0 -233.51683789382514 -72.756520540937345 0 -72.756520540937345 118.77280533919111 0 0 0 0 98.782052653899882 79.57487670541741 0 79.57487670541741 -57.173834853223525 0 0 0 0 -3.2430084356695943 3.2922262772289059 0 3.2922262772289059 1.9496405345960568 0 0 0 0 53.896701455465518 43.565824118530145 0 43.565824118530145 29.444367496180348 0 0 0 0 39.724357523955405 135.46784197382658 0 135.46784197382658 -87.952635674126213 0 0 0 0 43.301424459175905 82.668318809890479 0 82.668318809890479 -29.811924601941428 0 0 0 0 8.3717018453389755 108.67090928443213 0 108.67090928443213 -18.12817389779957 0 0 0 0 -55.039633163833059 141.84033075789921 0 141.84033075789921 -35.454551834001904 0 0 0 0 32.887025498901494 91.693276387766673 0 91.693276387766673 -37.517448813800002 0 0 0 0 8.1333630505250767 110.72822562083456 0 110.72822562083456 -29.708627746522325 0 0 0 0 0.017270876211114228 109.60758592138518 0 109.60758592138518 -19.834779985787463 0 0 0 0 8.2026154994528042 103.46165239361289 0 103.46165239361289 -21.880856824434886 0 0 0 0 7.7264597998000681 103.12375600259475 0 103.12375600259475 -21.609419317413995 0 0 0 0 2.1258930719113778 114.14806770241444 0 114.14806770241444 -18.321200854654307 0 0 0 0 48.053686285304138 97.870878761648783 0 97.870878761648783 -22.762091101067199 0 0 0 0 1.1738161502262301 100.66851651201659 0 100.66851651201659 -20.482706513212179 0 0 0 0 123.3671961423388 84.369371003158449 0 84.369371003158449 -42.695089474429551 0 0 0 0 9.0644405248185365 22.854810449277238 0 22.854810449277238 -39.001489532578262 0 0 0 0 3.4875721608853496 43.56331849485494 0 43.56331849485494 -27.254537913497501 0 0 0 0 6.2151523092252319 66.409588665652336 0 66.409588665652336 -36.07865150240832 0 0 0 0 -25.053057124502629 68.695060169376802 0 68.695060169376802 -15.629652560821 0 0 0 0 50.785617620975245 65.352836627462239 0 65.352836627462239 -28.260488563842955 0 0 0 0 79.128577792696888 55.588119781838031 0 55.588119781838031 -27.239618532657914 0 0 0 0 55.249033543776022 100.39897299403674 0 100.39897299403674 -33.976030648649612 0 0 0 0 52.048780804238049 60.150161845056573 0 60.150161845056573 -22.595885350485332 0 0 0 0 32.244657313174685 67.500539260599908 0 67.500539260599908 -23.313651523465523 0 0 0 0 41.191444420546759 82.474427855064278 0 82.474427855064278 -15.091201374219963 0 0 0 0 -22.54516374276136 91.546309546858538 0 91.546309546858538 -14.369867634659386 0 0 0 0 35.308892419438052 74.016378884272854 0 74.016378884272854 -46.298100563406479 0 0 0 0 -26.328289162335182 48.838258694204967 0 48.838258694204967 -25.047053616538278 0 0 0 0 53.819262020726455 42.156109794850636 0 42.156109794850636 -23.724083483277354 0 0 0 0 9.9400734300931788 37.72086539897893 0 37.72086539897893 -34.082648077831948 0 0 0 0 14.14374284130875 39.140484722855518 0 39.140484722855518 -18.373533892690659 0 0 0 0 -45.21296055635321 72.779328168908251 0 72.779328168908251 -29.005913211760344 0 0 0 0 44.546378559847653 71.717245740575891 0 71.717245740575891 -66.814730948070064 0 0 0 0 11.446899268834386 55.682790617647697 0 55.682790617647697 -33.586295125780453 0 0 0 0 -28.921643970694277 101.14436607919197 0 101.14436607919197 -46.707995857839705 0 0 0 0 -24.895437780686386 40.652861501291085 0 40.652861501291085 -23.58373079109839 0 0 0 0 -40.473027033556718 73.16951258975314 0 73.16951258975314 -4.915883965746616 0 0 0 0 30.606297243852168 56.196887784688442 0 56.196887784688442 -4.7790655324497493 0 0 0 0 -18.908702798552611 40.42276947678269 0 40.42276947678269 -28.339288087258836 0 0 0 0 68.041075024491875 128.37635069667158 0 128.37635069667158 -171.76231902817381 0 0 0 0 15.976927634841559 42.771061243980512 0 42.771061243980512 -24.738932892418234 0 0 0 0 19.812529787837843 49.519112549263532 0 49.519112549263532 -44.580375163364806 0 0 0 0 19.812063681762083 46.442873132844397 0 46.442873132844397 8.0265003373206127 0 0 0 0 -15.116386185125862 36.008056386546983 0 36.008056386546983 -38.721681417925083 0 0 0 0 128.8842782188367 -17.255873452537344 0 -17.255873452537344 -32.02731887876871 0 0 0 0 12.594763576845338 45.316479962947284 0 45.316479962947284 -24.995850467788273 0 0 0 0 289.23676544123282 33.469055359051708 0 33.469055359051708 -39.937393965257797 0 0 0 0 -59.108144198260561 184.42269796664914 0 184.42269796664914 -27.802157854075631 0 0 0 0 326.12813767601619 188.60189008575253 0 188.60189008575253 -266.40302802599763 0 0 0 0 290.18009292431816 35.283896242995979 0 35.283896242995979 -210.48583706625504 0 0 0 0 15.167217703587085 84.668380846913351 0 84.668380846913351 -26.643998078958248 0 0 0 0 323.54217509763839 189.09094763916801 0 189.09094763916801 -132.67586685113201 0 0 0 0 -21.512372776550293 54.341561676570002 0 54.341561676570002 -51.651269790495405 0 0 0 0 7.5783202897478645 41.771296505040766 0 41.771296505040766 -21.183545120280371 0 0 0 0 -41.779710885464738 64.278524732431833 0 64.278524732431833 -8.6645934398111422 0 0 0 0 -29.092350246559363 57.804482615276356 0 57.804482615276356 -46.048414102791867 0 0 0 0 -25.886431162769441 49.61140958229953 0 49.61140958229953 -25.571386860057828 0 0 0 0 -139.08225523810688 156.58315649218275 0 156.58315649218275 65.366678921840503 0 0 0 0 191.44564909362089 341.36556002920406 0 341.36556002920406 -80.927650724712294 0 0 0 0 -44.077658391699416 55.203692523850094 0 55.203692523850094 -54.03574355144417 0 0 0 0 -140.88488313969719 144.81792191309432 0 144.81792191309432 -34.666666359378723 0 0 0 0 48.044180951786984 134.75202327145962 0 134.75202327145962 -43.607695768296253 0 0 0 0 -81.243550923129078 50.886211032680876 0 50.886211032680876 -35.247421162610408 0 0 0 0 -80.880414773346274 45.819383823720273 0 45.819383823720273 -57.33704971116822 0 0 0 0 40.688542857363245 89.089177655823846 0 89.089177655823846 55.583476210871595 0 0 0 0 -0.34531088734714555 7.9247726868877209 0 7.9247726868877209 -30.332486930874154 0 0 0 0 191.96887376366067 123.07316850129428 0 123.07316850129428 -31.251485381017119 0 0 0 0 -310.41994669190876 159.10685023159272 0 159.10685023159272 8.7744444710842799 0 0 0 0 -164.49166168180091 176.33741437755816 0 176.33741437755816 -87.034911115435534 0 0 0 0 -141.68093542047427 119.2801212036502 0 119.2801212036502 9.7045329658831179 0 0 0 0 -665.42759671654494 119.14999259034812 0 119.14999259034812 62.275358536615386 0 0 0 0 272.60680965346955 102.19664101325111 0 102.19664101325111 -44.222812244464876 0 0 0 0 -0.23396945973148586 4.6704024713378942 0 4.6704024713378942 -17.80735907818314 0 0 0 0 201.40296252863482 142.47644645349646 0 142.47644645349646 -39.2127235275766 0 0 0 0 184.92487520368013 -15.659777242763084 0 -15.659777242763084 12.486610718813608 0 0 0 0 -0.31573715951340686 2.08889505499873 0 2.08889505499873 -6.0791040787822226 0 0 0 0 500.37210884923843 -15.857015527290059 0 -15.857015527290059 -305.67051137419185 0 0 0 0 -1049.1386227792245 253.48543360544863 0 253.48543360544863 -42.36541764327194 0 0 0 0 -176.62176612067015 266.19150053540579 0 266.19150053540579 -115.77816795495164 0 0 0 0 -35.052372317391928 354.39105639899799 0 354.39105639899799 -551.0719034372305 0 0 0 0 265.02850359892182 252.37953012951039 0 252.37953012951039 -599.65920593198098 0 0 0 0 -261.96010300049602 417.55181974158768 0 417.55181974158768 -298.09782153068227 0 0 0 0 -471.06949549274941 65.693379064625333 0 65.693379064625333 -28.468528987519676 0 0 0 0 -29.709656636296131 26.069263208708435 0 26.069263208708435 -37.455753225949593 0 0 0 0 -133.13867712544743 163.69867590320428 0 163.69867590320428 -2.7886082763725426 0 0 0 0 -42.52750402543461 74.254721494653495 0 74.254721494653495 55.144973469519755 0 0 0 0 -73.984139017979032 19.041603386373026 0 19.041603386373026 76.296998546364193 0 0 0 0 155.58153725879674 -20.834595079242717 0 -20.834595079242717 26.655854154400004 0 0 0 0 -57.517617445730139 -176.96062693634303 0 -176.96062693634303 -347.74824446802086 0 0 0 0 167.46851018681627 -166.62637686172457 0 -166.62637686172457 -22.780904095969163 0 0 0 0 546.98939861661347 -48.937505687907105 0 -48.937505687907105 -227.77999991739489 0 0 0 0 12.035712754986598 -0.086902183765602103 0 -0.086902183765602103 1.2828945258922317 0 0 0 0 58.800159199236077 20.020419296739419 0 20.020419296739419 -14.937217680228059 0 0 0 0 23.829564718755137 63.186130677797337 0 63.186130677797337 -22.412327337282477 0 0 0 0 15.288057392026531 44.996903338047559 0 44.996903338047559 -24.662825128209079 0 0 0 0 0.0040240335628212165 35.107360199823219 0 35.107360199823219 -30.882702668680224 0 0 0 0 -38.44107669161167 247.7863312693662 0 247.7863312693662 3.2359978780150414 0 0 0 0 -3.0318922280167016 8.2961588601245637 0 8.2961588601245637 5.9625492421816944 0 0 0 0 16.174803620604507 66.500781220944191 0 66.500781220944191 -32.541783163527725 0 0 0 0 355.67042416882759 -100.03730742189509 0 -100.03730742189509 -24.090671621990623 0 0 0 0 94.487871001765598 -103.40965008539206 0 -103.40965008539206 100.82376327019301 0 0 0 0 -159.15716547989723 98.428584644898365 0 98.428584644898365 -30.710365443315823 0 0 0 0 2.3202304480991387 2.8524776430262477 0 2.8524776430262477 3.9983189922285192 0 0 0 0 317.72803574791033 -126.09113026130944 0 -126.09113026130944 45.715718321298482 0 0 0 0 -160.75476562317272 102.70854476869499 0 102.70854476869499 -38.805909378250362 0 0 0 0 -0.61813309270861794 37.626107503569216 0 37.626107503569216 -25.616825985915227 0 0 0 0 8.9511700225557433 40.51725113127759 0 40.51725113127759 -27.401458873748197 0 0 0 0 -5.0609247891261475 44.616444170605973 0 44.616444170605973 -28.384370415114972 0 0 0 0 333.31618643880938 -128.25042346083501 0 -128.25042346083501 -33.247113004938001 0 0 0 0 -190.74836543931451 89.930236400439753 0 89.930236400439753 -26.455708301102277 0 0 0 0 0.60115930499643611 -1.130755245590791 0 -1.130755245590791 0.22609710531577321 0 0 0 0 365.07491981688872 -17.423690644307499 0 -17.423690644307499 -28.668237347097602 0 0 0 0 243.25905715061526 73.388742873503361 0 73.388742873503361 0.20394096057862043 0 0 0 0 3.3396156345625059 38.061249692411366 0 38.061249692411366 -5.2735155011760071 0 0 0 0 17.297265090557907 2.0331566886233929 0 2.0331566886233929 -0.19293109826327282 0 0 0 0 26.779616120838313 40.41147995750805 0 40.41147995750805 -3.63678914291404 0 0 0 0 13.965346309563614 20.080832488876069 0 20.080832488876069 11.189966539854026 0 0 0 0 -21.325671019265428 67.488556312193396 0 67.488556312193396 -49.45998410336324 0 0 0 0 42.423783945570534 35.712592916655154 0 35.712592916655154 -6.3354540163772413 0 0 0 0 -215.30252601898974 96.131611959106522 0 96.131611959106522 25.95419243600918 0 0 0 0 -126.76451255693974 84.472004244977143 0 84.472004244977143 -62.641802692058263 0 0 0 0 -132.15842133386468 34.167537004861515 0 34.167537004861515 26.600449081946863 0 0 0 0 -4.8932064476539381 55.744775626968476 0 55.744775626968476 -56.689615016483003 0 0 0 0 -94.886023124709027 100.30666892399313 0 100.30666892399313 -5.3888687181461137 0 0 0 0 -189.19621920329519 52.21110327639326 0 52.21110327639326 6.3126761293387972 0 0 0 0 601.54466770186264 -79.074757901864359 0 -79.074757901864359 -82.125763175528846 0 0 0 0 0.44335832199574554 0.60754073332378766 0 0.60754073332378766 1.5743676538431828 0 0 0 0 96.507045912749163 178.41374696113053 0 178.41374696113053 57.687363377131987 0 0 0 0 244.52739863905299 -80.57503197985352 0 -80.57503197985352 94.988633034212398 0 0 0 0 -19.971153318649158 7.8278089657833334 0 7.8278089657833334 100.99801533149002 0 0 0 0 38.991844222525145 20.212094467527493 0 20.212094467527493 -29.565053221185252 0 0 0 0 -8.5911609830727684 10.607400250220962 0 10.607400250220962 28.165419611068501 0 0 0 0 29.097983229861711 79.965907176454493 0 79.965907176454493 68.736597472525318 0 0 0 0 -1.987468819192145 48.566485841482063 0 48.566485841482063 38.768263409205247 0 0 0 0 80.451531445534783 -52.914706368414045 0 -52.914706368414045 86.236432141929981 0 0 0 0 188.93387876229826 4.4142292206597631 0 4.4142292206597631 67.175420180661604 0 0 0 0 33.895006708789879 69.740983151306864 0 69.740983151306864 22.656133580501773 0 0 0 0 126.5399988576246 61.455650524847442 0 61.455650524847442 18.427488047484076 0 0 0 0 12.558507124859915 0.30686736068020082 0 0.30686736068020082 -13.476127246635315 0 0 0 0 108.25424341554753 105.10323302488541 0 105.10323302488541 -182.78661462434684 0 0 0 0 126.68898332356184 26.523799238188076 0 26.523799238188076 -59.921678501515999 0 0 0 0 28.864699610538082 76.580517747293925 0 76.580517747293925 16.448203165840823 0 0 0 0 -12.784647707201657 78.374988213283359 0 78.374988213283359 36.544972241958021 0 0 0 0 36.30643967888318 69.184015813108999 0 69.184015813108999 -18.25466569710548 0 0 0 0 49.982931384511176 44.760236245623673 0 44.760236245623673 43.720046320584515 0 0 0 0 -5.7673437166358781 85.841313728359637 0 85.841313728359637 13.371400446398184 0 0 0 0 39.771453689221232 24.034131250689768 0 24.034131250689768 -22.129097424083113 0 0 0 0 53.521633766460582 56.111990098717797 0 56.111990098717797 39.807123408078041 0 0 0 0 49.565608442164375 66.647089336525823 0 66.647089336525823 23.973097741050879 0 0 0 0 33.52734174968333 40.241079525899664 0 40.241079525899664 37.599918232535174 0 0 0 0 19.906999580882257 57.686831999060814 0 57.686831999060814 39.602157962370256 0 0 0 0 -65.472212432512606 115.99216920695471 0 115.99216920695471 12.043083820186439 0 0 0 0 41.708485257709981 38.952579089731444 0 38.952579089731444 -261.65458468087309 0 0 0 0 2.410547852127479 6.2111757778932173 0 6.2111757778932173 5.3353344377244696 0 0 0 0 -12.709714201508177 41.775558141405781 0 41.775558141405781 49.051904541818658 0 0 0 0 2.3126964227703866 42.43750417175761 0 42.43750417175761 13.184034576304839 0 0 0 0 64.747141971041856 150.80099403650092 0 150.80099403650092 -163.37537410343066 0 0 0 0 22.213383119204082 152.0163320977008 0 152.0163320977008 -231.56108255322033 0 0 0 0 48.802808018001087 122.50260467693442 0 122.50260467693442 -200.22102737356909 0 0 0 0 -95.988008236814494 91.954475105150777 0 91.954475105150777 -170.9619829741132 0 0 0 0 9.2926146972222341 85.097516653187995 0 85.097516653187995 -170.65756062882429 0 0 0 0 51.526930201958749 104.22407287950045 0 104.22407287950045 -182.61575364211603 0 0 0 0 -11.222888743941439 114.31273980492551 0 114.31273980492551 -183.12758847058285 0 0 0 0 47.959301523704198 148.40398545427888 0 148.40398545427888 -195.2238291524809 0 0 0 0 66.577702031398076 122.21914192012628 0 122.21914192012628 -212.32034106613173 0 0 0 0 87.102460304036526 142.05513354380503 0 142.05513354380503 -192.06073869095417 0 0 0 0 71.357423955458216 127.37482499961334 0 127.37482499961334 -211.61268124103663 0 0 0 0 87.121524595175288 143.40008331637364 0 143.40008331637364 -195.43459604503005 0 0 0 0 79.324362711930007 123.93761910087051 0 123.93761910087051 -135.65644197096117 0 0 0 0 91.282051819609478 119.86567138090322 0 119.86567138090322 -200.35353184890482 0 0 0 0 74.299441974115325 141.00494519980202 0 141.00494519980202 -192.1466862084053 0 0 0 0 69.900874345505144 115.27784720127238 0 115.27784720127238 -139.82722686670604 0 0 0 0 77.849191948273074 98.060996716838417 0 98.060996716838417 -119.41986112188897 0 0 0 0 -2.084668458745 183.36331711093226 0 183.36331711093226 -147.97442188111017 0 0 0 0 -57.420317814481677 113.56757213977107 0 113.56757213977107 27.461170566624787 0 0 0 0 3.6770165464113234 128.95200115071202 0 128.95200115071202 -81.241271653241711 0 0 0 0 15.674180705012986 100.32885195722338 0 100.32885195722338 -18.223132307604743 0 0 0 0 22.887195770745166 150.7030094988877 0 150.7030094988877 -109.77204406263263 0 0 0 0 22.247397584156715 134.56949640560197 0 134.56949640560197 -79.955538465565041 0 0 0 0 12.633690250106156 199.31213277458301 0 199.31213277458301 -145.30384577065706 0 0 0 0 65.318850313356961 201.79104547367024 0 201.79104547367024 -267.69625947363966 0 0 0 0 145.44699780967494 101.4145805335429 0 101.4145805335429 -301.71266147518691 0 0 0 0 150.69377137062475 63.695643743420078 0 63.695643743420078 -213.87394714870607 0 0 0 0 91.118611404781404 102.60238216352445 0 102.60238216352445 -200.47956748954311 0 0 0 0 97.491129072863259 90.911771946688532 0 90.911771946688532 -203.16789134361898 0 0 0 0 55.885720648591814 79.211950608594634 0 79.211950608594634 -66.179230483307038 0 0 0 0 52.660193444418837 84.95236854646646 0 84.95236854646646 -135.7183536876546 0 0 0 0 46.78798654556158 104.95547709063976 0 104.95547709063976 -138.68459067126969 0 0 0 0 140.89288192507229 90.608311725220119 0 90.608311725220119 -189.00046578749607 0 0 0 0 131.98280163233721 45.94850636672345 0 45.94850636672345 -149.63687282035244 0 0 0 0 106.20913755647052 61.952076581521396 0 61.952076581521396 -15.266880630428204 0 0 0 0 61.804305914753058 125.04479657974298 0 125.04479657974298 -93.108245952651487 0 0 0 0 -101.80383677228019 269.43919901792287 0 269.43919901792287 -92.022394126965082 0 0 0 0 -3.4173259270573908 101.20699462049379 0 101.20699462049379 19.888042487262283 0 0 0 0 -56.387619117687791 129.25191900819482 0 129.25191900819482 150.70290571896476 0 0 0 0 234.03352125872334 63.94849222045741 0 63.94849222045741 -34.515075760020409 0 0 0 0 -13.276912878616713 213.91097059853928 0 213.91097059853928 -143.59248344433945 0 0 0 0 -44.601413870455872 171.08298795769224 0 171.08298795769224 -84.2814014282485 0 0 0 0 -22.257242652583955 196.65849828119462 0 196.65849828119462 -163.42604715444031 0 0 0 0 -13.983527239746763 188.05627414174523 0 188.05627414174523 -154.8119879541191 0 0 0 0 9.3298527184342674 131.97949309891374 0 131.97949309891374 -175.63315514125861 0 0 0 0 30.093121901256382 96.183617220885935 0 96.183617220885935 -112.68382341125471 0 0 0 0 2.4257551226983196 123.54374680595356 0 123.54374680595356 -138.78224429838883 0 0 0 0 46.661828084339504 101.24260602773211 0 101.24260602773211 -171.54962126874307 0 0 0 0 25.72118450544076 107.68234807269619 0 107.68234807269619 -173.35591093162657 0 0 0 0 25.371004722267571 104.04523657097661 0 104.04523657097661 -206.49792526778765 0 0 0 0 9.772749074123567 113.41698808824003 0 113.41698808824003 -216.39359256852185 0 0 0 0 3.1404287991099409 128.22389623025811 0 128.22389623025811 -230.57227860702551 0 0 0 0 1.5286757982539712 183.18309802563454 0 183.18309802563454 -208.21917517514521 0 0 0 0 16.149269236317195 147.43133618678985 0 147.43133618678985 -257.10573093306448 0 0 0 0 16.785670250988915 130.40483954206138 0 130.40483954206138 -177.45976804968086 0 0 0 0 -4.492685790763062 184.30464624683736 0 184.30464624683736 -183.69413858195185 0 0 0 0 -8.7602766972649988 196.02225800946144 0 196.02225800946144 -215.74121277371887 0 0 0 0 -36.849003228897345 190.66857774594246 0 190.66857774594246 -211.28666849016008 0 0 0 0 15.330594550956448 203.26400564200594 0 203.26400564200594 -237.69958307668276 0 0 0 0 -13.759515060932245 220.36831583612911 0 220.36831583612911 -207.6072751734755 0 0 0 0 11.718066694949812 229.54133474822447 0 229.54133474822447 -208.38697460248659 0 0 0 0 175.9579441431415 194.70650505464437 0 194.70650505464437 -319.90631880022556 0 0 0 0 -36.618325621981057 190.83889529485168 0 190.83889529485168 -219.25144660921433 0 0 0 0 -32.480201293117716 161.22299309664231 0 161.22299309664231 -152.10904892957478 0 0 0 0 -46.411193940264639 246.31703520814335 0 246.31703520814335 -187.56546553061708 0 0 0 0 428.91160216725257 439.15252842460905 0 439.15252842460905 -278.38910368311917 0 0 0 0 -25.617098179369421 48.17527272703061 0 48.17527272703061 -73.492440844545627 0 0 0 0 -8.6666807951896772 216.37496794687831 0 216.37496794687831 -315.75100265030051 0 0 0 0 -1.0150847773475107 103.64212529522774 0 103.64212529522774 -308.79975916456124 0 0 0 0 -23.709873961876752 46.036904921032388 0 46.036904921032388 -75.487758606451052 0 0 0 0 550.14834659124062 428.82161565522256 0 428.82161565522256 -275.1332450673217 0 0 0 0 367.06416461043409 393.50531300445437 0 393.50531300445437 -184.76936367785675 0 0 0 0 514.047878136902 289.81103013145184 0 289.81103013145184 -238.64856518861779 0 0 0 0 562.30631227095182 318.63884565800254 0 318.63884565800254 -251.6906721409905 0 0 0 0 -22.56162291204344 44.1289832154824 0 44.1289832154824 -76.857728100081431 0 0 0 0 25.916480769890768 114.69810743305425 0 114.69810743305425 -246.00305276732252 0 0 0 0 41.784115390270017 98.907556778845901 0 98.907556778845901 -233.28687593905488 0 0 0 0 31.735177050039056 80.099783677680534 0 80.099783677680534 -187.95477661960467 0 0 0 0 26.320086442079628 54.157118914270541 0 54.157118914270541 -193.86563045917137 0 0 0 0 25.963806583284168 86.613191718650341 0 86.613191718650341 -54.389177409902913 0 0 0 0 121.72733475222776 48.827652618645516 0 48.827652618645516 -216.43965459024548 0 0 0 0 79.621796857070876 148.8627226068711 0 148.8627226068711 -79.094929927312478 0 0 0 0 -4.4752676977950614 163.92937019482633 0 163.92937019482633 -109.7434245755212 0 0 0 0 -0.8049929027329199 110.1995164279142 0 110.1995164279142 10.335062564190594 0 0 0 0 34.710282989668485 100.73642734236637 0 100.73642734236637 -9.6197360469668638 0 0 0 0 352.162147679177 -194.33675248521831 0 -194.33675248521831 -124.95022250738111 0 0 0 0 148.04343829056597 112.66492647619452 0 112.66492647619452 -50.233492591883987 0 0 0 0 -20.459956157323035 45.87058603241173 0 45.87058603241173 -74.037024791654972 0 0 0 0 13.604232038785113 12.029473880619634 0 12.029473880619634 -17.118806507052284 0 0 0 0 335.24622566479957 331.2754621989734 0 331.2754621989734 -45.494145754746569 0 0 0 0 457.34645093110703 86.140488855795411 0 86.140488855795411 171.80319699025131 0 0 0 0 561.70911928513669 616.56347509249099 0 616.56347509249099 -289.58597147566616 0 0 0 0 849.53891470874441 131.06966372577881 0 131.06966372577881 -215.14446206060529 0 0 0 0 1014.5883746960753 -160.45263071013323 0 -160.45263071013323 -105.5588239756471 0 0 0 0 514.7884114577937 75.01169973724609 0 75.01169973724609 -76.635682376858313 0 0 0 0 593.2422520949076 244.01000254068276 0 244.01000254068276 132.63893785941764 0 0 0 0 1280.6252383892424 -88.414093138286262 0 -88.414093138286262 -135.84982505507651 0 0 0 0 954.56191955350369 -212.84503083643358 0 -212.84503083643358 319.60455294429266 0 0 0 0 5.8295122376696327 5.4016406667609544 0 5.4016406667609544 2.9259669622786078 0 0 0 0 2362.1515064566192 -728.92483601196727 0 -728.92483601196727 -86.872735628450755 0 0 0 0 -313.10059712661678 635.83424249876771 0 635.83424249876771 -286.27756365088862 0 0 0 0 1477.9058578221084 442.13827646918071 0 442.13827646918071 -137.9139090558092 0 0 0 0 427.29011975206959 -1.8333263690874446 0 -1.8333263690874446 338.17261441954179 0 0 0 0 759.25291018332791 234.13104268051393 0 234.13104268051393 -138.84119675704278 0 0 0 0 939.54513009920629 -136.52717134355044 0 -136.52717134355044 -5.4157552873948589 0 0 0 0 -339.75518900860698 -26.7862453869202 0 -26.7862453869202 190.97618858226633 0 0 0 0 -88.079987806166173 280.05564508785028 0 280.05564508785028 128.07290082852705 0 0 0 0 331.83742708676436 22.1863067864615 0 22.1863067864615 61.873886902525555 0 0 0 0 -328.51682203174278 -172.32212319494283 0 -172.32212319494283 -337.09627871539851 0 0 0 0 413.7750036989255 221.31617183201433 0 221.31617183201433 50.413539738976397 0 0 0 0 5.4453463090117964 37.450891252332752 0 37.450891252332752 -26.34674795165833 0 0 0 0 -13.652408357934817 38.310112393883159 0 38.310112393883159 -19.140788350553635 0 0 0 0 12.287747699021565 39.165096914512105 0 39.165096914512105 -7.1398987519787624 0 0 0 0 18.737523800849601 29.127336086759328 0 29.127336086759328 -6.5245289810322902 0 0 0 0 9.1703866311574842 19.139030225680301 0 19.139030225680301 -25.696598557470452 0 0 0 0 33.616101817708113 38.389148555404972 0 38.389148555404972 -22.571011485124473 0 0 0 0 57.372167343513865 44.68399624439553 0 44.68399624439553 -29.954049987369217 0 0 0 0 43.973465462510006 28.458427664459634 0 28.458427664459634 -4.4881081635570013 0 0 0 0 14.814926587918308 337.87089182219643 0 337.87089182219643 -73.281919280008879 0 0 0 0 75.573262364137918 -2.3487422835023608 0 -2.3487422835023608 -151.30932616797509 0 0 0 0 -81.833994719279872 79.943451950166491 0 79.943451950166491 124.45188341230096 0 0 0 0 94.309640314364515 108.11770473144134 0 108.11770473144134 235.43611662046169 0 0 0 0 17.318852069831337 37.32948075128661 0 37.32948075128661 -37.587658396048937 0 0 0 0 40.150178303170833 44.768298309340025 0 44.768298309340025 -27.064493639976718 0 0 0 0 33.703351350312005 24.999722490028944 0 24.999722490028944 -28.932204290122172 0 0 0 0 -2.9524245330227075 16.862644310403141 0 16.862644310403141 -19.310293793703011 0 0 0 0 39.346807255220483 44.734970903176873 0 44.734970903176873 -13.299582164123422 0 0 0 0 64.705312051122746 42.662957346139592 0 42.662957346139592 -19.307652279065223 0 0 0 0 58.105088145210175 29.716645778666134 0 29.716645778666134 -20.29965671782702 0 0 0 0 38.633918058520067 37.546414777563768 0 37.546414777563768 -14.515468988131033 0 0 0 0 53.191602039674763 33.669724621235218 0 33.669724621235218 -19.264795978815528 0 0 0 0 39.846562541150973 23.874213158526828 0 23.874213158526828 -25.898493459651434 0 0 0 0 51.005651872532326 -32.834520045507816 0 -32.834520045507816 -87.855197634169599 0 0 0 0 46.786588192015188 32.714027719164733 0 32.714027719164733 -1.9697658540098928 0 0 0 0 77.109654848034552 -33.973473458849185 0 -33.973473458849185 -75.918538051191717 0 0 0 0 31.335082943036809 33.691910089928456 0 33.691910089928456 -19.710515465446463 0 0 0 0 77.71438852744177 40.312956234294688 0 40.312956234294688 -99.6534370133013 0 0 0 0 30.853026173339458 14.000791456986917 0 14.000791456986917 -113.05377266542928 0 0 0 0 118.12839009292657 30.758112046794849 0 30.758112046794849 -231.66878646478654 0 0 0 0 13.935455855411419 126.12664734428836 0 126.12664734428836 -204.60943268655683 0 0 0 0 39.760704735775349 41.090706836075043 0 41.090706836075043 20.944625278590138 0 0 0 0 865.90842319639341 -188.36697678202472 0 -188.36697678202472 -9.0605317144545552 0 0 0 0 -8.7795797474245774 157.96210641390644 0 157.96210641390644 -114.23216994054383 0 0 0 0 628.26666380427196 -148.08338606383768 0 -148.08338606383768 -292.66765326977475 0 0 0 0 66.702946041618446 10.827215272119446 0 10.827215272119446 -24.011919985751263 0 0 0 0 499.37011228397023 -43.987987133819843 0 -43.987987133819843 -5.47539868093736 0 0 0 0 831.6639593592372 40.51336221605743 0 40.51336221605743 -202.69799377763411 0 0 0 0 331.96036862758774 -257.6695075614698 0 -257.6695075614698 -131.66854242584668 0 0 0 0 969.53487067252354 -243.05256775641828 0 -243.05256775641828 -79.525624167581555 0 0 0 0 961.08302282064324 -295.00306541181635 0 -295.00306541181635 291.57453660892497 0 0 0 0 904.40730893935688 -143.59352270903764 0 -143.59352270903764 -87.17407151444695 0 0 0 0 337.95081887866399 571.62161205396478 0 571.62161205396478 307.80833467502089 0 0 0 0 16.469187689183343 12.321958984743276 0 12.321958984743276 12.189893988021538 0 0 0 0 2472.2756965387307 -1338.7239454267547 0 -1338.7239454267547 152.18852151239662 0 0 0 0 -123.47958461543749 345.4787434357695 0 345.4787434357695 223.16012166396831 0 0 0 0 61.902747736647143 -86.321917420442333 0 -86.321917420442333 -96.449780095455935 0 0 0 0 54.144406929801335 68.98453017231077 0 68.98453017231077 39.506235170032596 0 0 0 0 167.35521836073895 61.078550684193033 0 61.078550684193033 -20.38926436327165 0 0 0 0 206.44310306553962 8.1862911083735526 0 8.1862911083735526 -28.145808814879274 0 0 0 0 431.93778657638904 255.93546389737458 0 255.93546389737458 104.29008887553937 0 0 0 0 394.35491847502999 81.13871190133068 0 81.13871190133068 -7.4972846156160813 0 0 0 0 937.55085142473763 809.50003452888632 0 809.50003452888632 135.97108014416881 0 0 0 0 442.59464915411081 349.79252782427648 0 349.79252782427648 -182.37849090303644 0 0 0 0 1141.7352679337309 218.44615314748808 0 218.44615314748808 -413.02812854867079 0 0 0 0 1470.7855497987475 186.62607740990643 0 186.62607740990643 -442.18496721160045 0 0 0 0 986.64611583614897 -230.76251272099034 0 -230.76251272099034 -191.85623375297291 0 0 0 0 885.10808991540398 301.50500665842264 0 301.50500665842264 -193.36859524203101 0 0 0 0 559.33140757614456 -17.085359043237986 0 -17.085359043237986 -114.51128813251853 0 0 0 0 473.00941464358766 -139.56640281413274 0 -139.56640281413274 -41.677117522747722 0 0 0 0 549.06961161023355 8.1867358629970113 0 8.1867358629970113 -105.11048887224752 0 0 0 0 703.33790093987409 -420.11343458026749 0 -420.11343458026749 1.962677071467624 0 0 0 0 105.88891943229828 11.841612466079823 0 11.841612466079823 116.15099448361434 0 0 0 0 1139.1677018290284 337.54464289033785 0 337.54464289033785 -35.680363315041177 0 0 0 0 35.609346835350152 6.0325535341980867 0 6.0325535341980867 -0.021519572264915517 0 0 0 0 14.687219067346859 10.535908035090728 0 10.535908035090728 -3.1168511408555162 0 0 0 0 2020.7543274055442 1056.24338805154 0 1056.24338805154 547.22011929983273 0 0 0 0 1743.3557055389538 -134.25469154292659 0 -134.25469154292659 -195.14903150417376 0 0 0 0 -4.9576251755061094 -2.2133590502253355 0 -2.2133590502253355 -0.41192198739736341 0 0 0 0 -4.6148838260996854 -3.2961212337759207 0 -3.2961212337759207 -0.84635888060438447 0 0 0 0 -4.0003321318079372 -3.8430467158561896 0 -3.8430467158561896 2.2800819323080646 0 0 0 0 -8.0147487391805043 -2.2572981803969014 0 -2.2572981803969014 0.044387166305616281 0 0 0 0 73.361341583509784 13.769731502543436 0 13.769731502543436 -7.2883375689852983 0 0 0 0 -7.1475150379992556 -1.8321690931479679 0 -1.8321690931479679 -0.12127810893071 0 0 0 0 139.69938374511548 -109.77861027470499 0 -109.77861027470499 20.414090158403269 0 0 0 0 -5.50872567094153 -5.4643649508004728 0 -5.4643649508004728 -1.5567365636824206 0 0 0 0 -4.0483990665015881 -4.44350974795816 0 -4.44350974795816 -0.62033164937747642 0 0 0 0 -3.8902554426749703 0.72517235847772099 0 0.72517235847772099 -12.074757149704965 0 0 0 0 19.068224597373046 -18.075868627143791 0 -18.075868627143791 8.8144948750559706 0 0 0 0 -4.7141148142064679 -5.3088112588600609 0 -5.3088112588600609 -8.5188239444900091 0 0 0 0 -3.3419003121611581 2.4728227833201402 0 2.4728227833201402 -2.1653390342711702 0 0 0 0 0.81372061112131178 4.5800566304097856 0 4.5800566304097856 -3.718624645232012 0 0 0 0 53.255906684673391 -63.001843653561082 0 -63.001843653561082 51.49981842327179 0 0 0 0 173.00852534457226 12.618748700995639 0 12.618748700995639 13.917543455871055 0 0 0 0 78.992328007014294 -14.009507046241197 0 -14.009507046241197 -65.647869890250149 0 0 0 0 72.711528928310145 -44.173073124344228 0 -44.173073124344228 1.6459009844111279 0 0 0 0 16.183838987955824 8.7632176494516898 0 8.7632176494516898 -12.507896932365838 0 0 0 0 5.3962487004610011 -5.7336460840742802 0 -5.7336460840742802 -21.836772805014334 0 0 0 0 4.5296848422411671 -7.5786788988856131 0 -7.5786788988856131 -27.611262215238241 0 0 0 0 31.180263488036871 -14.361202789696108 0 -14.361202789696108 -71.348332879657391 0 0 0 0 39.174364971157047 -41.920885873842053 0 -41.920885873842053 -5.5653254263816052 0 0 0 0 20.405020601421711 11.367812519994914 0 11.367812519994914 -19.502406352316029 0 0 0 0 22.520325432458776 12.333747465563647 0 12.333747465563647 -3.7124131410164409 0 0 0 0 17.285651870433639 9.6517226437070178 0 9.6517226437070178 -14.781184393118764 0 0 0 0 3.4599007125432735 4.3775406119692448 0 4.3775406119692448 -7.6399952222905654 0 0 0 0 19.443330700421939 10.925008823702228 0 10.925008823702228 -4.3441100223280955 0 0 0 0 21.504342185347923 11.903198142186739 0 11.903198142186739 -5.3288186006684555 0 0 0 0 19.617510844007484 10.539236667216755 0 10.539236667216755 -5.6800612099468708 0 0 0 0 13.583225383481647 7.4321991789624064 0 7.4321991789624064 -2.538414210364472 0 0 0 0 5.9842072116458667 1.6281016181408461 0 1.6281016181408461 -2.3558906399769697 0 0 0 0 6.4225007287313929 4.7282666151950252 0 4.7282666151950252 -4.1320245271781459 0 0 0 0 3.0667001395967333 2.0959841401470882 0 2.0959841401470882 -10.916025586435637 0 0 0 0 13.929740862862673 5.9072983434489288 0 5.9072983434489288 -17.769618520163931 0 0 0 0 1.2585402760159923 -0.30421282868337585 0 -0.30421282868337585 -0.46703884250018746 0 0 0 0 -3.2390316590608563 1.5139218763215467 0 1.5139218763215467 7.9610201224695629 0 0 0 0 -23.17841827502707 0.4564545241300948 0 0.4564545241300948 18.821485247481178 0 0 0 0 5.2558092479064413 -1.2485801715184337 0 -1.2485801715184337 -5.0159076042207289 0 0 0 0 66.225054966897005 -32.784928452980239 0 -32.784928452980239 21.994424926873762 0 0 0 0 18.351372691075085 17.159895571814559 0 17.159895571814559 12.868901354289846 0 0 0 0 14.4850024235202 5.7225279675039928 0 5.7225279675039928 -6.0424727899662685 0 0 0 0 -0.88441385260557581 0.085778330587856999 0 0.085778330587856999 1.2528232266046757 0 0 0 0 78.293195292295422 -49.945043174622697 0 -49.945043174622697 -70.632568809029181 0 0 0 0 -344.2287222193554 103.84626034484245 0 103.84626034484245 -16.486106852506055 0 0 0 0 61.722091968935274 26.568186665492249 0 26.568186665492249 -72.56272604665719 0 0 0 0 2.072316402841011 -1.9095081518609618 0 -1.9095081518609618 -3.2688989407927238 0 0 0 0 -473.32434124982683 167.13282846478978 0 167.13282846478978 -44.99709834708483 0 0 0 0 -248.17771323885245 219.96744825542555 0 219.96744825542555 -166.01917804649565 0 0 0 0 -0.88245582910894882 -4.5287329820930609 0 -4.5287329820930609 -20.127078130433802 0 0 0 0 -13.57101236609742 15.135532897795201 0 15.135532897795201 -0.1623923476063778 0 0 0 0 -592.48924998587427 219.14375919467602 0 219.14375919467602 -10.452268384484341 0 0 0 0 -633.99968775511661 369.65813008203986 0 369.65813008203986 -58.630133297410794 0 0 0 0 -500.32601846250327 170.41865396897629 0 170.41865396897629 -0.20144512676051818 0 0 0 0 -487.90956269022718 292.6598915974464 0 292.6598915974464 -50.291939297567296 0 0 0 0 -445.7051997121489 299.88436475898925 0 299.88436475898925 -99.372858305636328 0 0 0 0 -761.27107487838657 517.0020965696167 0 517.0020965696167 -185.88078162868624 0 0 0 0 -2.6871944172891631 6.5500844482527043 0 6.5500844482527043 -0.70728778058150965 0 0 0 0 -232.91728460681043 329.65599648791249 0 329.65599648791249 -536.47437045453989 0 0 0 0 -414.31304817367345 315.28502748520441 0 315.28502748520441 -68.645875281683402 0 0 0 0 -161.16354282482644 239.89237938813312 0 239.89237938813312 -203.88971176723135 0 0 0 0 -413.64371864311397 316.52882623701589 0 316.52882623701589 -84.469360953487922 0 0 0 0 -277.26031100630644 278.3108828221084 0 278.3108828221084 -103.52557543304283 0 0 0 0 58.807140163728036 -52.912368015473476 0 -52.912368015473476 -44.970764589612372 0 0 0 0 -795.84137970385837 267.80444128226009 0 267.80444128226009 -13.594326359307161 0 0 0 0 -536.53523424688319 295.97182098963822 0 295.97182098963822 -301.92558038594871 0 0 0 0 -651.99817075117699 584.59186068396684 0 584.59186068396684 -127.78299427157617 0 0 0 0 -309.03374850415275 709.61020931556413 0 709.61020931556413 -478.17228447177331 0 0 0 0 -1001.7841381954349 589.58255291628302 0 589.58255291628302 -82.027971536677796 0 0 0 0 -79.850062560115475 -32.661619918726501 0 -32.661619918726501 -103.03783464881417 0 0 0 0 18.853039563258477 10.505951092132534 0 10.505951092132534 3.7747872107321427 0 0 0 0 -704.88574071147104 156.32337445818894 0 156.32337445818894 130.23701432501548 0 0 0 0 16.657009240894695 13.163801099588454 0 13.163801099588454 -5.0489164080063347 0 0 0 0 19.679996275998747 12.435082723045525 0 12.435082723045525 -5.5858551603887463 0 0 0 0 33.71584129447001 57.741323860238481 0 57.741323860238481 40.929913419022341 0 0 0 0 25.882553218338046 13.998552735441422 0 13.998552735441422 -5.1447829517113064 0 0 0 0 43.507082126942066 35.816613560200267 0 35.816613560200267 21.666410772817073 0 0 0 0 -720.60833452550287 577.80334448210488 0 577.80334448210488 -102.79768883023644 0 0 0 0 -1194.0856010243297 391.45841415766336 0 391.45841415766336 -166.68241226109967 0 0 0 0 8.0724999345735569 15.2122921364967 0 15.2122921364967 -0.13610453390825228 0 0 0 0 40.962138799215609 -3.9927364313562066 0 -3.9927364313562066 35.532412960703368 0 0 0 0 39.118589697478455 59.232111266639549 0 59.232111266639549 5.8297267812740756 0 0 0 0 38.709154705327819 -8.8896790002800117 0 -8.8896790002800117 -200.31489893620892 0 0 0 0 -2.018461555322574 30.133575050618674 0 30.133575050618674 -18.177476730666967 0 0 0 0 34.00079159795132 20.490382719690388 0 20.490382719690388 -15.597524524768232 0 0 0 0 41.211899730697041 51.736021534590691 0 51.736021534590691 -7.5470740522578126 0 0 0 0 42.275408477740712 46.137956283273525 0 46.137956283273525 4.9708281041966984 0 0 0 0 17.498827736919338 5.6324868485753541 0 5.6324868485753541 -13.094274815637618 0 0 0 0 22.723725830204785 20.729460991860833 0 20.729460991860833 -16.510298897483153 0 0 0 0 17.767314808992865 5.965711332291761 0 5.965711332291761 -28.401007452027784 0 0 0 0 14.474331104356935 33.05115897575314 0 33.05115897575314 -10.595421308809875 0 0 0 0 14.961894299072526 14.716140790400146 0 14.716140790400146 -20.084047592281536 0 0 0 0 28.193789795826888 24.08251561842917 0 24.08251561842917 -22.083370472275419 0 0 0 0 -0.0147009408429426 5.203621797311655 0 5.203621797311655 -4.7331289825736462 0 0 0 0 87.680672210844932 37.47170503102825 0 37.47170503102825 -19.587439067312516 0 0 0 0 15.803497629101912 50.374912957930064 0 50.374912957930064 -2.6805995625327341 0 0 0 0 41.911987056162616 55.939013904724561 0 55.939013904724561 -6.1024666543235071 0 0 0 0 54.186520385512267 30.921918834545068 0 30.921918834545068 -39.423859270129469 0 0 0 0 51.955216832502629 50.730247586747282 0 50.730247586747282 -12.789620327035664 0 0 0 0 23.976238792434742 44.937138135697751 0 44.937138135697751 -54.380970033904305 0 0 0 0 25.312530475261156 29.139912705068127 0 29.139912705068127 -19.803238320833771 0 0 0 0 -0.2455153135051944 1.0414392700143935 0 1.0414392700143935 -1.6209002133960553 0 0 0 0 18.138183714982915 -11.118078758619959 0 -11.118078758619959 -103.24651350500062 0 0 0 0 38.92000414415088 24.678801625872438 0 24.678801625872438 -39.579451350888121 0 0 0 0 25.684652506830389 29.370346418975714 0 29.370346418975714 -28.559460540069267 0 0 0 0 19.222881753990805 58.629428466922036 0 58.629428466922036 49.083842119376641 0 0 0 0 3.8592185329469544 8.7128071427857776 0 8.7128071427857776 5.5083048131025123 0 0 0 0 30.815955547137463 39.742211733626931 0 39.742211733626931 37.748863612285106 0 0 0 0 27.444304310523876 39.71317096103121 0 39.71317096103121 50.049788519507274 0 0 0 0 44.516776485412265 70.243574151543726 0 70.243574151543726 94.23028247365437 0 0 0 0 52.511232909571845 54.818732914885913 0 54.818732914885913 61.125289168303425 0 0 0 0 58.363859604993195 65.263745060488873 0 65.263745060488873 49.748995241534431 0 0 0 0 63.978161705274033 49.55527220532349 0 49.55527220532349 40.31064063787926 0 0 0 0 0.56422352838072243 0.92864347504183797 0 0.92864347504183797 -0.84871661531695963 0 0 0 0 62.078126843020073 111.4700037063576 0 111.4700037063576 148.17504411480331 0 0 0 0 45.878525110325427 65.293202061388001 0 65.293202061388001 18.499072850732773 0 0 0 0 66.448294150810398 66.305035394871084 0 66.305035394871084 -22.18108272770769 0 0 0 0 71.451697514687112 91.361699227938516 0 91.361699227938516 20.46457116532838 0 0 0 0 50.167773959110491 55.789795279066311 0 55.789795279066311 52.056729934549367 0 0 0 0 39.884668933285838 22.733385603659855 0 22.733385603659855 -27.135031771034392 0 0 0 0 339.83521098238998 -78.593656944896793 0 -78.593656944896793 8.6130576164723607 0 0 0 0 50.041810778122112 64.022723909099682 0 64.022723909099682 17.163718950978364 0 0 0 0 390.7908055853477 166.83322261094872 0 166.83322261094872 -123.18299896708049 0 0 0 0 -162.25890911585884 120.77176708073239 0 120.77176708073239 37.172088304796489 0 0 0 0 36.262499710779821 33.930824026347011 0 33.930824026347011 7.44007313866652 0 0 0 0 -163.97388827044415 111.84158323858719 0 111.84158323858719 -7.1254451803688426 0 0 0 0 44.817983622662723 42.798483920429135 0 42.798483920429135 -16.337478452049254 0 0 0 0 32.405928973457776 49.928711937871412 0 49.928711937871412 -14.94016697499319 0 0 0 0 20.413557304535061 23.06417773666908 0 23.06417773666908 -16.932346675777808 0 0 0 0 29.164045674003319 31.244932765699275 0 31.244932765699275 -8.3099677430957968 0 0 0 0 14.083005532116772 45.957692287096876 0 45.957692287096876 12.138667129576561 0 0 0 0 -536.26530141123658 245.20891992247925 0 245.20891992247925 -95.899988057266455 0 0 0 0 10.762160806433052 8.0875620583281318 0 8.0875620583281318 1.9696391588277038 0 0 0 0 48.40369816789098 91.147955015730986 0 91.147955015730986 -154.63376807168243 0 0 0 0 13.207662201486528 47.327368894591928 0 47.327368894591928 -6.4166137498705211 0 0 0 0 48.459718074420046 27.37015492301677 0 27.37015492301677 -12.867235299318224 0 0 0 0 29.674342655772165 34.17123431837615 0 34.17123431837615 -3.0754728394799713 0 0 0 0 -315.90556026698323 231.49242292909184 0 231.49242292909184 -51.03117158524401 0 0 0 0 -316.05644970707363 208.40528513368918 0 208.40528513368918 -38.352326199921663 0 0 0 0 27.71366646819741 34.748170214178998 0 34.748170214178998 -16.754168990054268 0 0 0 0 -314.7361948235266 213.72067996678561 0 213.72067996678561 -79.148629967385205 0 0 0 0 -314.86641693004458 237.54857745483605 0 237.54857745483605 -83.209497448930051 0 0 0 0 -157.59022694284795 149.08181203631102 0 149.08181203631102 -71.250148427963722 0 0 0 0 -309.33433447233983 235.4977142092539 0 235.4977142092539 -223.81483205381664 0 0 0 0 -440.69272720773006 230.19191814085934 0 230.19191814085934 -94.482078582135728 0 0 0 0 -338.684487436778 331.28651537720361 0 331.28651537720361 -217.65209363133181 0 0 0 0 49.569059230248968 63.678827025920327 0 63.678827025920327 -12.100634367350722 0 0 0 0 138.40106208385259 1.9728934759914409 0 1.9728934759914409 -69.582568938785698 0 0 0 0 54.423785662079609 43.455557653975745 0 43.455557653975745 19.87863251818402 0 0 0 0 78.622240083037468 135.16109635056455 0 135.16109635056455 -15.775303181959316 0 0 0 0 45.609769713172057 27.163712288789924 0 27.163712288789924 -16.863230506285532 0 0 0 0 19.050755100031083 5.4940447987728191 0 5.4940447987728191 -46.205906750993051 0 0 0 0 0.55676995169045895 1.1913340075686278 0 1.1913340075686278 -18.091021848992 0 0 0 0 -101.26427466783207 -160.83969873831666 0 -160.83969873831666 -103.30885757849319 0 0 0 0 153.80630995085812 -317.16450241031271 0 -317.16450241031271 -724.10195591875527 0 0 0 0 -1253.1490129875892 906.04480945345858 0 906.04480945345858 -735.26963391779282 0 0 0 0 -402.29824582740548 243.36351449905487 0 243.36351449905487 -223.6676749935084 0 0 0 0 382.90217787872825 -457.04277592182916 0 -457.04277592182916 -1252.1921943094931 0 0 0 0 15.899238449710538 517.56648457508709 0 517.56648457508709 -1654.0838112295605 0 0 0 0 355.62743037025211 -85.381737985990185 0 -85.381737985990185 -1500.4619574216777 0 0 0 0 779.29398543259595 964.33790458776639 0 964.33790458776639 -1580.3403905547239 0 0 0 0 25.090584861418392 609.75003019843825 0 609.75003019843825 -698.18759527774819 0 0 0 0 2.0605064386618324 715.43530227486917 0 715.43530227486917 -678.48908732175551 0 0 0 0 148.09078927936207 165.24391620903771 0 165.24391620903771 -709.82373198820278 0 0 0 0 70.173070018397993 24.386470499135612 0 24.386470499135612 -15.160698596739167 0 0 0 0 48.95012586681068 38.162019707312083 0 38.162019707312083 25.988410769097925 0 0 0 0 -550.40965811023489 692.32446386602533 0 692.32446386602533 -210.3055546394462 0 0 0 0 -714.56409698613788 626.28397200755717 0 626.28397200755717 -16.877625108958455 0 0 0 0 -258.38470140640857 538.12952522830165 0 538.12952522830165 -161.22181833122158 0 0 0 0 344.66411384253297 1213.748250616125 0 1213.748250616125 38.209826333390083 0 0 0 0 -284.14286399154298 517.51023987755434 0 517.51023987755434 512.70381606661249 0 0 0 0 -190.3356832384743 239.33433499137755 0 239.33433499137755 155.63566135709698 0 0 0 0 363.02505023905542 220.65094879440585 0 220.65094879440585 18.71754560455156 0 0 0 0 -217.16492981580086 346.87650067639333 0 346.87650067639333 -197.60737469645392 0 0 0 0 -659.55882908921922 186.79118238249794 0 186.79118238249794 -148.59586821559787 0 0 0 0 -516.295745197207 170.95513047943859 0 170.95513047943859 25.957656651124125 0 0 0 0 235.02921355386206 310.74117230220145 0 310.74117230220145 -132.77101874990331 0 0 0 0 -146.81631062867223 214.89022625770326 0 214.89022625770326 32.846618923300412 0 0 0 0 -147.37668976277928 191.8835964513346 0 191.8835964513346 -138.63814972022374 0 0 0 0 -460.72137110796757 298.88974184646941 0 298.88974184646941 0.17474958155071363 0 0 0 0 287.05795110998588 350.19954032611349 0 350.19954032611349 0.032076784627861343 0 0 0 0 209.7149362656055 293.58514691055825 0 293.58514691055825 -4.3908669766533421 0 0 0 0 150.27649057855888 347.20433157757361 0 347.20433157757361 -0.20406731989595903 0 0 0 0 203.24574887044582 306.94064570338014 0 306.94064570338014 136.37467005863436 0 0 0 0 346.76823624735698 428.24551169421466 0 428.24551169421466 32.991298037606612 0 0 0 0 107.54472231536784 271.60993488175154 0 271.60993488175154 216.97546903952025 0 0 0 0 193.33562505831651 375.56934100576473 0 375.56934100576473 268.83428074726544 0 0 0 0 530.10347253049258 636.01274078145798 0 636.01274078145798 128.08279383536956 0 0 0 0 150.752133723523 523.64050487923669 0 523.64050487923669 1132.3990785176575 0 0 0 0 -1136.4597205297177 220.59803420967364 0 220.59803420967364 96.670161743022618 0 0 0 0 11.409909484345008 4.0121643381311856 0 4.0121643381311856 1.0514664677954499 0 0 0 0 -75.809487802849617 -207.00816655687231 0 -207.00816655687231 -239.92845258276793 0 0 0 0 41.113332836728944 2.8682863258480893 0 2.8682863258480893 1.9663037894026658 0 0 0 0 114.14451358819497 241.5070833832724 0 241.5070833832724 287.25524191999466 0 0 0 0 73.230867350799599 24.59959627874531 0 24.59959627874531 -24.926175153876024 0 0 0 0 138.2361634769477 103.51160394282124 0 103.51160394282124 -74.68234789078997 0 0 0 0 116.46383043455717 127.87585856510123 0 127.87585856510123 41.864378873637179 0 0 0 0 53.402614007311058 152.80492524274814 0 152.80492524274814 158.60555477801245 0 0 0 0 180.18764229636872 300.32258801048738 0 300.32258801048738 108.41843007819261 0 0 0 0 228.75886194234772 299.38911835537147 0 299.38911835537147 73.046065408401773 0 0 0 0 234.93210077561343 139.33572386408537 0 139.33572386408537 -15.130688246892532 0 0 0 0 346.35538782694493 313.92710301899569 0 313.92710301899569 0.12901218970364425 0 0 0 0 319.65407084595063 302.13479248855583 0 302.13479248855583 68.466058959991642 0 0 0 0 -4.7973852228824398 1493.0834535341601 0 1493.0834535341601 -1093.2456358655327 0 0 0 0 -5264.4916169039207 3997.0640886321562 0 3997.0640886321562 7.5434020182145423 0 0 0 0 -6.2109856300076842 9.1600148392767835 0 9.1600148392767835 -21.744450459179745 0 0 0 0 520.61473273973388 241.34877577430598 0 241.34877577430598 -12.82230089251243 0 0 0 0 -1053.8720971585517 951.43854328688622 0 951.43854328688622 -865.33539703801216 0 0 0 0 0.65516529692231273 26.367569806232609 0 26.367569806232609 -67.769206785951496 0 0 0 0 -3.2593399234823437 5.376383973231242 0 5.376383973231242 -14.47531670896182 0 0 0 0 0.47015545346948784 461.18911019197549 0 461.18911019197549 -277.50535254584975 0 0 0 0 72.975315686984686 375.96326241781935 0 375.96326241781935 -182.31112499429219 0 0 0 0 188.20700220468279 453.39092056443769 0 453.39092056443769 -346.40748989472195 0 0 0 0 197.29327426399686 370.88780255490565 0 370.88780255490565 -354.53803073124436 0 0 0 0 -3.8528542935059207 80.696175113193419 0 80.696175113193419 -82.762742708180667 0 0 0 0 109.49130538072495 340.11564055583585 0 340.11564055583585 -315.24244824316702 0 0 0 0 345.59815787892148 -13.800480356629123 0 -13.800480356629123 -641.96939378911338 0 0 0 0 200.81382800587744 45.305773048545234 0 45.305773048545234 -637.81299395679525 0 0 0 0 189.20927145476526 -8.02146761376207 0 -8.02146761376207 -721.81905946877669 0 0 0 0 212.58878883175203 17.451456875773147 0 17.451456875773147 -698.51622816592862 0 0 0 0 60.912635707558366 356.78109921977739 0 356.78109921977739 -890.04200338142982 0 0 0 0 -427.08597658507279 335.33389310942948 0 335.33389310942948 -216.08845027588541 0 0 0 0 -17.207836322619336 80.48102001022562 0 80.48102001022562 -82.63652016037247 0 0 0 0 444.92267677844211 96.276295902323909 0 96.276295902323909 -423.3179820373407 0 0 0 0 118.50673394889964 193.9148499186158 0 193.9148499186158 -434.78316089829605 0 0 0 0 -172.70786517346278 224.9691644827617 0 224.9691644827617 -88.609164852772665 0 0 0 0 -171.51628417150641 231.12542575242696 0 231.12542575242696 -159.11147291467933 0 0 0 0 -26.984041989009711 283.34652509691659 0 283.34652509691659 -127.01703713114694 0 0 0 0 -279.07702427203185 266.3907081073412 0 266.3907081073412 -177.96986336624832 0 0 0 0 -236.45285332163621 138.72984141863708 0 138.72984141863708 -66.014734149677679 0 0 0 0 -15.403084499924312 77.731505597074516 0 77.731505597074516 -75.956543812081634 0 0 0 0 361.2737243995507 79.623910729702402 0 79.623910729702402 -152.92234616202768 0 0 0 0 1055.5924134135712 168.49745402621647 0 168.49745402621647 -549.42809028018382 0 0 0 0 -2.8916745639624537 2.9115341756736939 0 2.9115341756736939 -3.2344319749170154 0 0 0 0 -0.13541484033339657 187.10293255573924 0 187.10293255573924 90.96294872690487 0 0 0 0 -717.07735681200575 -508.08286240457528 0 -508.08286240457528 -343.9406098337131 0 0 0 0 354.17972239090886 160.5341646178349 0 160.5341646178349 -1173.0597027572221 0 0 0 0 -1.6537692983972694 577.83359986055711 0 577.83359986055711 -427.74538915486482 0 0 0 0 740.56885372257602 505.85236386093857 0 505.85236386093857 -540.58310856641037 0 0 0 0 315.82885588308272 95.597706866370572 0 95.597706866370572 -8.0548963285982609 0 0 0 0 -9.0713259902781829 24.068903992594642 0 24.068903992594642 -21.082914326136233 0 0 0 0 -0.38903371447872814 163.38737688976107 0 163.38737688976107 105.62802140194253 0 0 0 0 52.409838364508012 83.371386048087459 0 83.371386048087459 101.30973327610673 0 0 0 0 -205.96039262270733 188.69585103433928 0 188.69585103433928 103.40803966098065 0 0 0 0 54.058858838569058 81.777317013561714 0 81.777317013561714 95.706736880894027 0 0 0 0 -33.66821742684624 501.02637504828454 0 501.02637504828454 -519.6688545575671 0 0 0 0 -460.1826649071154 836.63977026396606 0 836.63977026396606 -663.93565531720742 0 0 0 0 -258.19787311908658 681.6156249648775 0 681.6156249648775 -776.15148724955179 0 0 0 0 -136.7500979988672 467.316831947639 0 467.316831947639 -572.42173246698803 0 0 0 0 -188.8568998533201 439.43270038402989 0 439.43270038402989 -258.39863344559853 0 0 0 0 693.32014685609465 -31.422548000948154 0 -31.422548000948154 -159.88152015868218 0 0 0 0 300.42766966390627 446.42497922209441 0 446.42497922209441 -539.39317501009282 0 0 0 0 -508.39515841271896 808.56167574372012 0 808.56167574372012 -434.21570899877406 0 0 0 0 -495.33273237844696 886.95521499129427 0 886.95521499129427 -333.72917323367437 0 0 0 0 -899.39203899091081 1088.2427846312203 0 1088.2427846312203 -384.25595370474912 0 0 0 0 -3.0233409515194367 23.231424403167978 0 23.231424403167978 29.072839997411592 0 0 0 0 -867.77637627630975 119.28573847677035 0 119.28573847677035 160.83762171008857 0 0 0 0 45.895626783294134 143.35876048414502 0 143.35876048414502 11.139121142594377 0 0 0 0 58.143998227801973 88.139472946011665 0 88.139472946011665 28.147402440303267 0 0 0 0 48.930621537645806 88.191375217914782 0 88.191375217914782 101.43008700637944 0 0 0 0 -66.334909743934077 -20.315101524705824 0 -20.315101524705824 203.91872864271863 0 0 0 0 -110.55342858703625 80.621899472389487 0 80.621899472389487 276.91556085889897 0 0 0 0 -57.253559063423381 -2.2207305295305559 0 -2.2207305295305559 238.95952990473597 0 0 0 0 -90.450260938252995 45.96656920240639 0 45.96656920240639 185.83123402341153 0 0 0 0 42.083143683197164 84.81509438792861 0 84.81509438792861 99.402052424383328 0 0 0 0 -13.906425375024341 31.649510828506834 0 31.649510828506834 30.67171873386809 0 0 0 0 -59.699419974886041 54.478634711209452 0 54.478634711209452 168.85187605506508 0 0 0 0 -55.936108765919016 142.09242161377188 0 142.09242161377188 158.06668168683973 0 0 0 0 27.638602451469477 53.496102229706594 0 53.496102229706594 -10.220256060027168 0 0 0 0 -28.997892240166038 14.416555871619494 0 14.416555871619494 171.91569997162878 0 0 0 0 -19.12706213840324 13.053298686679909 0 13.053298686679909 -9.0353159066392266 0 0 0 0 30.920433323019893 44.119189864994041 0 44.119189864994041 2.0391275955043966 0 0 0 0 -0.38664104017925638 -39.140274407054676 0 -39.140274407054676 200.31178051119787 0 0 0 0 -45.611044555234002 144.78573296061222 0 144.78573296061222 -502.95156982418848 0 0 0 0 0.05270408732890175 5.9534990368944136 0 5.9534990368944136 -1.8923348065338814 0 0 0 0 44.537621336920665 34.38810350804124 0 34.38810350804124 -5.8259409003585461 0 0 0 0 -437.96413044299061 490.14396437832329 0 490.14396437832329 -187.40552208384179 0 0 0 0 38.381308485793866 44.45302842815363 0 44.45302842815363 -17.57677003320714 0 0 0 0 201.17352130617104 37.801057805729215 0 37.801057805729215 -27.837075077040936 0 0 0 0 2.635574939022141 2.80008637784033 0 2.80008637784033 0.71963731341628545 0 0 0 0 -483.92378798685286 446.55903913836664 0 446.55903913836664 -142.72566045890562 0 0 0 0 -374.74053675508503 297.11439080367199 0 297.11439080367199 -73.839970181885292 0 0 0 0 0.45402832716307362 165.224332830413 0 165.224332830413 1.168366490972403 0 0 0 0 128.82999259583653 114.63595832865394 0 114.63595832865394 -50.203115022537531 0 0 0 0 -85.625526307276004 333.14650829983293 0 333.14650829983293 -12.700670136269764 0 0 0 0 205.67199858711604 200.09282754192827 0 200.09282754192827 -1.8734446441740147 0 0 0 0 234.05146055663494 247.88977962342142 0 247.88977962342142 -156.19592734461185 0 0 0 0 624.7376201308266 28.454325831502501 0 28.454325831502501 -43.13858529420304 0 0 0 0 224.54255072745468 250.12394003938971 0 250.12394003938971 63.033333707397105 0 0 0 0 118.9952889598347 155.43095080118655 0 155.43095080118655 46.605863570913243 0 0 0 0 -128.57532807403368 146.45969518656057 0 146.45969518656057 -45.931526737243985 0 0 0 0 -316.0997927150438 169.95837063233921 0 169.95837063233921 30.773852401340264 0 0 0 0 -253.11033992856301 299.89504111401038 0 299.89504111401038 -223.05824601269705 0 0 0 0 0.29572064152992938 0.91338468242830118 0 0.91338468242830118 1.1454320228659753 0 0 0 0 -619.93086106024293 291.36585009333794 0 291.36585009333794 1.6503843097452773 0 0 0 0 64.675263509365777 230.08652614644961 0 230.08652614644961 41.756230398983462 0 0 0 0 -222.63956055276958 346.455444762556 0 346.455444762556 -5.1172966135200113 0 0 0 0 -183.60099739014345 45.324954721190352 0 45.324954721190352 49.441694576351438 0 0 0 0 -86.191597308920336 212.92362772061824 0 212.92362772061824 90.274731921977946 0 0 0 0 3.5086519698951406 166.05855210411937 0 166.05855210411937 113.46676723941346 0 0 0 0 24.365285662886187 98.593271635951623 0 98.593271635951623 36.896349891161229 0 0 0 0 98.953897570283857 141.41873930128349 0 141.41873930128349 18.3579682042473 0 0 0 0 178.79212812096171 76.959064671864326 0 76.959064671864326 42.506713720475091 0 0 0 0 4.4981748396718189 158.72079214964651 0 158.72079214964651 35.358446427737363 0 0 0 0 123.4545082152313 157.46467132418547 0 157.46467132418547 34.350767113675829 0 0 0 0 25.761798878486275 97.825357306592764 0 97.825357306592764 38.999802200377403 0 0 0 0 107.36428319092428 130.97470578982757 0 130.97470578982757 -49.96768294578942 0 0 0 0 4.5626631076397581 22.465444391189692 0 22.465444391189692 -1.4873165958012464 0 0 0 0 23.772143497299112 75.789576736904564 0 75.789576736904564 86.90031805257604 0 0 0 0 -78.7696850712573 118.41313487863954 0 118.41313487863954 69.304036935071053 0 0 0 0 78.817954961409669 220.6993170311398 0 220.6993170311398 70.019734849804081 0 0 0 0 -100.52177012311995 165.63290347219299 0 165.63290347219299 55.5595090592833 0 0 0 0 -38.323667980652544 113.23032979151685 0 113.23032979151685 8.3268882697448134 0 0 0 0 -227.5163395630907 73.695655904361047 0 73.695655904361047 0.095235706674429821 0 0 0 0 -160.03523539843673 288.44480607187143 0 288.44480607187143 -109.86703251659492 0 0 0 0 -539.33976017740952 133.60128851089394 0 133.60128851089394 59.098186693488969 0 0 0 0 297.38831620677581 134.03065093645637 0 134.03065093645637 -53.981067659449764 0 0 0 0 -0.46450232018705462 -3.1025810731156156 0 -3.1025810731156156 -6.2374423110737212 0 0 0 0 -138.70274828022025 279.33514970381293 0 279.33514970381293 -36.589544739588746 0 0 0 0 56.356917047797779 78.202722596416805 0 78.202722596416805 88.065730100073893 0 0 0 0 -366.90467896395421 798.46804368856829 0 798.46804368856829 -750.44348131444167 0 0 0 0 32.527875348415364 207.90972872557904 0 207.90972872557904 -120.32804900407791 0 0 0 0 64.076500070828388 144.15542084625122 0 144.15542084625122 -55.643859559408156 0 0 0 0 36.653602815618569 112.43912422184803 0 112.43912422184803 27.836430966024636 0 0 0 0 -20.228435869757732 169.65593821472612 0 169.65593821472612 33.668895366819925 0 0 0 0 -10.083963656520609 197.57623785377655 0 197.57623785377655 17.963696722668828 0 0 0 0 -29.422459151880503 228.41971552946052 0 228.41971552946052 -25.697356969929388 0 0 0 0 -42.361095677634239 212.42769826012955 0 212.42769826012955 0.82326744595775381 0 0 0 0 -60.507219500722385 227.53626291666296 0 227.53626291666296 81.513948056250229 0 0 0 0 -33.04584334388619 236.20358232487342 0 236.20358232487342 11.335483414855844 0 0 0 0 -23.877354843708417 175.87000417562376 0 175.87000417562376 7.2924006627436029 0 0 0 0 -73.936306091155984 198.25243101592059 0 198.25243101592059 25.503332999709528 0 0 0 0 -8.942050364647173 182.03425515536401 0 182.03425515536401 80.891070229990873 0 0 0 0 -9.288940555769841 186.93665118609351 0 186.93665118609351 13.19156768466928 0 0 0 0 11.076894594074474 137.9316203326598 0 137.9316203326598 32.246809604173905 0 0 0 0 13.78216725188031 147.25997769069363 0 147.25997769069363 -12.990822150204622 0 0 0 0 7.3130750237960456 150.10762809493463 0 150.10762809493463 28.690067783365521 0 0 0 0 17.385563572801487 8.6662510576737475 0 8.6662510576737475 -24.516913401021554 0 0 0 0 -2.4667470366213138 -1.6246296253329291 0 -1.6246296253329291 3.8945688795428168 0 0 0 0 17.385228164723685 139.06458591213959 0 139.06458591213959 38.722365700319642 0 0 0 0 -341.17106824968778 304.50913583193687 0 304.50913583193687 40.515583122018143 0 0 0 0 261.00542540104288 -18.616462701356795 0 -18.616462701356795 -68.045231503740069 0 0 0 0 206.74114546793044 171.36973393167136 0 171.36973393167136 -53.794624962061789 0 0 0 0 -6.0580712994888017 -44.729296414119744 0 -44.729296414119744 58.674764675379265 0 0 0 0 32.830261735420251 76.839893993046161 0 76.839893993046161 -7.1996839724339452 0 0 0 0 -1273.3880308344669 673.07493277086178 0 673.07493277086178 -226.20553180147544 0 0 0 0 21.584324236348852 102.01037833988529 0 102.01037833988529 -7.5870730258912431 0 0 0 0 -30.77105166002336 32.421090478027168 0 32.421090478027168 104.93489257677919 0 0 0 0 -6.9797581029075246 4.1785592206422848 0 4.1785592206422848 17.711553761620394 0 0 0 0 127.47776313989016 188.31617948182975 0 188.31617948182975 307.87978630058933 0 0 0 0 -923.28236698533874 544.65547744010109 0 544.65547744010109 -302.55752637732076 0 0 0 0 -731.20956135477172 682.63689178409186 0 682.63689178409186 -521.25994896283373 0 0 0 0 -615.51148573166211 639.43786042236752 0 639.43786042236752 -834.1917615942366 0 0 0 0 -737.4817110504373 647.17807837337023 0 647.17807837337023 -482.72011263505556 0 0 0 0 -962.84780894349387 709.80170173794249 0 709.80170173794249 -408.84164104459342 0 0 0 0 -789.76279069147131 700.27265344123589 0 700.27265344123589 -435.1129633129749 0 0 0 0 -982.2290217535774 809.18852029013215 0 809.18852029013215 -495.82939544151304 0 0 0 0 -669.26914726551331 718.08058282537968 0 718.08058282537968 -587.41639060384477 0 0 0 0 -768.1071269086824 741.07703002816561 0 741.07703002816561 -556.25261267303722 0 0 0 0 -547.86759021595935 770.59523429464025 0 770.59523429464025 -742.86030680296244 0 0 0 0 -829.53037770296214 847.13299207040109 0 847.13299207040109 -687.32784913244541 0 0 0 0 -735.82252674371921 829.97803983255289 0 829.97803983255289 -684.58772390463855 0 0 0 0 -1132.6922416672096 862.60726871051884 0 862.60726871051884 -573.61215759732295 0 0 0 0 -921.10706212297373 1011.0166762759181 0 1011.0166762759181 -944.9018839673372 0 0 0 0 -896.28259747290576 855.29033144860296 0 855.29033144860296 -952.56890085599662 0 0 0 0 -1135.5093892307414 1148.4699057932303 0 1148.4699057932303 -1401.1189097965835 0 0 0 0 -980.67298835827387 1036.3556184212503 0 1036.3556184212503 -1332.5586139963125 0 0 0 0 -462.97966673333576 799.88556340699142 0 799.88556340699142 -1547.0770835846197 0 0 0 0 -795.14295816039521 1002.426229494391 0 1002.426229494391 -1081.2382797019673 0 0 0 0 -523.54989590284822 822.15868259925628 0 822.15868259925628 -993.24895007931627 0 0 0 0 -118.92810333318084 520.30534559055377 0 520.30534559055377 -1063.2837421662989 0 0 0 0 -568.90638610028691 702.82364370794312 0 702.82364370794312 -686.4122060505324 0 0 0 0 -322.89360735341324 1023.7572750836407 0 1023.7572750836407 -1408.6195724514546 0 0 0 0 198.97799895641583 88.95369691264932 0 88.95369691264932 -73.137932423007442 0 0 0 0 -1554.4452930208063 1090.8347117234116 0 1090.8347117234116 -815.00958752256702 0 0 0 0 -1.7123505980246172 8.800189118411339 0 8.800189118411339 -2.8746644346491621 0 0 0 0 -132.14379168159212 155.3091984402854 0 155.3091984402854 -94.225562454317696 0 0 0 0 -11.03362602967141 27.967557413242474 0 27.967557413242474 56.48161791188744 0 0 0 0 30.698237373705041 63.553300831363742 0 63.553300831363742 42.872111268626384 0 0 0 0 -1464.8157562529377 869.7000870888005 0 869.7000870888005 -404.92955429333961 0 0 0 0 -1289.4840614772111 699.3843274305691 0 699.3843274305691 -239.49194173564319 0 0 0 0 -1267.6516566673236 923.0321711342549 0 923.0321711342549 -556.08336116734426 0 0 0 0 -1243.8540717596188 1041.3522226362984 0 1041.3522226362984 -847.04976955364691 0 0 0 0 -1308.3562330403511 1100.4279551479558 0 1100.4279551479558 -1235.9045224320143 0 0 0 0 -1195.3552203623403 918.65239423885942 0 918.65239423885942 -890.07780268658826 0 0 0 0 -1306.8575213260774 1113.4762354092672 0 1113.4762354092672 -1213.3989485888742 0 0 0 0 -1088.6882407856829 1754.735710621273 0 1754.735710621273 -2076.3736939283845 0 0 0 0 -18.013812798660723 3.0391532199063533 0 3.0391532199063533 2.4690993242708714 0 0 0 0 -1718.9147893959962 1833.6138446690165 0 1833.6138446690165 -1215.1224210009241 0 0 0 0 -1343.5928119639575 1196.6412462091539 0 1196.6412462091539 -1118.7440555355861 0 0 0 0 -1067.3524680807459 1072.568921754224 0 1072.568921754224 -1441.2846229738789 0 0 0 0 -1325.7322781407711 1335.9464152866567 0 1335.9464152866567 -1555.5486123724695 0 0 0 0 -1886.4506399795123 620.62322448861232 0 620.62322448861232 -607.66917126724729 0 0 0 0 -205.06752492141823 233.67976294210894 0 233.67976294210894 -250.97593387050438 0 0 0 0 2.0541746057316814 2.5797871943682367 0 2.5797871943682367 -2.9686813014908466 0 0 0 0 -754.53851636804757 1130.5173761110927 0 1130.5173761110927 -2120.2050329616177 0 0 0 0 -766.85134620843746 815.93361952950363 0 815.93361952950363 -1403.4587116960902 0 0 0 0 -711.17745522301993 643.47892953719565 0 643.47892953719565 -1476.9710896877805 0 0 0 0 -611.37679868782288 766.04436444037128 0 766.04436444037128 -1856.8547588924994 0 0 0 0 -225.29991223971774 262.62782776966378 0 262.62782776966378 -187.43894087499939 0 0 0 0 -224.92813949012634 272.95729950553505 0 272.95729950553505 -171.43185501586413 0 0 0 0 24.673976303351949 26.349662539345246 0 26.349662539345246 2.1099642288482414 0 0 0 0 -345.15482019200135 -26.203171635868785 0 -26.203171635868785 21.064164758397965 0 0 0 0 -990.35901394128814 850.70257056620176 0 850.70257056620176 -251.26295935100643 0 0 0 0 -289.47048556323352 749.09548203099985 0 749.09548203099985 -666.97390669106971 0 0 0 0 -287.88157949164088 687.46876715323015 0 687.46876715323015 -540.24986809704569 0 0 0 0 -856.69179495331991 630.6135753216804 0 630.6135753216804 -35.836995343066519 0 0 0 0 -680.57322975124407 1141.270409776138 0 1141.270409776138 -1035.7467471813725 0 0 0 0 -325.10067856504611 606.27112976103672 0 606.27112976103672 -861.1425551687862 0 0 0 0 205.25224052818521 419.99010817996168 0 419.99010817996168 -798.37628757325001 0 0 0 0 -284.60544431820017 46.631838699046057 0 46.631838699046057 -125.98065921178204 0 0 0 0 -79.007212890792289 585.9348862081315 0 585.9348862081315 -886.28183791702031 0 0 0 0 51.493735947225694 73.439665094807594 0 73.439665094807594 87.166588480160584 0 0 0 0 -142.52881283336319 614.47187073406531 0 614.47187073406531 -459.52523194381502 0 0 0 0 -358.99215601908509 608.05273274439969 0 608.05273274439969 -1347.8598158495588 0 0 0 0 -98.759582840400981 954.49255101522431 0 954.49255101522431 -939.71504001144785 0 0 0 0 427.9599675842328 531.73515952970774 0 531.73515952970774 -23.601310901947727 0 0 0 0 -24.320997413859573 44.496078145217886 0 44.496078145217886 -76.613457235975886 0 0 0 0 65.090762583648029 187.17571349365244 0 187.17571349365244 112.97953415293887 0 0 0 0 650.67988605506798 661.46204234419201 0 661.46204234419201 -429.50533506368811 0 0 0 0 567.48093435772535 474.00420414186738 0 474.00420414186738 -398.50264596601482 0 0 0 0 391.75393805538624 243.92365046385385 0 243.92365046385385 -531.56251758427243 0 0 0 0 6.3491330687141385 3.8341994371495502 0 3.8341994371495502 1.8764628148374527 0 0 0 0 -93.888272561242047 376.10691324788058 0 376.10691324788058 -461.41236198518891 0 0 0 0 -217.19864053104538 442.85288246873824 0 442.85288246873824 343.79905952448462 0 0 0 0 -413.73189073787216 764.6012611908518 0 764.6012611908518 -164.1674420950294 0 0 0 0 -403.94269647308829 661.97311391691619 0 661.97311391691619 -676.65915882319678 0 0 0 0 -566.14737208194856 785.29415289701137 0 785.29415289701137 -491.06873931865266 0 0 0 0 -505.83112661229825 563.37704357768234 0 563.37704357768234 -573.13269100881735 0 0 0 0 16.240094104217079 13.914325917081129 0 13.914325917081129 4.1597802662163588 0 0 0 0 -57.870133367960079 235.02095832832129 0 235.02095832832129 -753.13424843139364 0 0 0 0 -418.6680585576978 493.31898511692998 0 493.31898511692998 -574.81733323736989 0 0 0 0 -323.37844861676786 668.26005471385724 0 668.26005471385724 -626.05502465381869 0 0 0 0 -139.47503853564558 282.44337553135119 0 282.44337553135119 -287.49104488188459 0 0 0 0 -172.70574601954286 267.9813534419518 0 267.9813534419518 -222.24167624411348 0 0 0 0 -170.46854831877135 274.45657951590692 0 274.45657951590692 -204.24869990083971 0 0 0 0 -85.396468475126312 263.52154726970184 0 263.52154726970184 -222.5295375850983 0 0 0 0 -13.574974110277253 329.0674371061541 0 329.0674371061541 -220.13006558670895 0 0 0 0 -25.287445181527801 111.46840528633766 0 111.46840528633766 -352.88466190666077 0 0 0 0 -128.689238049712 302.8354465849261 0 302.8354465849261 -248.95071653823834 0 0 0 0 269.85974287936915 280.62100323825871 0 280.62100323825871 -344.76104530662997 0 0 0 0 227.5756155160343 316.38730835343449 0 316.38730835343449 -288.23873791407095 0 0 0 0 233.42987035786791 356.09470632699231 0 356.09470632699231 -247.98679728074057 0 0 0 0 173.68604241869616 247.21839529108547 0 247.21839529108547 -315.92818157357397 0 0 0 0 407.26595883207119 407.30856823225622 0 407.30856823225622 -244.65575672141131 0 0 0 0 432.18659498426132 358.58013268026116 0 358.58013268026116 -339.00515785600874 0 0 0 0 249.20536801486742 398.16481582599226 0 398.16481582599226 -195.76304045885627 0 0 0 0 336.40664430336165 312.75308175711143 0 312.75308175711143 -292.21763593878131 0 0 0 0 113.58120241390861 363.36622680940491 0 363.36622680940491 -209.78973886495805 0 0 0 0 121.43300703737623 264.0216081890685 0 264.0216081890685 -259.12886736062865 0 0 0 0 28.732757670448336 262.93735103946892 0 262.93735103946892 -252.37831948534586 0 0 0 0 -239.85955617931904 272.36903273664939 0 272.36903273664939 -221.44312496381099 0 0 0 0 -192.84194087555443 325.23970184828067 0 325.23970184828067 -206.25109169688949 0 0 0 0 -107.35276644739133 351.72436449564702 0 351.72436449564702 -257.02921242556476 0 0 0 0 -56.753310259546197 270.96529560007912 0 270.96529560007912 -278.15994259920262 0 0 0 0 -59.334579764003138 309.48125241667731 0 309.48125241667731 -349.06955286294397 0 0 0 0 -74.463515954121249 281.27080146715889 0 281.27080146715889 -376.37056258908706 0 0 0 0 35.114064285848144 233.31294816726586 0 233.31294816726586 -305.29876380233327 0 0 0 0 18.169981502222072 337.95095498481169 0 337.95095498481169 -279.29371463310963 0 0 0 0 78.668571904716373 316.43735279444809 0 316.43735279444809 -255.1169431887829 0 0 0 0 104.43636224301372 258.90910122248897 0 258.90910122248897 -376.03580615272222 0 0 0 0 252.50484697834327 258.42494602697116 0 258.42494602697116 -272.09383871347745 0 0 0 0 -347.8140195650376 453.07697394849674 0 453.07697394849674 -239.37199577533079 0 0 0 0 -271.35786877243368 492.79312254992192 0 492.79312254992192 -411.82409953940078 0 0 0 0 -281.6045152297811 519.75858163135126 0 519.75858163135126 -371.5997002349759 0 0 0 0 -123.65366949008785 185.76982476939884 0 185.76982476939884 -154.81784354362753 0 0 0 0 21.359801438756598 20.529355439624482 0 20.529355439624482 -6.212939129372046 0 0 0 0 -305.00350122412055 362.70176161917334 0 362.70176161917334 -261.56349053076701 0 0 0 0 -500.89125147514278 366.4559424847248 0 366.4559424847248 -182.22420064592734 0 0 0 0 -278.99363889307278 274.36070658855897 0 274.36070658855897 -167.57061272925785 0 0 0 0 -345.60494716472749 381.52498765836935 0 381.52498765836935 -377.06900613578 0 0 0 0 -355.76513653794245 310.15952111534716 0 310.15952111534716 -262.26349471487777 0 0 0 0 -219.71455533417247 390.00447338203594 0 390.00447338203594 -339.53621958674921 0 0 0 0 -321.96152681777312 413.15373511197504 0 413.15373511197504 -423.10270443023182 0 0 0 0 -640.77439647507708 500.89223153374041 0 500.89223153374041 -333.40353105655231 0 0 0 0 17.615489660103684 15.887251910064862 0 15.887251910064862 -10.35929811605439 0 0 0 0 208.89837121152232 132.03476633303217 0 132.03476633303217 -234.17588044069259 0 0 0 0 -861.39497396859406 688.35839040277642 0 688.35839040277642 -530.21373709346517 0 0 0 0 -320.63481108162887 401.38045316017815 0 401.38045316017815 -628.84417545055476 0 0 0 0 12.748130052396576 10.761587874295202 0 10.761587874295202 -10.90586404194363 0 0 0 0 -695.85319023597913 500.75732832472931 0 500.75732832472931 -624.78853911357874 0 0 0 0 -21.27445853347308 277.96205893899605 0 277.96205893899605 -506.07447062126084 0 0 0 0 -87.709806853034024 183.85826523217474 0 183.85826523217474 -400.40717335310183 0 0 0 0 -275.31662204733584 445.74998000492997 0 445.74998000492997 -632.67706191413163 0 0 0 0 -24.354477824850619 80.893914706910437 0 80.893914706910437 -431.09579454177583 0 0 0 0 20.822268243678991 -10.997781026198936 0 -10.997781026198936 -235.03497157352467 0 0 0 0 -28.134008144152176 141.19044833810767 0 141.19044833810767 -346.72806558474258 0 0 0 0 -228.33111285446648 -104.76653394137247 0 -104.76653394137247 -367.46066700715892 0 0 0 0 72.221900873544655 472.63128805762062 0 472.63128805762062 -1373.9086113254743 0 0 0 0 -105.2141906720135 388.83381441613164 0 388.83381441613164 -955.32534768030746 0 0 0 0 -26.928484789161303 163.25604684790596 0 163.25604684790596 -235.61084540760567 0 0 0 0 -116.2420378892275 230.3217837739503 0 230.3217837739503 -275.00836826435989 0 0 0 0 38.678074552131875 153.16314260827494 0 153.16314260827494 -245.69550295185763 0 0 0 0 70.280219171003409 220.75712152251799 0 220.75712152251799 -335.23642556020059 0 0 0 0 28.014756755162125 203.69974272335912 0 203.69974272335912 -322.68740861245897 0 0 0 0 142.21643256286916 137.30704105619225 0 137.30704105619225 -300.81810741976733 0 0 0 0 66.179956448303074 249.48906841027929 0 249.48906841027929 -415.68484549979621 0 0 0 0 -36.880814195661515 239.63595863116643 0 239.63595863116643 -336.07885724953667 0 0 0 0 89.600123613021424 162.40074131838628 0 162.40074131838628 -357.09709118196224 0 0 0 0 -27.957869406476675 246.65627529193443 0 246.65627529193443 -334.44380633704714 0 0 0 0 17.998132607947667 76.500607880828625 0 76.500607880828625 -88.537358341753134 0 0 0 0 19.205460362078156 3.8059226379191387 0 3.8059226379191387 26.779664228066395 0 0 0 0 0.4036351485524392 1.680161263362578 0 1.680161263362578 2.4938587354782271 0 0 0 0 164.57042239573639 215.68350754948915 0 215.68350754948915 -151.44736583188205 0 0 0 0 57.898196483736683 174.76847560612077 0 174.76847560612077 -167.09585042073741 0 0 0 0 11.18876299166368 96.018047415163892 0 96.018047415163892 -148.06335343272076 0 0 0 0 253.27377347481888 -32.471715639367176 0 -32.471715639367176 -81.935663068143185 0 0 0 0 153.69929643694923 94.867897070638719 0 94.867897070638719 138.12497669772711 0 0 0 0 911.97463036004774 -487.32716047148278 0 -487.32716047148278 -163.76113936552429 0 0 0 0 12.287352642083285 24.630676899752387 0 24.630676899752387 27.954236230138122 0 0 0 0 323.93031854191031 833.46320984725753 0 833.46320984725753 91.168650205479935 0 0 0 0 1365.0279774948449 -336.21840474416967 0 -336.21840474416967 -138.60190139248152 0 0 0 0 14.620151829309464 17.325664712552481 0 17.325664712552481 12.374477494288215 0 0 0 0 -6.3388296165581863 12.356467629318175 0 12.356467629318175 21.979896388946656 0 0 0 0 1341.7731135517897 771.4053005411406 0 771.4053005411406 -502.10416778942454 0 0 0 0 239.26139158578007 -1218.5388802694288 0 -1218.5388802694288 1629.1146972598799 0 0 0 0 2374.5587097992448 695.10217353656799 0 695.10217353656799 -1216.7396417243872 0 0 0 0 208.16086429251936 -11.059126026093509 0 -11.059126026093509 -20.642256396298762 0 0 0 0 -22.196266804494371 -9.7756892513934872 0 -9.7756892513934872 116.91115897669806 0 0 0 0 -4.023305949239159 0.20601355296841461 0 0.20601355296841461 8.0682067028047868 0 0 0 0 -22.196266804501647 -9.7756892513752973 0 -9.7756892513752973 116.91115897658165 0 0 0 0 -22.196266804506195 -9.7756892513698403 0 -9.7756892513698403 116.91115897675627 0 0 0 0 493.51636679175863 -68.648198761809908 0 -68.648198761809908 -95.55882373303757 0 0 0 0 -91.205092666816199 33.500359416386345 0 33.500359416386345 62.674010380505933 0 0 0 0 365.37551626824279 157.26642241435184 0 157.26642241435184 43.74142796509841 0 0 0 0 -120.15721797684819 151.21239446701657 0 151.21239446701657 180.3708290594077 0 0 0 0 300.30457612344617 -83.190567446916248 0 -83.190567446916248 -28.705974600612535 0 0 0 0 -11.627383806742728 -83.650409231384401 0 -83.650409231384401 10.815088083352748 0 0 0 0 -91.966967918299417 57.752163914777611 0 57.752163914777611 7.4907980691205012 0 0 0 0 -150.2937489722583 -98.452077311545963 0 -98.452077311545963 -16.824394927069079 0 0 0 0 5.3286537808207157 3.5922144989470439 0 3.5922144989470439 1.8789410689666965 0 0 0 0 27.290228179685698 2.9552019961774647 0 2.9552019961774647 -6.0504394822284553 0 0 0 0 -7.5280876364486176 20.525175083461363 0 20.525175083461363 111.05038402683567 0 0 0 0 107.67008540473762 -31.361243250350526 0 -31.361243250350526 -5.0880862123376573 0 0 0 0 74.310560626581719 95.581497134182428 0 95.581497134182428 81.843320678759483 0 0 0 0 38.48790550819831 37.485602346925589 0 37.485602346925589 -0.033982649329118431 0 0 0 0 38.782712487842616 -4.7353505678820795 0 -4.7353505678820795 -5.5677838294413675 0 0 0 0 414.94509338377975 -286.15764625415613 0 -286.15764625415613 -228.3752408201035 0 0 0 0 25.990567887020006 5.3313908117706887 0 5.3313908117706887 29.146422091027489 0 0 0 0 -30.077167836341687 112.48298719977902 0 112.48298719977902 97.819997734215576 0 0 0 0 54.669720357937877 17.236150921296939 0 17.236150921296939 4.7981808003241895 0 0 0 0 53.498577402482624 12.312707952980418 0 12.312707952980418 30.88378732214187 0 0 0 0 50.823203920839745 -5.3434961455359939 0 -5.3434961455359939 -4.2558182978973775 0 0 0 0 54.229775236570276 2.6417386649991386 0 2.6417386649991386 0.047252619127034337 0 0 0 0 40.626029036856181 3.5176089465061651 0 3.5176089465061651 -2.4295630697623096 0 0 0 0 -4.8031351812350351 15.302654958049537 0 15.302654958049537 7.1516166816837199 0 0 0 0 1211.6761990981759 406.53459896829008 0 406.53459896829008 -646.63564205481089 0 0 0 0 75.980152349438868 84.202638987051614 0 84.202638987051614 -92.514524388388963 0 0 0 0 1103.8320121537909 230.55217288941276 0 230.55217288941276 -347.14896468058578 0 0 0 0 463.95398225112149 585.84463019677059 0 585.84463019677059 355.97135256097681 0 0 0 0 357.71425996433481 434.14569438759463 0 434.14569438759463 427.63485522539122 0 0 0 0 -37.722770834538096 223.50906755008327 0 223.50906755008327 -101.88484644044365 0 0 0 0 334.48135076365816 515.0522424732626 0 515.0522424732626 320.05061487779312 0 0 0 0 6.3043442298993995 7.7501217326273775 0 7.7501217326273775 -8.4583443623174617 0 0 0 0 -43.80042043391478 -121.59981839614727 0 -121.59981839614727 -104.89857221290004 0 0 0 0 -14.347134443258255 66.518644937299541 0 66.518644937299541 82.298857297035283 0 0 0 0 490.47065923693299 6.9502591217387817 0 6.9502591217387817 -6.5171968449503765 0 0 0 0 11.899196331755462 6.8590905896526522 0 6.8590905896526522 -6.6093772269247211 0 0 0 0 4.0463059395488301 4.245177401780694 0 4.245177401780694 3.5752055205817896 0 0 0 0 -0.085770452769793337 82.884885923500406 0 82.884885923500406 380.31287922596675 0 0 0 0 468.78703447832959 445.4618425679655 0 445.4618425679655 291.86464265583709 0 0 0 0 101.89984987507341 108.06286895945959 0 108.06286895945959 0.42114630441938061 0 0 0 0 839.89801650171285 364.29316954674869 0 364.29316954674869 -0.107128243194893 0 0 0 0 637.63334140993356 202.5395634192937 0 202.5395634192937 282.4126639548922 0 0 0 0 268.04916792599761 615.3588944346775 0 615.3588944346775 422.91253835133102 0 0 0 0 250.52063288419151 353.34698550875646 0 353.34698550875646 163.03506971495517 0 0 0 0 263.55393063843439 544.0898317453757 0 544.0898317453757 0.1556284183752723 0 0 0 0 813.05427770183724 505.89880046357212 0 505.89880046357212 0.13295722421025857 0 0 0 0 -362.12009991255036 269.05129236847642 0 269.05129236847642 309.43396942637628 0 0 0 0 1.8854820459081694 0.033163440377421693 0 0.033163440377421693 -3.3725632940687547 0 0 0 0 313.11480297656453 272.88649625147082 0 272.88649625147082 250.62327980538248 0 0 0 0 -64.020331639287178 631.10248188406695 0 631.10248188406695 0.18793837253587772 0 0 0 0 -243.50005043973033 587.03217637004491 0 587.03217637004491 215.53358376069809 0 0 0 0 277.98404807470342 457.37816665390437 0 457.37816665390437 33.938980323757278 0 0 0 0 -187.96013921264239 386.10679925051227 0 386.10679925051227 288.95564873059629 0 0 0 0 -427.08699944686578 678.83065690881995 0 678.83065690881995 179.69868137121375 0 0 0 0 -418.3160404864293 664.23800085039693 0 664.23800085039693 61.804632487474009 0 0 0 0 -474.2734216632889 600.38656755092961 0 600.38656755092961 212.79756181935227 0 0 0 0 78.013025311842284 196.95205740618258 0 196.95205740618258 160.718252804043 0 0 0 0 -527.01421346374627 710.1660062805604 0 710.1660062805604 -23.234073676743719 0 0 0 0 305.09516836632429 383.56899301483645 0 383.56899301483645 348.37902892236889 0 0 0 0 455.49954012421949 559.38553158925788 0 559.38553158925788 307.48253821769322 0 0 0 0 524.62911607743808 583.14873813699523 0 583.14873813699523 94.46021892695353 0 0 0 0 -0.10315514691237126 3.1380514652994478 0 3.1380514652994478 -4.6160352504506363 0 0 0 0 0.77858087313789781 1.5154058735696125 0 1.5154058735696125 -3.210036169780949 0 0 0 0 785.96527861803042 689.09699117332639 0 689.09699117332639 598.26517132679874 0 0 0 0 584.83723244019347 385.28258230372739 0 385.28258230372739 309.20677774302021 0 0 0 0 408.92938417647747 603.43759120345203 0 603.43759120345203 829.83386582796811 0 0 0 0 3.3120170257312793 5.5158748827233524 0 5.5158748827233524 -5.4717657669515631 0 0 0 0 546.02237238432645 858.97966594203172 0 858.97966594203172 959.2498348155932 0 0 0 0 310.85502872738289 509.15017433901085 0 509.15017433901085 -1734.5650974292075 0 0 0 0 -1445.6496081138903 1486.9721831589195 0 1486.9721831589195 -1248.0261778742861 0 0 0 0 1484.042572045415 688.06494452430343 0 688.06494452430343 -939.79304136322025 0 0 0 0 589.52065987497917 959.01894961766084 0 959.01894961766084 -1019.9604545378024 0 0 0 0 1012.6027530280526 1014.4907583095737 0 1014.4907583095737 -708.93288278835826 0 0 0 0 561.50432644021203 866.31511782440066 0 866.31511782440066 -715.51787932869047 0 0 0 0 -553.35504469041098 793.98163702749116 0 793.98163702749116 -502.02250299885054 0 0 0 0 -421.85708494782193 534.2919574392763 0 534.2919574392763 -577.4762069809949 0 0 0 0 -86.8899776721737 610.8506476819166 0 610.8506476819166 -536.48357355195185 0 0 0 0 -86.752294845115102 605.757686520883 0 605.757686520883 -401.16891108267009 0 0 0 0 -52.532045635220129 446.97352407104336 0 446.97352407104336 -583.40477243093483 0 0 0 0 -45.184190368470809 389.00529845886922 0 389.00529845886922 -371.85197338060243 0 0 0 0 -747.69981048245063 340.29971974190994 0 340.29971974190994 -132.5009926641651 0 0 0 0 -2.0434082383137806 1.8137620623450061 0 1.8137620623450061 4.0382653614560127 0 0 0 0 -1348.8371188835517 583.34446581096563 0 583.34446581096563 -75.642620550410356 0 0 0 0 -170.0578347496363 754.3819124864176 0 754.3819124864176 -1190.8124434898928 0 0 0 0 -156.82708310654823 542.49059041782357 0 542.49059041782357 -201.85891268556588 0 0 0 0 171.63551715503127 416.91189759595363 0 416.91189759595363 -154.51678275586164 0 0 0 0 4.0217948275379172 3.4830575511652739 0 3.4830575511652739 -4.294482950624058 0 0 0 0 870.21878434436439 -132.15391959079716 0 -132.15391959079716 145.82919557904825 0 0 0 0 2077.6947309722782 -560.11150507222919 0 -560.11150507222919 -395.24499306108919 0 0 0 0 458.73975856020661 138.32914252026239 0 138.32914252026239 -139.14113530477334 0 0 0 0 159.05373329573922 633.20701964483305 0 633.20701964483305 -295.99446355937107 0 0 0 0 -187.65406852704427 594.45291615258134 0 594.45291615258134 -461.18333889830683 0 0 0 0 -175.23479137279446 389.48826879151602 0 389.48826879151602 -276.32655609284848 0 0 0 0 -352.99222034486229 589.30962760736293 0 589.30962760736293 -372.26848943068035 0 0 0 0 -495.97978639357302 -284.57149982409283 0 -284.57149982409283 282.66680535249179 0 0 0 0 700.96345439003198 -1144.5526888585591 0 -1144.5526888585591 -76.288110256013169 0 0 0 0 -251.01409152089309 387.60463700894252 0 387.60463700894252 -48.601370313146617 0 0 0 0 -453.64414631639318 197.43831622822745 0 197.43831622822745 245.4855067707249 0 0 0 0 36.865162412676099 72.697840923824515 0 72.697840923824515 96.582774406807232 0 0 0 0 -117.26275493219873 238.54129565926269 0 238.54129565926269 103.51982172540738 0 0 0 0 -55.425596623310412 99.242998422094388 0 99.242998422094388 135.40166344254976 0 0 0 0 -89.381030711512039 138.11477252674376 0 138.11477252674376 9.4446779702557251 0 0 0 0 -496.75110176500857 768.49476525388309 0 768.49476525388309 -526.19696008799292 0 0 0 0 82.498411966740605 55.9436260017319 0 55.9436260017319 -453.55437867206638 0 0 0 0 -222.85611315224742 642.89073597130482 0 642.89073597130482 -1398.1173421545827 0 0 0 0 -1195.5155997622496 1276.137358884429 0 1276.137358884429 -849.52171900898247 0 0 0 0 -967.21458328587096 729.60596290986359 0 729.60596290986359 -354.85077953799919 0 0 0 0 -526.56028457197681 716.12367081762932 0 716.12367081762932 -382.67195060302038 0 0 0 0 -624.2207615934567 718.5991806693637 0 718.5991806693637 -432.91543865964923 0 0 0 0 -630.49822975690768 663.63701129269612 0 663.63701129269612 -391.72892325707653 0 0 0 0 -1.4804839557628 4.5781969359453285 0 4.5781969359453285 7.1071764102486554 0 0 0 0 -837.55235703189283 714.28195376231452 0 714.28195376231452 -368.05628782957137 0 0 0 0 -588.89617373643841 531.105915908116 0 531.105915908116 -508.19923383601417 0 0 0 0 -326.12958246985727 712.04045114848122 0 712.04045114848122 -460.42005529862763 0 0 0 0 -344.7122539647371 713.19179363649164 0 713.19179363649164 -284.98135053504666 0 0 0 0 -310.36925538784362 613.01817955827573 0 613.01817955827573 -481.49181538842095 0 0 0 0 -310.18879122555012 605.95018428146341 0 605.95018428146341 -371.76807366855792 0 0 0 0 -373.55965193656374 558.15656355180545 0 558.15656355180545 -565.57461716776015 0 0 0 0 -396.40697173221815 632.41718251895509 0 632.41718251895509 -379.8378970175836 0 0 0 0 -568.76697371208877 623.99966326769527 0 623.99966326769527 22.170547374087619 0 0 0 0 -568.83691567499864 630.51069845356687 0 630.51069845356687 -245.18469022734644 0 0 0 0 -465.77435601974321 923.59144307661336 0 923.59144307661336 216.29105938730936 0 0 0 0 -589.05066544224155 674.65899194294616 0 674.65899194294616 231.54286070650005 0 0 0 0 -745.89052892825021 383.40127967575972 0 383.40127967575972 -129.31961105580558 0 0 0 0 -2.3101545196181767 2.5497630793556709 0 2.5497630793556709 5.2203579808405607 0 0 0 0 -887.16784352877039 742.76642827686737 0 742.76642827686737 262.14368028618628 0 0 0 0 -285.51739130286296 795.36752389523463 0 795.36752389523463 -480.85451869016106 0 0 0 0 -557.28507017674565 892.60970400302904 0 892.60970400302904 279.59053303002565 0 0 0 0 -644.42395552745438 643.08947361625178 0 643.08947361625178 218.17843781312695 0 0 0 0 -356.36286838276555 820.77607632736544 0 820.77607632736544 142.40302419372892 0 0 0 0 -460.98998081231002 773.85331992310603 0 773.85331992310603 140.11557540735521 0 0 0 0 -396.85132298731696 776.98638678005227 0 776.98638678005227 0.33847913368663285 0 0 0 0 -727.40508849412959 778.14014154019242 0 778.14014154019242 280.58021780452691 0 0 0 0 -528.73476643112065 871.46246866316142 0 871.46246866316142 -0.48490860241872724 0 0 0 0 -666.6663841963466 851.52797446750264 0 851.52797446750264 273.04127984427032 0 0 0 0 -803.74900929018349 1044.9657983574907 0 1044.9657983574907 2.1830112977768295 0 0 0 0 -556.20366235490201 512.71919757006981 0 512.71919757006981 575.66378063141019 0 0 0 0 -1294.3116187140859 824.74412171595759 0 824.74412171595759 668.94191667127598 0 0 0 0 -3.423491460127611 5.0891019619061524 0 5.0891019619061524 -0.65987683742964975 0 0 0 0 -523.01566277438269 86.688138513462036 0 86.688138513462036 934.02986332958972 0 0 0 0 -5.0081836987301358 7.0981376797426492 0 7.0981376797426492 0.006080092644458808 0 0 0 0 27.143775029579956 476.54757591357338 0 476.54757591357338 387.23119574558223 0 0 0 0 -10.481288877102777 7.7297410254012959 0 7.7297410254012959 -2.6733598841642419 0 0 0 0 -5.0070026729082997 7.1159008052673016 0 7.1159008052673016 -0.0029712767864111811 0 0 0 0 -4.4166878514952259 17.995551842497662 0 17.995551842497662 3.5902010297650122 0 0 0 0 181.0823527108405 375.29764849591447 0 375.29764849591447 392.89849965390749 0 0 0 0 144.46999737715396 622.41213851011707 0 622.41213851011707 550.89747366501251 0 0 0 0 -352.17133257421119 454.55928130506072 0 454.55928130506072 640.91987034380145 0 0 0 0 67.369322721647677 489.78338645951226 0 489.78338645951226 390.20394873686018 0 0 0 0 -406.75160161632402 617.50550294481582 0 617.50550294481582 515.86384419148089 0 0 0 0 -22.629855836832576 510.53223032299138 0 510.53223032299138 562.43788074006443 0 0 0 0 -263.08994217185864 385.76770294063317 0 385.76770294063317 731.00243543036049 0 0 0 0 -276.17983672257253 474.41720460171928 0 474.41720460171928 464.68333118333248 0 0 0 0 273.35020512515985 562.81047493084043 0 562.81047493084043 536.12465939485992 0 0 0 0 -22.503201874449587 520.19960279137013 0 520.19960279137013 929.21013576525729 0 0 0 0 239.20423925469203 237.9091246487817 0 237.9091246487817 1227.6463596930262 0 0 0 0 239.04463009447682 311.90110951988026 0 311.90110951988026 658.96433183219051 0 0 0 0 248.61047086217286 -965.34784623490668 0 -965.34784623490668 -949.38232900123694 0 0 0 0 5.3505337996172742 5.3696959709970997 0 5.3696959709970997 8.3060223478888702 0 0 0 0 4.0271159980075026 380.39741067383147 0 380.39741067383147 750.51493172641494 0 0 0 0 -68.005725363973397 55.602578453792376 0 55.602578453792376 650.25230470926181 0 0 0 0 -313.75619707990336 306.50366437224147 0 306.50366437224147 490.49539150943747 0 0 0 0 -215.1734672694065 370.14562912937254 0 370.14562912937254 487.46454436483327 0 0 0 0 -84.534434873939972 246.12241317887674 0 246.12241317887674 558.13007395883324 0 0 0 0 -26.337028129095415 31.264850630584988 0 31.264850630584988 271.18498316773184 0 0 0 0 -230.87627135446201 268.64305616277852 0 268.64305616277852 127.47425062292132 0 0 0 0 -380.59958156535004 462.28282131668675 0 462.28282131668675 154.24588918959489 0 0 0 0 -550.97823735405746 433.10850062518148 0 433.10850062518148 394.36001623014454 0 0 0 0 -771.64244657508425 568.98676548025105 0 568.98676548025105 341.93573293127702 0 0 0 0 -807.53303748156634 560.92785063500924 0 560.92785063500924 101.9803911240524 0 0 0 0 -647.45267934277399 606.65614489604195 0 606.65614489604195 90.908791355392168 0 0 0 0 -843.28016691958896 730.26419130238355 0 730.26419130238355 336.11592220103194 0 0 0 0 -804.05350385605652 599.08320708091924 0 599.08320708091924 572.83052782970481 0 0 0 0 -470.72133261767794 466.14914949065133 0 466.14914949065133 602.74140407179948 0 0 0 0 -492.15714383291743 551.76880963848089 0 551.76880963848089 345.71342150463897 0 0 0 0 134.83604139575982 55.304111957975692 0 55.304111957975692 -227.53170019658864 0 0 0 0 -0.11168102944793645 76.204423086368479 0 76.204423086368479 237.48110733133581 0 0 0 0 -27.757734557555523 -10.611260820987809 0 -10.611260820987809 213.43731546850177 0 0 0 0 28.295387131190182 64.362216347617505 0 64.362216347617505 -3.740176656661788 0 0 0 0 24.819168703950709 62.00780882818799 0 62.00780882818799 -8.9170711926999502 0 0 0 0 22.647579416181543 54.598123939498691 0 54.598123939498691 -0.0028040739707648754 0 0 0 0 5.7406127588673144 60.68165832514461 0 60.68165832514461 -11.480657274459091 0 0 0 0 2.0760122416795639 120.02992053984781 0 120.02992053984781 -27.534430904393957 0 0 0 0 63.125509327976033 191.42201071686577 0 191.42201071686577 -38.565405678091338 0 0 0 0 62.690345654120392 177.17444656260341 0 177.17444656260341 21.574772652616957 0 0 0 0 140.03989331798221 -38.265356929405243 0 -38.265356929405243 176.99695755973516 0 0 0 0 -238.67358269223041 201.53427331311832 0 201.53427331311832 72.505706765543437 0 0 0 0 -277.19099821035343 -41.069995526173443 0 -41.069995526173443 203.71124961460009 0 0 0 0 -7.8411469191324255 5.5637061734247197 0 5.5637061734247197 83.033738800220135 0 0 0 0 -3.9432995287250163 12.038099188583786 0 12.038099188583786 -0.75549158519510229 0 0 0 0 -4.4226276459521614 17.847425397514598 0 17.847425397514598 0.069144888194301715 0 0 0 0 -16.199999163631759 12.378081907337332 0 12.378081907337332 11.978068358044624 0 0 0 0 -22.876921327735488 44.452619924595183 0 44.452619924595183 19.635239059192827 0 0 0 0 255.18138468767211 13.765792752295965 0 13.765792752295965 -88.477898816905508 0 0 0 0 -5.4580304925402743 163.34169520947034 0 163.34169520947034 152.39297294677817 0 0 0 0 589.35514934367529 418.34521696653246 0 418.34521696653246 35.442766472813673 0 0 0 0 976.79594778612045 780.50988196556864 0 780.50988196556864 364.21910960350942 0 0 0 0 813.15554914682161 -315.80791097247857 0 -315.80791097247857 -291.62501317288843 0 0 0 0 542.62763772710332 1163.3128304468628 0 1163.3128304468628 1610.5256330157572 0 0 0 0 375.85339060854949 810.90261371548695 0 810.90261371548695 1131.1334344700444 0 0 0 0 198.00939107025624 -598.79051217096276 0 -598.79051217096276 -105.23953961853113 0 0 0 0 -2.3609648259989484 3.1171732588699399 0 3.1171732588699399 13.115318862136917 0 0 0 0 1034.7732550196488 589.51460825007234 0 589.51460825007234 1104.4350283759704 0 0 0 0 -35.507534052117762 723.14078265746411 0 723.14078265746411 2377.6427303549426 0 0 0 0 -502.93249152594944 -303.05916266213171 0 -303.05916266213171 -13.926553429468186 0 0 0 0 689.73856256870567 -148.12913600850152 0 -148.12913600850152 -488.93786540051588 0 0 0 0 327.20209682393761 29.016832607623655 0 29.016832607623655 3514.6420778275351 0 0 0 0 1330.3150590073019 -2302.0100645374041 0 -2302.0100645374041 -1156.2019035459962 0 0 0 0 -1070.8287338918217 1772.789056836169 0 1772.789056836169 4180.5165339086961 0 0 0 0 57.2101738119527 -282.6992902552156 0 -282.6992902552156 219.32775306300755 0 0 0 0 0.36278251836443376 -4.9775902908173322 0 -4.9775902908173322 32.26916274615968 0 0 0 0 -296.70142401028761 -348.79681429819129 0 -348.79681429819129 1251.3568565244495 0 0 0 0 749.43174481380265 1490.7409309961586 0 1490.7409309961586 2109.5826730740009 0 0 0 0 61.41464028460905 73.313800220319536 0 73.313800220319536 437.31812330640969 0 0 0 0 227.89673788909568 -33.74147773857112 0 -33.74147773857112 445.00708661261888 0 0 0 0 -55.757666507492104 -160.67686685390072 0 -160.67686685390072 1017.1860664646956 0 0 0 0 -0.99425544143855404 12.062401138952424 0 12.062401138952424 11.456575623554869 0 0 0 0 951.78325688343466 415.689183633418 0 415.689183633418 -49.402167153406481 0 0 0 0 -489.49648089687253 1316.9718758283343 0 1316.9718758283343 791.06793075654423 0 0 0 0 -1114.3159993154259 -819.3541073515662 0 -819.3541073515662 196.82428257836727 0 0 0 0 1708.4664032161745 1403.1454871551978 0 1403.1454871551978 930.86370185887608 0 0 0 0 966.49590744360466 492.86537782073719 0 492.86537782073719 1195.1164433941594 0 0 0 0 130.03607366160384 77.778325269577749 0 77.778325269577749 30.903041769278843 0 0 0 0 39.238142911046452 -338.29669322927657 0 -338.29669322927657 874.04638402012642 0 0 0 0 -233.72654316741682 -292.75778652538429 0 -292.75778652538429 920.45583792927209 0 0 0 0 -44.371859181224863 -212.22771926713176 0 -212.22771926713176 911.31658499300829 0 0 0 0 28.620648939785042 -5.6222386655680054 0 -5.6222386655680054 -26.874996583411559 0 0 0 0 -291.21088957197207 -358.00453700622893 0 -358.00453700622893 899.48254254672793 0 0 0 0 -311.99864732327478 -207.47020836448792 0 -207.47020836448792 1088.3349567320256 0 0 0 0 -353.88833331876231 -269.76897259106772 0 -269.76897259106772 1032.7312642227043 0 0 0 0 -175.4914665493925 -127.59939692881017 0 -127.59939692881017 903.24585854110774 0 0 0 0 -292.54560987582954 -103.31863779484411 0 -103.31863779484411 1078.559061637352 0 0 0 0 217.97877491259214 -208.23185264590211 0 -208.23185264590211 556.25065626073047 0 0 0 0 -157.8537680919253 -203.39058600188582 0 -203.39058600188582 913.44483659269463 0 0 0 0 44.479164723127269 -103.28569828582113 0 -103.28569828582113 556.94842348233215 0 0 0 0 -101.58404800995413 54.439796842372743 0 54.439796842372743 710.17927598278038 0 0 0 0 -175.64588388368429 15.937117972338456 0 15.937117972338456 698.20842429465847 0 0 0 0 62.699489770537184 153.50513352749113 0 153.50513352749113 35.886265866894973 0 0 0 0 246.42527674604207 257.66239638415573 0 257.66239638415573 31.416697431588545 0 0 0 0 -63.693361189521966 294.08075338637718 0 294.08075338637718 69.769052334915614 0 0 0 0 277.58609271561727 310.36246915347874 0 310.36246915347874 -57.002629919225001 0 0 0 0 -43.332608909753617 168.27920852781972 0 168.27920852781972 -75.366277646651724 0 0 0 0 527.48389485416192 445.05957447770925 0 445.05957447770925 -512.38645632826956 0 0 0 0 590.63261154578868 1262.7869711077765 0 1262.7869711077765 438.16228273219895 0 0 0 0 702.18839370412024 999.29587825666749 0 999.29587825666749 -149.00263312755851 0 0 0 0 179.81720147399301 2553.1890643231063 0 2553.1890643231063 -1027.0761916992051 0 0 0 0 298.21450367468788 299.07097632246587 0 299.07097632246587 -1360.3340766235488 0 0 0 0 -731.23869447222387 105.70587077061646 0 105.70587077061646 -312.71650237408176 0 0 0 0 -14.30783265133141 260.50042138943536 0 260.50042138943536 -292.94992999883834 0 0 0 0 -171.99621261513676 379.54746053679264 0 379.54746053679264 -217.68091215763707 0 0 0 0 -871.70200292530353 667.50840207611327 0 667.50840207611327 -320.27344343184814 0 0 0 0 264.5609022481367 193.10299609336653 0 193.10299609336653 -348.57946209087095 0 0 0 0 3.6367386740217569 4.1273054346082745 0 4.1273054346082745 1.5574286892447446 0 0 0 0 -289.22423297323985 -997.2908470305847 0 -997.2908470305847 -205.77150587664073 0 0 0 0 -453.44242140093411 965.67885410629242 0 965.67885410629242 -598.86787249275949 0 0 0 0 -120.58330796496011 803.41342915872701 0 803.41342915872701 -547.27514845944825 0 0 0 0 344.27957718323159 400.59738842262595 0 400.59738842262595 -234.92820120810575 0 0 0 0 -392.14873041382816 365.25593964206928 0 365.25593964206928 -0.70544470814638771 0 0 0 0 -152.5299195793923 375.56790911978169 0 375.56790911978169 45.885138608355192 0 0 0 0 -41.724063413610565 296.79670602463011 0 296.79670602463011 4.4901082193146067 0 0 0 0 25.168481461994816 503.27320089747082 0 503.27320089747082 -221.51079743284026 0 0 0 0 130.70014677693689 350.74949094175099 0 350.74949094175099 -52.737445451290114 0 0 0 0 109.95618119472056 304.16503096300585 0 304.16503096300585 -156.21749959994486 0 0 0 0 111.85846062815108 280.60182109024754 0 280.60182109024754 -47.64795782166766 0 0 0 0 158.3819813420705 256.47732618589362 0 256.47732618589362 -132.99214873049641 0 0 0 0 218.94923162978375 269.90360120678088 0 269.90360120678088 -166.65393890373525 0 0 0 0 279.71753467182862 237.30518738109095 0 237.30518738109095 -167.56609224807471 0 0 0 0 225.56791085161967 226.99360419112782 0 226.99360419112782 -133.75724367142539 0 0 0 0 599.04395329199542 243.43797363451449 0 243.43797363451449 -423.52416328451363 0 0 0 0 425.53782830508135 484.49301524756447 0 484.49301524756447 -452.7163313873898 0 0 0 0 170.57177660477311 89.6477451661234 0 89.6477451661234 35.428076828809594 0 0 0 0 775.28143803019339 1035.375444987938 0 1035.375444987938 166.20952967769699 0 0 0 0 67.302169402333675 128.85741191564011 0 128.85741191564011 -234.3265656348085 0 0 0 0 1535.2392632154515 366.44817904608499 0 366.44817904608499 -3088.3798066697709 0 0 0 0 27.195782979736208 -8.1625429695994285 0 -8.1625429695994285 -21.463098434228243 0 0 0 0 -128.82202764800604 295.38754998713557 0 295.38754998713557 -524.0660979206059 0 0 0 0 -331.46153483086891 -168.52473208912124 0 -168.52473208912124 88.616236538655357 0 0 0 0 33.231533117057552 194.84127597969928 0 194.84127597969928 -69.634927324572345 0 0 0 0 152.59417927423056 233.12319341433613 0 233.12319341433613 -127.64163021981949 0 0 0 0 65.042912231729133 221.43866210742272 0 221.43866210742272 -119.24353872956272 0 0 0 0 60.131816322158556 248.19058190609212 0 248.19058190609212 -53.818729928996618 0 0 0 0 48.709002863641217 248.1438446843058 0 248.1438446843058 -29.796644779562484 0 0 0 0 34.530186185977072 252.1920496006569 0 252.1920496006569 -29.42763987230137 0 0 0 0 41.700585400205455 272.46916317350406 0 272.46916317350406 15.718170928128529 0 0 0 0 14.426826815906679 242.76529007745557 0 242.76529007745557 20.161957838565286 0 0 0 0 -0.3107110325654503 236.00561514462606 0 236.00561514462606 64.395546608247969 0 0 0 0 13.389867120189592 266.92248304963869 0 266.92248304963869 67.942990890194778 0 0 0 0 17.357959849985491 275.83556262087222 0 275.83556262087222 28.402278480192763 0 0 0 0 -3.1719636456109583 244.19005833925621 0 244.19005833925621 131.02890915442549 0 0 0 0 13.632750846576528 294.76596877779593 0 294.76596877779593 104.62712295263191 0 0 0 0 49.778272557683522 302.53342691675061 0 302.53342691675061 29.49613335475442 0 0 0 0 45.744113608197949 277.19141446501453 0 277.19141446501453 -47.610400905192364 0 0 0 0 31.904433465701004 341.21449780526018 0 341.21449780526018 -53.38139754786971 0 0 0 0 22.113180428525084 314.38019497091591 0 314.38019497091591 35.966030867601148 0 0 0 0 -7.0470272855527583 320.38910804030456 0 320.38910804030456 77.982317157060606 0 0 0 0 42.290942130348412 280.5711446244386 0 280.5711446244386 70.000166250785696 0 0 0 0 32.919455902789196 272.23832345398478 0 272.23832345398478 141.75926069830894 0 0 0 0 166.83666414750041 245.17243802523444 0 245.17243802523444 117.24501231077011 0 0 0 0 92.919033565874997 250.81695208352357 0 250.81695208352357 137.07021410678863 0 0 0 0 203.51482853203197 230.36474653895857 0 230.36474653895857 66.204120634494757 0 0 0 0 95.94348420794995 252.43120185215957 0 252.43120185215957 87.162387211908936 0 0 0 0 -14.189895466552116 278.65026285249041 0 278.65026285249041 106.12730231045862 0 0 0 0 95.801497738953913 236.61215618840652 0 236.61215618840652 59.117109126897049 0 0 0 0 90.061865802526881 224.49063472697344 0 224.49063472697344 88.3524578314682 0 0 0 0 3.185143053531192 60.841658318815462 0 60.841658318815462 -47.173357502571889 0 0 0 0 7.2986863234944019 83.873830415507427 0 83.873830415507427 -38.773346543508296 0 0 0 0 -828.98625034627344 552.06125003276975 0 552.06125003276975 -176.50471430357356 0 0 0 0 -271.66407767130937 266.84292159563302 0 266.84292159563302 -112.52378508304537 0 0 0 0 6.96991140817161 12.62505800895444 0 12.62505800895444 5.917759530014564 0 0 0 0 -728.41595062499925 315.08353493826871 0 315.08353493826871 -338.38418749171251 0 0 0 0 -63.792595338973115 49.185098822414147 0 49.185098822414147 -170.64199166619801 0 0 0 0 -360.03336168361875 578.10518700057582 0 578.10518700057582 -410.27913259004708 0 0 0 0 83.966017665526124 175.96452317712829 0 175.96452317712829 -576.43043657144881 0 0 0 0 19.333019076926838 23.342233022704022 0 23.342233022704022 9.2915804617208551 0 0 0 0 -110.04778048748449 225.46081406614394 0 225.46081406614394 -175.28055876836879 0 0 0 0 36.229341261704342 16.556673053512455 0 16.556673053512455 2.7342980628821465 0 0 0 0 -76.844461643633622 -405.54960786558513 0 -405.54960786558513 -636.57053811394144 0 0 0 0 -10.1792432679581 23.321073054195324 0 23.321073054195324 20.964694869783187 0 0 0 0 453.99560485518305 194.09839979215758 0 194.09839979215758 -6.4057308391202241 0 0 0 0 168.85070970135905 94.597395370942522 0 94.597395370942522 44.811661494668186 0 0 0 0 513.11313371266442 250.50478343165014 0 250.50478343165014 41.056770785347908 0 0 0 0 -162.11782394680267 244.53003121666552 0 244.53003121666552 128.57208100591379 0 0 0 0 269.89901946791724 -65.727857088437304 0 -65.727857088437304 -318.5267701141056 0 0 0 0 61.235830693156458 225.96456235968799 0 225.96456235968799 -39.593442092460464 0 0 0 0 119.98036463836615 245.6770359870643 0 245.6770359870643 -52.390487223761738 0 0 0 0 65.362793575870455 232.3033450221119 0 232.3033450221119 -29.392020305065671 0 0 0 0 181.93564150826205 147.82375546784169 0 147.82375546784169 -160.08119032206014 0 0 0 0 36.660336730677095 69.294605026615301 0 69.294605026615301 37.437183363534473 0 0 0 0 -3.2513687979444512 108.21611120387388 0 108.21611120387388 -12.310885614249855 0 0 0 0 165.95399559612997 171.95270309448824 0 171.95270309448824 -48.924645656661596 0 0 0 0 104.96960908325232 75.797541405717539 0 75.797541405717539 6.5195581051715408 0 0 0 0 -12.275306767267466 188.58314038064418 0 188.58314038064418 2.3132014046423137 0 0 0 0 59.752216584747657 170.38558227145404 0 170.38558227145404 -45.267854497593362 0 0 0 0 27.442370513105011 79.023123390470346 0 79.023123390470346 32.873920121604044 0 0 0 0 44.737400348982192 233.17248482251307 0 233.17248482251307 0.8393968871459947 0 0 0 0 60.586144657457567 229.27863237293502 0 229.27863237293502 -27.536987848812714 0 0 0 0 12.415730007199727 220.93203879539442 0 220.93203879539442 -1.4124316721572541 0 0 0 0 5.9350648549952894 195.49496138080576 0 195.49496138080576 39.72415389589878 0 0 0 0 -141.15710981480095 31.407426499456506 0 31.407426499456506 31.281179548910586 0 0 0 0 -2.023267228367331 177.6717895623442 0 177.6717895623442 1.4203383938634033 0 0 0 0 -78.973877937377765 92.518796259388324 0 92.518796259388324 0.35379083117379651 0 0 0 0 339.77552960219327 216.82158245961182 0 216.82158245961182 66.008909521318856 0 0 0 0 -134.92584750276512 158.51384893981231 0 158.51384893981231 391.27180773857981 0 0 0 0 -21.640868981387808 11.130648131496727 0 11.130648131496727 6.5592557429815201 0 0 0 0 223.65420737499699 102.8702414483123 0 102.8702414483123 -31.683914403107337 0 0 0 0 -2.1457738447898009 85.346372538500873 0 85.346372538500873 -8.1892987347837334 0 0 0 0 -113.53133034940402 -57.043625522142975 0 -57.043625522142975 33.068733984371647 0 0 0 0 -7.5563018493608141 48.205637328084492 0 48.205637328084492 -5.9819885516766362 0 0 0 0 18.512494414295361 -0.55516804048966151 0 -0.55516804048966151 -51.182743400160689 0 0 0 0 -70.452638540330099 61.89526738528366 0 61.89526738528366 54.606544611771824 0 0 0 0 4.3506961015805423 9.6849460939957339 0 9.6849460939957339 -12.971071899744771 0 0 0 0 -162.67549846083557 218.62779975472586 0 218.62779975472586 -263.27572298460291 0 0 0 0 21.574251713155224 66.863080202735546 0 66.863080202735546 72.450609538802212 0 0 0 0 111.3831198523385 194.28243596776156 0 194.28243596776156 123.42098754658946 0 0 0 0 654.53690153632488 482.93696762924083 0 482.93696762924083 -595.91640787333017 0 0 0 0 220.69352837769839 219.26094725615985 0 219.26094725615985 -2.9761071212415118 0 0 0 0 217.5010204097307 198.81641126348404 0 198.81641126348404 74.925072748414095 0 0 0 0 433.5603691182223 331.19967226794688 0 331.19967226794688 60.071088822573074 0 0 0 0 276.98147450038596 269.26205221714918 0 269.26205221714918 35.767902932420839 0 0 0 0 737.10362109144262 190.82467124416144 0 190.82467124416144 -99.207935046055354 0 0 0 0 337.88357538600758 67.29298513935646 0 67.29298513935646 -133.34503678516194 0 0 0 0 87.25765891039191 130.81645767156442 0 130.81645767156442 51.508701307175215 0 0 0 0 40.075676486430893 129.53165312805504 0 129.53165312805504 56.925283425545786 0 0 0 0 131.66972099859049 221.67449566656433 0 221.67449566656433 134.45593689201633 0 0 0 0 276.77613318608928 273.40633076937229 0 273.40633076937229 59.683532357070362 0 0 0 0 239.64981353710391 220.77265728701605 0 220.77265728701605 -2.8586188403023698 0 0 0 0 160.79832339642417 266.08074539601512 0 266.08074539601512 186.02519969356945 0 0 0 0 67.289197406989842 191.81782791613659 0 191.81782791613659 176.42365608807086 0 0 0 0 -78.810086399575084 -83.823020908850594 0 -83.823020908850594 451.37541259046702 0 0 0 0 -14.108486656898094 208.20287726235256 0 208.20287726235256 397.96001007640734 0 0 0 0 197.84927039654576 434.32385058465297 0 434.32385058465297 619.70318350649904 0 0 0 0 -373.16131896302977 7.3914432926321751 0 7.3914432926321751 950.05996524475631 0 0 0 0 -150.16588504591346 -148.45633872059989 0 -148.45633872059989 683.59239672939293 0 0 0 0 167.51177475723307 701.07833845817368 0 701.07833845817368 317.55546466200212 0 0 0 0 498.1832815160833 363.38203940285894 0 363.38203940285894 28.883521059295163 0 0 0 0 80.528026302172293 427.88655919929442 0 427.88655919929442 -160.389808648295 0 0 0 0 317.15881287328739 108.63604984803533 0 108.63604984803533 -482.26600902632345 0 0 0 0 343.81782404236992 384.31469592572466 0 384.31469592572466 -154.5697630099894 0 0 0 0 336.51271640741106 474.12972693885968 0 474.12972693885968 -811.93926509769517 0 0 0 0 181.62046588431622 247.42577124384115 0 247.42577124384115 -265.83302268592524 0 0 0 0 -732.52341957154567 188.20899718438159 0 188.20899718438159 142.27649115733948 0 0 0 0 -5.8844937806535818 4.6767162843293306 0 4.6767162843293306 -2.4343472942511255 0 0 0 0 -3.2211936702888764 4.7274334818115449 0 4.7274334818115449 -0.88902359881319626 0 0 0 0 286.75913102356026 -555.07646422737889 0 -555.07646422737889 -495.66216146427905 0 0 0 0 -1062.3263934118186 68.095977657474577 0 68.095977657474577 671.19538679749621 0 0 0 0 -403.91700895756367 983.56595733005088 0 983.56595733005088 -346.77678557517356 0 0 0 0 -132.55636081189914 407.07230594261637 0 407.07230594261637 -1194.8580159244157 0 0 0 0 -3.4097978157850672 5.6615548209316415 0 5.6615548209316415 -9.358824813339595 0 0 0 0 -980.23113346827631 764.51296903644106 0 764.51296903644106 -1198.0836586932419 0 0 0 0 -420.12488142921211 346.88735075593286 0 346.88735075593286 158.46586617585854 0 0 0 0 -1649.0325255651301 383.9074592615143 0 383.9074592615143 969.48494397167815 0 0 0 0 -938.79087473002437 1161.8507032768102 0 1161.8507032768102 -723.69153774241568 0 0 0 0 289.61598633756398 27.269158857321599 0 27.269158857321599 -33.534868378686951 0 0 0 0 237.54839208694102 188.79510451387614 0 188.79510451387614 163.34544415034179 0 0 0 0 9.9394250551376899 -547.55813394268625 0 -547.55813394268625 565.93332417199053 0 0 0 0 444.75859867850704 41.27345490742664 0 41.27345490742664 -21.436818665242754 0 0 0 0 -5.9651674584412593 12.350090769512263 0 12.350090769512263 -20.680310840236473 0 0 0 0 366.36839724958008 267.90042552083469 0 267.90042552083469 95.479561541666044 0 0 0 0 47.356097296856206 63.421943360604928 0 63.421943360604928 43.390608303569024 0 0 0 0 -288.57387136040325 53.78907093842281 0 53.78907093842281 187.55523117190023 0 0 0 0 52.592798910223792 39.673482870988664 0 39.673482870988664 -15.07977671964909 0 0 0 0 -342.90474798961714 306.56772700377041 0 306.56772700377041 -78.159135237161536 0 0 0 0 -541.73602195930698 238.36580810989108 0 238.36580810989108 67.171246026235167 0 0 0 0 32.160943240055531 169.62276893838862 0 169.62276893838862 26.600114453351125 0 0 0 0 -102.17199129987966 122.89161675263313 0 122.89161675263313 18.789858639327576 0 0 0 0 360.97950850684174 178.64124728708703 0 178.64124728708703 53.685746308241505 0 0 0 0 154.58315777203461 25.801904778811149 0 25.801904778811149 91.959950737298641 0 0 0 0 90.058875722014818 142.89401763169008 0 142.89401763169008 -11.179113421181682 0 0 0 0 203.18055818774155 60.15605787167442 0 60.15605787167442 29.554788259432826 0 0 0 0 -25.66597704608921 75.758115034586808 0 75.758115034586808 55.122944760107202 0 0 0 0 -83.552472613359555 87.386434655841853 0 87.386434655841853 1.9255224727882023 0 0 0 0 -101.30650516051995 83.095801740898679 0 83.095801740898679 0.92378101496007048 0 0 0 0 -18.732326691238995 195.12970031078294 0 195.12970031078294 -25.438428265340917 0 0 0 0 199.06543851083734 152.20018925793556 0 152.20018925793556 -19.043944742108579 0 0 0 0 103.64384664468525 344.03403900434932 0 344.03403900434932 143.59934360481566 0 0 0 0 -32.971711767633678 182.81058011885762 0 182.81058011885762 36.304406906558143 0 0 0 0 -74.86182591868419 152.19874762510881 0 152.19874762510881 59.793773159850389 0 0 0 0 -46.607741163898027 170.53314470210898 0 170.53314470210898 77.760257994268613 0 0 0 0 -22.408003186785209 224.9869023796 0 224.9869023796 104.43337080998754 0 0 0 0 19.156818320509046 228.7028508227304 0 228.7028508227304 109.71033524849918 0 0 0 0 -50.054501723789144 127.90322546641983 0 127.90322546641983 122.59102932306268 0 0 0 0 -32.620008992940711 209.01814164726238 0 209.01814164726238 181.89073029606516 0 0 0 0 -44.481188601326721 175.84186650824995 0 175.84186650824995 52.666974479681812 0 0 0 0 93.230608750760439 248.05249650770565 0 248.05249650770565 196.95015768181474 0 0 0 0 142.12037374761712 227.45002024275891 0 227.45002024275891 179.79872362833703 0 0 0 0 24.131497928530734 253.33709633101171 0 253.33709633101171 209.29974615765968 0 0 0 0 93.549896408396307 239.18277221071912 0 239.18277221071912 116.45066642974416 0 0 0 0 -27.983777129964437 191.33268574433168 0 191.33268574433168 262.39023037966399 0 0 0 0 87.372371214078157 216.04017963144724 0 216.04017963144724 158.7074123362836 0 0 0 0 80.531991506011764 196.05486043643759 0 196.05486043643759 289.48030667059356 0 0 0 0 115.08878005009319 240.48410859904834 0 240.48410859904834 337.62636354321148 0 0 0 0 -57.027192026425837 26.475076366658868 0 26.475076366658868 53.469447997485986 0 0 0 0 174.83891643831885 193.31652312156257 0 193.31652312156257 263.13628932781285 0 0 0 0 8.1483606462916214 6.017028155821265 0 6.017028155821265 5.8027852030099325 0 0 0 0 188.95454790192889 259.99379770814267 0 259.99379770814267 320.5323999923894 0 0 0 0 -53.140896340139079 45.208756184323647 0 45.208756184323647 105.62070091362693 0 0 0 0 -31.674199296205188 83.954145131054247 0 83.954145131054247 69.585794031620026 0 0 0 0 -6.4675627281956736 37.124525526423952 0 37.124525526423952 25.43783704570194 0 0 0 0 -29.484874695270264 71.074629240138165 0 71.074629240138165 32.606017287063878 0 0 0 0 20.175477580400184 45.946558227195055 0 45.946558227195055 34.782769358425867 0 0 0 0 2.5096766853821464 50.990757966123056 0 50.990757966123056 -2.5544877871143399 0 0 0 0 -4.759969922262826 68.636876357282745 0 68.636876357282745 -9.3096052174078068 0 0 0 0 -14.589747113717237 50.660143341110242 0 50.660143341110242 30.342091242062295 0 0 0 0 7.9183088202857448 50.981217530247406 0 50.981217530247406 4.7022836143679001 0 0 0 0 80.258159993870862 79.328528395588563 0 79.328528395588563 10.323361002846866 0 0 0 0 7.3543208013361436 -14.427663404938357 0 -14.427663404938357 -40.893583529395983 0 0 0 0 10.695622414104577 -1.2830520992298773 0 -1.2830520992298773 -14.701771293212545 0 0 0 0 -191.8620556261958 51.186772453875165 0 51.186772453875165 56.315954798302528 0 0 0 0 -34.462467500920496 2.2793723489188551 0 2.2793723489188551 1.2645049781820603 0 0 0 0 1.354818732397689 136.95674843996676 0 136.95674843996676 60.907323247505701 0 0 0 0 -12.293809646878799 79.087364496557711 0 79.087364496557711 -18.939373448447441 0 0 0 0 -18.34226612363878 61.945105665892349 0 61.945105665892349 18.834294802785507 0 0 0 0 -31.201776357269566 49.457055616076985 0 49.457055616076985 -7.5237542079718196 0 0 0 0 -54.519721731157915 40.10286059576174 0 40.10286059576174 6.0315756912932557 0 0 0 0 -54.23699504378601 59.392743740929291 0 59.392743740929291 22.427911348146154 0 0 0 0 -38.750491521848744 91.979277726350119 0 91.979277726350119 65.543095062559587 0 0 0 0 -25.435777103378314 56.439979924451933 0 56.439979924451933 20.029008819165966 0 0 0 0 -3.0108184757336858 83.048091355143697 0 83.048091355143697 35.659402956953272 0 0 0 0 -30.640989314106264 96.779759068504063 0 96.779759068504063 34.659940799770993 0 0 0 0 -24.824410470115254 42.992080640688073 0 42.992080640688073 43.976119779174041 0 0 0 0 -25.314772655644276 42.264435961620137 0 42.264435961620137 12.02774363372334 0 0 0 0 -2.7620394535660182 38.039934022743388 0 38.039934022743388 37.693927384336803 0 0 0 0 -15.644163661097991 71.981351739214006 0 71.981351739214006 -0.77500967841478996 0 0 0 0 -33.72654990548331 42.914036939518809 0 42.914036939518809 16.027271396127901 0 0 0 0 -26.90621291626303 63.382777667953633 0 63.382777667953633 26.902298600922222 0 0 0 0 -3.8345834312895022 90.508210638774472 0 90.508210638774472 -4.2648183302226244 0 0 0 0 -8.7150467307574786 42.170779403062227 0 42.170779403062227 -9.5575821410092487 0 0 0 0 17.9684158963355 111.71301518562905 0 111.71301518562905 -59.286139802527032 0 0 0 0 -63.66534101054549 72.205272014112779 0 72.205272014112779 42.284873057331424 0 0 0 0 -52.207949844676477 122.01649723552691 0 122.01649723552691 26.871060753997881 0 0 0 0 13.438342649103362 53.261086594486827 0 53.261086594486827 51.035367276617848 0 0 0 0 -4.0521375924181484 92.759094144334085 0 92.759094144334085 -26.903490559459897 0 0 0 0 -17.538991550158244 84.182434240137809 0 84.182434240137809 -13.507348658517003 0 0 0 0 -8.7481255519087426 88.233823167167429 0 88.233823167167429 -11.939648519168259 0 0 0 0 -23.415690650057513 57.382545959480922 0 57.382545959480922 -6.9724298361652473 0 0 0 0 -34.27146049401199 72.835900886195304 0 72.835900886195304 13.953913451317931 0 0 0 0 -30.263513032899937 69.91485228761303 0 69.91485228761303 -8.6595657642683364 0 0 0 0 6.7655789480076862 31.985739158106234 0 31.985739158106234 19.40467466133245 0 0 0 0 -12.925834346435295 91.455503417364525 0 91.455503417364525 -21.901570875634206 0 0 0 0 -3.5231079189979937 40.232231948866684 0 40.232231948866684 -6.9005389557278249 0 0 0 0 -23.022228679416003 63.822438332441379 0 63.822438332441379 -6.4816637446710956 0 0 0 0 -25.071770903639845 68.347152328184166 0 68.347152328184166 14.833497371613703 0 0 0 0 -23.83151379301853 89.906089301992324 0 89.906089301992324 36.522007749299519 0 0 0 0 -16.159178868198069 37.516754500065872 0 37.516754500065872 30.35902380204061 0 0 0 0 -38.508122180519422 91.371846671790991 0 91.371846671790991 124.57981501075847 0 0 0 0 -244.1348259870374 624.4530493378079 0 624.4530493378079 -702.95824246339907 0 0 0 0 -87.209562642054152 -6.7482982886722311 0 -6.7482982886722311 32.948065316071734 0 0 0 0 -655.63168814653181 524.84067950107419 0 524.84067950107419 -337.8824557851367 0 0 0 0 -18.921319164144649 42.628779147042692 0 42.628779147042692 9.6622099676348938 0 0 0 0 0.80760478987568263 9.5914204436653563 0 9.5914204436653563 -2.4736165844309426 0 0 0 0 50.080664161654568 -7.0027913248177356 0 -7.0027913248177356 -728.89008711391216 0 0 0 0 -47.850186433744966 633.27962218356697 0 633.27962218356697 -1062.5852448209989 0 0 0 0 30.43768862048401 67.767585079275548 0 67.767585079275548 17.142679478391095 0 0 0 0 -61.247193154667912 144.94040882365516 0 144.94040882365516 -64.5312608592576 0 0 0 0 22.032727129193518 81.269048030184422 0 81.269048030184422 120.1574115420517 0 0 0 0 45.676359043471166 52.835029285110068 0 52.835029285110068 -65.737150016259875 0 0 0 0 21.271034333932221 46.331233633111765 0 46.331233633111765 12.605169643918032 0 0 0 0 2.6893192308780272 50.595508994534612 0 50.595508994534612 29.154187633786933 0 0 0 0 -9.9975792574987281 71.986650639777508 0 71.986650639777508 -54.420955750532812 0 0 0 0 165.04623113623529 253.60097613092512 0 253.60097613092512 -501.80395977855369 0 0 0 0 55.545374746492598 52.13025669417766 0 52.13025669417766 -251.92814626260952 0 0 0 0 138.24921035670559 265.75844128394965 0 265.75844128394965 -115.2246400415097 0 0 0 0 36.201870909466379 26.763772103116935 0 26.763772103116935 -108.93236109040481 0 0 0 0 -153.87481089595894 303.55630589255634 0 303.55630589255634 -199.94362464920414 0 0 0 0 -153.87481089593166 303.55630589258226 0 303.55630589258226 -199.94362464921142 0 0 0 0 -42.88066247965083 78.651655151250736 0 78.651655151250736 -29.91976647612762 0 0 0 0 -14.297652407925042 20.517929173800621 0 20.517929173800621 -8.5180920573032211 0 0 0 0 -153.87481089593666 303.55630589254724 0 303.55630589254724 -199.94362464918231 0 0 0 0 91.517415053275727 123.61156444320659 0 123.61156444320659 130.90445488059777 0 0 0 0 -124.59781059686793 135.57816131575964 0 135.57816131575964 -11.79941545787733 0 0 0 0 21.778353065607767 66.670072236341412 0 66.670072236341412 42.805399539251084 0 0 0 0 139.02137714196579 209.88247822143603 0 209.88247822143603 246.93856185043114 0 0 0 0 21.06519931457963 166.42863055960038 0 166.42863055960038 0.52707048386844235 0 0 0 0 -1.7272433094748898 236.27937682740696 0 236.27937682740696 217.62555669398091 0 0 0 0 -7.9217722885273787 49.365829873702019 0 49.365829873702019 19.126354963149424 0 0 0 0 116.56176644752486 120.78008791368484 0 120.78008791368484 130.61988520442901 0 0 0 0 56.882883728955676 76.069132594428083 0 76.069132594428083 181.55859911431617 0 0 0 0 27.574477814859204 102.29894688149585 0 102.29894688149585 52.499040523482932 0 0 0 0 4.1068516210520443 12.396739416646426 0 12.396739416646426 -18.200474132413675 0 0 0 0 111.52659382740603 309.13000084511077 0 309.13000084511077 213.08864745295796 0 0 0 0 353.47184184570142 101.08148796387832 0 101.08148796387832 -266.28639212455164 0 0 0 0 -88.030168233683071 434.92336299704039 0 434.92336299704039 608.8379939728693 0 0 0 0 26.453599859282562 98.566378319179989 0 98.566378319179989 35.092175931420854 0 0 0 0 -253.94266609539409 225.88900970924806 0 225.88900970924806 376.91616644299211 0 0 0 0 -21.403336700695036 80.565827141916088 0 80.565827141916088 203.33651450425896 0 0 0 0 -7.4328284661321504 52.140071088362674 0 52.140071088362674 117.19497267562838 0 0 0 0 50.722123802082479 44.540034227902652 0 44.540034227902652 122.68290898487612 0 0 0 0 66.637601798482137 87.140697991038905 0 87.140697991038905 108.18554453951219 0 0 0 0 25.675800033259293 45.258453541202471 0 45.258453541202471 73.636163236631546 0 0 0 0 104.3430574614431 65.342935720516834 0 65.342935720516834 34.159464089985704 0 0 0 0 -88.456150104494554 112.55602706374339 0 112.55602706374339 96.860228024950629 0 0 0 0 18.323404177956945 28.628877995153744 0 28.628877995153744 38.264732828858541 0 0 0 0 33.495037063448763 70.630301821845933 0 70.630301821845933 12.976046644813323 0 0 0 0 -115.337200385009 31.775891260618664 0 31.775891260618664 40.818500341032632 0 0 0 0 39.682848849077345 44.35576797851536 0 44.35576797851536 30.936842892260756 0 0 0 0 132.0127204520652 44.591806004995306 0 44.591806004995306 -1.2655798406049144 0 0 0 0 145.5983970345028 88.909807455349437 0 88.909807455349437 13.98256339020736 0 0 0 0 -8.6360949673049028 11.44330362463451 0 11.44330362463451 -23.586717022363246 0 0 0 0 36.941747494602168 269.17118139004742 0 269.17118139004742 202.66399883809208 0 0 0 0 376.92971518226841 403.61332827528531 0 403.61332827528531 -140.4398552597122 0 0 0 0 347.48747821553116 -2.3738479212188395 0 -2.3738479212188395 63.886799280604464 0 0 0 0 21.208042671785712 56.360392522329207 0 56.360392522329207 53.503687750376969 0 0 0 0 39.953260353158839 109.91608732362511 0 109.91608732362511 77.34762613287603 0 0 0 0 78.633497740293933 212.48728347140423 0 212.48728347140423 -179.30807681924489 0 0 0 0 -7.8600365176207987 17.565217664598578 0 17.565217664598578 10.795805595001767 0 0 0 0 -177.3328650939693 81.282358746626414 0 81.282358746626414 205.71866690572642 0 0 0 0 143.66497672059495 247.285989529988 0 247.285989529988 77.173428161069751 0 0 0 0 15.075846249512029 31.588233746379203 0 31.588233746379203 -5.5236627808818071 0 0 0 0 27.343093611007134 -33.734189550603332 0 -33.734189550603332 167.69947901755222 0 0 0 0 -64.376329910075583 140.48804290949192 0 140.48804290949192 -36.428027476198622 0 0 0 0 100.44512419083458 83.401717846434622 0 83.401717846434622 43.940282018578728 0 0 0 0 105.56970666729012 72.291293504706118 0 72.291293504706118 36.901789417097461 0 0 0 0 -1066.8965724304435 750.02323545683612 0 750.02323545683612 -662.24681594339199 0 0 0 0 -101.99440261544078 164.83312139553527 0 164.83312139553527 -539.06101578249945 0 0 0 0 22.151637779112207 674.04537142903791 0 674.04537142903791 -793.19743469222158 0 0 0 0 -199.99502127490268 487.03214075660799 0 487.03214075660799 -1370.216660702019 0 0 0 0 -282.5646031225333 70.106807669188129 0 70.106807669188129 -907.13401918844465 0 0 0 0 -352.22358484604047 532.21628551280446 0 532.21628551280446 -1497.7564427570396 0 0 0 0 -362.6777511476248 509.97294041531859 0 509.97294041531859 -1515.7301931129186 0 0 0 0 -8.865010927489493 1083.1433906767343 0 1083.1433906767343 -3057.0987979988859 0 0 0 0 -447.08276828587987 384.15274991969636 0 384.15274991969636 -1625.5496941875899 0 0 0 0 -384.74069202857208 847.73436834587483 0 847.73436834587483 -2041.4693359822122 0 0 0 0 -134.64288517800742 295.48714108026616 0 295.48714108026616 -2617.4016721780717 0 0 0 0 -820.45580584151321 1456.0530720522875 0 1456.0530720522875 -2074.4579266277069 0 0 0 0 -4.4243705718791944 -1.6015637200664656 0 -1.6015637200664656 0.72771434911560817 0 0 0 0 -681.19905562710483 714.6891217740922 0 714.6891217740922 1036.8619360468583 0 0 0 0 -8.996446450078281 2.8535369020339374 0 2.8535369020339374 -0.50647424437910615 0 0 0 0 324.23488504515262 446.19031027532037 0 446.19031027532037 1482.9093814770749 0 0 0 0 529.25819988703006 -216.62381089160044 0 -216.62381089160044 48.732279806616134 0 0 0 0 438.94909278512932 297.37442018232832 0 297.37442018232832 1687.4235380182799 0 0 0 0 364.16105572885135 367.80465591742541 0 367.80465591742541 1731.0843486410886 0 0 0 0 270.52552325255965 508.15753354832304 0 508.15753354832304 2605.1114102134597 0 0 0 0 246.04587932353024 241.04661219678383 0 241.04661219678383 2084.5067602569761 0 0 0 0 -431.42637870319595 312.13161948436027 0 312.13161948436027 2341.9648183545505 0 0 0 0 -338.98186483699828 242.64132528060873 0 242.64132528060873 1739.9598853004572 0 0 0 0 -717.48247097113199 963.81055650892813 0 963.81055650892813 1472.0902649512864 0 0 0 0 -224.26716401797603 308.59717613150133 0 308.59717613150133 1686.5412054695553 0 0 0 0 -443.64406230725581 571.2094187687544 0 571.2094187687544 1103.680861324523 0 0 0 0 -715.96429792497656 687.87087842774781 0 687.87087842774781 1975.2471019734803 0 0 0 0 -601.01545888354303 769.61435693202657 0 769.61435693202657 969.66088746054447 0 0 0 0 -319.91645867774787 289.70449597032712 0 289.70449597032712 -539.49779809745087 0 0 0 0 -647.34214233594412 1373.668029624786 0 1373.668029624786 426.30552086159878 0 0 0 0 -548.34083603910403 679.99653779333312 0 679.99653779333312 1554.1913543921983 0 0 0 0 711.6829675702611 114.86949877801089 0 114.86949877801089 178.04103806444618 0 0 0 0 -85.693404157471377 539.15426109195687 0 539.15426109195687 280.42537454387639 0 0 0 0 20.813429685629671 170.61739365653193 0 170.61739365653193 1533.8154701406747 0 0 0 0 84.456762610148871 339.57571145569818 0 339.57571145569818 335.45434304437185 0 0 0 0 57.142151096733869 658.28936793842149 0 658.28936793842149 1047.9597654604549 0 0 0 0 673.99656049442865 740.93707113211144 0 740.93707113211144 37.501578159848577 0 0 0 0 157.59997309508253 437.39673759997459 0 437.39673759997459 -87.517186257085996 0 0 0 0 450.717426071511 552.61251121635723 0 552.61251121635723 -443.31855637794069 0 0 0 0 215.7615619887074 167.47744313217117 0 167.47744313217117 -432.30447306772908 0 0 0 0 352.25685875445197 170.22175524863997 0 170.22175524863997 -608.90343996594311 0 0 0 0 321.00880325656908 146.72110942046129 0 146.72110942046129 -918.24953946629103 0 0 0 0 28.837477899767691 43.654789207401336 0 43.654789207401336 -579.16575906203434 0 0 0 0 183.63578916090773 -80.018670970765015 0 -80.018670970765015 -663.78336463720188 0 0 0 0 189.25565788295353 -90.891339771660569 0 -90.891339771660569 -833.29834978078725 0 0 0 0 166.468577890897 231.33695975129012 0 231.33695975129012 -452.38448436955514 0 0 0 0 -0.21534279047773452 222.67148822202216 0 222.67148822202216 -378.86529647935822 0 0 0 0 -419.5839820361507 127.54024491980454 0 127.54024491980454 -468.7642739485018 0 0 0 0 -1045.8887413413322 229.08357870512555 0 229.08357870512555 -433.51156562775941 0 0 0 0 54.106559490064683 -163.11079843920743 0 -163.11079843920743 -535.50509745456657 0 0 0 0 150.10584742684296 -88.854623239406465 0 -88.854623239406465 -575.47204053671157 0 0 0 0 165.02317951462464 -131.09667592436017 0 -131.09667592436017 -664.95230892602024 0 0 0 0 312.46139735059114 -213.64599980891944 0 -213.64599980891944 -482.47705685761321 0 0 0 0 534.3778242366534 188.75239029111981 0 188.75239029111981 -515.65616379649146 0 0 0 0 123.00986085605109 -161.47925758721249 0 -161.47925758721249 -640.08300807958585 0 0 0 0 227.37984709451848 42.825511785651543 0 42.825511785651543 -807.35045557332342 0 0 0 0 -133.33309755606751 14.455138068864471 0 14.455138068864471 -782.48126216045057 0 0 0 0 61.098208897647055 121.12407690700093 0 121.12407690700093 -1046.7084858461458 0 0 0 0 78.399089292404824 -43.13844952260115 0 -43.13844952260115 -725.88300122385408 0 0 0 0 -299.66795066046416 613.17578852798943 0 613.17578852798943 -1525.018835583076 0 0 0 0 -184.58411361768958 294.50652375091886 0 294.50652375091886 -1096.2032180375463 0 0 0 0 94.329498673498165 190.88654885952565 0 190.88654885952565 -1099.2865000447055 0 0 0 0 -266.58438384960755 212.50079736113548 0 212.50079736113548 -1055.2748370181216 0 0 0 0 -63.114808520753286 221.27644146820967 0 221.27644146820967 -780.05004934912722 0 0 0 0 -162.90280859112681 465.60749241959638 0 465.60749241959638 -1003.9030675256945 0 0 0 0 223.02544508635037 438.51103083230828 0 438.51103083230828 -631.83365611126646 0 0 0 0 452.12595230837178 145.31555703909908 0 145.31555703909908 -443.48897614911402 0 0 0 0 67.756960151004023 -28.770675190789916 0 -28.770675190789916 -609.02486381292692 0 0 0 0 -86.036662141501438 589.1242010670976 0 589.1242010670976 -697.40195598994615 0 0 0 0 115.14171448300476 394.91494152337691 0 394.91494152337691 -629.03238312844042 0 0 0 0 -177.24539292034115 487.41390614334364 0 487.41390614334364 -246.08297285973094 0 0 0 0 25.367375696485396 712.61559355890495 0 712.61559355890495 -571.71959855983732 0 0 0 0 -167.10027877541143 626.91635600243899 0 626.91635600243899 -432.71546574494278 0 0 0 0 -159.83411895113386 684.19099223802277 0 684.19099223802277 -740.25038786964433 0 0 0 0 -116.16244127217215 502.94802088954748 0 502.94802088954748 -773.99657286501315 0 0 0 0 -103.49807561663329 696.71758040976783 0 696.71758040976783 -930.17518520035082 0 0 0 0 -70.190684906934621 580.86413394464034 0 580.86413394464034 -1165.2562447814998 0 0 0 0 -90.018218250828795 647.15185829057009 0 647.15185829057009 -1176.7785409650241 0 0 0 0 -59.235644638800295 641.36330847920908 0 641.36330847920908 -1329.6157052310882 0 0 0 0 -29.291125966454274 630.20337558785832 0 630.20337558785832 -1458.1347046334995 0 0 0 0 -97.484166639769683 655.97715087664255 0 655.97715087664255 -1212.6661160347285 0 0 0 0 -192.7659536342544 683.68916921483469 0 683.68916921483469 -1118.2972214844049 0 0 0 0 -282.08131347375456 725.9692455817567 0 725.9692455817567 -1377.0227316365635 0 0 0 0 -53.28974280343391 444.54493446167908 0 444.54493446167908 -1139.0364551630046 0 0 0 0 75.665591380089609 594.05836593159984 0 594.05836593159984 -1054.3201382912957 0 0 0 0 20.616090102797898 535.2798865668301 0 535.2798865668301 -1053.3888399137068 0 0 0 0 -173.90584657885483 666.73325269745692 0 666.73325269745692 -813.38072386357817 0 0 0 0 -190.35145686411124 660.78605211440663 0 660.78605211440663 -716.71489152924914 0 0 0 0 -358.35588490437658 792.54150747119274 0 792.54150747119274 -819.98442313753185 0 0 0 0 -402.2190009552869 567.20773820293107 0 567.20773820293107 -713.58694082222792 0 0 0 0 -265.10290867026197 658.55264141278894 0 658.55264141278894 -658.53226248641295 0 0 0 0 -275.7258226959384 495.66757999723632 0 495.66757999723632 -559.12795763640315 0 0 0 0 -308.10311211175701 657.17132068925935 0 657.17132068925935 -866.30202795749938 0 0 0 0 -307.33694314488093 482.10682064996217 0 482.10682064996217 -939.5781619942718 0 0 0 0 -122.12924872897565 597.69521780939249 0 597.69521780939249 -1224.2545868270827 0 0 0 0 -139.49128794050557 496.36782247457268 0 496.36782247457268 -1559.6278037743759 0 0 0 0 -713.51135278325819 946.63827887157095 0 946.63827887157095 -1030.7580100183477 0 0 0 0 -736.4021238542191 380.42328061643639 0 380.42328061643639 -1029.3464316488971 0 0 0 0 -502.43801410627566 919.92922526068287 0 919.92922526068287 -1061.5760719820828 0 0 0 0 -188.24942696937069 137.52241588816469 0 137.52241588816469 -166.21577697952307 0 0 0 0 -107.16858720019809 699.04754545148899 0 699.04754545148899 -943.07725823960209 0 0 0 0 205.11614317997009 175.11901004771789 0 175.11901004771789 -1477.5151414478751 0 0 0 0 -100.23764210328227 590.73103563786572 0 590.73103563786572 -773.07091360362028 0 0 0 0 -3.2746987506079677 18.390102660663104 0 18.390102660663104 9.269965107108014 0 0 0 0 -54.606641213817056 47.648891093558632 0 47.648891093558632 158.10368469649984 0 0 0 0 -23.920443858695137 39.73366223697154 0 39.73366223697154 18.579929232836015 0 0 0 0 -17.853875199900358 61.991132169794582 0 61.991132169794582 67.893003178251092 0 0 0 0 -35.965917711320799 10.690617867716355 0 10.690617867716355 91.971179943619063 0 0 0 0 -50.755245334788356 5.3255920163797157 0 5.3255920163797157 42.530281327357471 0 0 0 0 -53.463413148451991 3.6019979313302741 0 3.6019979313302741 8.786230050942109 0 0 0 0 -45.132767422051359 10.072308890925029 0 10.072308890925029 9.1253366608442974 0 0 0 0 -150.63201176445 57.411247200347134 0 57.411247200347134 126.25211164138454 0 0 0 0 -26.894341831342899 21.647354147808073 0 21.647354147808073 25.954358714508999 0 0 0 0 -429.5123698170064 482.19374324347154 0 482.19374324347154 -674.006147121705 0 0 0 0 -13.856173531017276 8.1550949747181107 0 8.1550949747181107 7.8409739526939006 0 0 0 0 -318.81865701147763 86.211590384809824 0 86.211590384809824 477.79972867617471 0 0 0 0 -447.65252900955966 237.33170896103547 0 237.33170896103547 351.48060809790513 0 0 0 0 -178.79067989377654 103.62697074405878 0 103.62697074405878 342.31249472411582 0 0 0 0 88.969100347967469 170.24876665800548 0 170.24876665800548 5.0092624013632303 0 0 0 0 4.1539998887019465 87.347844715237443 0 87.347844715237443 -23.339283990848344 0 0 0 0 -49.562308212437273 60.116254024112266 0 60.116254024112266 11.147328307917604 0 0 0 0 -27.381566934426928 6.8056560268497321 0 6.8056560268497321 1.2879675996795896 0 0 0 0 -416.84116296184948 83.765734677348519 0 83.765734677348519 234.23090929434693 0 0 0 0 -13.802269168678322 627.3335314527867 0 627.3335314527867 -1876.9583487183263 0 0 0 0 -318.9130884478509 611.75066877374775 0 611.75066877374775 -1742.4404945832794 0 0 0 0 -523.32060763743357 308.82636703248136 0 308.82636703248136 -1911.6896585881332 0 0 0 0 -323.93506928670104 518.51703213724977 0 518.51703213724977 -1484.6681789710856 0 0 0 0 -206.77456749376142 697.9034570021613 0 697.9034570021613 -1784.8082277964859 0 0 0 0 -9.0700337233138271 617.64349202465382 0 617.64349202465382 -1742.7391761616454 0 0 0 0 141.48092378280126 -54.77833234204445 0 -54.77833234204445 -76.991042249370366 0 0 0 0 12.914392788370606 456.90788271446218 0 456.90788271446218 -1768.539831248876 0 0 0 0 -62.700130597295356 654.22631300781723 0 654.22631300781723 -1465.0171922781155 0 0 0 0 -38.78158977770363 469.83077700018475 0 469.83077700018475 -1369.7782408659241 0 0 0 0 207.2191002930922 -181.29476058963337 0 -181.29476058963337 413.55083611542796 0 0 0 0 -22.875864027851094 -4.8048399631606458 0 -4.8048399631606458 -0.65276123077133263 0 0 0 0 -191.64853758001118 -150.44910621314193 0 -150.44910621314193 662.87643673342245 0 0 0 0 -222.2924504915718 338.23689684920828 0 338.23689684920828 543.9049130524163 0 0 0 0 10.78195603331551 -112.00149069319014 0 -112.00149069319014 575.5373975308903 0 0 0 0 -16.42482186423149 -65.611141791508999 0 -65.611141791508999 998.86858282594767 0 0 0 0 -35.636086125683505 -44.195460121467477 0 -44.195460121467477 1232.9078278756933 0 0 0 0 508.34357807406923 70.232991081866203 0 70.232991081866203 908.69292184866936 0 0 0 0 269.69595239960472 390.813422857158 0 390.813422857158 1986.6121218801563 0 0 0 0 430.78293251001742 -41.791700242334628 0 -41.791700242334628 1304.5671854688844 0 0 0 0 371.82523526003934 -463.18580413026211 0 -463.18580413026211 591.68109888482286 0 0 0 0 -471.26013841148233 -424.81609785938053 0 -424.81609785938053 1444.816710911593 0 0 0 0 205.45511400484247 614.63819783009239 0 614.63819783009239 1666.6083835988247 0 0 0 0 -466.75168133506008 307.31451551287438 0 307.31451551287438 1879.7438883980212 0 0 0 0 292.11174463398856 375.2633053449299 0 375.2633053449299 1793.6697831845377 0 0 0 0 80.59551116284274 697.79157987681901 0 697.79157987681901 1883.9065862055868 0 0 0 0 204.70229696150636 311.08473802363733 0 311.08473802363733 2423.7815708021226 0 0 0 0 163.25823728507385 625.12254711825517 0 625.12254711825517 2676.9068654608564 0 0 0 0 2229.0424163507705 1820.1301714332949 0 1820.1301714332949 -9834.7334109959193 0 0 0 0 -684.09049910111935 -297.78016853820009 0 -297.78016853820009 5444.4113624572237 0 0 0 0 -79.027638051353279 325.1731224834075 0 325.1731224834075 3399.4645123833325 0 0 0 0 35.673964665918788 15.352208986855402 0 15.352208986855402 -0.78719587339041652 0 0 0 0 21.095477183261607 17.043287132668183 0 17.043287132668183 3.2550654673650357 0 0 0 0 228.2549708475708 -41.929890592058655 0 -41.929890592058655 2969.6195126906387 0 0 0 0 -318.03130663243792 2089.5135183459879 0 2089.5135183459879 -8947.1003121205576 0 0 0 0 -149.68902790009452 274.2664191568947 0 274.2664191568947 3980.9795102140342 0 0 0 0 -388.92027150152717 1542.6291362772172 0 1542.6291362772172 5035.1100223411486 0 0 0 0 322.11523384397151 1244.059258119989 0 1244.059258119989 3228.1273838334746 0 0 0 0 484.0085863007771 429.76365770820121 0 429.76365770820121 1929.622475577984 0 0 0 0 1529.0622301216936 2163.8081148766796 0 2163.8081148766796 2858.0838460697851 0 0 0 0 317.66272425779607 1323.2730916379733 0 1323.2730916379733 -1765.0058703557588 0 0 0 0 164.39299327948538 115.47681782204018 0 115.47681782204018 404.82403972611792 0 0 0 0 91.528694166985076 41.448009218639427 0 41.448009218639427 10.168463908489741 0 0 0 0 -170.82404498467804 919.68676881797728 0 919.68676881797728 1254.8695676213538 0 0 0 0 936.20998041355051 410.61033832401154 0 410.61033832401154 762.43461095466046 0 0 0 0 -37.697956382064149 609.04718998458702 0 609.04718998458702 -76.631625289181102 0 0 0 0 -306.6129961570914 351.00491209332904 0 351.00491209332904 607.68978527167928 0 0 0 0 -635.41032510084915 2089.2013302712439 0 2089.2013302712439 -30.779075298249154 0 0 0 0 -1337.4347160148318 1122.7821409655153 0 1122.7821409655153 1516.7898806932935 0 0 0 0 158.96507066479535 -90.603334016457666 0 -90.603334016457666 907.18521044962108 0 0 0 0 105.28425145734218 258.85797503495269 0 258.85797503495269 1205.1205428589601 0 0 0 0 119.85490997534362 232.71214299791609 0 232.71214299791609 664.61688569573016 0 0 0 0 212.15604471963161 -74.078445820297929 0 -74.078445820297929 544.72482448921073 0 0 0 0 235.40700629737694 425.35170351710985 0 425.35170351710985 583.00672365277569 0 0 0 0 99.916269219815149 236.87457006594923 0 236.87457006594923 691.51442864019191 0 0 0 0 330.74114790945896 533.88427237917494 0 533.88427237917494 804.18156846521015 0 0 0 0 347.7308516142366 526.12249742995482 0 526.12249742995482 798.20725740576745 0 0 0 0 -68.341616901161615 590.30471368628787 0 590.30471368628787 2694.6978596793633 0 0 0 0 341.01003840714111 469.13969328714302 0 469.13969328714302 937.76132405727549 0 0 0 0 444.82645154590136 852.50653386916383 0 852.50653386916383 1430.5552788164059 0 0 0 0 542.84231076823198 714.90383784822188 0 714.90383784822188 814.62895313115587 0 0 0 0 508.64373179446557 697.92021818165085 0 697.92021818165085 998.01165163623227 0 0 0 0 710.51475693733664 896.31537393855979 0 896.31537393855979 898.64380692662962 0 0 0 0 613.88451066153357 559.14770117450098 0 559.14770117450098 416.68490664029378 0 0 0 0 1124.0647441199399 685.78461759586935 0 685.78461759586935 108.32343547334312 0 0 0 0 664.6775052282901 1596.1277421853883 0 1596.1277421853883 2008.420492596706 0 0 0 0 103.20797875275457 -22.122064190421952 0 -22.122064190421952 1736.9420837678772 0 0 0 0 -183.35609074088279 300.54735423130478 0 300.54735423130478 -57.130513789241377 0 0 0 0 220.70807431761932 178.20827875327814 0 178.20827875327814 81.060461366505479 0 0 0 0 128.42348209839759 62.40933365832592 0 62.40933365832592 3.3637940603070504 0 0 0 0 -218.78708486168398 10.1531017288371 0 10.1531017288371 -288.95874159535742 0 0 0 0 -247.03563344270515 533.51593824435258 0 533.51593824435258 -336.07755945349345 0 0 0 0 -31.868872912891675 66.258806682846625 0 66.258806682846625 -888.72591805821867 0 0 0 0 116.08105208881534 202.13151730452228 0 202.13151730452228 416.16829334334761 0 0 0 0 6.6334737025754293 114.279673388839 0 114.279673388839 499.56398622410779 0 0 0 0 68.941215298618772 42.096704750452773 0 42.096704750452773 200.23141557308554 0 0 0 0 118.2549671564193 210.79932148952503 0 210.79932148952503 341.85171818688832 0 0 0 0 160.27337569797237 183.26485439803582 0 183.26485439803582 351.67013247520663 0 0 0 0 137.45900256893947 239.6137038003435 0 239.6137038003435 280.05239234096371 0 0 0 0 131.34926874205848 197.00452954372849 0 197.00452954372849 287.27129671315197 0 0 0 0 182.60155014847987 299.69661829408142 0 299.69661829408142 340.68822518097386 0 0 0 0 101.86320551935205 229.1036907481066 0 229.1036907481066 336.31890361617843 0 0 0 0 139.82928127040213 307.52115256924299 0 307.52115256924299 495.79669797040697 0 0 0 0 158.95062180803507 307.76831908059103 0 307.76831908059103 403.73728869401384 0 0 0 0 242.59108948481298 327.70358682028927 0 327.70358682028927 252.96246085333405 0 0 0 0 282.04353298080969 300.18237900102395 0 300.18237900102395 147.88729300124396 0 0 0 0 282.31694078103465 305.9105873778899 0 305.9105873778899 150.43483272494632 0 0 0 0 237.34192234254442 297.65089235876803 0 297.65089235876803 212.24946898177222 0 0 0 0 236.85573098958412 306.14635083375833 0 306.14635083375833 214.65499895086396 0 0 0 0 154.23766376684216 239.37092250452406 0 239.37092250452406 213.65248851584329 0 0 0 0 219.86828568691271 268.21859494073578 0 268.21859494073578 162.82595038678846 0 0 0 0 206.27350877397112 285.46999624543241 0 285.46999624543241 198.2863040995253 0 0 0 0 582.2979014874436 372.9269186258025 0 372.9269186258025 77.462503267626744 0 0 0 0 515.2472283646639 364.07255090809485 0 364.07255090809485 116.61285790445982 0 0 0 0 543.97290059140869 228.8550166391633 0 228.8550166391633 -85.972773397981655 0 0 0 0 642.93322936567529 236.72177002162516 0 236.72177002162516 48.431518437078921 0 0 0 0 689.29056895602298 616.10323086600147 0 616.10323086600147 347.68280952831265 0 0 0 0 513.87443750097009 525.49999972520527 0 525.49999972520527 384.40928938705474 0 0 0 0 440.91782616407727 474.55359260019031 0 474.55359260019031 401.38794329951634 0 0 0 0 385.90124475696939 499.17975188956189 0 499.17975188956189 428.88293289057037 0 0 0 0 271.26483670096786 395.58117586106528 0 395.58117586106528 489.15130367712118 0 0 0 0 293.09815468720626 396.44155878206948 0 396.44155878206948 326.16240646125516 0 0 0 0 299.06700085484772 372.59854908626585 0 372.59854908626585 265.99266135510697 0 0 0 0 454.99154936002742 418.04610020446125 0 418.04610020446125 192.91367554079625 0 0 0 0 399.71945907294503 381.41749925478143 0 381.41749925478143 194.33383451361442 0 0 0 0 385.99634950747713 340.54069199910737 0 340.54069199910737 178.96602636273019 0 0 0 0 328.25579196630861 317.77899893571157 0 317.77899893571157 158.14518958723056 0 0 0 0 334.43590229132678 340.74423873425985 0 340.74423873425985 169.89160150787211 0 0 0 0 386.13861918296607 315.00196610087005 0 315.00196610087005 115.399344223144 0 0 0 0 323.52999618253671 230.81733373380848 0 230.81733373380848 85.232406015536981 0 0 0 0 364.29841801663497 241.03490389385843 0 241.03490389385843 54.635397324571386 0 0 0 0 470.53473256662255 322.78068840863125 0 322.78068840863125 95.913419414326199 0 0 0 0 409.61804405871953 225.57542729201668 0 225.57542729201668 16.085874047188554 0 0 0 0 440.48880316926807 198.41464582609478 0 198.41464582609478 -22.060618667514063 0 0 0 0 329.64181250927504 171.21957372230827 0 171.21957372230827 0.06711108866147697 0 0 0 0 272.94068529296783 127.41463792788272 0 127.41463792788272 39.169847498989839 0 0 0 0 345.68098467745585 171.94358831012505 0 171.94358831012505 65.071901990275364 0 0 0 0 273.32843124406645 127.39039732403762 0 127.39039732403762 -31.318495966632327 0 0 0 0 186.46891455334844 44.093173968809424 0 44.093173968809424 65.325181050939136 0 0 0 0 174.13545682572294 161.87184420422273 0 161.87184420422273 -188.76021578069776 0 0 0 0 103.16722509726242 134.87906208696222 0 134.87906208696222 -9.8089749546779785 0 0 0 0 324.64210200670641 134.80388546924223 0 134.80388546924223 -101.62533779619844 0 0 0 0 170.71708017696801 514.29979588364949 0 514.29979588364949 -154.91032524978073 0 0 0 0 292.83986395964166 84.896294382764609 0 84.896294382764609 -102.21213764748427 0 0 0 0 -94.563670482544694 310.19369773101062 0 310.19369773101062 -103.01092429841947 0 0 0 0 28.654857951885788 365.39795021610189 0 365.39795021610189 -309.92076026418363 0 0 0 0 -444.79454014960356 605.13293742439055 0 605.13293742439055 -283.97768888436258 0 0 0 0 -164.02201461314689 287.7368291659659 0 287.7368291659659 -239.93445542163681 0 0 0 0 -810.86572071869159 778.97673235820548 0 778.97673235820548 -273.96927491689712 0 0 0 0 -141.87644653741154 480.58290302114619 0 480.58290302114619 -434.21479655773146 0 0 0 0 181.72342126909643 227.78749721803615 0 227.78749721803615 -42.362280813977122 0 0 0 0 377.92474490328459 135.53960424190154 0 135.53960424190154 -55.585369964002894 0 0 0 0 -148.58302606147481 338.40198154529207 0 338.40198154529207 -144.39345305687311 0 0 0 0 158.21618359170679 173.7935825201057 0 173.7935825201057 -164.61796467224485 0 0 0 0 211.00703810807317 130.56375262509391 0 130.56375262509391 -137.20665822809679 0 0 0 0 -239.67231244023424 299.70686583431961 0 299.70686583431961 -41.141094096485176 0 0 0 0 427.37784976820694 377.32829819782637 0 377.32829819782637 -16.342551196943532 0 0 0 0 466.13035676893196 187.92414316565555 0 187.92414316565555 80.672600015328499 0 0 0 0 1895.1065066334122 1271.0644485933881 0 1271.0644485933881 203.8422899057914 0 0 0 0 452.09835369783104 -281.45250246793148 0 -281.45250246793148 -13.053818534695893 0 0 0 0 -4211.4427414044912 -74.189129143371247 0 -74.189129143371247 930.51277463363658 0 0 0 0 -1821.4448875870439 1469.8653217768806 0 1469.8653217768806 -184.85854224281502 0 0 0 0 -146.25929655220534 386.09152457661548 0 386.09152457661548 -371.38091503156465 0 0 0 0 -110.52075121577946 540.24727547062503 0 540.24727547062503 34.707600497902604 0 0 0 0 27.654985256051475 51.103600817132957 0 51.103600817132957 18.49125485593386 0 0 0 0 -295.98767991042405 676.37147229275433 0 676.37147229275433 -1356.4455666903232 0 0 0 0 -159.38591541562346 1271.9927299876144 0 1271.9927299876144 -2048.0364211466367 0 0 0 0 -1122.99962246832 2682.9024772423982 0 2682.9024772423982 -2295.2138022972504 0 0 0 0 -229.24197574837308 246.19682150348672 0 246.19682150348672 1913.8907038573088 0 0 0 0 -535.42500133348221 299.82175511298192 0 299.82175511298192 2104.2093257925371 0 0 0 0 -294.51113067058031 354.68454401665076 0 354.68454401665076 1665.4626176534948 0 0 0 0 -284.99992411761195 266.51447681606805 0 266.51447681606805 1894.1955976980535 0 0 0 0 389.68679423985304 -34.589839878914063 0 -34.589839878914063 2182.5706545807188 0 0 0 0 -431.38300764662563 295.87658145176101 0 295.87658145176101 2452.8988615882117 0 0 0 0 192.96464006532915 220.58143825511797 0 220.58143825511797 2515.7718161021548 0 0 0 0 230.83226141688647 -435.1904093981575 0 -435.1904093981575 3229.8962426651415 0 0 0 0 -288.96159762825118 -112.29529718070989 0 -112.29529718070989 4203.4997960883775 0 0 0 0 77.381859649904072 2.0927623177994974 0 2.0927623177994974 2762.6112995724252 0 0 0 0 191.80918993562227 -1227.9191263119574 0 -1227.9191263119574 4006.0236657949099 0 0 0 0 606.84042298715212 -115.13391389414028 0 -115.13391389414028 2069.8216193112385 0 0 0 0 984.95809930795804 -1042.5070710045838 0 -1042.5070710045838 2853.092000907709 0 0 0 0 95.182637481178972 -254.29601629104945 0 -254.29601629104945 804.61773737812473 0 0 0 0 0.99836187255749564 15.43418902710431 0 15.43418902710431 2.4427922229224066 0 0 0 0 -105.6301187381905 6.4795301213598577 0 6.4795301213598577 1297.6011978659735 0 0 0 0 554.09870173357922 466.72356854662212 0 466.72356854662212 275.73818904734799 0 0 0 0 -309.36710083586513 480.04254005205439 0 480.04254005205439 1580.6749266450042 0 0 0 0 7.9901561566238684 56.677076292937315 0 56.677076292937315 36.381432170480934 0 0 0 0 -801.88890988507774 590.29636206390569 0 590.29636206390569 -187.05317300368552 0 0 0 0 -413.92866875478649 710.74146303681482 0 710.74146303681482 -788.80498952924972 0 0 0 0 6.0222739248201833 51.401152456593991 0 51.401152456593991 162.5089429726213 0 0 0 0 2.6963501838456523 15.664601822506313 0 15.664601822506313 28.592913485524065 0 0 0 0 -30.907816554681631 171.33369985452009 0 171.33369985452009 -341.20523807485006 0 0 0 0 -21.084559671224895 49.070596027208936 0 49.070596027208936 32.09724545877436 0 0 0 0 -7.2525250033068005 41.708786109331413 0 41.708786109331413 17.226985725108534 0 0 0 0 -26.179112980231537 73.582798386958387 0 73.582798386958387 43.725492174143824 0 0 0 0 -31.121764565636056 56.276747392403365 0 56.276747392403365 92.617938874619085 0 0 0 0 -327.26973607997934 680.3041515965524 0 680.3041515965524 -917.06310482395929 0 0 0 0 -333.58788505008852 694.1596771113982 0 694.1596771113982 -945.15424734272528 0 0 0 0 -547.66655032163544 748.77285966806812 0 748.77285966806812 -404.8742572042247 0 0 0 0 -652.66068520558474 962.90087194719672 0 962.90087194719672 -836.68438922941641 0 0 0 0 -356.44652558174857 566.82817633468949 0 566.82817633468949 -770.48471217605947 0 0 0 0 -795.57643034284411 675.27359197546321 0 675.27359197546321 -364.29075688196463 0 0 0 0 -506.23688423563726 540.11603283433942 0 540.11603283433942 -162.13518893257424 0 0 0 0 -325.802543661237 597.55773438571487 0 597.55773438571487 -383.42760505402111 0 0 0 0 -402.75627501291456 467.99487753456924 0 467.99487753456924 -110.25214561582834 0 0 0 0 -533.94948491423565 789.39093906588823 0 789.39093906588823 -581.89393039421702 0 0 0 0 -687.5605727841612 798.85297873090167 0 798.85297873090167 -416.17139669217431 0 0 0 0 -280.55326323218105 364.53136516905943 0 364.53136516905943 -453.17022568668472 0 0 0 0 -395.32505890232278 318.93466145978891 0 318.93466145978891 -204.08938346483046 0 0 0 0 94.603923498332733 22.326506247432917 0 22.326506247432917 -12.007627665327163 0 0 0 0 -57.234039298782591 86.21476303324016 0 86.21476303324016 39.018548940872279 0 0 0 0 -237.19441382272635 271.36227341680205 0 271.36227341680205 -345.53621263794776 0 0 0 0 -48.728300869236193 17.294174559632722 0 17.294174559632722 5.1792651440511364 0 0 0 0 20.668529438510888 21.900194526642963 0 21.900194526642963 -30.756958169015036 0 0 0 0 -268.12758509641208 402.13139447325011 0 402.13139447325011 -376.00083415088011 0 0 0 0 -288.25308363011936 406.10569343509451 0 406.10569343509451 161.56132987962337 0 0 0 0 220.98649900453165 230.23927294099121 0 230.23927294099121 265.72132200437773 0 0 0 0 119.87871267560695 104.46548873055872 0 104.46548873055872 240.41503764723893 0 0 0 0 522.95248087447544 177.43039247272827 0 177.43039247272827 21.927779910853133 0 0 0 0 382.22054682587623 279.58833103939833 0 279.58833103939833 164.43628119533241 0 0 0 0 535.95465516874901 85.807015333630261 0 85.807015333630261 -11.975583603896666 0 0 0 0 431.60072617558762 -94.226475672592642 0 -94.226475672592642 12.092312163906172 0 0 0 0 -11.63073990952438 8.0254703582498905 0 8.0254703582498905 -0.98820684530903691 0 0 0 0 -28.324437510571443 31.890823428781005 0 31.890823428781005 -72.441841673928138 0 0 0 0 226.36558903277182 155.03229043935789 0 155.03229043935789 112.10969110066071 0 0 0 0 208.20290756900795 128.34537404765433 0 128.34537404765433 126.90872904396383 0 0 0 0 201.34576099028345 181.82553268570337 0 181.82553268570337 156.32373499215828 0 0 0 0 166.06961116901948 134.37006874711369 0 134.37006874711369 149.51808182199602 0 0 0 0 245.10406579246046 164.10426730997278 0 164.10426730997278 71.486497384641552 0 0 0 0 204.36306048522238 165.3444623769974 0 165.3444623769974 103.38584045052994 0 0 0 0 198.80212332865631 169.95852640559315 0 169.95852640559315 112.65791218209779 0 0 0 0 170.75562674470711 157.56461344758281 0 157.56461344758281 102.67366726127511 0 0 0 0 189.23468387172034 181.44589732339227 0 181.44589732339227 96.538967074855464 0 0 0 0 252.77079529652838 166.8251077994064 0 166.8251077994064 69.547081077056646 0 0 0 0 162.92216245758755 104.28543250991788 0 104.28543250991788 33.08079213181918 0 0 0 0 220.36402592319791 120.93185788056144 0 120.93185788056144 17.272868599247886 0 0 0 0 170.79829950543353 -29.451994520000881 0 -29.451994520000881 -39.679820166609716 0 0 0 0 181.95202841167338 -37.636528382485267 0 -37.636528382485267 -92.836302498973964 0 0 0 0 -2.673210961973723 9.4633390158384145 0 9.4633390158384145 -1.2680191767799727 0 0 0 0 386.19319510750938 -12.508552268787753 0 -12.508552268787753 -73.510425754473545 0 0 0 0 263.63937563882791 73.656166896747891 0 73.656166896747891 -23.06733824085677 0 0 0 0 363.15882230491843 153.59824691107497 0 153.59824691107497 39.839525321818655 0 0 0 0 291.67014038024354 55.658122276305221 0 55.658122276305221 -15.078300552675501 0 0 0 0 158.44667420435871 11.235490348735766 0 11.235490348735766 -29.623809983575484 0 0 0 0 149.17525784610189 26.617309046094306 0 26.617309046094306 -3.6179599343740847 0 0 0 0 125.95693445122743 -43.5240166773292 0 -43.5240166773292 -4.0981806331546977 0 0 0 0 142.18902568669 20.831293619325152 0 20.831293619325152 -34.066860231570899 0 0 0 0 73.689618151314789 -18.206344547891149 0 -18.206344547891149 -36.152111411836813 0 0 0 0 150.84139327166486 67.940671161464707 0 67.940671161464707 -14.022786806483055 0 0 0 0 84.134802932734601 75.583996147302969 0 75.583996147302969 -11.491892313002609 0 0 0 0 118.56281767645123 142.44239282980561 0 142.44239282980561 79.975475875922712 0 0 0 0 70.181183174117564 16.768913174275013 0 16.768913174275013 -0.66297808893525989 0 0 0 0 128.62498596308433 35.663084533796791 0 35.663084533796791 -122.78199048995157 0 0 0 0 86.056107548560249 7.5867705450364156 0 7.5867705450364156 -104.38246366772751 0 0 0 0 82.926382708454497 24.730455441040164 0 24.730455441040164 -8.0460395540965521 0 0 0 0 45.033906925959641 15.589987327643314 0 15.589987327643314 -43.935110684800804 0 0 0 0 109.42753796390025 65.046949202675023 0 65.046949202675023 -171.44155189945741 0 0 0 0 100.61156277917325 -4.4353774224582594 0 -4.4353774224582594 -37.99364888141281 0 0 0 0 63.158623202769888 17.404410706594007 0 17.404410706594007 -8.8916036101230205 0 0 0 0 57.271153545443667 31.357155204634182 0 31.357155204634182 -39.403724473741022 0 0 0 0 22.66576481913944 76.251520438832813 0 76.251520438832813 -13.016676569313859 0 0 0 0 -70.717063776141003 213.33853033549633 0 213.33853033549633 -66.794685517583275 0 0 0 0 269.55532864178531 253.42128991153731 0 253.42128991153731 70.260492605622858 0 0 0 0 214.53124124456372 269.60291993134888 0 269.60291993134888 104.78430131969799 0 0 0 0 167.15382643892008 249.16555365074964 0 249.16555365074964 164.62190406472655 0 0 0 0 247.46138592198258 274.33025801922486 0 274.33025801922486 123.06976330131874 0 0 0 0 243.59290390893875 259.18547929766646 0 259.18547929766646 91.964249627577374 0 0 0 0 280.03292710518872 274.05584798174095 0 274.05584798174095 82.987870339624351 0 0 0 0 262.43262949257041 288.04746978811454 0 288.04746978811454 134.44985524762888 0 0 0 0 262.18386134724096 285.19734285964114 0 285.19734285964114 133.09335024401662 0 0 0 0 286.13033053855179 285.628403562936 0 285.628403562936 104.5528794325437 0 0 0 0 292.39703630709846 288.73617508991447 0 288.73617508991447 105.79406015240238 0 0 0 0 288.25180959046702 286.29980438691564 0 286.29980438691564 100.32560933203786 0 0 0 0 257.75807912967866 280.662861635632 0 280.662861635632 99.596104134630878 0 0 0 0 299.86841013545927 291.44168186577735 0 291.44168186577735 89.332357359926391 0 0 0 0 283.06281221834797 302.04998876658647 0 302.04998876658647 114.87338172839372 0 0 0 0 261.18204100031289 273.34581072595029 0 273.34581072595029 109.66976326747317 0 0 0 0 228.80808301622164 230.16803744005301 0 230.16803744005301 99.714025474531809 0 0 0 0 249.28628987036063 266.42587454608656 0 266.42587454608656 105.70677748980233 0 0 0 0 270.42450758552877 267.03591188235441 0 267.03591188235441 95.464986231701914 0 0 0 0 301.0374383169692 279.31816771140439 0 279.31816771140439 100.12238587880711 0 0 0 0 284.83771378619713 282.26025784822559 0 282.26025784822559 109.87474217012641 0 0 0 0 325.61594306631014 303.81262113974662 0 303.81262113974662 116.07924475666368 0 0 0 0 314.8449200061732 269.16625454486348 0 269.16625454486348 94.563399936509086 0 0 0 0 323.62915820433409 263.14186048549891 0 263.14186048549891 98.471756439481396 0 0 0 0 277.02094280351594 247.9071486343455 0 247.9071486343455 94.062239130842499 0 0 0 0 282.86775866706739 242.28276945064135 0 242.28276945064135 98.683930446190061 0 0 0 0 258.22785637088236 202.96233242409653 0 202.96233242409653 89.947864646899689 0 0 0 0 298.77871282513661 212.1805564735696 0 212.1805564735696 92.03621933364775 0 0 0 0 302.63499426861381 216.25454644442289 0 216.25454644442289 78.763568202295573 0 0 0 0 255.83027289577876 153.28818329723435 0 153.28818329723435 70.607921479910146 0 0 0 0 220.19134729265352 172.80303094243573 0 172.80303094243573 97.91166937770322 0 0 0 0 218.94728805663863 210.21826205247635 0 210.21826205247635 103.34819403101574 0 0 0 0 240.96418847408495 216.75799139925221 0 216.75799139925221 98.144857103368849 0 0 0 0 183.10216675169067 210.35564029571833 0 210.35564029571833 117.8190397588769 0 0 0 0 178.0186169759836 152.03035363870731 0 152.03035363870731 65.418503566630534 0 0 0 0 140.6134894292336 168.61789431348006 0 168.61789431348006 88.551783208400593 0 0 0 0 157.10637267371931 163.25668066846993 0 163.25668066846993 69.562800612096908 0 0 0 0 21.695962895726552 43.945383297199442 0 43.945383297199442 63.456875625715384 0 0 0 0 69.851268646445533 154.70218397368808 0 154.70218397368808 157.78459894549451 0 0 0 0 157.61933915439295 143.27621443099633 0 143.27621443099633 103.3676592306947 0 0 0 0 50.16376686281626 14.558421745406406 0 14.558421745406406 -2.4887660152659166 0 0 0 0 164.42093588579883 233.81466493849075 0 233.81466493849075 265.49027865487733 0 0 0 0 181.40393479669001 245.34139541701006 0 245.34139541701006 150.74802985836868 0 0 0 0 149.37532898092468 174.4208023470128 0 174.4208023470128 105.33745424640074 0 0 0 0 234.23189297286444 291.91183628895669 0 291.91183628895669 177.64736640258343 0 0 0 0 201.64174351238762 241.67455157915538 0 241.67455157915538 118.90068623433035 0 0 0 0 260.03826358140213 293.49086563711171 0 293.49086563711171 117.98288787332422 0 0 0 0 300.81245058058994 341.01802684809081 0 341.01802684809081 167.50103200101876 0 0 0 0 295.09121347169639 297.9738748183363 0 297.9738748183363 162.2377392196795 0 0 0 0 274.94422046933323 391.30025744363957 0 391.30025744363957 347.86994778708322 0 0 0 0 334.57138890627539 340.08186315511557 0 340.08186315511557 169.23424025104032 0 0 0 0 218.07757529825903 294.15745618319488 0 294.15745618319488 225.75447611125128 0 0 0 0 216.69968589168275 275.6218431119778 0 275.6218431119778 171.57335386457271 0 0 0 0 171.65518405105104 96.788875968617504 0 96.788875968617504 167.82730188585265 0 0 0 0 161.91488041419143 103.18554385014613 0 103.18554385014613 450.20577500617946 0 0 0 0 135.01418969474616 217.75133469767752 0 217.75133469767752 907.86361194466008 0 0 0 0 30.651175486738794 308.2787752043223 0 308.2787752043223 1059.0218344590394 0 0 0 0 3.4618369926465675 789.20566074445378 0 789.20566074445378 1320.1890287254355 0 0 0 0 254.92133807903156 348.21167340771353 0 348.21167340771353 333.05631891646772 0 0 0 0 287.42437279594014 631.22005495756457 0 631.22005495756457 878.73386076620227 0 0 0 0 18.491255943433146 4.6116129376388812 0 4.6116129376388812 -1.7254292354576242 0 0 0 0 459.57946902452022 742.97513789372897 0 742.97513789372897 388.94002482679207 0 0 0 0 414.8508523296332 571.33462629713176 0 571.33462629713176 135.89963232196169 0 0 0 0 383.00346909220389 348.97532969522581 0 348.97532969522581 83.712686214683345 0 0 0 0 247.12220560372225 333.93379209683917 0 333.93379209683917 207.36038803732299 0 0 0 0 318.38071096863132 386.3825147425523 0 386.3825147425523 331.7928750359265 0 0 0 0 335.8496969997359 314.83776168878831 0 314.83776168878831 88.007298118132894 0 0 0 0 244.48751515972253 250.10091199250746 0 250.10091199250746 99.912708178744651 0 0 0 0 28.68703165219631 100.00592208643502 0 100.00592208643502 1249.3738586870895 0 0 0 0 59.137851305102231 59.956611597866868 0 59.956611597866868 784.02870696272976 0 0 0 0 -43.450389635145257 -43.093383807143255 0 -43.093383807143255 1073.5745676739025 0 0 0 0 -275.54329782829154 25.312494121593772 0 25.312494121593772 1142.460817788291 0 0 0 0 -276.0078753031994 35.50441669402062 0 35.50441669402062 954.60559604526497 0 0 0 0 -282.99777370257652 -101.85800790195935 0 -101.85800790195935 1123.5386024608233 0 0 0 0 -279.03588799765566 -103.24134546954883 0 -103.24134546954883 1049.0668779456464 0 0 0 0 198.69076641940046 238.7252325496811 0 238.7252325496811 -42.777695150463842 0 0 0 0 -268.7381120578284 -135.06751592719957 0 -135.06751592719957 1244.3613989883597 0 0 0 0 -133.529096861374 3.512593249191923 0 3.512593249191923 -3365.8821604537516 0 0 0 0 8.3654067026487269 16.94082511837189 0 16.94082511837189 10.4552520836084 0 0 0 0 71.695813763688335 44.045600181850375 0 44.045600181850375 17.747613636714732 0 0 0 0 199.20390247897012 205.82025209501444 0 205.82025209501444 -3247.0409623032838 0 0 0 0 5.2026393704566942 -2.5588115567111913 0 -2.5588115567111913 -3.0605769452818095 0 0 0 0 -494.13955410669587 -293.76137151590592 0 -293.76137151590592 137.69186561372771 0 0 0 0 -343.78858661383128 -85.920615111397638 0 -85.920615111397638 -1698.5154979036452 0 0 0 0 -463.04576790413557 -820.64123834919155 0 -820.64123834919155 3388.1929145465256 0 0 0 0 694.503708280914 74.455152446840657 0 74.455152446840657 1014.2787189172232 0 0 0 0 834.22360825916803 -404.11267953931019 0 -404.11267953931019 847.13028755548294 0 0 0 0 524.25097899870889 -416.6034116664232 0 -416.6034116664232 961.20933056622744 0 0 0 0 18.749080759671131 16.822170853226638 0 16.822170853226638 15.306724456078342 0 0 0 0 -692.68287175196747 1947.1049461369694 0 1947.1049461369694 2354.8604033896736 0 0 0 0 370.00719686271623 455.6803897095233 0 455.6803897095233 -87.355708706672885 0 0 0 0 890.7512630322417 840.66799576213089 0 840.66799576213089 -274.54367372387787 0 0 0 0 635.11712823502603 506.88265234373102 0 506.88265234373102 -1866.3847302140512 0 0 0 0 -241.90632675032248 61.320494100240467 0 61.320494100240467 -379.01761559280567 0 0 0 0 -432.60209705129819 345.15796195383155 0 345.15796195383155 1005.6937694434819 0 0 0 0 65.856850771022437 41.849438231860404 0 41.849438231860404 -5.786382174861501 0 0 0 0 1104.9043376743684 -1498.1867306930126 0 -1498.1867306930126 -421.37927410900011 0 0 0 0 62.667187928054318 41.51649561539773 0 41.51649561539773 -16.486799364298761 0 0 0 0 52.317747385655821 52.009500422900601 0 52.009500422900601 -0.0059208744496572763 0 0 0 0 66.794626413401062 47.099041910342407 0 47.099041910342407 -18.316033489613751 0 0 0 0 710.29121412224777 315.68427341768984 0 315.68427341768984 -965.08191970658663 0 0 0 0 -223.93130343990924 -198.43864542640222 0 -198.43864542640222 981.31666379476428 0 0 0 0 58.168789774725155 52.602876288525295 0 52.602876288525295 -5.1373101987701375 0 0 0 0 -52.044883885144372 360.15704104628821 0 360.15704104628821 56.043423539187643 0 0 0 0 40.793356550996492 54.529490089629491 0 54.529490089629491 -20.810265878317033 0 0 0 0 -349.77089264569076 388.60100786260591 0 388.60100786260591 794.79901091527677 0 0 0 0 70.617942190554459 165.57877300247492 0 165.57877300247492 24.382101526833139 0 0 0 0 26.934699197649024 124.84834473169758 0 124.84834473169758 7.0445634769421304 0 0 0 0 57.114640726125799 127.28315603930969 0 127.28315603930969 5.5654524165220209 0 0 0 0 75.347047157149063 140.32701446936699 0 140.32701446936699 -58.816331725538475 0 0 0 0 25.855102901288774 135.73451778483286 0 135.73451778483286 201.95954645652091 0 0 0 0 15.756770850288746 46.256508970512556 0 46.256508970512556 -15.883703267389876 0 0 0 0 44.998911387752742 114.3925946051022 0 114.3925946051022 7.8611769489652943 0 0 0 0 15.241220452618876 28.190926501909018 0 28.190926501909018 -21.01329601774043 0 0 0 0 -2.8268670913408016 37.927722561480039 0 37.927722561480039 -10.851085435871283 0 0 0 0 21.527787439059466 51.421564046555432 0 51.421564046555432 -25.784261203880305 0 0 0 0 51.377243228809675 117.81552705497597 0 117.81552705497597 -7.5679555938113481 0 0 0 0 56.141203037637752 102.4865266335546 0 102.4865266335546 9.1148127572159865 0 0 0 0 68.31180202170799 78.913852388010127 0 78.913852388010127 -9.2150760312797502 0 0 0 0 47.11022249140909 32.909243688334044 0 32.909243688334044 -22.632390604324769 0 0 0 0 58.621376471033727 29.302110953969532 0 29.302110953969532 -42.474428600486135 0 0 0 0 68.87569413005258 78.904140725160687 0 78.904140725160687 -31.137591483391589 0 0 0 0 61.030639915225038 130.78039066271594 0 130.78039066271594 -178.00273590343204 0 0 0 0 72.915449599102431 75.796550160896004 0 75.796550160896004 -66.76260533547611 0 0 0 0 -90.460873744246783 103.5742724933807 0 103.5742724933807 -12.630707976408303 0 0 0 0 -97.65249226520973 141.23241495908587 0 141.23241495908587 28.591477915164432 0 0 0 0 143.17683552813105 468.73089034520672 0 468.73089034520672 -682.14713545386985 0 0 0 0 -391.35439676272654 228.59461921054753 0 228.59461921054753 66.706208803687332 0 0 0 0 -173.31483043535263 52.521942044251773 0 52.521942044251773 155.33500471348088 0 0 0 0 83.035009722926588 57.837852583144468 0 57.837852583144468 -0.65792156702082139 0 0 0 0 28.736731900818995 30.96683346721511 0 30.96683346721511 -5.9558861165860435 0 0 0 0 34.470946706202085 44.65152670597152 0 44.65152670597152 -15.892660259408203 0 0 0 0 47.006963021431147 45.763877631099604 0 45.763877631099604 0.049036648960028628 0 0 0 0 16.809908631534199 37.553441766365722 0 37.553441766365722 -4.2445337824028684 0 0 0 0 27.739089640483144 34.933696865926322 0 34.933696865926322 -20.435126100077468 0 0 0 0 22.863682653172873 41.928365274099633 0 41.928365274099633 -21.649494881412465 0 0 0 0 14.632015398499789 33.382994642975973 0 33.382994642975973 -0.12874622550953063 0 0 0 0 29.221781995613128 34.099911399760458 0 34.099911399760458 -7.6071771898205043 0 0 0 0 6.0217125457857037 33.094790754199494 0 33.094790754199494 -5.7734275160619291 0 0 0 0 49.914092630089726 24.822204793948913 0 24.822204793948913 -63.513266342677525 0 0 0 0 16.733394500952272 29.267610828428587 0 29.267610828428587 -22.712432837943197 0 0 0 0 17.143957790287004 12.57846653732031 0 12.57846653732031 -29.150856708700303 0 0 0 0 25.044700657358248 25.090986795142101 0 25.090986795142101 -13.867712558392085 0 0 0 0 2.2543223855214194 2.548479930392233 0 2.548479930392233 2.5502250292289546 0 0 0 0 94.08948745203088 -62.306460110121407 0 -62.306460110121407 -161.8376992851845 0 0 0 0 78.602187059654938 29.099946468212693 0 29.099946468212693 -37.367150601649939 0 0 0 0 96.27067563579476 27.020845208331593 0 27.020845208331593 -76.05895672130282 0 0 0 0 -9.0733449765830301 -84.553158672904829 0 -84.553158672904829 -166.31859390658065 0 0 0 0 23.972776272047241 -9.4665460616855199 0 -9.4665460616855199 -51.440239272467522 0 0 0 0 -116.6879985180567 -43.244255045923637 0 -43.244255045923637 -114.45546069985721 0 0 0 0 41.061173155292636 4.8411628829198889 0 4.8411628829198889 -99.847201430471614 0 0 0 0 141.84205546346493 32.513428683159873 0 32.513428683159873 -75.407402341414127 0 0 0 0 19.790953526137429 -0.94229159087294079 0 -0.94229159087294079 -31.612436758882779 0 0 0 0 45.075456106662756 23.096461621631846 0 23.096461621631846 -32.248965789398397 0 0 0 0 51.778841370277064 27.157423978214844 0 27.157423978214844 -12.141513405969931 0 0 0 0 58.986645961151225 29.880258397271973 0 29.880258397271973 -45.913533594080945 0 0 0 0 53.724071406802977 61.866327120540518 0 61.866327120540518 33.402827770900331 0 0 0 0 57.38018726251903 32.355941318353871 0 32.355941318353871 -44.562484189322277 0 0 0 0 1062.6129374853044 490.36100072528643 0 490.36100072528643 140.65287119670757 0 0 0 0 749.8660014156485 -520.56486085220968 0 -520.56486085220968 458.72890663571889 0 0 0 0 662.70222729572561 -210.40607576684852 0 -210.40607576684852 -311.32674402966222 0 0 0 0 1558.1704102272779 237.92042285691423 0 237.92042285691423 -232.61399543314292 0 0 0 0 649.48779809898406 461.17301046653301 0 461.17301046653301 -324.45987942809006 0 0 0 0 65.972524510121673 38.047657779381439 0 38.047657779381439 5.5848795568417131 0 0 0 0 854.25588054239051 241.28305233403808 0 241.28305233403808 79.390258234016073 0 0 0 0 -145.18504512304207 15.261574831198232 0 15.261574831198232 -60.588571484811837 0 0 0 0 5.8812399304397331 2.1378947219389488 0 2.1378947219389488 -5.255692312656123 0 0 0 0 305.46210218896158 221.01400278660003 0 221.01400278660003 132.83669700585597 0 0 0 0 565.95124354618019 200.15909195586573 0 200.15909195586573 -77.009275496122427 0 0 0 0 -75.952202790300362 32.893832438639947 0 32.893832438639947 -56.276533504365943 0 0 0 0 229.19111014620285 103.95892034344433 0 103.95892034344433 60.144382901271456 0 0 0 0 293.85232251515845 -8.3883912986057112 0 -8.3883912986057112 -135.48054170325122 0 0 0 0 -21.802352666491061 -235.94206907991611 0 -235.94206907991611 -101.77182520092174 0 0 0 0 -183.73850230775497 357.24869407667666 0 357.24869407667666 -107.0144459799485 0 0 0 0 655.61572507874371 -291.19732655492408 0 -291.19732655492408 -462.04183062020456 0 0 0 0 257.5307329420466 204.78866302666938 0 204.78866302666938 -80.602340485274908 0 0 0 0 196.12612821373477 99.671567740895625 0 99.671567740895625 163.42715107881668 0 0 0 0 606.39880707611155 -176.30421360510809 0 -176.30421360510809 -84.956640579723171 0 0 0 0 319.9463545303588 -38.245427925074182 0 -38.245427925074182 -101.75839316128986 0 0 0 0 -2.7480296573603198 -0.92054243240622924 0 -0.92054243240622924 4.7402511000644267 0 0 0 0 103.22885114749079 228.71441623489955 0 228.71441623489955 98.573952903272584 0 0 0 0 -125.42670637149422 142.20740649830259 0 142.20740649830259 158.55253832630297 0 0 0 0 710.76718652166892 306.89390521360474 0 306.89390521360474 0.95410685804017703 0 0 0 0 9.9222303668127552 5.4641681940260725 0 5.4641681940260725 4.637207206674077 0 0 0 0 978.19101114940713 -1059.8380635145295 0 -1059.8380635145295 882.96975963684235 0 0 0 0 -643.13251833044342 1024.1053106072941 0 1024.1053106072941 589.32652039665845 0 0 0 0 423.89271537415334 1444.1518245941916 0 1444.1518245941916 -446.76988124797936 0 0 0 0 -327.53153643630503 880.33847375721962 0 880.33847375721962 -859.84216701379046 0 0 0 0 -666.91081289363137 1507.2376133448688 0 1507.2376133448688 -330.1340573628695 0 0 0 0 -1348.7996601735067 1677.1412279960714 0 1677.1412279960714 -1116.9758227368002 0 0 0 0 -151.46707593248175 1512.3002405073139 0 1512.3002405073139 -3065.3857940334128 0 0 0 0 144.48514753236668 1549.4579117576213 0 1549.4579117576213 -2579.5692057617125 0 0 0 0 898.31001539299905 -1357.718195829053 0 -1357.718195829053 -48.998646472638939 0 0 0 0 713.32885503291618 -1415.1589635433193 0 -1415.1589635433193 480.35304220169201 0 0 0 0 35.720453566610132 19.472520173857376 0 19.472520173857376 12.423250864040824 0 0 0 0 545.88519200477458 214.35224558637128 0 214.35224558637128 -490.6686170330504 0 0 0 0 -219.66112035694368 906.26218471743687 0 906.26218471743687 -1377.2082863432588 0 0 0 0 -1760.4332818587573 446.83184552233433 0 446.83184552233433 -247.14040076622041 0 0 0 0 -3110.1703036157996 3306.088786450855 0 3306.088786450855 -3099.354650840789 0 0 0 0 -3143.2182291367499 -215.35794336699473 0 -215.35794336699473 -285.35662747448077 0 0 0 0 237.74909797226428 -11.208360030228505 0 -11.208360030228505 -1080.3356179069233 0 0 0 0 904.72998771325365 -563.37006501956785 0 -563.37006501956785 -649.1469937802176 0 0 0 0 62.206432424485683 -552.46703381654515 0 -552.46703381654515 -374.74853287667793 0 0 0 0 -13.596968898112266 6.9463423599774785 0 6.9463423599774785 -4.907809078868695 0 0 0 0 -1532.6301693986752 2282.7031756402212 0 2282.7031756402212 2145.9262698488601 0 0 0 0 1400.8898624949506 -368.38071472014417 0 -368.38071472014417 -1035.6864677475969 0 0 0 0 -2653.9315072131285 1697.5701466170431 0 1697.5701466170431 -887.01512886560522 0 0 0 0 -2283.8869170225371 4785.5431208017399 0 4785.5431208017399 -3918.6519580910972 0 0 0 0 -0.75983172593925019 6.9132440729800635 0 6.9132440729800635 -29.401619533954431 0 0 0 0 1241.2208406007412 51.839869007904781 0 51.839869007904781 -2366.8699322003813 0 0 0 0 943.46142558008432 1819.1996067447908 0 1819.1996067447908 -5557.5989511067601 0 0 0 0 -6156.5956350890337 2810.4043035380164 0 2810.4043035380164 1045.5584005503042 0 0 0 0 21.585619643879113 41.63132344768627 0 41.63132344768627 -65.023264929810637 0 0 0 0 -267.86365579087578 579.74856742391421 0 579.74856742391421 -917.00166809419898 0 0 0 0 218.20508135874115 400.98860013866215 0 400.98860013866215 470.55018920420844 0 0 0 0 221.78818265919108 -352.54865539632738 0 -352.54865539632738 -25.035154617507942 0 0 0 0 -317.66247284720885 436.76548102695961 0 436.76548102695961 517.33323683965136 0 0 0 0 -1619.8760454505973 1409.9628286030129 0 1409.9628286030129 -1135.9587944088998 0 0 0 0 -411.8858996945055 1419.4444517576267 0 1419.4444517576267 -4756.8297962040233 0 0 0 0 -280.68187320882862 171.99742251921271 0 171.99742251921271 -2488.8223856447148 0 0 0 0 -1203.5905839008774 1726.6111061025731 0 1726.6111061025731 -1901.3421522683639 0 0 0 0 325.47368160032784 -42.605887762620114 0 -42.605887762620114 -2094.0466348842019 0 0 0 0 -626.1596695909393 472.64923133833508 0 472.64923133833508 196.64882167195901 0 0 0 0 -5.0128901134453372 6.9863542773167637 0 6.9863542773167637 -13.530020413190073 0 0 0 0 -697.74698875634931 1339.5243508209824 0 1339.5243508209824 -1510.5032849377312 0 0 0 0 185.67898443568265 1436.0799947125342 0 1436.0799947125342 -3112.5047616659431 0 0 0 0 222.23718695343996 1228.5189240742257 0 1228.5189240742257 -2180.6450244966545 0 0 0 0 -271.73333057988202 146.39624761530649 0 146.39624761530649 -161.60102911727154 0 0 0 0 198.96955924667418 507.15844581855345 0 507.15844581855345 -2386.8622255308292 0 0 0 0 139.14863318804419 180.7381426589709 0 180.7381426589709 126.50741212439607 0 0 0 0 -212.66666266870016 13.915956394353998 0 13.915956394353998 389.57394327539077 0 0 0 0 12.544052345486989 20.670506579129523 0 20.670506579129523 37.398410401841687 0 0 0 0 279.49464234309562 19.834411058574915 0 19.834411058574915 -193.10616663677501 0 0 0 0 202.85068001820764 -113.03479711047839 0 -113.03479711047839 -234.55071738916013 0 0 0 0 274.02388297476136 93.696347937875544 0 93.696347937875544 34.361827315267874 0 0 0 0 164.77625078552956 114.73539525917658 0 114.73539525917658 14.986362572570215 0 0 0 0 113.25046943380983 105.94933698896871 0 105.94933698896871 22.572752551873009 0 0 0 0 110.33289450895973 23.782348404434742 0 23.782348404434742 61.88970310575678 0 0 0 0 120.89025201744516 96.18590550785666 0 96.18590550785666 184.73048931903759 0 0 0 0 210.5092718340602 100.24053972635011 0 100.24053972635011 -37.401408495396026 0 0 0 0 163.31022503941495 145.20385823184552 0 145.20385823184552 12.339840438289684 0 0 0 0 130.87917108430702 33.289708325268293 0 33.289708325268293 -196.43516341724899 0 0 0 0 -22.836128494425793 78.038511397233378 0 78.038511397233378 10.894609953291365 0 0 0 0 -8.4756819537899446 11.597369613494152 0 11.597369613494152 7.4560824861963795 0 0 0 0 -1439.3937457996799 1214.0404180610276 0 1214.0404180610276 -1026.8007333251007 0 0 0 0 -132.57880238434882 130.84876899163646 0 130.84876899163646 459.77755291257927 0 0 0 0 -688.70504974140204 441.98629367804097 0 441.98629367804097 308.6234638224123 0 0 0 0 -653.17175360769033 1299.0399674451473 0 1299.0399674451473 -1630.4560265990294 0 0 0 0 -10.923404993933971 84.476602379338033 0 84.476602379338033 84.955463065563492 0 0 0 0 80.546277168017696 120.12341719956385 0 120.12341719956385 137.71811012254329 0 0 0 0 353.21705522149568 -39.515356245741714 0 -39.515356245741714 145.04243158485042 0 0 0 0 230.24225021898746 133.33879889918535 0 133.33879889918535 16.567228956446343 0 0 0 0 13.221803907966716 -5.5618805853791429 0 -5.5618805853791429 -19.649598555219512 0 0 0 0 -95.725808479444822 93.204272753675468 0 93.204272753675468 204.77470530380378 0 0 0 0 152.85975209636672 383.7839928127396 0 383.7839928127396 81.88177690669545 0 0 0 0 -30.669284465737292 210.32772905929596 0 210.32772905929596 6.1476613394916058 0 0 0 0 -448.9528934179034 498.05554524270337 0 498.05554524270337 -216.45209771505324 0 0 0 0 -1134.2905418738665 992.81406264115503 0 992.81406264115503 -53.962270334071945 0 0 0 0 -506.07859777301201 332.62920410596416 0 332.62920410596416 112.40616883453913 0 0 0 0 -280.14480986632407 416.55652307468699 0 416.55652307468699 -535.657207920769 0 0 0 0 86.317306104290765 177.68387329403777 0 177.68387329403777 -325.68915219776682 0 0 0 0 1.4536989850332134 5.3034583562537136 0 5.3034583562537136 10.477484691143928 0 0 0 0 -751.99853899616573 672.03363701645867 0 672.03363701645867 -300.21283746753761 0 0 0 0 -635.90202098697773 803.0497945549796 0 803.0497945549796 -576.85632707549667 0 0 0 0 -711.21436367701972 798.39862799349066 0 798.39862799349066 -488.3138963230449 0 0 0 0 -693.69052804482635 846.69622705038637 0 846.69622705038637 -461.79463123052119 0 0 0 0 -592.20121227807249 1030.909331750634 0 1030.909331750634 -1141.2283302193973 0 0 0 0 -538.6528017752571 880.53542221756652 0 880.53542221756652 -1006.2743575762797 0 0 0 0 -813.96480708383751 1174.4309651655276 0 1174.4309651655276 -767.52070098086551 0 0 0 0 -396.19534791194019 237.52050834830152 0 237.52050834830152 1515.18046398148 0 0 0 0 -464.35708894838262 1521.8933659173749 0 1521.8933659173749 -1281.4966330567258 0 0 0 0 -1.351540215916657 4.2632679536204421 0 4.2632679536204421 -0.56797838908425291 0 0 0 0 583.39822472870583 1117.1814657235009 0 1117.1814657235009 -1201.8089937696495 0 0 0 0 -749.44343674350239 988.12963148431299 0 988.12963148431299 -549.01983301129076 0 0 0 0 -455.03509175748331 970.7652552833606 0 970.7652552833606 -548.33927980015869 0 0 0 0 19.207675207318971 672.55464377339376 0 672.55464377339376 -685.05497605225537 0 0 0 0 340.60084927440039 896.90903732650622 0 896.90903732650622 -927.12922079237615 0 0 0 0 1985.3424535644881 159.15585894917604 0 159.15585894917604 -1274.9568666976265 0 0 0 0 1853.2316243592377 -848.49619608432931 0 -848.49619608432931 -745.64755418087589 0 0 0 0 13.411096044743374 15.448715355442687 0 15.448715355442687 15.897532777016295 0 0 0 0 1035.4630171424942 -52.605204092149506 0 -52.605204092149506 -552.9453337068262 0 0 0 0 1626.9928300338215 639.37805804508389 0 639.37805804508389 -1139.140476885259 0 0 0 0 -1176.9684089524817 789.97355298062757 0 789.97355298062757 -300.13968354498502 0 0 0 0 -1228.9805250837671 1045.1958799998756 0 1045.1958799998756 -816.91317180560873 0 0 0 0 -466.25726097474762 861.00783154076635 0 861.00783154076635 -1384.0843869841483 0 0 0 0 -19.995881263382728 14.583775305321723 0 14.583775305321723 2.7382596214661064 0 0 0 0 -685.00144999568874 1255.0870396524479 0 1255.0870396524479 -1745.3917123530555 0 0 0 0 -141.32917538563197 30.410623041534564 0 30.410623041534564 411.72200163433445 0 0 0 0 -1354.3700447568553 1534.4283659939683 0 1534.4283659939683 -575.0876372062412 0 0 0 0 1822.6871291638527 -447.58161485135497 0 -447.58161485135497 -3879.8459942530753 0 0 0 0 53.277546453085961 51.239565836220208 0 51.239565836220208 801.70350631111069 0 0 0 0 126.29246482986491 -242.38024888031941 0 -242.38024888031941 773.37182200638927 0 0 0 0 35.970402974169701 290.62150105449837 0 290.62150105449837 118.88308226646041 0 0 0 0 310.65950629895087 -169.87257226802467 0 -169.87257226802467 462.85631168383406 0 0 0 0 271.03135135496268 86.782039550789705 0 86.782039550789705 178.65361398993991 0 0 0 0 102.59762499580393 214.30698496027617 0 214.30698496027617 222.02678113579168 0 0 0 0 160.49450681425515 329.80941886574146 0 329.80941886574146 -107.9847038044245 0 0 0 0 173.66096359459334 98.938187216386723 0 98.938187216386723 40.19995943972026 0 0 0 0 158.12940382544184 433.01114293881983 0 433.01114293881983 317.38603607160621 0 0 0 0 237.86446729923045 114.53208434709086 0 114.53208434709086 -217.02059924113564 0 0 0 0 -41.708601694379468 251.95837409739033 0 251.95837409739033 232.67879053646175 0 0 0 0 -79.623080102841413 23.439721095412551 0 23.439721095412551 83.799983752018306 0 0 0 0 66.297459886758588 362.39236553912633 0 362.39236553912633 -313.63233832285914 0 0 0 0 19.295541915926151 134.2221236203477 0 134.2221236203477 -132.36044901714195 0 0 0 0 -34.210470959340455 307.4949416781601 0 307.4949416781601 -372.80341691969079 0 0 0 0 8.0451152338007148 0.020995265694587317 0 0.020995265694587317 -5.5658618791432559 0 0 0 0 -230.33586844964884 425.04938909981865 0 425.04938909981865 -367.7178991130404 0 0 0 0 -176.97660278304102 196.11444348095029 0 196.11444348095029 -425.67041825375054 0 0 0 0 66.631210708321305 181.30086979332555 0 181.30086979332555 -649.44020842935424 0 0 0 0 50.167786425037775 147.13146826387674 0 147.13146826387674 118.50365205136768 0 0 0 0 156.44782433687942 282.0944116532919 0 282.0944116532919 -740.34928527100419 0 0 0 0 -0.80026735133446891 2.93516352224961 0 2.93516352224961 -0.054653336567284327 0 0 0 0 269.78111029445427 263.17919037178217 0 263.17919037178217 -366.88462854022509 0 0 0 0 130.34291836972989 123.18532526120543 0 123.18532526120543 -480.79090582748177 0 0 0 0 118.91888510200079 169.59286828229961 0 169.59286828229961 -493.06869942188496 0 0 0 0 79.809456078743096 317.28396368643735 0 317.28396368643735 -396.61038624955108 0 0 0 0 134.84147898230003 168.12656352127669 0 168.12656352127669 -340.21389765685308 0 0 0 0 242.2351777645672 284.76571321360097 0 284.76571321360097 -544.60056955210166 0 0 0 0 95.888340760924621 239.63964925977052 0 239.63964925977052 -475.06967183272354 0 0 0 0 100.69800906488672 225.79752503626514 0 225.79752503626514 -273.37144900480052 0 0 0 0 -30.741817689209711 320.87421194586204 0 320.87421194586204 -539.66393407178839 0 0 0 0 186.8890955040697 152.19302011356922 0 152.19302011356922 -529.44381545539363 0 0 0 0 97.558659392525442 143.61542836797889 0 143.61542836797889 -523.79598924150923 0 0 0 0 118.84825407940298 -43.739994618059427 0 -43.739994618059427 -776.81780101051845 0 0 0 0 12.174360598171916 44.355758384894216 0 44.355758384894216 -463.09540579345776 0 0 0 0 -14.450696514645415 29.751678352063095 0 29.751678352063095 -10.965882214333931 0 0 0 0 48.063299672678113 198.9341110039677 0 198.9341110039677 -470.83266471145907 0 0 0 0 218.40939333516872 46.033462473758846 0 46.033462473758846 -519.84592037083348 0 0 0 0 46.257040371972835 255.01350835144694 0 255.01350835144694 -564.72512202203507 0 0 0 0 -243.08987942192471 -79.186414832453011 0 -79.186414832453011 -903.89367819885956 0 0 0 0 231.88562908658423 715.87306002962214 0 715.87306002962214 -1612.3478844469646 0 0 0 0 388.82731280348162 1296.5903379753327 0 1296.5903379753327 503.53552780544851 0 0 0 0 270.60005923335848 350.18908241291501 0 350.18908241291501 -223.82528704364086 0 0 0 0 149.62930735603732 144.7678946841188 0 144.7678946841188 -450.75668200981454 0 0 0 0 1422.0298400826723 2519.2461967046138 0 2519.2461967046138 0.43493771404610015 0 0 0 0 -354.44707295572516 276.17004831657869 0 276.17004831657869 632.05915015112259 0 0 0 0 4.1751335469576816 2.5343591574369384 0 2.5343591574369384 -3.087041231536034 0 0 0 0 -0.11269974624156021 63.808984591094486 0 63.808984591094486 -71.956478396750754 0 0 0 0 -127.61681166969356 79.99729280360043 0 79.99729280360043 230.5131663532884 0 0 0 0 -32.384168043732643 17.443392385350307 0 17.443392385350307 -59.719287614585483 0 0 0 0 -89.745339403118123 263.08290152461996 0 263.08290152461996 359.56633924898051 0 0 0 0 -7.6214401818729103 3358.5562532750837 0 3358.5562532750837 6284.1939311332826 0 0 0 0 2371.6336390225333 910.22816953542315 0 910.22816953542315 -237.27303929027403 0 0 0 0 20.272912615667053 15.330652488872524 0 15.330652488872524 11.386026433801419 0 0 0 0 -98.63388657917676 131.66612785286998 0 131.66612785286998 58.690663255867548 0 0 0 0 -11.947618040729139 243.85604916271041 0 243.85604916271041 -42.211888588921283 0 0 0 0 53.409920092419839 43.489207244655738 0 43.489207244655738 34.481323851119498 0 0 0 0 -2.3145747956295963 75.294986241453444 0 75.294986241453444 -47.139856908463116 0 0 0 0 23.444082178932149 57.417229496320942 0 57.417229496320942 -35.926272145778967 0 0 0 0 85.436894723787248 65.917723332204545 0 65.917723332204545 51.876920792866798 0 0 0 0 24.877145109901903 206.86434439964069 0 206.86434439964069 -138.69795267381414 0 0 0 0 -308.55416469629563 695.86674857731123 0 695.86674857731123 309.81902275214816 0 0 0 0 25.832493146328488 311.9050310251987 0 311.9050310251987 -102.56014720753592 0 0 0 0 28.959093773242785 338.14914665511606 0 338.14914665511606 -442.94334758913101 0 0 0 0 39.662541772795521 190.64585176066066 0 190.64585176066066 -179.33292677559075 0 0 0 0 -294.72152181637648 918.15271719473458 0 918.15271719473458 -145.5347631264849 0 0 0 0 -389.21667778387928 1113.5110206717 0 1113.5110206717 -526.78447718714597 0 0 0 0 -496.64053605152731 789.034242783644 0 789.034242783644 -206.38483081215236 0 0 0 0 -565.15100162358431 915.79160541603051 0 915.79160541603051 -1567.6911103617167 0 0 0 0 -561.10018652922008 1256.4590374708641 0 1256.4590374708641 -629.71423762652557 0 0 0 0 280.10163816690329 142.29739169412642 0 142.29739169412642 -1476.4068920444624 0 0 0 0 29.288381540245609 228.40801985084545 0 228.40801985084545 -228.7596740150766 0 0 0 0 1.6157128717958074 2.5547928993981941 0 2.5547928993981941 -9.8097973979967037 0 0 0 0 -541.59658203180152 1032.1621970048218 0 1032.1621970048218 -401.52517059692764 0 0 0 0 297.85196154801815 1182.5574686875916 0 1182.5574686875916 -1755.3123053520685 0 0 0 0 -320.92886903321778 125.9114492519584 0 125.9114492519584 201.31118988744856 0 0 0 0 79.911539276625263 -36.892215257197677 0 -36.892215257197677 -52.715088139259024 0 0 0 0 317.65858641368686 170.49061014546896 0 170.49061014546896 72.515438937436556 0 0 0 0 289.4523444660008 186.60881012343452 0 186.60881012343452 136.91570980777033 0 0 0 0 90.016775750773377 161.25323211766226 0 161.25323211766226 -250.00943684522645 0 0 0 0 17.47854972013991 27.617720268161975 0 27.617720268161975 1.7237828180243469 0 0 0 0 66.294203374396886 85.11622892471047 0 85.11622892471047 26.898404228000842 0 0 0 0 48.587710977313691 127.63102701451862 0 127.63102701451862 147.77655839711952 0 0 0 0 195.01882194948848 99.316646509309066 0 99.316646509309066 106.55623083052342 0 0 0 0 51.206055386828666 106.67985173073612 0 106.67985173073612 46.141761527986091 0 0 0 0 -36.948503972632352 8.5925545369481 0 8.5925545369481 38.16867283961443 0 0 0 0 67.6914740873803 48.150904189286848 0 48.150904189286848 -6.8443732747342096 0 0 0 0 65.498633489667554 161.17009107962076 0 161.17009107962076 190.20818578459512 0 0 0 0 -4.2931372262801233 35.013542573635107 0 35.013542573635107 -8.5179799008682835 0 0 0 0 52.524151603924111 65.683475441124756 0 65.683475441124756 73.919814061166107 0 0 0 0 25.541325637132104 196.94995360894973 0 196.94995360894973 197.30687361083255 0 0 0 0 47.867294537417706 54.312553826680187 0 54.312553826680187 -10.041752594780888 0 0 0 0 17.502225218046647 48.073386827505715 0 48.073386827505715 39.708647663337644 0 0 0 0 5.448894371278584 55.890152370702708 0 55.890152370702708 72.712305372508126 0 0 0 0 88.066446301847463 132.8345337964347 0 132.8345337964347 -130.10392588526338 0 0 0 0 -20.055535673630231 34.49875953568727 0 34.49875953568727 -8.8597768970406605 0 0 0 0 -8.8356304838962387 19.948366485870793 0 19.948366485870793 8.087871100189659 0 0 0 0 132.76576597718667 243.67416549122936 0 243.67416549122936 63.769610781804658 0 0 0 0 16.976743747858563 100.45578137374832 0 100.45578137374832 70.96491372249875 0 0 0 0 37.686182022922594 41.477888731872241 0 41.477888731872241 -35.675438477142038 0 0 0 0 38.270279903808841 116.69473042227037 0 116.69473042227037 78.06997639099427 0 0 0 0 15.866445059480611 62.533841529962956 0 62.533841529962956 50.639323165225505 0 0 0 0 69.048346696494264 77.616893459977291 0 77.616893459977291 44.449774765525945 0 0 0 0 102.61487376969308 135.88630702441151 0 135.88630702441151 22.204973512001743 0 0 0 0 12.655214539845474 41.881829604117229 0 41.881829604117229 89.934960981627228 0 0 0 0 86.010478333919309 60.647250895141042 0 60.647250895141042 -100.75803995395836 0 0 0 0 23.408242659971904 46.86768361568096 0 46.86768361568096 -29.443287977491991 0 0 0 0 -16.786030473769642 120.96278995618195 0 120.96278995618195 14.138156006221834 0 0 0 0 22.313254396896809 92.71675949326891 0 92.71675949326891 128.02136952150613 0 0 0 0 115.40085692229331 170.59492614780538 0 170.59492614780538 120.42333274184784 0 0 0 0 -34.845875454113013 17.771404122643844 0 17.771404122643844 30.725645881970308 0 0 0 0 177.55943714063324 223.3738467287294 0 223.3738467287294 145.39910160891304 0 0 0 0 -105.74912667874014 10.772594944486627 0 10.772594944486627 225.4197372427152 0 0 0 0 130.86681763667002 124.77876624541386 0 124.77876624541386 42.262318890396273 0 0 0 0 -8.3865650271045524 25.862678907334413 0 25.862678907334413 24.149957749876279 0 0 0 0 -31.571167212647424 46.050477238744691 0 46.050477238744691 15.4469376297792 0 0 0 0 -116.83160416927421 -4.6158319574315101 0 -4.6158319574315101 207.07722177112009 0 0 0 0 -52.061098807845639 70.408915446132312 0 70.408915446132312 116.25362050120424 0 0 0 0 99.698620880657586 95.52101327470271 0 95.52101327470271 71.445140636480403 0 0 0 0 62.80802388410666 392.20638517414773 0 392.20638517414773 147.62896428804015 0 0 0 0 74.700112275444553 129.96114172518355 0 129.96114172518355 -181.78099225787446 0 0 0 0 34.214287853449605 18.397098261204519 0 18.397098261204519 48.840007885155501 0 0 0 0 53.137556547750137 161.66091716387382 0 161.66091716387382 47.536648339126259 0 0 0 0 7.1383040115470067 110.9954934456473 0 110.9954934456473 159.47461025485973 0 0 0 0 39.240392319436069 214.29842494519107 0 214.29842494519107 238.55061974719138 0 0 0 0 93.115841088685556 156.25147051848762 0 156.25147051848762 169.73687023005914 0 0 0 0 3.4714303189319935 4.4621750166307947 0 4.4621750166307947 0.52047469328581997 0 0 0 0 179.19698737576255 74.132168886077125 0 74.132168886077125 -36.385800032378029 0 0 0 0 163.96505728378543 216.11586639887537 0 216.11586639887537 208.76507327288346 0 0 0 0 10.184342833410483 137.0539111867547 0 137.0539111867547 156.13809982823295 0 0 0 0 109.89466741164506 114.66177637952387 0 114.66177637952387 127.1513604522188 0 0 0 0 30.846829503774643 100.4820662431157 0 100.4820662431157 164.24347668935661 0 0 0 0 100.32803205709206 152.91748550967895 0 152.91748550967895 170.95171013276558 0 0 0 0 4.6491015741812589 148.4793122782612 0 148.4793122782612 141.40018459485145 0 0 0 0 -4.22813644856069 111.05618947839685 0 111.05618947839685 109.85591448302148 0 0 0 0 -51.866529665072449 213.86601958639221 0 213.86601958639221 86.381739068743627 0 0 0 0 -0.10431914012588095 135.84063444883941 0 135.84063444883941 124.38285679524779 0 0 0 0 0.013450179962092079 86.463595961147803 0 86.463595961147803 47.420673853572225 0 0 0 0 -79.927142388187349 103.94864941394917 0 103.94864941394917 149.88854720574454 0 0 0 0 4.0582816426548902 2.4303249732629126 0 2.4303249732629126 -2.9580701855352345 0 0 0 0 -93.183708144613774 59.401793251963682 0 59.401793251963682 109.25945832392608 0 0 0 0 70.513350065381019 100.57984333835248 0 100.57984333835248 -97.965124575537629 0 0 0 0 -32.464219786670583 22.597218153332506 0 22.597218153332506 -64.456061888398835 0 0 0 0 0.62888556110556237 367.8726732481191 0 367.8726732481191 -1108.1190888746423 0 0 0 0 -276.76219924991892 333.04874510179798 0 333.04874510179798 -1015.6534357816272 0 0 0 0 -106.09495803600294 263.96646776384296 0 263.96646776384296 -1202.6222042465524 0 0 0 0 -1.5233514125099532 2.8900807738630192 0 2.8900807738630192 -6.6535431010440078 0 0 0 0 -185.02325868625485 518.70275369433512 0 518.70275369433512 -2598.3200747049414 0 0 0 0 -343.0636849529692 588.23520377730893 0 588.23520377730893 404.75123708916362 0 0 0 0 -756.12598719462403 351.7901942112876 0 351.7901942112876 837.34152352654201 0 0 0 0 -938.37358002708061 -12.918424104718724 0 -12.918424104718724 -199.30848697316833 0 0 0 0 -143.23222247614467 530.15347688167822 0 530.15347688167822 -173.84420353139285 0 0 0 0 -51.643217080156319 634.24495255314105 0 634.24495255314105 -1227.8281487383119 0 0 0 0 -0.27328941540326923 272.95807807101301 0 272.95807807101301 -467.16460542756249 0 0 0 0 -39.861823464219924 296.90950667634752 0 296.90950667634752 -168.52837824535527 0 0 0 0 -258.45731623012398 355.90857067879551 0 355.90857067879551 -162.78127218793088 0 0 0 0 -0.1156404837113318 159.7278047399181 0 159.7278047399181 -6.4211962358967867 0 0 0 0 -38.124234447866911 204.4720614998223 0 204.4720614998223 64.767577283666469 0 0 0 0 -126.00031690801552 172.47418514105084 0 172.47418514105084 62.996141395880841 0 0 0 0 -5.6720048370043514 261.37115859315236 0 261.37115859315236 -178.4587375697738 0 0 0 0 -97.221806201443542 350.95649975124252 0 350.95649975124252 -291.31308550742688 0 0 0 0 -55.634328327374533 180.58572532662947 0 180.58572532662947 -308.60691393815068 0 0 0 0 -3.4843693346947475 234.65968180569098 0 234.65968180569098 27.20353524548409 0 0 0 0 671.5243000042974 -521.55509600554069 0 -521.55509600554069 -271.41466331580887 0 0 0 0 -6.9479454593443961 6.5220795392843911 0 6.5220795392843911 -8.5164472012829719 0 0 0 0 186.96112047505449 119.48711234834627 0 119.48711234834627 78.726656357801403 0 0 0 0 26.410378401480557 91.242237280128393 0 91.242237280128393 100.88702156564977 0 0 0 0 -14.718833537040837 26.421841327217237 0 26.421841327217237 -21.046417452927955 0 0 0 0 -8.8488430811848957 -18.599691058065218 0 -18.599691058065218 -14.074792156374315 0 0 0 0 88.728764292784035 78.557996387185995 0 78.557996387185995 -114.10613695906068 0 0 0 0 -132.50069103188434 117.72063241505748 0 117.72063241505748 245.18122751956253 0 0 0 0 120.92333842723747 194.85283403444919 0 194.85283403444919 -66.957874140629428 0 0 0 0 10.763809277533483 4.5941171789386885 0 4.5941171789386885 -11.607438662620439 0 0 0 0 56.26052887950209 79.446911835580977 0 79.446911835580977 -81.391037519759266 0 0 0 0 -21.950466568410206 32.271043744070539 0 32.271043744070539 -31.138756124590941 0 0 0 0 515.63666843899409 -5.2072971632369445 0 -5.2072971632369445 -102.93843894757447 0 0 0 0 -1471.011869635433 571.87941834695084 0 571.87941834695084 398.1540093338408 0 0 0 0 147.87293654365931 1210.7457306618307 0 1210.7457306618307 -905.82508309445257 0 0 0 0 722.24864659663581 310.98939146227349 0 310.98939146227349 -242.62431943955016 0 0 0 0 -118.29290853481507 163.96595417783828 0 163.96595417783828 509.84614937841252 0 0 0 0 -356.84848444536328 910.92833911400521 0 910.92833911400521 -2249.2273265038766 0 0 0 0 -317.0915610101074 -983.26586483144638 0 -983.26586483144638 -3197.9048795174604 0 0 0 0 -0.31393427939877938 4.0732112435077852 0 4.0732112435077852 -4.1204133651347377 0 0 0 0 -186.75191845695372 998.23061790423526 0 998.23061790423526 -2607.1942118494844 0 0 0 0 343.97399742796551 723.70768600142037 0 723.70768600142037 -1396.1682728672095 0 0 0 0 395.64889895617671 -104.94929704750029 0 -104.94929704750029 -2145.6446879754076 0 0 0 0 24.376269840980569 2.3830732561560239 0 2.3830732561560239 -8.6344671715040846 0 0 0 0 371.86761850659968 -149.55392489425867 0 -149.55392489425867 -2068.6207055023006 0 0 0 0 72.12858327095455 427.18009285130574 0 427.18009285130574 -1041.0382385181583 0 0 0 0 421.40689782911795 626.49347589258832 0 626.49347589258832 -1302.3287133927231 0 0 0 0 94.750865146621436 589.38478523088816 0 589.38478523088816 -397.64415571923018 0 0 0 0 76.325536733376794 1085.8704079521995 0 1085.8704079521995 -146.78461645223433 0 0 0 0 99.277450874320493 640.28111866735981 0 640.28111866735981 174.15428411771427 0 0 0 0 130.90717872545065 71.380095250471641 0 71.380095250471641 -99.071937114611501 0 0 0 0 -149.12644158104376 -0.6405823311979475 0 -0.6405823311979475 -108.08649242286629 0 0 0 0 18.893988574259879 3.0130498695826589 0 3.0130498695826589 -1.09451600763947 0 0 0 0 13.654369040188612 -22.313581297355995 0 -22.313581297355995 -54.317694011315325 0 0 0 0 43.373178513611492 110.02709798581782 0 110.02709798581782 -263.42536413786002 0 0 0 0 -29.076061559426762 31.886183129972977 0 31.886183129972977 -27.205382354578603 0 0 0 0 17.594780319608219 7.9723771727415169 0 7.9723771727415169 -11.113920503166618 0 0 0 0 102.45613752687495 242.37144485755198 0 242.37144485755198 48.925321310671279 0 0 0 0 141.61477353864757 33.732058813693584 0 33.732058813693584 -153.22949900662934 0 0 0 0 -71.569518313321169 139.9196029158411 0 139.9196029158411 100.18516213640396 0 0 0 0 37.237846874399111 102.26863939448958 0 102.26863939448958 129.99809106841712 0 0 0 0 133.07444865046273 56.821487535228698 0 56.821487535228698 22.697444831486791 0 0 0 0 -28.818964615470122 27.476720619041402 0 27.476720619041402 -28.263633183122067 0 0 0 0 207.8511989027902 182.15791953733424 0 182.15791953733424 -61.359369827063347 0 0 0 0 105.37348467411357 190.12416000285157 0 190.12416000285157 45.157179260622797 0 0 0 0 -135.1616107771406 26.315132321957208 0 26.315132321957208 -16.871814787547919 0 0 0 0 44.651703005336458 18.199725854690769 0 18.199725854690769 169.20440973410587 0 0 0 0 10.404838760100347 2.8615955129702115 0 2.8615955129702115 -0.74235160754761864 0 0 0 0 139.80763467101497 197.82185578302597 0 197.82185578302597 310.18909693622481 0 0 0 0 139.50748865372589 -47.296385105099034 0 -47.296385105099034 -370.41422530035925 0 0 0 0 -133.23456509652897 -47.487558356224326 0 -47.487558356224326 -150.21683039426262 0 0 0 0 21.501186672205222 149.7407398262585 0 149.7407398262585 -224.76095230731153 0 0 0 0 194.74198898022587 175.61092508106231 0 175.61092508106231 208.01855473479372 0 0 0 0 -34.120827713311883 219.84509029641049 0 219.84509029641049 504.14582584232994 0 0 0 0 131.46963040449191 276.74802785578504 0 276.74802785578504 184.8979464431759 0 0 0 0 302.53281717654318 375.0324795196866 0 375.0324795196866 239.66366000326525 0 0 0 0 349.02124605476274 319.46198259465746 0 319.46198259465746 -171.58054197474848 0 0 0 0 6.9834600919086824 3.217838918988349 0 3.217838918988349 -0.1909874076303808 0 0 0 0 286.51694359831163 59.298502350939089 0 59.298502350939089 -553.12834885674238 0 0 0 0 12.620903554168763 938.95491313234379 0 938.95491313234379 362.25379213891574 0 0 0 0 -874.6194328305719 -202.15543681065174 0 -202.15543681065174 17.870817301049101 0 0 0 0 576.34972602694324 -8.8165513037074561 0 -8.8165513037074561 -175.25372161080304 0 0 0 0 -322.84588558223913 848.69034651348193 0 848.69034651348193 823.19190618378025 0 0 0 0 -607.76722742908169 657.06699483706325 0 657.06699483706325 240.35862150562753 0 0 0 0 -324.75895898017916 1401.3848349168729 0 1401.3848349168729 -106.80123032303527 0 0 0 0 758.27251567463099 2171.9419755420076 0 2171.9419755420076 -1772.5069368319819 0 0 0 0 577.65093801988405 804.13943949874374 0 804.13943949874374 -2218.000820551315 0 0 0 0 -9.7446856722144162 11.458594586600299 0 11.458594586600299 -10.02515311464478 0 0 0 0 526.16664413310355 2244.8832202767699 0 2244.8832202767699 -818.2116132396186 0 0 0 0 -1878.022783460241 935.58751788707741 0 935.58751788707741 697.70388544385787 0 0 0 0 -1729.2428615630706 2857.8208568337177 0 2857.8208568337177 918.36116000253242 0 0 0 0 389.72210237284889 820.87594864366838 0 820.87594864366838 -423.33333106431746 0 0 0 0 -945.4485530827078 351.42783719702129 0 351.42783719702129 1.0276259413512889 0 0 0 0 -193.23232996694605 45.138916542376137 0 45.138916542376137 61.39398510036699 0 0 0 0 -2588.2041608638938 323.3059873582697 0 323.3059873582697 -51.329382819982129 0 0 0 0 -251.69800425239373 349.41435744702903 0 349.41435744702903 166.38196170252922 0 0 0 0 671.61140852209064 -171.3871752529667 0 -171.3871752529667 -903.15869821498927 0 0 0 0 -0.83852067192052004 1.6037104937655045 0 1.6037104937655045 -21.817026876084412 0 0 0 0 -985.36872218926874 363.56134237164588 0 363.56134237164588 -51.947475401175325 0 0 0 0 363.30717240093509 339.16119917569085 0 339.16119917569085 36.860986971965758 0 0 0 0 -1273.7631059399282 35.830056609178428 0 35.830056609178428 87.789140016917372 0 0 0 0 -3.5826002799507677 21.220469512415008 0 21.220469512415008 -54.572085505441635 0 0 0 0 -589.4911552724152 314.97774951501469 0 314.97774951501469 57.882643513992662 0 0 0 0 -864.37993085175913 196.45573136827625 0 196.45573136827625 17.602378891722765 0 0 0 0 -791.99072982789949 -117.63785590195039 0 -117.63785590195039 -108.48894462513272 0 0 0 0 -527.33462272572797 -53.403491227014456 0 -53.403491227014456 -139.37194409537915 0 0 0 0 -273.7167977857971 181.19544077955288 0 181.19544077955288 155.51589844677073 0 0 0 0 -391.51959472493763 316.55102337216613 0 316.55102337216613 192.59784809197299 0 0 0 0 -322.26277030719211 79.068148162376019 0 79.068148162376019 -54.062209585477831 0 0 0 0 -9.1523457560179793 5.7664216507646131 0 5.7664216507646131 25.509060550749894 0 0 0 0 -55.084735108568566 404.66989506573736 0 404.66989506573736 212.96684717034259 0 0 0 0 -199.39785624670913 124.98395456675644 0 124.98395456675644 82.810562727769138 0 0 0 0 -133.94879776380549 99.3832555834706 0 99.3832555834706 57.934652260970324 0 0 0 0 -45.000703014737383 64.388951786396149 0 64.388951786396149 -43.209547424020727 0 0 0 0 -41.023246465658303 79.269282431036117 0 79.269282431036117 46.235680938003497 0 0 0 0 -153.90104676599731 127.32123537164443 0 127.32123537164443 99.239383500949771 0 0 0 0 -18.226719922473421 105.72849240709911 0 105.72849240709911 84.060734676771972 0 0 0 0 -144.5218437655567 195.62499326066609 0 195.62499326066609 85.579693358085933 0 0 0 0 -17.380014158393671 6.6815623538824127 0 6.6815623538824127 42.155939202898992 0 0 0 0 88.241572853163234 213.78940836373658 0 213.78940836373658 162.0503328472696 0 0 0 0 -244.9443081329664 168.40830035020917 0 168.40830035020917 131.53300285355363 0 0 0 0 -240.45298829373496 145.70759356439521 0 145.70759356439521 72.368977787275071 0 0 0 0 -67.140604036237221 55.761118755891516 0 55.761118755891516 -21.236248251397313 0 0 0 0 -21.771025212845416 99.869861228253285 0 99.869861228253285 44.132745164904918 0 0 0 0 -62.09974185721876 240.61145084989039 0 240.61145084989039 -3.5160520027711755 0 0 0 0 -771.79740609545843 -95.681766253506794 0 -95.681766253506794 334.28148969941685 0 0 0 0 -116.55013166016579 635.8322828018172 0 635.8322828018172 1144.7804054584849 0 0 0 0 801.77093939724728 1511.6160168283823 0 1511.6160168283823 380.11812846903922 0 0 0 0 75.371796866471414 178.50590794166055 0 178.50590794166055 208.66429070230515 0 0 0 0 -674.98769467844977 162.16860030127282 0 162.16860030127282 -1505.4629978764569 0 0 0 0 1019.0179441569635 620.98110833261308 0 620.98110833261308 55.858946354936052 0 0 0 0 3.0134266016220153 -7.0039898444022981 0 -7.0039898444022981 12.018575738238724 0 0 0 0 526.77475959525327 1188.1582484144601 0 1188.1582484144601 -519.8955031336518 0 0 0 0 612.05744651841815 1071.8930425656727 0 1071.8930425656727 -602.94773586788506 0 0 0 0 318.24047059970326 1066.8723977509508 0 1066.8723977509508 -323.56740785227157 0 0 0 0 404.32072740685544 1204.4182377972429 0 1204.4182377972429 -512.31341605968191 0 0 0 0 524.11462026898516 1491.5870421034051 0 1491.5870421034051 -117.80500119246426 0 0 0 0 453.31560735954554 945.51119430819017 0 945.51119430819017 -692.18160862974764 0 0 0 0 444.83281255923066 848.78564075229042 0 848.78564075229042 -186.55515259639651 0 0 0 0 864.12536546343472 1090.1365884826446 0 1090.1365884826446 -867.72713246682906 0 0 0 0 262.16824126604479 867.13688957006525 0 867.13688957006525 -296.34020642162795 0 0 0 0 471.22023766049097 296.84380658875671 0 296.84380658875671 -828.92744834558107 0 0 0 0 2.8087064581559389 163.44026773168116 0 163.44026773168116 -1092.0035440245993 0 0 0 0 -593.54165350683616 323.84360305831797 0 323.84360305831797 446.66377867994743 0 0 0 0 667.12829135599895 506.21845789034705 0 506.21845789034705 -1111.6251495649462 0 0 0 0 398.43706144033786 593.21855954944112 0 593.21855954944112 265.55533196787292 0 0 0 0 25.546460492376355 1119.5284825270028 0 1119.5284825270028 1864.7115366790604 0 0 0 0 1410.9811857574969 182.1409438495466 0 182.1409438495466 87.483809961217048 0 0 0 0 2461.7219419119428 1498.9515100841109 0 1498.9515100841109 553.90385642737965 0 0 0 0 528.98509212568752 606.49564435986031 0 606.49564435986031 409.35092556029122 0 0 0 0 2.4126053039720148 0.42701938323506283 0 0.42701938323506283 16.836409970753834 0 0 0 0 -413.37028866217588 139.31897143120295 0 139.31897143120295 153.86156803595077 0 0 0 0 581.53931470419047 568.36846464919654 0 568.36846464919654 437.01037197755795 0 0 0 0 -21.47692452434098 11.742428171027512 0 11.742428171027512 50.976704609422256 0 0 0 0 534.13826201960092 681.65754696211138 0 681.65754696211138 530.76416234413045 0 0 0 0 118.89433383411961 875.28391744019245 0 875.28391744019245 782.52202396438861 0 0 0 0 -164.98452319983335 586.32181267372653 0 586.32181267372653 721.38442284346092 0 0 0 0 -174.67724229072337 650.39127647029818 0 650.39127647029818 736.75830143094572 0 0 0 0 -0.9633427608787315 670.55305325793597 0 670.55305325793597 630.09577751112374 0 0 0 0 -88.838373991355184 525.21145725551469 0 525.21145725551469 413.29008916212479 0 0 0 0 -0.61625772334809881 611.86962769327147 0 611.86962769327147 383.31084073091824 0 0 0 0 48.022233214011067 446.80706641544384 0 446.80706641544384 -141.94023550423299 0 0 0 0 -486.28192533765105 489.13858519194036 0 489.13858519194036 850.97555406213814 0 0 0 0 22.57431882894889 259.28407408368003 0 259.28407408368003 -930.27524812069896 0 0 0 0 -515.64687010130001 -115.81833306339468 0 -115.81833306339468 -427.6096194466154 0 0 0 0 -959.79770404235023 -205.74743101701279 0 -205.74743101701279 -977.62481091431982 0 0 0 0 -134.64741103196866 434.25098155309024 0 434.25098155309024 -943.603306054516 0 0 0 0 -356.48017509523197 565.80133335649589 0 565.80133335649589 1113.8645356217166 0 0 0 0 -846.04598208967946 307.47147703099472 0 307.47147703099472 351.38956284197957 0 0 0 0 -102.20850176681415 424.97324954561191 0 424.97324954561191 341.15768265702354 0 0 0 0 215.87831522279885 139.78191487531876 0 139.78191487531876 -28.139498264914437 0 0 0 0 46.581417015593615 672.30163763015298 0 672.30163763015298 691.69503419259854 0 0 0 0 -39.410116344370181 601.3549458127527 0 601.3549458127527 311.17941657446499 0 0 0 0 -480.37017541165915 456.43032132878068 0 456.43032132878068 267.40932102494116 0 0 0 0 -476.46315071753634 353.23046964038076 0 353.23046964038076 812.43171452854585 0 0 0 0 -659.74726302397903 382.09913958234029 0 382.09913958234029 310.44642543318332 0 0 0 0 -888.6739220483214 965.96664295204937 0 965.96664295204937 241.64344091905514 0 0 0 0 -84.540496826550225 746.69303933638002 0 746.69303933638002 -61.238439335604198 0 0 0 0 -1104.1353794407187 1563.6264396965053 0 1563.6264396965053 -542.23425639598281 0 0 0 0 -1770.874716166727 514.84940875604661 0 514.84940875604661 342.595906797731 0 0 0 0 -872.61374982018606 -186.03290938376449 0 -186.03290938376449 -16.976373432103173 0 0 0 0 -229.61862940811261 846.1146589475029 0 846.1146589475029 -69.85267962890066 0 0 0 0 -14.652426300573381 6.7102263331729262 0 6.7102263331729262 -5.103226802946466 0 0 0 0 -28.132944104523631 -89.790023233483225 0 -89.790023233483225 -24.729044611405698 0 0 0 0 166.07668172541889 66.253002575474966 0 66.253002575474966 340.0190315743821 0 0 0 0 -110.33280893127085 63.026626568222127 0 63.026626568222127 618.36186340691347 0 0 0 0 -141.97950600682088 69.691818959243392 0 69.691818959243392 634.49835254594655 0 0 0 0 -24.896091908594826 101.46453740415018 0 101.46453740415018 80.921380916850467 0 0 0 0 5.2927255836548284 -43.223042706973501 0 -43.223042706973501 658.3146270625748 0 0 0 0 -39.666451887700873 22.279277507937678 0 22.279277507937678 3.5779460444098845 0 0 0 0 3889.2757641445496 2418.0664590904053 0 2418.0664590904053 1537.7889448586939 0 0 0 0 -6.436450194284248 13.305859289828859 0 13.305859289828859 11.051858348138097 0 0 0 0 -1843.3987135642674 -1102.6705420918588 0 -1102.6705420918588 -624.26812252146192 0 0 0 0 85.900168750013108 0.58955239612987498 0 0.58955239612987498 -20.546963364991825 0 0 0 0 188.20364503370365 83.528724033276376 0 83.528724033276376 -137.32318425061385 0 0 0 0 98.105534259841079 38.819671745171945 0 38.819671745171945 94.301654954644619 0 0 0 0 13.821858939160336 8.8825955015353273 0 8.8825955015353273 6.8610679919618462 0 0 0 0 -2093.7629535507731 -2021.1316058641605 0 -2021.1316058641605 3884.6908220629775 0 0 0 0 715.34111226157984 -893.32665845328302 0 -893.32665845328302 3280.1401315291732 0 0 0 0 336.60275271540741 971.76235318102408 0 971.76235318102408 -1899.8378367186524 0 0 0 0 4.0648566694524106 -0.61330376734935044 0 -0.61330376734935044 1.4127266849045199 0 0 0 0 41.90594216043246 216.67609415896004 0 216.67609415896004 -1558.5665435276242 0 0 0 0 21.679783070018516 50.844348843837537 0 50.844348843837537 58.769929956256703 0 0 0 0 53.583877651166404 1167.2205789088912 0 1167.2205789088912 683.54366485084029 0 0 0 0 -317.06289670890692 499.387970263846 0 499.387970263846 -574.83975501825626 0 0 0 0 39.88521783867327 956.07792555818742 0 956.07792555818742 -1214.9210071274138 0 0 0 0 -731.27169604455048 581.77801600218481 0 581.77801600218481 -265.38232387142489 0 0 0 0 -881.75102610346221 835.26988447544136 0 835.26988447544136 -686.86252222786425 0 0 0 0 -149.73358780087437 630.76868976565311 0 630.76868976565311 15.044632681892836 0 0 0 0 381.61235143124941 -645.64609820813348 0 -645.64609820813348 305.07912225167092 0 0 0 0 226.5805207323865 423.44796695582772 0 423.44796695582772 -787.61502902515349 0 0 0 0 198.82503071317842 458.70826579832647 0 458.70826579832647 -649.90916542624473 0 0 0 0 -325.54029533758876 935.36493879665795 0 935.36493879665795 -711.3356417558789 0 0 0 0 -311.65181946547091 1275.3742313256989 0 1275.3742313256989 -1390.3400339830696 0 0 0 0 -299.48690280044684 699.38366584382311 0 699.38366584382311 -1244.6214333081734 0 0 0 0 13.65264064038638 -284.85579822191357 0 -284.85579822191357 1060.3265736428693 0 0 0 0 28.406600033343352 30.792252132191187 0 30.792252132191187 24.131647415060812 0 0 0 0 305.65476373139245 41.129416577468874 0 41.129416577468874 1415.8930770590086 0 0 0 0 -904.77192340482725 4.3911468448350206 0 4.3911468448350206 632.4936181635785 0 0 0 0 -92.298317816646886 225.0426417458184 0 225.0426417458184 374.35664780606749 0 0 0 0 -690.59795761834539 515.42804652765335 0 515.42804652765335 449.87617326315376 0 0 0 0 -172.25172792587546 -32.829983852476289 0 -32.829983852476289 489.28284984657967 0 0 0 0 48.514951681381774 44.239491312933424 0 44.239491312933424 24.787643022889355 0 0 0 0 -575.44887741469574 609.38091245591204 0 609.38091245591204 -517.5742321334692 0 0 0 0 -543.67608506257238 616.51573852478032 0 616.51573852478032 -584.10292483364174 0 0 0 0 231.44427735794306 594.58526841641651 0 594.58526841641651 663.16522483032895 0 0 0 0 -17.651827192368785 82.033434382675097 0 82.033434382675097 59.582107809983086 0 0 0 0 64.610989568813125 12.460140661479045 0 12.460140661479045 -35.829729740597202 0 0 0 0 571.4543384348508 236.39685830860981 0 236.39685830860981 181.68331367484643 0 0 0 0 268.4625330788258 61.353134906708874 0 61.353134906708874 -16.701221843431995 0 0 0 0 143.45833525969647 190.93833184979303 0 190.93833184979303 36.723144627289003 0 0 0 0 385.08807322305802 383.28461203793995 0 383.28461203793995 210.77733833562706 0 0 0 0 830.01333029427042 297.15614360590553 0 297.15614360590553 30.442736538425379 0 0 0 0 8.2037847873216094 10.053628840286308 0 10.053628840286308 15.682725920084948 0 0 0 0 1077.501222240302 588.11248653098664 0 588.11248653098664 51.999282642158505 0 0 0 0 -1.3238634421719553 3.7387278573922913 0 3.7387278573922913 -1.4478805246225193 0 0 0 0 -1267.8415518208203 150.39175251564666 0 150.39175251564666 802.23801743075455 0 0 0 0 189.39239309514232 -58.638424358472548 0 -58.638424358472548 -666.49317718742532 0 0 0 0 133.55175702937413 552.8069159150109 0 552.8069159150109 774.06460255879938 0 0 0 0 4.0584113503563231 1.4420267169579972 0 1.4420267169579972 -0.75350285441576403 0 0 0 0 192.75831562257372 261.51422114403977 0 261.51422114403977 -272.01388016199417 0 0 0 0 -38.276766740280436 186.83277655548227 0 186.83277655548227 279.97506470985536 0 0 0 0 186.51316722339834 240.04369005080662 0 240.04369005080662 -12.819583399286785 0 0 0 0 201.19840009359177 15.034583282700623 0 15.034583282700623 76.483983547383104 0 0 0 0 -29.039068739194988 38.883757234958978 0 38.883757234958978 -10.570712520809252 0 0 0 0 8.8353651480283588 118.14664263153827 0 118.14664263153827 140.24775493230845 0 0 0 0 413.16658035900036 316.87514793613082 0 316.87514793613082 -42.59208996455709 0 0 0 0 49.852434982050909 119.67927160821273 0 119.67927160821273 500.96057559254405 0 0 0 0 -51.407051835645689 336.16436718048499 0 336.16436718048499 358.55714720396645 0 0 0 0 41.691365727358061 73.198072608216535 0 73.198072608216535 143.1137764271698 0 0 0 0 -35.027633345225468 21.81914213470364 0 21.81914213470364 -13.507530965736692 0 0 0 0 172.32868432474788 253.71994162882038 0 253.71994162882038 122.10190332127968 0 0 0 0 155.47752680361737 469.13478001840122 0 469.13478001840122 978.58638633902592 0 0 0 0 -83.620987769420026 13.983230649675534 0 13.983230649675534 161.59119248227034 0 0 0 0 -63.075264296548994 -272.37611413475315 0 -272.37611413475315 689.67627548260498 0 0 0 0 1.343024966306217 -2.2441302884552101 0 -2.2441302884552101 4.5928361856345816 0 0 0 0 818.737465407743 77.921065465307038 0 77.921065465307038 -144.76020626618265 0 0 0 0 -283.03268406889401 -112.21238504573557 0 -112.21238504573557 768.06914891215274 0 0 0 0 -430.34920845780289 241.37019285555289 0 241.37019285555289 1127.1621078286407 0 0 0 0 -962.85202922662938 -1120.6255949638771 0 -1120.6255949638771 293.54450963364798 0 0 0 0 439.38815499897464 176.89474176025033 0 176.89474176025033 404.93968747163308 0 0 0 0 778.11695792831597 294.88506953853357 0 294.88506953853357 30.408105159692013 0 0 0 0 994.99067930859383 541.33202138925481 0 541.33202138925481 304.83448628304177 0 0 0 0 528.39800702909997 322.86843720394245 0 322.86843720394245 629.58532100642333 0 0 0 0 685.37221601574856 -201.95389526856161 0 -201.95389526856161 96.568683458470332 0 0 0 0 446.57818159896851 985.04412025212878 0 985.04412025212878 -20.567443630410708 0 0 0 0 -1.7631503328823896 8.0454167715996334 0 8.0454167715996334 -7.8580101523328949 0 0 0 0 -47.117842199106235 899.28917281061149 0 899.28917281061149 236.80139003358636 0 0 0 0 1707.5335217709435 549.31462099143937 0 549.31462099143937 -118.15650596440537 0 0 0 0 1250.8357782055464 0.53684009425705881 0 0.53684009425705881 -299.53598983775009 0 0 0 0 814.07024264681968 -51.278704704785923 0 -51.278704704785923 -436.0762018931855 0 0 0 0 0.50230148576045508 6.4367819023674713 0 6.4367819023674713 -13.490507737836197 0 0 0 0 863.71483471053944 56.831599874840322 0 56.831599874840322 -213.04381309165183 0 0 0 0 1361.6783742120751 115.59366164210223 0 115.59366164210223 219.91745770751731 0 0 0 0 1246.3859707103911 346.19854671353642 0 346.19854671353642 -163.83271958888508 0 0 0 0 403.58619685350277 221.25304199088714 0 221.25304199088714 -1597.2155905921682 0 0 0 0 97.063098147220444 12.895240855228622 0 12.895240855228622 -110.63107128653428 0 0 0 0 141.51005642834934 525.27157600229839 0 525.27157600229839 -37.766101723267639 0 0 0 0 172.04726798282354 488.50277563172131 0 488.50277563172131 -580.91671724037587 0 0 0 0 -1035.1273886547715 1291.6996459823422 0 1291.6996459823422 -977.83804996831168 0 0 0 0 -645.67896014324651 516.76900618123182 0 516.76900618123182 -3.1455163759237621 0 0 0 0 -738.90810170787154 297.89408964764152 0 297.89408964764152 -107.52564998244634 0 0 0 0 -550.00288016709965 338.59054773745447 0 338.59054773745447 -102.07461256059469 0 0 0 0 -818.76998898549209 460.45443666478604 0 460.45443666478604 -21.348954859888181 0 0 0 0 -260.58712653446128 440.48394061861472 0 440.48394061861472 -21.459830957195663 0 0 0 0 182.62885085545713 621.41112286529824 0 621.41112286529824 -256.36871366351988 0 0 0 0 192.61800005961413 575.37960643675433 0 575.37960643675433 -210.46147605867009 0 0 0 0 -358.95817722917127 834.88553873357887 0 834.88553873357887 -324.53244858606195 0 0 0 0 -261.98617769411067 577.72068926280917 0 577.72068926280917 128.06121211092977 0 0 0 0 316.88044868875295 265.37629018860753 0 265.37629018860753 -71.005131385256391 0 0 0 0 -26.937144282383088 600.3575449883956 0 600.3575449883956 629.61157996270049 0 0 0 0 348.96520358561247 792.79629768111045 0 792.79629768111045 378.02328777219373 0 0 0 0 -10.355431172192766 579.38860656642282 0 579.38860656642282 123.87048789845721 0 0 0 0 -218.25010300101712 485.26882825571374 0 485.26882825571374 270.3488637326227 0 0 0 0 -365.64345690974733 265.87027767664404 0 265.87027767664404 60.194750325317727 0 0 0 0 -265.15816503571114 572.9082713007665 0 572.9082713007665 145.07953175708826 0 0 0 0 1038.1313733844509 219.54522025922051 0 219.54522025922051 -149.86134617881908 0 0 0 0 1644.2458098332645 795.77630438738925 0 795.77630438738925 106.9667142535618 0 0 0 0 1858.0344852253038 474.16207824473531 0 474.16207824473531 -633.83358794252854 0 0 0 0 430.13248140003998 661.12386304127358 0 661.12386304127358 -326.53008921501169 0 0 0 0 1671.4221738241977 312.362154867551 0 312.362154867551 -286.3442862060474 0 0 0 0 1.2463904575562879 2.478137035656971 0 2.478137035656971 -6.9399140768253176 0 0 0 0 233.49434457029565 137.0400393676282 0 137.0400393676282 1180.1378769608855 0 0 0 0 530.73885815398535 1207.9345980171929 0 1207.9345980171929 1065.1227218729027 0 0 0 0 841.514355310268 -281.01306745365582 0 -281.01306745365582 74.147807532503066 0 0 0 0 703.51745604665484 772.48934850982187 0 772.48934850982187 656.73656033779844 0 0 0 0 12.717141942787578 5.9021942616017498 0 5.9021942616017498 -0.16892839440497198 0 0 0 0 39.624465542990947 34.382221899562865 0 34.382221899562865 -32.426106186161633 0 0 0 0 6.7934032143430443 9.8565471037761938 0 9.8565471037761938 -6.1676578790749659 0 0 0 0 -385.78760956849146 113.85371763872172 0 113.85371763872172 -15.380294288275763 0 0 0 0 236.68937192165322 319.52203263263436 0 319.52203263263436 540.94279494199145 0 0 0 0 -26.873820747074205 69.011466140000266 0 69.011466140000266 -25.333993453183211 0 0 0 0 3.0301699503805111 6.5955969429662957 0 6.5955969429662957 -3.7390646916572621 0 0 0 0 -421.54676038527396 413.24816034962714 0 413.24816034962714 -146.42489262904928 0 0 0 0 -377.90595403706538 521.92668430857884 0 521.92668430857884 -259.2441977350245 0 0 0 0 -271.38926295240526 443.96825386956334 0 443.96825386956334 -448.41590173085569 0 0 0 0 -315.67470536624023 430.22567031272047 0 430.22567031272047 -396.1961286724254 0 0 0 0 -254.23614726286905 336.82591334710014 0 336.82591334710014 -329.28271272212442 0 0 0 0 -275.74220959548256 347.71280765417032 0 347.71280765417032 -225.75605835612987 0 0 0 0 -405.49614528604434 513.15167434734758 0 513.15167434734758 -234.70498265382821 0 0 0 0 -542.08416936552385 622.4944209949972 0 622.4944209949972 -188.21155146839737 0 0 0 0 -842.73350868167472 676.95432116165466 0 676.95432116165466 -186.5512080122644 0 0 0 0 -498.3535020245763 754.10232613658445 0 754.10232613658445 -213.49643018524512 0 0 0 0 -291.48931295119837 308.65481113551868 0 308.65481113551868 -221.92853189587186 0 0 0 0 -517.10276289562171 293.0858253196493 0 293.0858253196493 -109.46605182098574 0 0 0 0 -1416.4539337983879 272.90904803529702 0 272.90904803529702 -97.05899725074778 0 0 0 0 1250.1940338482746 421.6735046386857 0 421.6735046386857 90.864347610753612 0 0 0 0 -2157.5681195946527 593.47855303066899 0 593.47855303066899 266.24098621423764 0 0 0 0 -2.3409295354012585 3.1047023136111136 0 3.1047023136111136 -1.1415661542937414 0 0 0 0 -859.61380658241978 829.13673909548379 0 829.13673909548379 -139.29740286114975 0 0 0 0 -761.91388748325699 736.22179097691696 0 736.22179097691696 -176.09657529390824 0 0 0 0 -728.04237677148012 814.39050918102885 0 814.39050918102885 -137.55568993194902 0 0 0 0 -733.99711871080217 767.03094930136285 0 767.03094930136285 -197.65204246961366 0 0 0 0 -1420.5817040776019 810.44482907510246 0 810.44482907510246 -20.613585301587591 0 0 0 0 -1239.1717030105792 942.65893418627093 0 942.65893418627093 -0.90376603334152605 0 0 0 0 -657.80083022170584 1012.5463455718927 0 1012.5463455718927 -120.06618437108409 0 0 0 0 -202.13252339322935 713.84921405247587 0 713.84921405247587 -250.71457237392315 0 0 0 0 -1569.9801741534611 670.20261523398221 0 670.20261523398221 -190.8358686779975 0 0 0 0 -664.14392100612167 -0.75975376077985857 0 -0.75975376077985857 -1078.5224063806854 0 0 0 0 384.02598535157449 968.3767859517684 0 968.3767859517684 -250.60383193533926 0 0 0 0 -1511.0859745431662 1003.7415783703473 0 1003.7415783703473 -49.884975952867535 0 0 0 0 52.293452228448587 583.23804404836119 0 583.23804404836119 103.98963299425668 0 0 0 0 -101.32729287382904 284.79091536178248 0 284.79091536178248 717.85057645275083 0 0 0 0 -95.139451817981808 506.21631402912288 0 506.21631402912288 -26.152322856956744 0 0 0 0 -334.30205257365014 612.4934006395124 0 612.4934006395124 77.134282437538786 0 0 0 0 -159.22524766257266 726.84385028185352 0 726.84385028185352 -190.1295350660148 0 0 0 0 -422.42871288835886 809.06674408318941 0 809.06674408318941 -202.23309395983233 0 0 0 0 -334.51554290061176 651.67707840754338 0 651.67707840754338 -185.060210170137 0 0 0 0 -149.16700200110881 500.93772866968641 0 500.93772866968641 70.511732276645489 0 0 0 0 -79.962252962432103 666.37269306056623 0 666.37269306056623 -238.05776104518009 0 0 0 0 -550.85585625085514 541.55121999834955 0 541.55121999834955 -332.27014903751297 0 0 0 0 -211.25063631139346 546.78838959342102 0 546.78838959342102 -334.23988826847926 0 0 0 0 -466.75792577017273 713.10888694904133 0 713.10888694904133 -285.3563511816028 0 0 0 0 -419.04816245194525 776.53762205341627 0 776.53762205341627 -204.07072648610119 0 0 0 0 -505.4632829297916 714.10028114448505 0 714.10028114448505 -282.48234968304678 0 0 0 0 -420.20692485751351 598.03163197664253 0 598.03163197664253 -510.45123824787152 0 0 0 0 -444.41174328529451 739.46145329058345 0 739.46145329058345 -371.72394462884404 0 0 0 0 -486.36526713657076 606.71880451876495 0 606.71880451876495 -503.30636622406746 0 0 0 0 -437.482582271914 596.02754508712678 0 596.02754508712678 -346.43740422662813 0 0 0 0 -325.93249292328255 486.01351792235801 0 486.01351792235801 -476.1569907926314 0 0 0 0 -387.93342062797456 154.45726296330031 0 154.45726296330031 -457.84273669136746 0 0 0 0 -530.77670878921344 595.21663985460327 0 595.21663985460327 -435.88422538393934 0 0 0 0 -806.06124061538139 495.69984351263702 0 495.69984351263702 -471.09324475399626 0 0 0 0 -679.89945970599365 1039.7811466691128 0 1039.7811466691128 -1473.4057889757896 0 0 0 0 -11.173470251511844 -2.6113290022957045 0 -2.6113290022957045 2.6512414137284992 0 0 0 0 -685.93108093789488 537.98561168233209 0 537.98561168233209 -696.28915398214303 0 0 0 0 -1542.1825930791092 781.21319894242333 0 781.21319894242333 -579.33137805461956 0 0 0 0 533.45846928330138 238.35030723153614 0 238.35030723153614 -1152.5582073631231 0 0 0 0 -210.41129766445374 311.70714198691712 0 311.70714198691712 -569.63053557416424 0 0 0 0 -182.02209795484669 356.83729044401116 0 356.83729044401116 -652.16032037918922 0 0 0 0 -366.57308966002893 608.25689647987383 0 608.25689647987383 -746.08517934923293 0 0 0 0 -522.37332474626601 498.75795098664821 0 498.75795098664821 -945.53422933095135 0 0 0 0 -201.38214925304783 368.52569701268021 0 368.52569701268021 -895.71901300223544 0 0 0 0 -337.43445866939146 391.88496162834053 0 391.88496162834053 -934.94449124219136 0 0 0 0 -545.86589674206334 776.2942303187483 0 776.2942303187483 -980.3880033174355 0 0 0 0 -3.107671120223813 2.5464545017118496 0 2.5464545017118496 -1.6437675524333883 0 0 0 0 -1.6145978427638852 7.4724961018199707 0 7.4724961018199707 17.017586466946767 0 0 0 0 -40.781680145555583 19.446628533332841 0 19.446628533332841 -38.886888093402376 0 0 0 0 -46.923490371638763 47.364347740432095 0 47.364347740432095 0.74225880824087653 0 0 0 0 -1120.6557666742156 314.29778844303291 0 314.29778844303291 118.69036823569331 0 0 0 0 -321.00237662809377 -186.78717039942057 0 -186.78717039942057 -96.259214496927598 0 0 0 0 -591.6735084423708 177.59606797233937 0 177.59606797233937 131.3399295580457 0 0 0 0 -130.45172674293281 26.925470655110985 0 26.925470655110985 38.163316986148857 0 0 0 0 -67.041828805093246 17.729580698823156 0 17.729580698823156 -29.988475806945644 0 0 0 0 -197.67906731553376 107.33970137083088 0 107.33970137083088 -5.05448752033044 0 0 0 0 0.84780484242338616 3.3559032270597129 0 3.3559032270597129 10.445113360349637 0 0 0 0 54.974091531723388 59.261679501705657 0 59.261679501705657 -15.379480774776312 0 0 0 0 40.029877809531172 98.03951188812789 0 98.03951188812789 -43.845630578347482 0 0 0 0 64.403666204045294 83.490849338100816 0 83.490849338100816 -35.584365904171136 0 0 0 0 29.180105599113688 46.89803309156801 0 46.89803309156801 -10.545686730721172 0 0 0 0 120.32732356844645 36.240931269621797 0 36.240931269621797 -48.111898380691855 0 0 0 0 -155.8054317238275 95.51057737802148 0 95.51057737802148 -23.119041552738054 0 0 0 0 94.420962594027515 69.844963416475366 0 69.844963416475366 -74.425209966946568 0 0 0 0 105.89984567717329 8.5588437223414076 0 8.5588437223414076 -7.1879281673027435 0 0 0 0 90.780347111751325 -2.5949551591438649 0 -2.5949551591438649 -14.676787383679766 0 0 0 0 31.932986148988206 42.719672980537581 0 42.719672980537581 -19.036903764246773 0 0 0 0 -98.218603703106055 50.507794936240316 0 50.507794936240316 15.654151399845432 0 0 0 0 -81.647838504664833 33.996066556152073 0 33.996066556152073 6.211349472287111 0 0 0 0 -29.752747541661734 13.495380447177155 0 13.495380447177155 9.7180987837767532 0 0 0 0 -234.50822849723045 257.21716818508867 0 257.21716818508867 -314.89725938509218 0 0 0 0 -81.470346525195055 54.394705984112079 0 54.394705984112079 5.7806569256499643 0 0 0 0 -79.936761796998326 148.43467363409582 0 148.43467363409582 -501.01044728586567 0 0 0 0 -254.45944607669662 327.93624844845544 0 327.93624844845544 -358.89490752856364 0 0 0 0 9.6103649248502165 3.2554896953240871 0 3.2554896953240871 -0.46993552495689528 0 0 0 0 88.826707380765583 17.803584907331242 0 17.803584907331242 -0.30257832319330191 0 0 0 0 42.262863359971902 25.462047730755948 0 25.462047730755948 -12.986362548195132 0 0 0 0 50.785229173896369 -102.84122665737232 0 -102.84122665737232 176.21685094852728 0 0 0 0 1599.6140606623012 556.03197182040458 0 556.03197182040458 -7.7218712095200317 0 0 0 0 387.21793127899582 298.1566138008784 0 298.1566138008784 -31.703724696447807 0 0 0 0 -171.58910482734791 497.76663125930645 0 497.76663125930645 -189.59587164717959 0 0 0 0 410.47506382296706 286.98432978783603 0 286.98432978783603 -132.99625912481861 0 0 0 0 -0.69730563784433741 1.9840237935416383 0 1.9840237935416383 0.23900219174572612 0 0 0 0 174.45278419162787 121.42811816545145 0 121.42811816545145 -159.97923983210603 0 0 0 0 570.79438715675496 9.9879515125358012 0 9.9879515125358012 -128.70794647738512 0 0 0 0 33.05325282071135 682.7993916668056 0 682.7993916668056 350.34584102722874 0 0 0 0 129.63173338893102 579.7763507801792 0 579.7763507801792 347.71280099012074 0 0 0 0 -126.95430269009375 444.03777608563541 0 444.03777608563541 294.57949236863351 0 0 0 0 65.418474276149936 795.72724547154394 0 795.72724547154394 334.76021944747481 0 0 0 0 272.32305275765248 698.83212264480971 0 698.83212264480971 281.89859370707927 0 0 0 0 68.046587017204729 690.75229484804731 0 690.75229484804731 288.49288854446786 0 0 0 0 75.763454168074531 731.4300243917678 0 731.4300243917678 390.50937875930686 0 0 0 0 495.00889956799801 690.35183361036616 0 690.35183361036616 149.06317303895048 0 0 0 0 147.67233526715427 814.35322268548407 0 814.35322268548407 189.69754142893362 0 0 0 0 354.6922601890401 310.61086032274761 0 310.61086032274761 392.84681607766106 0 0 0 0 153.51764226925661 512.77417151436202 0 512.77417151436202 439.78722470825596 0 0 0 0 437.15843175826012 358.38864814360568 0 358.38864814360568 248.68359366865479 0 0 0 0 817.51082125300309 433.82089266661205 0 433.82089266661205 109.91090586601058 0 0 0 0 747.72166853793897 399.12267657986376 0 399.12267657986376 133.89167908762465 0 0 0 0 594.622321322473 69.554455295889056 0 69.554455295889056 336.19879729446257 0 0 0 0 485.59037181793246 228.72927288868232 0 228.72927288868232 105.0272791027237 0 0 0 0 594.14196937864472 373.02316090013846 0 373.02316090013846 244.9549087746127 0 0 0 0 617.52979061874794 388.59927292611974 0 388.59927292611974 203.46521779282193 0 0 0 0 588.78972536383662 463.49651070041 0 463.49651070041 340.65886803888134 0 0 0 0 606.72709740811842 450.24406009684753 0 450.24406009684753 196.33831577847013 0 0 0 0 610.15302697580773 464.51945230297861 0 464.51945230297861 255.17771395196905 0 0 0 0 747.13023026357405 609.12856292662764 0 609.12856292662764 156.38513099780539 0 0 0 0 -510.05047221420682 -15.207756747935491 0 -15.207756747935491 5.5590454028424574 0 0 0 0 -3.7705830014060666 2.829330287605103 0 2.829330287605103 -0.42639204759595373 0 0 0 0 1123.2995390203432 346.30607785873872 0 346.30607785873872 -244.45043462105969 0 0 0 0 603.08385655944585 401.50364660273772 0 401.50364660273772 271.3791913449968 0 0 0 0 -177.55957844710792 68.647579813172342 0 68.647579813172342 127.94094004498766 0 0 0 0 -29.104938292060979 45.587791794361692 0 45.587791794361692 34.446868654049467 0 0 0 0 99.807495273387758 61.504382937771879 0 61.504382937771879 -51.024234439482825 0 0 0 0 -834.60466448043007 333.91288366373192 0 333.91288366373192 642.51806327841405 0 0 0 0 5.4568613978361498 14.780926553925411 0 14.780926553925411 -0.019153823960351701 0 0 0 0 -107.86326343243127 29.348081319862104 0 29.348081319862104 89.209299135523906 0 0 0 0 340.46392656074022 336.51718540399452 0 336.51718540399452 463.82945848775125 0 0 0 0 246.38420104703982 482.69397854209092 0 482.69397854209092 736.00919286071439 0 0 0 0 -8.4086639538331838 16.595932239850271 0 16.595932239850271 0.6766883302524036 0 0 0 0 552.81373262093985 992.44933724190196 0 992.44933724190196 1332.5583873641444 0 0 0 0 266.11329149504309 712.26798458379926 0 712.26798458379926 1177.3627259042551 0 0 0 0 13.114820428951077 11.606571921190607 0 11.606571921190607 -12.161904757381819 0 0 0 0 1151.7258077214938 767.71362558764667 0 767.71362558764667 190.78379229096754 0 0 0 0 791.4730379593675 560.8152674560115 0 560.8152674560115 252.99797140638111 0 0 0 0 767.99547189731675 486.37353345815791 0 486.37353345815791 63.80653361894656 0 0 0 0 -48.472374263452366 213.27641066173237 0 213.27641066173237 -103.8282344076124 0 0 0 0 199.16118734433257 163.12812350943204 0 163.12812350943204 -96.831713222876715 0 0 0 0 -66.277145567597472 107.03115327884734 0 107.03115327884734 31.142389283224475 0 0 0 0 -207.06119713440421 160.30807079644728 0 160.30807079644728 63.752120089600794 0 0 0 0 -88.879761958814925 113.5730088814671 0 113.5730088814671 35.164918449339893 0 0 0 0 62.082987044530455 126.65388909511967 0 126.65388909511967 -39.902645513560856 0 0 0 0 -46.992178085987689 147.22590084154217 0 147.22590084154217 -33.138600655802293 0 0 0 0 -26.771124330480234 98.544545202275913 0 98.544545202275913 -15.511981052812189 0 0 0 0 20.474394092379953 98.138246918802906 0 98.138246918802906 -16.085230051139661 0 0 0 0 -33.375714224188414 94.89115076357848 0 94.89115076357848 -0.020974550396203995 0 0 0 0 -56.051276639089338 90.237937707748642 0 90.237937707748642 4.4893023963886662 0 0 0 0 10.054316276287238 17.954012713031148 0 17.954012713031148 -18.091328564203494 0 0 0 0 79.118475530878641 97.665272105399708 0 97.665272105399708 -127.31691933398906 0 0 0 0 14.961864006008454 45.93103177713251 0 45.93103177713251 39.755893188154346 0 0 0 0 9.0282857934980711 60.224369130124614 0 60.224369130124614 -247.17235615874233 0 0 0 0 847.870389993157 695.92262685022797 0 695.92262685022797 -309.76235484261633 0 0 0 0 -19.274751419470022 38.989146443239747 0 38.989146443239747 -31.192857316701549 0 0 0 0 1795.2136846331414 -1147.8756777322706 0 -1147.8756777322706 943.55930724700738 0 0 0 0 3.8801561586442403 64.603651157925924 0 64.603651157925924 -127.10855163369524 0 0 0 0 13.988854708440385 35.536441883641189 0 35.536441883641189 18.097976510963278 0 0 0 0 16.922109345789067 174.83546431668219 0 174.83546431668219 -215.14447773331995 0 0 0 0 -135.50307131159207 324.68847386096422 0 324.68847386096422 -145.95392465762052 0 0 0 0 111.50852265900176 123.01074963227802 0 123.01074963227802 -489.613850759466 0 0 0 0 168.04037929464539 1.3115422074570233 0 1.3115422074570233 -253.55221408132638 0 0 0 0 700.0227989568084 284.37310871364571 0 284.37310871364571 -514.37812879984631 0 0 0 0 130.75314526245347 219.32528208725307 0 219.32528208725307 -60.856553094276023 0 0 0 0 -34.098256569574005 658.53730688941869 0 658.53730688941869 -113.66787755376208 0 0 0 0 -448.12627580655681 257.98243160149104 0 257.98243160149104 -147.72095331555101 0 0 0 0 7.1697195264272011 5.7937305981337772 0 5.7937305981337772 -1.6781667064857615 0 0 0 0 -555.36324550518475 465.21828708721478 0 465.21828708721478 -153.57924071670732 0 0 0 0 574.41350171645172 448.89875104216298 0 448.89875104216298 -171.4790179485849 0 0 0 0 710.92219989478326 194.68983050526117 0 194.68983050526117 -380.04520223461077 0 0 0 0 8.5385081509621727 0.84397610577961757 0 0.84397610577961757 -25.967615946356091 0 0 0 0 6.8270441764722136 192.1933688179119 0 192.1933688179119 -81.94188057933934 0 0 0 0 -673.69171494965121 435.91771707836415 0 435.91771707836415 -112.89768510642534 0 0 0 0 246.32276553567499 25.080422126671692 0 25.080422126671692 -66.870897795890414 0 0 0 0 3.4946683184579115 4.9025638132591496 0 4.9025638132591496 -6.7025145063426947 0 0 0 0 -512.92515641330101 332.91766671889854 0 332.91766671889854 -224.95968817092125 0 0 0 0 3.1608939213720078 4.8392750573841852 0 4.8392750573841852 -4.6409212463703682 0 0 0 0 496.37951464841899 -81.664018290066451 0 -81.664018290066451 -80.129911523985356 0 0 0 0 86.010562201787252 41.84781228319298 0 41.84781228319298 29.784302256601222 0 0 0 0 124.29348662860866 118.43687153579231 0 118.43687153579231 -42.227076293922437 0 0 0 0 4.4591792285791598 121.45361609180691 0 121.45361609180691 9.9426388668725849 0 0 0 0 93.17445375258103 75.712724532400898 0 75.712724532400898 -20.321675374177175 0 0 0 0 -52.246713647589786 120.63966554420404 0 120.63966554420404 -8.3208557830439531 0 0 0 0 10.749393056481495 132.3160554288097 0 132.3160554288097 -8.2343039194165613 0 0 0 0 42.666542924765963 172.77058894637594 0 172.77058894637594 -176.62265318197751 0 0 0 0 10.796823569166008 94.73549787704178 0 94.73549787704178 -37.949795523207285 0 0 0 0 -27.596908540494042 75.976887489388901 0 75.976887489388901 -119.98648495674206 0 0 0 0 26.173161510232603 141.56797292924966 0 141.56797292924966 -57.255178680086829 0 0 0 0 -75.846381517003465 126.71152791189616 0 126.71152791189616 -13.702495274264948 0 0 0 0 -37.726344374270411 161.91759403051947 0 161.91759403051947 0.13653307328058872 0 0 0 0 -7.2930765934288502 181.1010584257383 0 181.1010584257383 15.390611414521118 0 0 0 0 -24.478432135132607 169.81772966802964 0 169.81772966802964 14.024617215029139 0 0 0 0 -19.662993961246684 157.83102725466233 0 157.83102725466233 -2.969484592002118 0 0 0 0 -28.333694700151682 158.06983380604652 0 158.06983380604652 0.025970600863729487 0 0 0 0 -12.422823870932916 152.17424182592367 0 152.17424182592367 -24.438763043493964 0 0 0 0 -2.1342191683070268 170.40556651228144 0 170.40556651228144 3.3109965978292166 0 0 0 0 -5.5048164739419008 176.2603454787868 0 176.2603454787868 -4.6226422527433897 0 0 0 0 4.7387786442413926 188.17443874131277 0 188.17443874131277 8.1302639575678768 0 0 0 0 40.142256005114177 212.93935131173203 0 212.93935131173203 5.5322783337614965 0 0 0 0 10.250412293185946 201.01172714158565 0 201.01172714158565 26.26015193737112 0 0 0 0 9.9347347821749281 199.78470665882014 0 199.78470665882014 34.672830950948992 0 0 0 0 15.33526341302786 200.19918168321601 0 200.19918168321601 30.726941682223696 0 0 0 0 47.875466774537927 226.78194975012775 0 226.78194975012775 23.448569189084083 0 0 0 0 45.428414163092384 230.30849840381779 0 230.30849840381779 83.007658118451218 0 0 0 0 15.097401701146737 207.28211051844846 0 207.28211051844846 95.864014142629458 0 0 0 0 20.136521346808877 155.5590935714572 0 155.5590935714572 169.37104321987135 0 0 0 0 22.2968966223998 162.62845766822647 0 162.62845766822647 48.243177122771158 0 0 0 0 68.07935920872842 105.885175842217 0 105.885175842217 -18.652710452042811 0 0 0 0 20.4995290049701 138.5808448077878 0 138.5808448077878 247.4499580404372 0 0 0 0 40.491009515157884 42.128461969410552 0 42.128461969410552 -29.363409399451413 0 0 0 0 87.368440511636436 45.206596446936601 0 45.206596446936601 71.474504776764661 0 0 0 0 87.442482401966117 34.869676128029823 0 34.869676128029823 152.21459270887135 0 0 0 0 87.368440512829693 45.20659644668558 0 45.20659644668558 71.474504776357207 0 0 0 0 87.368440512858797 45.206596447147604 0 45.206596447147604 71.474504776619142 0 0 0 0 19.078974458854645 174.55614663227607 0 174.55614663227607 30.938307292264653 0 0 0 0 2.3334033566934522 168.63135040880888 0 168.63135040880888 36.549681343647535 0 0 0 0 2.3086315933614969 167.56498119804746 0 167.56498119804746 -0.13600783232595859 0 0 0 0 1.9016568715451285 178.11647719228495 0 178.11647719228495 14.580050315780682 0 0 0 0 8.0718380071339197 192.25854050633643 0 192.25854050633643 46.947710897424258 0 0 0 0 8.5643124613561668 227.44958741009395 0 227.44958741009395 -36.370708596063196 0 0 0 0 -9.2064473449645448 206.32849297148005 0 206.32849297148005 70.7377944216787 0 0 0 0 49.689350259432103 212.34230747645051 0 212.34230747645051 11.067666395367269 0 0 0 0 91.976591187503288 101.60240134526427 0 101.60240134526427 84.370617243534298 0 0 0 0 34.26512736393488 269.35393411135738 0 269.35393411135738 30.180103345774114 0 0 0 0 -40.856182673776829 35.025395278237475 0 35.025395278237475 37.531725096898683 0 0 0 0 79.094978840090334 223.51795185081573 0 223.51795185081573 -229.57839563475136 0 0 0 0 77.18999488420377 273.88850194537372 0 273.88850194537372 -11.194678940089943 0 0 0 0 92.662648019570042 300.51159103224927 0 300.51159103224927 -100.31832239039068 0 0 0 0 70.983263966652885 334.83129981582942 0 334.83129981582942 -78.871872746138251 0 0 0 0 -180.6392980824603 185.6944673083126 0 185.6944673083126 -37.003006279905094 0 0 0 0 -60.288453164932434 350.0537526007065 0 350.0537526007065 90.25930097384844 0 0 0 0 1.6769869451527484 167.79077397575747 0 167.79077397575747 -14.701521937437064 0 0 0 0 23.30973819820133 57.861270015669028 0 57.861270015669028 53.003303601154428 0 0 0 0 -243.97635888428704 292.0362360215986 0 292.0362360215986 63.414862260280643 0 0 0 0 44.842578281962048 57.529119088678357 0 57.529119088678357 -1.2335771161828859 0 0 0 0 -78.478384920934332 72.572082859212969 0 72.572082859212969 -59.051764575109701 0 0 0 0 -19.871787929208949 109.05043479872256 0 109.05043479872256 -123.96103603125084 0 0 0 0 -4.7210653003348853 12.119775204234344 0 12.119775204234344 -11.63813419487397 0 0 0 0 -134.02266774955206 280.2259206219569 0 280.2259206219569 -55.274911853870435 0 0 0 0 -63.464698193885852 372.58908209915899 0 372.58908209915899 387.05205420649145 0 0 0 0 -122.71408283060009 233.34992705296463 0 233.34992705296463 77.42271939128932 0 0 0 0 3.3637946487324371 -63.878473774450867 0 -63.878473774450867 165.90058108179073 0 0 0 0 0.8212197482539807 2.2425720458106468 0 2.2425720458106468 2.9612774227485659 0 0 0 0 -50.524707041244255 69.804346870307199 0 69.804346870307199 -36.531090702468646 0 0 0 0 28.339716575543051 48.843997610852114 0 48.843997610852114 -1.3988557289430048 0 0 0 0 -341.93064696903457 87.04564238108469 0 87.04564238108469 63.284558794010081 0 0 0 0 -207.85492167547636 -32.856469864818791 0 -32.856469864818791 45.464688894204301 0 0 0 0 61.852505776056205 68.685898606014234 0 68.685898606014234 -26.404751207523077 0 0 0 0 40.772207216381503 119.92713302907214 0 119.92713302907214 9.2566742349299602 0 0 0 0 12.747344824303582 60.411150408703179 0 60.411150408703179 16.41970060938911 0 0 0 0 22.134754005732248 168.80434695924487 0 168.80434695924487 -90.450176800150075 0 0 0 0 19.126130182688939 79.25785387457654 0 79.25785387457654 -53.316028682442266 0 0 0 0 26.367670128085251 48.382988048921398 0 48.382988048921398 38.511930350907534 0 0 0 0 -8.1678378109354526 186.45859503358588 0 186.45859503358588 45.403709812249872 0 0 0 0 125.37358853191836 -1.54118176769407 0 -1.54118176769407 -111.55220722683316 0 0 0 0 -87.784813221849618 83.664836309526436 0 83.664836309526436 16.204909429085092 0 0 0 0 2.3055425836388963 0.9288743454927868 0 0.9288743454927868 -1.2517990173651867 0 0 0 0 -16.8048101093882 74.041732778048754 0 74.041732778048754 -16.904170198268446 0 0 0 0 -2.7210928724161931 97.373666532314019 0 97.373666532314019 -26.250191123726836 0 0 0 0 38.702137063152975 32.046923722137706 0 32.046923722137706 10.552980212231262 0 0 0 0 478.98557278727094 578.51565441608545 0 578.51565441608545 601.45078191388166 0 0 0 0 -0.04738434255705215 106.24210439855233 0 106.24210439855233 -97.596962877585611 0 0 0 0 12.065186479509634 6.6333301388826804 0 6.6333301388826804 7.6033676573105566 0 0 0 0 -2854.9127852780221 -486.12774170292687 0 -486.12774170292687 4105.0957635999293 0 0 0 0 2.6823322699638084 1528.4510699099119 0 1528.4510699099119 143.85795217879058 0 0 0 0 -665.80333300941129 851.41249050073384 0 851.41249050073384 877.61454394423345 0 0 0 0 -164.13956686557503 679.0668672718748 0 679.0668672718748 789.53731814449566 0 0 0 0 159.56998177936475 442.70323301350436 0 442.70323301350436 746.90755050461303 0 0 0 0 497.21983908305992 -288.66799982611701 0 -288.66799982611701 -315.28199257115011 0 0 0 0 -393.81168683696887 506.83714249180775 0 506.83714249180775 974.05653653981426 0 0 0 0 -219.80801733811677 79.307877910465322 0 79.307877910465322 352.2921370776603 0 0 0 0 -18.951238558833666 10.377643194400832 0 10.377643194400832 -6.2480266941633857 0 0 0 0 930.06364482978825 67.730327071327338 0 67.730327071327338 -203.34559694562631 0 0 0 0 -129.80051239061868 225.44907348009292 0 225.44907348009292 37.53038676473443 0 0 0 0 -363.41513172235864 -155.21356099494005 0 -155.21356099494005 461.29233069746988 0 0 0 0 222.36976833658991 606.35336788494169 0 606.35336788494169 523.06866078822122 0 0 0 0 -153.82696242489328 133.47455693282609 0 133.47455693282609 -26.863792255295266 0 0 0 0 -57.79362667398118 33.916679362539583 0 33.916679362539583 -3.9956049238553391 0 0 0 0 415.41018677769171 465.10490838440091 0 465.10490838440091 408.36771710414905 0 0 0 0 -22.324682607952049 5.3933299165737765 0 5.3933299165737765 27.918168257215399 0 0 0 0 -88.739194334726562 168.65715263093625 0 168.65715263093625 180.3241441960563 0 0 0 0 202.2068823990121 245.68138256412567 0 245.68138256412567 118.18419692886528 0 0 0 0 1.5026495885395477 -6.0134256012686365 0 -6.0134256012686365 8.1567382013472525 0 0 0 0 771.25039146059135 694.96375040305429 0 694.96375040305429 403.83331101543445 0 0 0 0 -505.24180307930874 -181.34565886241944 0 -181.34565886241944 855.91170527535724 0 0 0 0 -238.27957039610919 -241.47320257466708 0 -241.47320257466708 494.41600801132154 0 0 0 0 -33.699514546417049 607.27498529043805 0 607.27498529043805 1028.4881571290898 0 0 0 0 762.0052875654219 823.24494497626802 0 823.24494497626802 -228.30875650999224 0 0 0 0 -342.75412577461975 166.48923704247136 0 166.48923704247136 1197.9329003466628 0 0 0 0 127.55825208383612 -241.63260764110601 0 -241.63260764110601 863.21012086147675 0 0 0 0 -393.10630466690054 23.584473009002977 0 23.584473009002977 806.87537785456516 0 0 0 0 -378.88742162007838 106.0388605273547 0 106.0388605273547 279.55917460349156 0 0 0 0 -216.75399493396981 507.90698575248825 0 507.90698575248825 1268.6904953682679 0 0 0 0 -1778.3720769542269 -88.336759438796435 0 -88.336759438796435 336.75718190304178 0 0 0 0 5.3068849351260354 10.599040753216485 0 10.599040753216485 -3.4390093727333237 0 0 0 0 -14.484727651171852 53.054766309578554 0 53.054766309578554 7.6149340296833543 0 0 0 0 7.5738869135006439 43.829983647062846 0 43.829983647062846 18.621147790785301 0 0 0 0 13.865488092880696 69.582130921020507 0 69.582130921020507 7.2773476430484152 0 0 0 0 -31.091404041158967 52.952412019221811 0 52.952412019221811 48.331199019892665 0 0 0 0 -15.669128393626181 33.87910511030104 0 33.87910511030104 30.353704736944977 0 0 0 0 584.06143680622336 596.43591821247537 0 596.43591821247537 -486.74927315428795 0 0 0 0 80.4400746790634 115.6476376298524 0 115.6476376298524 -505.45764424980007 0 0 0 0 -24.938660851342831 28.212669085318812 0 28.212669085318812 17.94460292454464 0 0 0 0 -119.83490930548578 -0.98388415978115518 0 -0.98388415978115518 -98.966641969571356 0 0 0 0 171.73001796678 49.861933497486461 0 49.861933497486461 -16.587553177050722 0 0 0 0 28.412055251887068 -39.786653089373431 0 -39.786653089373431 -613.0162535723066 0 0 0 0 -44.142802973104608 17.270551622899575 0 17.270551622899575 0.68011507249281067 0 0 0 0 -0.22843317236402072 280.14652764606581 0 280.14652764606581 -315.71282902923849 0 0 0 0 -127.52116564575408 205.84728295449531 0 205.84728295449531 34.100602401289507 0 0 0 0 -170.06433183287299 111.13964869510892 0 111.13964869510892 -115.21680594503414 0 0 0 0 109.01499237930875 270.91353304270729 0 270.91353304270729 -153.19790702473256 0 0 0 0 91.952374429180054 619.69303883143584 0 619.69303883143584 398.94416936769267 0 0 0 0 -55.772556468946277 313.43780822524786 0 313.43780822524786 77.219870077839005 0 0 0 0 -223.3888210922596 249.03035622330935 0 249.03035622330935 560.10875258830492 0 0 0 0 -247.59213839038421 425.67102260217507 0 425.67102260217507 808.28540337360755 0 0 0 0 -226.88250417540257 449.41003072373132 0 449.41003072373132 634.77845525088378 0 0 0 0 -57.876252811562154 90.324503611627733 0 90.324503611627733 17.366288713132235 0 0 0 0 -76.161571364533302 169.63165530400147 0 169.63165530400147 29.332974613760598 0 0 0 0 -67.392553682218306 55.663917309074662 0 55.663917309074662 -20.260677053552939 0 0 0 0 -20.881443431636967 16.11578169018776 0 16.11578169018776 14.89659005130315 0 0 0 0 186.82748998588067 248.21314635507497 0 248.21314635507497 83.651861643607845 0 0 0 0 111.86560750542048 492.44968684289552 0 492.44968684289552 909.23275066997303 0 0 0 0 -509.04681345455174 -54.515331208101998 0 -54.515331208101998 401.0590356883331 0 0 0 0 0.77699526145541142 -4.9391206571599753 0 -4.9391206571599753 3.4892299980672306 0 0 0 0 1.0826103611417608 -1.5678298045838801 0 -1.5678298045838801 7.7905432621446664 0 0 0 0 -475.97774884334649 490.1857436279679 0 490.1857436279679 909.81183192506705 0 0 0 0 -304.86784203459683 -14.456861420010682 0 -14.456861420010682 311.12492001308419 0 0 0 0 -382.60964022768894 -174.12479411452114 0 -174.12479411452114 119.84124653432809 0 0 0 0 -103.8555229965641 170.0171003396099 0 170.0171003396099 38.774793437478365 0 0 0 0 197.37192609372141 278.03945657783333 0 278.03945657783333 212.08567241728088 0 0 0 0 -213.15750220434711 140.16168643549099 0 140.16168643549099 171.37515865192108 0 0 0 0 536.36062111930732 668.4566543494102 0 668.4566543494102 642.7725349375396 0 0 0 0 -76.121609857684234 222.93657443174743 0 222.93657443174743 1016.6383178384494 0 0 0 0 50.169465680039139 89.776621753051586 0 89.776621753051586 335.44798648376309 0 0 0 0 170.4912105856929 -376.52237365980545 0 -376.52237365980545 -127.47577957400063 0 0 0 0 977.87491918724845 16.348170214652782 0 16.348170214652782 -268.54330627544914 0 0 0 0 -378.1975663950434 -220.30243592275656 0 -220.30243592275656 750.71380025074177 0 0 0 0 300.83204769784061 76.059223453783488 0 76.059223453783488 -16.656805961596547 0 0 0 0 -1699.929047218262 341.73286262362672 0 341.73286262362672 53.665725140626819 0 0 0 0 333.81973299878882 320.35382192178076 0 320.35382192178076 129.03808053272587 0 0 0 0 -747.1159804201161 219.20338234028895 0 219.20338234028895 253.13662995869527 0 0 0 0 132.54677091827034 158.51476043360526 0 158.51476043360526 -1586.5069375206222 0 0 0 0 -14.899459390396373 4.644437703951354 0 4.644437703951354 -2.4017910566299179 0 0 0 0 -1262.5149925417354 941.82220020111708 0 941.82220020111708 917.82510438322788 0 0 0 0 -768.07967396179447 1891.5636224750051 0 1891.5636224750051 158.57499042765994 0 0 0 0 -1202.7409935973119 2009.4099123897759 0 2009.4099123897759 2219.1354998450088 0 0 0 0 135.6526763754664 -330.38436380647181 0 -330.38436380647181 2243.8390269310426 0 0 0 0 1587.4156675499398 1338.7411903213506 0 1338.7411903213506 761.86152603461233 0 0 0 0 648.05445328488713 -51.61197841980902 0 -51.61197841980902 -175.50006115934229 0 0 0 0 2316.035556287854 211.26440579622431 0 211.26440579622431 -436.32519086825778 0 0 0 0 -767.86954794623307 1234.7642099475852 0 1234.7642099475852 -150.64738966603181 0 0 0 0 411.64177040278446 -704.74309433211602 0 -704.74309433211602 -1480.0682294464932 0 0 0 0 474.67174001158855 1712.2905575182376 0 1712.2905575182376 -1071.0336229570221 0 0 0 0 2356.5190222263918 -214.39667728593849 0 -214.39667728593849 -1475.5970807871781 0 0 0 0 62.235009905838524 144.02903952752604 0 144.02903952752604 -42.267672312867944 0 0 0 0 -81.27038574119797 759.63105601361895 0 759.63105601361895 -800.14515984441095 0 0 0 0 -119.67441160307499 405.47923968193936 0 405.47923968193936 458.22726307835546 0 0 0 0 327.66963289771229 -116.19810554850847 0 -116.19810554850847 104.84520046909893 0 0 0 0 68.207579031441128 7.9542440909935976 0 7.9542440909935976 130.42708863309963 0 0 0 0 218.01137931377161 84.185504108245368 0 84.185504108245368 -19.4400209569867 0 0 0 0 484.36519457182294 86.819590271243214 0 86.819590271243214 -11.044025838884409 0 0 0 0 241.74608640291262 136.10138199838184 0 136.10138199838184 16.27753492310876 0 0 0 0 -4.8211639074288541 738.92513077732292 0 738.92513077732292 297.39595475952956 0 0 0 0 -14.396144405327306 12.206700512924897 0 12.206700512924897 -8.2825383586127259 0 0 0 0 -172.48875316463818 -491.55778110555366 0 -491.55778110555366 -816.10201882820184 0 0 0 0 -11.683332434599606 17.871787253579726 0 17.871787253579726 -17.901356149544171 0 0 0 0 -896.94979039422469 -611.57454484988921 0 -611.57454484988921 2432.0509639825868 0 0 0 0 302.99563930716249 435.53195098366814 0 435.53195098366814 -1157.7719240674232 0 0 0 0 -3.5513354347906159 5.3160893974393275 0 5.3160893974393275 4.001790542211765 0 0 0 0 -107.79753542438266 -25.662926489877464 0 -25.662926489877464 391.34977351543193 0 0 0 0 147.36176492118102 91.752976082862006 0 91.752976082862006 -13.351197646439687 0 0 0 0 -494.17132572938863 440.33940099026222 0 440.33940099026222 203.05315957884704 0 0 0 0 1418.3690130166724 759.76070092039117 0 759.76070092039117 -2815.8928972813083 0 0 0 0 -17.571185904273278 30.229586053532984 0 30.229586053532984 -55.290745730896091 0 0 0 0 161.73165782079741 125.52945898713369 0 125.52945898713369 -27.094776263817039 0 0 0 0 93.645554652903229 130.896085587985 0 130.896085587985 10.862361765226524 0 0 0 0 93.935904236306669 103.55640844991285 0 103.55640844991285 -28.131854674462375 0 0 0 0 25.288512799350428 104.84066625373089 0 104.84066625373089 -23.093909689519933 0 0 0 0 91.928972711709321 131.34339242644455 0 131.34339242644455 -17.371304729909752 0 0 0 0 21.180181702351547 139.91224906314164 0 139.91224906314164 10.348593257105676 0 0 0 0 95.427407416922506 153.82881119408921 0 153.82881119408921 6.8826627737216768 0 0 0 0 -15.418282513681334 130.83589589596886 0 130.83589589596886 82.22952904640988 0 0 0 0 74.793964325892034 177.03687452030277 0 177.03687452030277 104.52227557764854 0 0 0 0 199.23650014982559 188.9557695123367 0 188.9557695123367 42.785050673286605 0 0 0 0 75.009163602531771 146.50604627653229 0 146.50604627653229 104.77142866653594 0 0 0 0 280.19345768143103 313.21200343990677 0 313.21200343990677 236.73830653905316 0 0 0 0 3.2991359352625977 5.1462114789050446 0 5.1462114789050446 -3.0902941911538022 0 0 0 0 3.2906430977600394 94.366393280120974 0 94.366393280120974 411.79089814405961 0 0 0 0 -29.656266437697923 -3.8861615989953862 0 -3.8861615989953862 119.44014850254462 0 0 0 0 -25.942839729876141 12.674464190979052 0 12.674464190979052 37.081377029011492 0 0 0 0 -41.528663695084163 4.1634336511943388 0 4.1634336511943388 9.0882525836422019 0 0 0 0 -75.06826810730854 48.729057794276741 0 48.729057794276741 190.24136007983179 0 0 0 0 -70.926016959929257 67.314343624049798 0 67.314343624049798 110.40537313561799 0 0 0 0 -33.719524634758272 45.387284685909435 0 45.387284685909435 60.916106778895482 0 0 0 0 -69.611971499994979 60.143895489181887 0 60.143895489181887 36.708522210672527 0 0 0 0 -121.94573044691242 45.091316433985412 0 45.091316433985412 35.956387454476499 0 0 0 0 -56.644278264400498 44.207940153208142 0 44.207940153208142 11.380779929482088 0 0 0 0 -14.731248343639891 113.37863968896272 0 113.37863968896272 79.018890436829679 0 0 0 0 79.160845024620357 12.320317291365427 0 12.320317291365427 -34.141988548668451 0 0 0 0 10.434448921505179 17.196593753815932 0 17.196593753815932 5.9516373465254304 0 0 0 0 -38.617500025495801 91.351132401291807 0 91.351132401291807 34.503552618877194 0 0 0 0 -12.160626095175118 47.960339453383199 0 47.960339453383199 21.007492803709198 0 0 0 0 -8.4384887867049372 49.035893973166424 0 49.035893973166424 15.089056705183566 0 0 0 0 95.166445785376709 117.94660514123916 0 117.94660514123916 -78.930301135864283 0 0 0 0 -54.759309218796261 50.479639596916968 0 50.479639596916968 21.19749840797158 0 0 0 0 -8.8088348685123492 121.83186709802249 0 121.83186709802249 36.636452806917077 0 0 0 0 -160.48632588364126 102.01759954771478 0 102.01759954771478 91.153320543668087 0 0 0 0 -22.649265656649732 87.733349669716972 0 87.733349669716972 -5.8006950722192414 0 0 0 0 -42.005766009620856 141.10913162267389 0 141.10913162267389 26.125640817570456 0 0 0 0 24.157466491882211 54.781035758057442 0 54.781035758057442 16.37659425275325 0 0 0 0 7.1550984408604563 112.42025422121151 0 112.42025422121151 -0.55109965468727751 0 0 0 0 20.631520070892293 125.16616111937401 0 125.16616111937401 -8.8847274235504301 0 0 0 0 58.427490440126519 52.828856405203538 0 52.828856405203538 35.091263270320354 0 0 0 0 -17.402948589345897 27.809981239705635 0 27.809981239705635 22.285123591242005 0 0 0 0 -24.562203672533045 54.504278222109406 0 54.504278222109406 -24.739771174757877 0 0 0 0 -47.450319569092244 82.981566595490222 0 82.981566595490222 1.7118812794269616 0 0 0 0 -28.899962115952121 47.519043104825727 0 47.519043104825727 15.814712441183872 0 0 0 0 -5.9873828001436777 50.031612674243661 0 50.031612674243661 5.1537171073650825 0 0 0 0 -39.553429154097103 60.056542518752394 0 60.056542518752394 15.040319719853869 0 0 0 0 -29.261875124124344 109.35843888784439 0 109.35843888784439 80.499728288225015 0 0 0 0 -11.885165557614528 132.14685468255266 0 132.14685468255266 72.939711374689068 0 0 0 0 -22.965066355391173 127.44452167383133 0 127.44452167383133 65.165414295457595 0 0 0 0 -10.85520807604189 106.52224866260804 0 106.52224866260804 43.876413317968399 0 0 0 0 -33.233910923270741 133.55474057142601 0 133.55474057142601 61.666471479518805 0 0 0 0 6.1561551724444143 81.676151392108295 0 81.676151392108295 -36.715519742960169 0 0 0 0 -31.369292143441271 111.03283668713084 0 111.03283668713084 122.73877717861615 0 0 0 0 -23.428395905294508 14.829087008264509 0 14.829087008264509 4.7490604492924291 0 0 0 0 -32.044589135766728 63.011312607379296 0 63.011312607379296 8.1238774302219099 0 0 0 0 -35.300820000833482 51.425471831154937 0 51.425471831154937 -27.306939388581668 0 0 0 0 -21.662019518145826 137.03446097019332 0 137.03446097019332 53.785219137164518 0 0 0 0 -90.651999027235433 97.550257873346709 0 97.550257873346709 54.544562720662043 0 0 0 0 -0.30154973443131894 126.23018694501843 0 126.23018694501843 36.374188273752225 0 0 0 0 -18.977838413818972 134.84691531055432 0 134.84691531055432 55.382176457245805 0 0 0 0 -12.804712326702429 101.21897014696333 0 101.21897014696333 9.7003616953807068 0 0 0 0 -35.05414648502483 106.15002388898574 0 106.15002388898574 47.210700900446682 0 0 0 0 -26.20351185646723 129.06856829368917 0 129.06856829368917 36.50733738635472 0 0 0 0 -13.654477044532541 107.89124500936305 0 107.89124500936305 -17.590960321705779 0 0 0 0 0.053586757654557005 119.86028631758745 0 119.86028631758745 -7.3395051652405527 0 0 0 0 -0.10145293445384596 94.949101183918174 0 94.949101183918174 -100.7053819606449 0 0 0 0 -138.90440400823718 131.2549559941599 0 131.2549559941599 -57.183605894861103 0 0 0 0 -107.71443073588307 95.909357959773843 0 95.909357959773843 -74.674549105262486 0 0 0 0 51.820217031810898 -13.656141070787271 0 -13.656141070787271 0.64983740961179137 0 0 0 0 5.3367001805200829 2.4729446655078959 0 2.4729446655078959 -2.1413870334831415 0 0 0 0 41.452785469531108 38.025659222453186 0 38.025659222453186 -18.807836763498123 0 0 0 0 83.765221500347252 54.06183298596352 0 54.06183298596352 -82.981174973392626 0 0 0 0 89.667714347451692 55.722444688435644 0 55.722444688435644 -27.572550661402602 0 0 0 0 -15.341779774480514 48.999405931011722 0 48.999405931011722 -20.591023310133949 0 0 0 0 -58.236693545317394 23.696660051951767 0 23.696660051951767 -19.982392258752952 0 0 0 0 168.52760561893228 58.425190709233902 0 58.425190709233902 -118.42713940521935 0 0 0 0 149.57772308215499 47.316618682869375 0 47.316618682869375 -26.43262493450743 0 0 0 0 -35.527655644084376 18.426101140767571 0 18.426101140767571 -6.7680624370556757 0 0 0 0 -0.10439705265162047 48.14052428058676 0 48.14052428058676 -53.813351231334309 0 0 0 0 0.29690763570108913 5.4461720067943418 0 5.4461720067943418 -2.1307995786227991 0 0 0 0 2.0213259540310275 3.0511303638367053 0 3.0511303638367053 -4.4086885142879595 0 0 0 0 -32.496256787650054 8.992351200306075 0 8.992351200306075 2.1430405122591765 0 0 0 0 -82.365597673320735 50.769804479841696 0 50.769804479841696 -16.834235161011748 0 0 0 0 -145.94011323965969 58.123520139640277 0 58.123520139640277 28.280293681644253 0 0 0 0 -0.032773796614492312 19.779881473683417 0 19.779881473683417 -8.1355263612276758 0 0 0 0 -60.502008216950344 30.330331510350334 0 30.330331510350334 -44.343322507964331 0 0 0 0 2.5414098549831152 3.983375924848815 0 3.983375924848815 -1.9621562277598912 0 0 0 0 87.090814243048953 140.97661935188171 0 140.97661935188171 -39.314239809420542 0 0 0 0 -48.987526368582621 50.736919123050029 0 50.736919123050029 -26.843922649489741 0 0 0 0 -26.619823194553831 50.023844908829744 0 50.023844908829744 -23.750309135394318 0 0 0 0 -106.78839296901424 146.30348998752925 0 146.30348998752925 14.574683084305434 0 0 0 0 -100.2742554989818 55.414635583705603 0 55.414635583705603 -146.62867202379857 0 0 0 0 -78.41841704606486 68.543837734214321 0 68.543837734214321 18.19641135015263 0 0 0 0 11.188251245708109 12.616989673568355 0 12.616989673568355 -7.4254820329364293 0 0 0 0 -83.042859156630584 76.257392600714411 0 76.257392600714411 5.3472267425568134 0 0 0 0 186.30517718227929 84.429504890332737 0 84.429504890332737 -91.821276728413068 0 0 0 0 -175.06766311763204 42.079991241544121 0 42.079991241544121 -1.9776422296463352 0 0 0 0 -225.57455288850178 106.21115379892126 0 106.21115379892126 -63.579834431686322 0 0 0 0 730.02594137201231 126.18217053429635 0 126.18217053429635 -168.51188485731836 0 0 0 0 0.16064991885188107 1.7702174513427735 0 1.7702174513427735 -1.994861706282947 0 0 0 0 672.13496913143899 18.367719178138941 0 18.367719178138941 231.0803149715648 0 0 0 0 403.9626556482981 46.943404790938075 0 46.943404790938075 -265.09055338107282 0 0 0 0 431.70805365208071 -61.868177323573036 0 -61.868177323573036 -332.44659945333842 0 0 0 0 194.67697554326151 293.68761193094542 0 293.68761193094542 -544.0927775895143 0 0 0 0 832.96411690535024 -47.933092395214771 0 -47.933092395214771 -623.8200214351964 0 0 0 0 -62.851523419551086 294.66992879713871 0 294.66992879713871 54.628672973223729 0 0 0 0 76.793830544338562 345.23841749378334 0 345.23841749378334 -12.655492200618028 0 0 0 0 132.86473567807116 335.58519266378789 0 335.58519266378789 -267.05659751161875 0 0 0 0 61.131134543509688 173.98763997148126 0 173.98763997148126 -155.90713816868083 0 0 0 0 2.5265279280720279 227.6716870452874 0 227.6716870452874 -110.57786913410291 0 0 0 0 -11.479204678384122 249.71498315136341 0 249.71498315136341 -116.01235321660351 0 0 0 0 154.00355649902485 114.02051394501768 0 114.02051394501768 -281.84074781394156 0 0 0 0 176.24798964720685 191.16521708005166 0 191.16521708005166 -190.95681828481611 0 0 0 0 -219.17441211704863 203.37347218326977 0 203.37347218326977 12.400392734281922 0 0 0 0 -158.75683874663082 158.74165548548808 0 158.74165548548808 -35.51625698209682 0 0 0 0 -97.002963767765323 262.72223211118762 0 262.72223211118762 24.892544552276377 0 0 0 0 -172.16793613700429 130.4842241722763 0 130.4842241722763 -97.387256667178008 0 0 0 0 -150.5093149333843 177.57521633074793 0 177.57521633074793 3.4955394271091791 0 0 0 0 -1.9455743917994504 3.855519346787986 0 3.855519346787986 -1.8895285479495243 0 0 0 0 -340.69536266061959 130.44672130394585 0 130.44672130394585 17.179922065322899 0 0 0 0 206.12149630878412 9.3461553885535977 0 9.3461553885535977 -55.143968092303112 0 0 0 0 -173.90826490139443 143.34479661958449 0 143.34479661958449 -169.87419243792465 0 0 0 0 -218.10785154320183 204.85811805333287 0 204.85811805333287 -90.015407838640385 0 0 0 0 101.79065000372066 -20.303119860894185 0 -20.303119860894185 50.014196752097632 0 0 0 0 -145.65977023326559 60.506114743979197 0 60.506114743979197 -38.174115425066205 0 0 0 0 -18.293915021320572 52.402978027558675 0 52.402978027558675 -38.211059141775181 0 0 0 0 24.767753242922481 90.961396732290268 0 90.961396732290268 -76.456528514396268 0 0 0 0 29.619085619429825 94.906721359919175 0 94.906721359919175 -121.32641716557555 0 0 0 0 -15.647291768051218 127.11236862823353 0 127.11236862823353 -103.2835155538196 0 0 0 0 77.159988423343748 102.7890349504296 0 102.7890349504296 -129.86808616751659 0 0 0 0 55.270121921974351 147.33242599688947 0 147.33242599688947 -135.28081436123466 0 0 0 0 -35.643690622266149 170.74780679971536 0 170.74780679971536 -77.821882290081703 0 0 0 0 -44.451936255587498 159.03486809350125 0 159.03486809350125 -81.28562736899039 0 0 0 0 25.483306210226147 47.485656941265006 0 47.485656941265006 -47.818196515159798 0 0 0 0 42.856976810930064 15.206908376563661 0 15.206908376563661 -121.82223549977789 0 0 0 0 42.524678430578206 13.458539002591351 0 13.458539002591351 -128.54950988058408 0 0 0 0 43.110428734915331 68.589801790639285 0 68.589801790639285 -91.85446162740709 0 0 0 0 43.71405475816573 60.676485961136677 0 60.676485961136677 -68.931981861271311 0 0 0 0 89.095120943355141 20.764562981817562 0 20.764562981817562 -62.534532833296907 0 0 0 0 33.840319246373838 59.175331545155132 0 59.175331545155132 -2.2650345717693199 0 0 0 0 4.3159340482961852 18.342806346214275 0 18.342806346214275 -64.262158030577211 0 0 0 0 71.686815655819373 43.060411025862777 0 43.060411025862777 -102.27850980041876 0 0 0 0 -27.698448744869893 -43.684473699898604 0 -43.684473699898604 -121.43167898899264 0 0 0 0 17.730882243282338 5.7678446152160845 0 5.7678446152160845 -7.9238290677824992 0 0 0 0 -35.269188810198102 48.571496270316857 0 48.571496270316857 -83.748436926760405 0 0 0 0 61.220052426942857 56.279824188387465 0 56.279824188387465 -104.00429710991375 0 0 0 0 3.1963063116350554 -4.8162246477740283 0 -4.8162246477740283 2.010007990816888 0 0 0 0 49.772152595338412 -50.454284264475064 0 -50.454284264475064 -207.82693002682572 0 0 0 0 -840.4144651129609 0.3555995751376031 0 0.3555995751376031 276.62231982033336 0 0 0 0 -136.03879284125287 306.02722748234373 0 306.02722748234373 332.23710068348009 0 0 0 0 156.35965245572152 -41.241717755270656 0 -41.241717755270656 -232.59252959383957 0 0 0 0 124.05102896367316 12.848848247518617 0 12.848848247518617 -174.53907184155105 0 0 0 0 135.2637894647778 80.852878727773714 0 80.852878727773714 -202.12046698512859 0 0 0 0 559.12507313204696 336.74849230918335 0 336.74849230918335 -28.656991582993214 0 0 0 0 128.5031858739676 439.79756139502206 0 439.79756139502206 69.453781651260215 0 0 0 0 -319.06422734161606 45.265427162918058 0 45.265427162918058 115.13652365517191 0 0 0 0 430.7216440509219 3.0636559609520191 0 3.0636559609520191 -15.906509376527538 0 0 0 0 349.43232829516637 148.52694274175155 0 148.52694274175155 6.690389877781854 0 0 0 0 19.888130180334258 9.0632467396173979 0 9.0632467396173979 -0.5317596407094527 0 0 0 0 -28.126148682727944 159.12279737599238 0 159.12279737599238 27.880966096332486 0 0 0 0 -182.34971757463063 362.18556565859035 0 362.18556565859035 136.13475109133287 0 0 0 0 12.277843589457916 107.46580657850427 0 107.46580657850427 64.751137761148129 0 0 0 0 37.74569130254531 132.28560457467574 0 132.28560457467574 -88.477069416483573 0 0 0 0 93.791952077139285 98.806265703868121 0 98.806265703868121 -54.746510637822212 0 0 0 0 61.719887304940698 51.335501200585441 0 51.335501200585441 19.4964932041362 0 0 0 0 -0.88593192425477696 40.718038646447241 0 40.718038646447241 -66.981409174069199 0 0 0 0 299.14187858269725 33.611296737316707 0 33.611296737316707 -65.140923043496514 0 0 0 0 100.54390177488676 119.68293438630826 0 119.68293438630826 -39.899539119523979 0 0 0 0 103.15935879082826 -221.3820526332438 0 -221.3820526332438 5.368227037766701 0 0 0 0 108.48892794612232 97.734238087922932 0 97.734238087922932 -27.083213618978334 0 0 0 0 74.46078616967668 14.762070781904086 0 14.762070781904086 -24.756640225168386 0 0 0 0 83.648160976954387 7.6801074738295938 0 7.6801074738295938 -68.259777901283314 0 0 0 0 33.489153671631357 -61.580313061458583 0 -61.580313061458583 -4.1420169045395596 0 0 0 0 84.711260638636304 26.20138100197164 0 26.20138100197164 -21.77271974204632 0 0 0 0 176.92748455191031 -127.499761104752 0 -127.499761104752 -37.046632264333311 0 0 0 0 174.83336776110445 151.45335507662003 0 151.45335507662003 -166.27501775149904 0 0 0 0 445.02762510218599 20.222748335459073 0 20.222748335459073 -141.73659316429257 0 0 0 0 -2.7287923795083771 -81.873471979750775 0 -81.873471979750775 169.89783660384182 0 0 0 0 279.18075001334364 -198.35764495482908 0 -198.35764495482908 148.4204869556097 0 0 0 0 7.527665018272728 4.2839386719333845 0 4.2839386719333845 3.7122390979406674 0 0 0 0 11.677666797412314 -3.5273014904035023 0 -3.5273014904035023 -0.24631340842519833 0 0 0 0 219.90047477876215 300.15557498940188 0 300.15557498940188 412.73511004552984 0 0 0 0 16.302189229638316 -8.5717535873845918 0 -8.5717535873845918 -11.277822613126773 0 0 0 0 -2.3626840577238681 3.627969338918632 0 3.627969338918632 -7.6824448941157488 0 0 0 0 112.14751569640794 123.43053801835924 0 123.43053801835924 51.34842924063696 0 0 0 0 123.89692448748974 70.736728891632083 0 70.736728891632083 -90.02315243366138 0 0 0 0 48.676742431962595 1.8032015883995598 0 1.8032015883995598 -20.670736517656636 0 0 0 0 10.359250519075431 18.823755652492764 0 18.823755652492764 -18.720546429452952 0 0 0 0 47.872569289858006 18.403963069796362 0 18.403963069796362 -28.394439460844858 0 0 0 0 30.714512099903118 25.053147175504364 0 25.053147175504364 -20.170079568020341 0 0 0 0 38.296409165603109 -14.07854710186075 0 -14.07854710186075 6.1900482941055088 0 0 0 0 -7.1524573446029933 40.092355441680439 0 40.092355441680439 -28.023487786731579 0 0 0 0 465.91249125572358 239.21274056163895 0 239.21274056163895 -99.970189005670363 0 0 0 0 325.57502460041724 33.142510410957016 0 33.142510410957016 -81.548860296117937 0 0 0 0 386.7460417241964 136.61129174433802 0 136.61129174433802 -71.20011409578953 0 0 0 0 476.38324105648644 19.433199624471683 0 19.433199624471683 -57.267399389941829 0 0 0 0 -18.758939016749267 39.731646941145499 0 39.731646941145499 -26.179479078453816 0 0 0 0 113.67170945158796 -5.1720130512480296 0 -5.1720130512480296 77.00221153953953 0 0 0 0 136.06818371298141 136.02947894453246 0 136.02947894453246 -4.2668580824672517 0 0 0 0 344.61003710605655 -298.05519514195282 0 -298.05519514195282 -106.26084844227717 0 0 0 0 9.5374962947962558 -3.9896746397771921 0 -3.9896746397771921 2.9775406167363894 0 0 0 0 633.58996723827295 707.48342538452539 0 707.48342538452539 610.5166546941673 0 0 0 0 979.81569873602712 1325.1386647693246 0 1325.1386647693246 1424.4920235184918 0 0 0 0 644.30569296552312 660.36311020608753 0 660.36311020608753 516.14523079299943 0 0 0 0 36.806479044208288 -0.65038885510416122 0 -0.65038885510416122 -0.80910478133074193 0 0 0 0 106.31583539716667 75.23856660757292 0 75.23856660757292 -108.82012471283178 0 0 0 0 43.429871581280167 67.302262254730721 0 67.302262254730721 -2.2590305781632196 0 0 0 0 -10.561381649268156 42.55801943966415 0 42.55801943966415 -24.831849425425908 0 0 0 0 36.928369771951111 63.555658759880828 0 63.555658759880828 -4.278396303374052 0 0 0 0 42.255692123399058 53.474969017158031 0 53.474969017158031 5.9361668153537721 0 0 0 0 29.774257599635575 24.093415857862674 0 24.093415857862674 -11.516430390919167 0 0 0 0 27.257795597301083 61.502142893728319 0 61.502142893728319 7.0446494921064868 0 0 0 0 45.072110409135348 63.766071607008143 0 63.766071607008143 -12.050024734996896 0 0 0 0 31.971918137583998 75.664227305336908 0 75.664227305336908 -8.3537307505171157 0 0 0 0 92.192671729819267 98.621801513979335 0 98.621801513979335 -24.177178732166794 0 0 0 0 26.815796826485894 86.744918207229603 0 86.744918207229603 -38.236064833232376 0 0 0 0 7.6261350726272212 64.430850969406947 0 64.430850969406947 -9.0991158128927054 0 0 0 0 5.5903061122226063 72.178291269198326 0 72.178291269198326 -33.438216858606211 0 0 0 0 -16.354455417691497 54.695985615890095 0 54.695985615890095 -1.3313223547593225 0 0 0 0 -36.834646294242702 91.972424815488012 0 91.972424815488012 -42.276881171826972 0 0 0 0 48.493520592974676 39.970568307407262 0 39.970568307407262 -18.620302467496419 0 0 0 0 17.401971919504852 5.8770171729750871 0 5.8770171729750871 -5.1135349389725029 0 0 0 0 -11.917267914031981 61.275728594293014 0 61.275728594293014 -26.205173003893833 0 0 0 0 166.54042300038009 25.475320306363699 0 25.475320306363699 -38.690325175710313 0 0 0 0 39.016995480649143 40.991518073256572 0 40.991518073256572 14.154962480167066 0 0 0 0 21.396062498432002 46.958580862501663 0 46.958580862501663 -0.34747187789121625 0 0 0 0 17.238528450165177 72.500706752761232 0 72.500706752761232 -5.0238069079776722 0 0 0 0 -38.033934124039661 -142.84772916943496 0 -142.84772916943496 97.372846929592924 0 0 0 0 -21.576913986122236 200.1446327866106 0 200.1446327866106 31.565417279285612 0 0 0 0 42.931751095653823 43.432927571045497 0 43.432927571045497 20.393212923337749 0 0 0 0 -131.84225004192558 224.08172488986565 0 224.08172488986565 133.9526766892086 0 0 0 0 264.67254001490073 204.07128487363298 0 204.07128487363298 5.3217299012721924 0 0 0 0 -467.41997931347669 196.87483052307141 0 196.87483052307141 -194.308755803238 0 0 0 0 -1.2341284605507532 15.514469206968528 0 15.514469206968528 -45.496771388082713 0 0 0 0 464.63548901556351 -81.103121790094974 0 -81.103121790094974 -73.60714451815511 0 0 0 0 985.67178892652737 838.83819468869615 0 838.83819468869615 44.17844533009611 0 0 0 0 426.9241813672852 -79.710984211149935 0 -79.710984211149935 24.282022969853642 0 0 0 0 -513.24792346070171 167.23606925112199 0 167.23606925112199 -12.415578064212724 0 0 0 0 18.63620679843407 18.372193862049812 0 18.372193862049812 -42.03955138363834 0 0 0 0 -269.94120538924471 39.138042953248259 0 39.138042953248259 19.880558232211115 0 0 0 0 154.91677898318449 144.54765989270572 0 144.54765989270572 -76.53608230943064 0 0 0 0 -71.191547774555602 92.198399506899946 0 92.198399506899946 -93.149745485870881 0 0 0 0 -292.43531833638554 260.91346096166626 0 260.91346096166626 -131.83689274258086 0 0 0 0 -365.32795606448781 252.51062342189454 0 252.51062342189454 -89.233277374204931 0 0 0 0 -401.26490976757486 328.37862892506143 0 328.37862892506143 -231.56159186845548 0 0 0 0 -725.90000297161168 435.83293462528979 0 435.83293462528979 -237.16098055813586 0 0 0 0 -0.61644933144270908 428.82182737940309 0 428.82182737940309 -533.19192581845164 0 0 0 0 -0.09985272481571883 258.85935710056356 0 258.85935710056356 -202.4890555969514 0 0 0 0 -287.73694695143422 479.27755591097718 0 479.27755591097718 -358.72673643004418 0 0 0 0 -152.39230676016996 209.76941255768611 0 209.76941255768611 -86.20744140710849 0 0 0 0 -135.1927390924393 145.15565618825804 0 145.15565618825804 -75.930627688905133 0 0 0 0 -168.76535181120562 127.12635853754728 0 127.12635853754728 -36.414230944295923 0 0 0 0 -45.365395993168931 86.039732463883411 0 86.039732463883411 -53.085478300951308 0 0 0 0 -83.142245158545848 104.30837007056186 0 104.30837007056186 -13.458767221782182 0 0 0 0 -41.921093546668999 142.15145457789549 0 142.15145457789549 -93.930036923477019 0 0 0 0 -88.446364495775015 159.57930293331219 0 159.57930293331219 -88.542056184154717 0 0 0 0 62.22090917218884 390.76022211654072 0 390.76022211654072 -35.370690706904497 0 0 0 0 56.34228796492971 369.24080304472045 0 369.24080304472045 -112.63539514719741 0 0 0 0 345.03162396616244 635.32545615200945 0 635.32545615200945 69.737835728419213 0 0 0 0 -115.00942709924857 562.24692235397708 0 562.24692235397708 626.74692207449675 0 0 0 0 -189.34809905626753 322.36469518699761 0 322.36469518699761 164.55943190617796 0 0 0 0 -248.66286975595358 249.64796846971575 0 249.64796846971575 -137.26404380050099 0 0 0 0 -17.947023625182567 17.746607500891528 0 17.746607500891528 14.9978083162198 0 0 0 0 -72.582075215277655 278.77814774113727 0 278.77814774113727 143.14918799288353 0 0 0 0 -84.0791960072238 163.64702696441054 0 163.64702696441054 441.02088867868224 0 0 0 0 -13.562165321491193 408.27973291907438 0 408.27973291907438 146.42593495261372 0 0 0 0 -77.219417068408802 328.79153265243258 0 328.79153265243258 50.103669980559062 0 0 0 0 36.474940610947669 264.0542085761017 0 264.0542085761017 -14.195290494539222 0 0 0 0 14.265154763474129 266.07027999176353 0 266.07027999176353 73.355561797357041 0 0 0 0 -10.026174811166129 223.22038629322287 0 223.22038629322287 14.599553311611089 0 0 0 0 -13.98099182920123 179.21390482384231 0 179.21390482384231 31.66988203445726 0 0 0 0 -11.107961804431397 202.41054127270399 0 202.41054127270399 103.91420364030364 0 0 0 0 27.669459333556006 194.12663059629813 0 194.12663059629813 0.17033795228235249 0 0 0 0 30.819390333315823 211.55273837615641 0 211.55273837615641 -15.553027591085993 0 0 0 0 41.689726456272183 215.46084488196175 0 215.46084488196175 7.3591194327827907 0 0 0 0 35.573474272401654 222.11151814689947 0 222.11151814689947 7.7537752205207653 0 0 0 0 31.847832862782525 208.23814250621035 0 208.23814250621035 -6.7693839302808101 0 0 0 0 25.813956964229874 186.34831907885882 0 186.34831907885882 -83.017443755183194 0 0 0 0 43.821282786979282 266.52471425798603 0 266.52471425798603 -61.895129425463892 0 0 0 0 68.691785809220164 250.50725093348956 0 250.50725093348956 -65.806142728026316 0 0 0 0 70.230865675403038 242.14254046787391 0 242.14254046787391 -228.27780788509244 0 0 0 0 60.505608966690488 372.63120329886624 0 372.63120329886624 -132.46441353673436 0 0 0 0 59.283458548015915 178.23417723060084 0 178.23417723060084 -118.12036850716322 0 0 0 0 31.98475107116974 158.42311534974579 0 158.42311534974579 -23.585604867661459 0 0 0 0 36.622240856791905 158.81262771485535 0 158.81262771485535 -130.2877377302284 0 0 0 0 247.36016098787513 184.68306425374521 0 184.68306425374521 -208.29417395949349 0 0 0 0 8.0652090321054857 345.94881921361434 0 345.94881921361434 -277.55474971378135 0 0 0 0 -930.17679585987571 489.66172865125463 0 489.66172865125463 -239.18066783633185 0 0 0 0 -478.8004061771062 391.32725340113757 0 391.32725340113757 -341.78857249888461 0 0 0 0 9.9797613439572501 10.783868188538264 0 10.783868188538264 3.7118714232323882 0 0 0 0 -283.81204306180007 360.64042991252245 0 360.64042991252245 -177.29101560070796 0 0 0 0 -354.04599555494497 238.46596162115657 0 238.46596162115657 -154.9326650341518 0 0 0 0 1.2042044150148286 88.995110230594946 0 88.995110230594946 -295.46229642213848 0 0 0 0 -271.52212614614109 815.02850334872892 0 815.02850334872892 -13.943727948098967 0 0 0 0 3.7863573122303933 81.048475601392965 0 81.048475601392965 636.83169682114021 0 0 0 0 40.275927365466487 83.332526124936521 0 83.332526124936521 -406.29953921695983 0 0 0 0 993.19553833969985 468.21224555980098 0 468.21224555980098 -283.48108465163659 0 0 0 0 791.09372565166268 -205.61484512231391 0 -205.61484512231391 -87.615868007884274 0 0 0 0 946.65278068501266 -85.031691507673543 0 -85.031691507673543 -161.83378612112301 0 0 0 0 895.25279897151631 389.13818656662716 0 389.13818656662716 -47.771210088371845 0 0 0 0 383.60826340342464 -59.669144530099516 0 -59.669144530099516 -114.916558876652 0 0 0 0 197.73224885614036 260.37607398281114 0 260.37607398281114 7.4751860546145963 0 0 0 0 639.59330327760108 122.35475694590895 0 122.35475694590895 -125.61457346774205 0 0 0 0 -87.378808678709902 128.42851672070401 0 128.42851672070401 -152.00231016224279 0 0 0 0 30.050202073180117 85.226388705422323 0 85.226388705422323 -121.99947943149988 0 0 0 0 -670.6398784806006 464.11486200398667 0 464.11486200398667 -19.591077022996615 0 0 0 0 9.2169681794397036 10.746300544751506 0 10.746300544751506 6.0135939071246653 0 0 0 0 -237.40981007558003 18.776151560270932 0 18.776151560270932 94.001057961956548 0 0 0 0 5.4655391534029434 5.4277286289931794 0 5.4277286289931794 1.4238699459008721 0 0 0 0 -568.51752834515355 467.39072710011908 0 467.39072710011908 632.88641373060568 0 0 0 0 431.25357626608456 301.17872391451874 0 301.17872391451874 -221.44602247308302 0 0 0 0 15.985007917159237 605.28544757908378 0 605.28544757908378 481.35576402112747 0 0 0 0 -110.71210983845231 180.12436105719127 0 180.12436105719127 208.85688425902958 0 0 0 0 -66.856798498425633 463.96789837395295 0 463.96789837395295 561.60683989778454 0 0 0 0 -67.186604533713194 482.67792819509293 0 482.67792819509293 330.20840624114771 0 0 0 0 753.30734275669965 200.01058115338594 0 200.01058115338594 -114.9086564334882 0 0 0 0 381.75211748367292 447.90291163189545 0 447.90291163189545 330.71660566487094 0 0 0 0 343.60138228675351 322.7439007595533 0 322.7439007595533 81.419160447655486 0 0 0 0 1014.7884477755579 770.08276541200053 0 770.08276541200053 367.44948660256796 0 0 0 0 1162.7734585072176 104.52663846027508 0 104.52663846027508 -163.33295318121623 0 0 0 0 245.18431388621684 499.98399886508946 0 499.98399886508946 1094.4963671577498 0 0 0 0 163.98898768949039 459.37226578160499 0 459.37226578160499 569.01144038086568 0 0 0 0 1228.784224016199 203.05204583564455 0 203.05204583564455 490.80490942593042 0 0 0 0 -301.81374947298173 212.39411731798447 0 212.39411731798447 432.20432020768567 0 0 0 0 -129.17081332021917 431.66271644377775 0 431.66271644377775 576.05754045528056 0 0 0 0 234.10692590409599 384.71872174177327 0 384.71872174177327 408.16765849356034 0 0 0 0 75.90044271867464 -55.055984384972618 0 -55.055984384972618 267.77978696501668 0 0 0 0 -599.34435152767401 4.1807519498197507 0 4.1807519498197507 127.81182328345267 0 0 0 0 -783.01875305178692 -309.12168380753008 0 -309.12168380753008 7.0724457805081329 0 0 0 0 -54.160203971131125 50.080990250580186 0 50.080990250580186 -15.943119758784725 0 0 0 0 -379.34285011225438 -135.94824668408785 0 -135.94824668408785 -130.7454832871158 0 0 0 0 -169.61427851619374 171.28807795589523 0 171.28807795589523 -19.177645193242711 0 0 0 0 -274.21488546953333 217.51432234369645 0 217.51432234369645 190.32307872162892 0 0 0 0 -11.610288710042369 65.372480283312257 0 65.372480283312257 254.70308890114006 0 0 0 0 -231.34658600229886 335.25068916598616 0 335.25068916598616 220.05791572624895 0 0 0 0 -423.3924786819116 -142.56829383761169 0 -142.56829383761169 -72.821164847706086 0 0 0 0 -69.381449618129409 263.60223254015136 0 263.60223254015136 95.20557592520322 0 0 0 0 -63.718976327113438 76.729974862418118 0 76.729974862418118 -20.508625320146496 0 0 0 0 -62.398445018890243 56.707386750219456 0 56.707386750219456 -24.828235118698707 0 0 0 0 211.00407585397079 178.43144494781177 0 178.43144494781177 77.040242645556646 0 0 0 0 61.051518930093152 516.91928222971819 0 516.91928222971819 274.39581936950253 0 0 0 0 -170.75809479790041 153.06614278632787 0 153.06614278632787 144.11925956189953 0 0 0 0 -157.59546806637081 115.82875630642684 0 115.82875630642684 205.33960775072183 0 0 0 0 -184.60339210971142 39.574384800385815 0 39.574384800385815 87.145845296457082 0 0 0 0 -16.636017358450772 25.090977005419518 0 25.090977005419518 43.821168247235619 0 0 0 0 1.9779634433361934 66.237915803062606 0 66.237915803062606 124.33899912688912 0 0 0 0 -18.244007483765529 11.648821011673945 0 11.648821011673945 -9.1588014196348908 0 0 0 0 -24.325203663596767 100.12861941197025 0 100.12861941197025 70.948869827434464 0 0 0 0 -39.725420075999864 81.838528066612525 0 81.838528066612525 95.594231547336676 0 0 0 0 -14.20566382551624 57.790326989430469 0 57.790326989430469 52.547876468161121 0 0 0 0 -7.3931373493687715 81.724017590458971 0 81.724017590458971 62.246869338738179 0 0 0 0 -22.666212799411198 24.813866691748927 0 24.813866691748927 -5.4128287030526359 0 0 0 0 0.72927104094560491 101.06714964543971 0 101.06714964543971 69.458380282789221 0 0 0 0 26.740719905050355 78.251365457468182 0 78.251365457468182 62.510656451451723 0 0 0 0 -3.0333934174130945 65.627456729967392 0 65.627456729967392 24.75513979333428 0 0 0 0 46.489723212704121 193.79170414882174 0 193.79170414882174 -40.912328550912207 0 0 0 0 18.812223015456254 76.173460771824821 0 76.173460771824821 69.850555008554835 0 0 0 0 -38.720558395027183 118.46347648454184 0 118.46347648454184 61.888221031700596 0 0 0 0 12.779173020612149 18.092113905337342 0 18.092113905337342 -33.501591327937064 0 0 0 0 -4.758122802246362 100.90965814508672 0 100.90965814508672 140.87113545839406 0 0 0 0 -15.589811266036122 32.408595726479689 0 32.408595726479689 136.77208775122563 0 0 0 0 -17.78482452173921 43.177562750151992 0 43.177562750151992 84.730891792467446 0 0 0 0 -113.34435210787342 173.6096410665541 0 173.6096410665541 151.09991675354468 0 0 0 0 -62.657435841843835 94.546496376674895 0 94.546496376674895 89.298631275563366 0 0 0 0 -109.0005219390514 155.96532969343662 0 155.96532969343662 42.631358690490742 0 0 0 0 -66.442433463074849 246.15141652946249 0 246.15141652946249 -25.500605774752785 0 0 0 0 14.689213635685007 94.276694572790035 0 94.276694572790035 69.782511029275369 0 0 0 0 -64.34704836767196 166.22122710647341 0 166.22122710647341 146.48207665737573 0 0 0 0 -77.265835674707262 53.143358082653606 0 53.143358082653606 116.48430754872379 0 0 0 0 -76.692166456952691 50.716188913589576 0 50.716188913589576 307.83501524302847 0 0 0 0 283.90021523067844 96.070948734448393 0 96.070948734448393 48.135724293468229 0 0 0 0 -22.160341946769563 2.131512062331737 0 2.131512062331737 16.198083294896392 0 0 0 0 86.092179923391086 233.21511799680411 0 233.21511799680411 96.208057711020956 0 0 0 0 61.232193871964228 -50.838179487503794 0 -50.838179487503794 143.10753786455462 0 0 0 0 78.792544113923213 23.843916043435456 0 23.843916043435456 -47.253432674390524 0 0 0 0 -12.501522072452644 76.150347553886604 0 76.150347553886604 62.184981173762935 0 0 0 0 81.778464505914599 55.700968082583131 0 55.700968082583131 96.597114787182363 0 0 0 0 -35.697028277427307 94.549721775798389 0 94.549721775798389 127.46676888556613 0 0 0 0 -8.0395919982911437 126.62436271386105 0 126.62436271386105 45.908192935356055 0 0 0 0 -63.846501452448138 248.8283641510734 0 248.8283641510734 18.89447393478622 0 0 0 0 -62.098099939612439 188.34768389814781 0 188.34768389814781 99.160605443830718 0 0 0 0 -92.744271396266413 229.34533909502716 0 229.34533909502716 226.75299064956198 0 0 0 0 -31.706427786935819 110.86637955490369 0 110.86637955490369 414.55907716670481 0 0 0 0 -29.466631949719158 93.046852166029566 0 93.046852166029566 123.45200279304117 0 0 0 0 148.56945749526494 309.92371951173845 0 309.92371951173845 235.17933118341898 0 0 0 0 63.871026509194053 219.96018815363641 0 219.96018815363641 24.296821462077787 0 0 0 0 9.9699161077587632 159.56066252470191 0 159.56066252470191 72.12530106237682 0 0 0 0 -113.19980408718402 283.49744798856045 0 283.49744798856045 61.353466849264805 0 0 0 0 -45.212814555183286 381.27120555017973 0 381.27120555017973 -273.14723970378691 0 0 0 0 -203.52205683549982 420.97576845243748 0 420.97576845243748 -42.592191825387999 0 0 0 0 -651.97351465703105 325.57451164399026 0 325.57451164399026 6.3621125194731576 0 0 0 0 -141.17578952095755 173.86794171536849 0 173.86794171536849 50.925102154971682 0 0 0 0 -4.1548865373101762 2.690174008920394 0 2.690174008920394 -3.2394919239269484 0 0 0 0 201.45250281857443 137.32381184134101 0 137.32381184134101 -436.13345814615604 0 0 0 0 78.37423340920941 152.05877376434728 0 152.05877376434728 101.18932774525092 0 0 0 0 147.32400659442646 24.96149961942865 0 24.96149961942865 -53.01593998757744 0 0 0 0 70.346095746514038 106.45825289784261 0 106.45825289784261 13.343927654858817 0 0 0 0 40.305684710561763 174.68959685719165 0 174.68959685719165 -13.726965439585911 0 0 0 0 -33.150093518073845 207.74718012505537 0 207.74718012505537 146.39147406081611 0 0 0 0 87.598335985094025 104.26514370924845 0 104.26514370924845 104.23572918097858 0 0 0 0 11.115561210829128 23.95181208242704 0 23.95181208242704 3.5640673696730403 0 0 0 0 -10.481413828048971 69.688625602480897 0 69.688625602480897 48.502927096240455 0 0 0 0 -246.76895278306256 197.97399876134932 0 197.97399876134932 -52.229051497488399 0 0 0 0 16.95469116927967 16.489027398723479 0 16.489027398723479 24.311588233936078 0 0 0 0 -240.98113129754347 168.14721847388591 0 168.14721847388591 86.999516748444876 0 0 0 0 -184.32702335901558 116.43076857924461 0 116.43076857924461 -199.28619572396565 0 0 0 0 -327.23313748850887 157.67485931570582 0 157.67485931570582 26.86563648666197 0 0 0 0 11.599442095186646 35.094481429772472 0 35.094481429772472 -9.6634106909273072 0 0 0 0 -314.75720385837485 356.77441131433807 0 356.77441131433807 -204.49588141456479 0 0 0 0 -194.9372731881158 81.498251491670089 0 81.498251491670089 -0.74163728769781301 0 0 0 0 -356.27408842179648 14.521506566992684 0 14.521506566992684 14.473439616296673 0 0 0 0 -272.97482076384767 145.5715246791442 0 145.5715246791442 11.273947565612616 0 0 0 0 -302.13249450456351 109.12730674477643 0 109.12730674477643 16.852766302930831 0 0 0 0 -251.78077483028756 107.00016817297728 0 107.00016817297728 10.3276763196518 0 0 0 0 -150.10399743140442 175.53695441107811 0 175.53695441107811 -77.162290937325452 0 0 0 0 21.500664042088189 52.898249732735806 0 52.898249732735806 -17.879491758960569 0 0 0 0 -212.45168521039886 160.47962145422207 0 160.47962145422207 -4.7931163773428125 0 0 0 0 -37.754424300932442 195.87402201803707 0 195.87402201803707 -99.511580933289224 0 0 0 0 -20.551268085608172 315.34935240215145 0 315.34935240215145 -101.58359512431343 0 0 0 0 -55.981103956102743 277.32551550042626 0 277.32551550042626 -142.31567454612195 0 0 0 0 -76.133230391395045 313.35423843318495 0 313.35423843318495 -101.41166663318472 0 0 0 0 -105.06889822360972 284.65365321585614 0 284.65365321585614 -36.624975062790327 0 0 0 0 -111.1926790374855 302.6808396502056 0 302.6808396502056 -62.311585074203322 0 0 0 0 -165.03105391110876 269.06154465798681 0 269.06154465798681 -1.2695272180753818 0 0 0 0 -84.430141218210338 271.34891978682572 0 271.34891978682572 -84.5524905316488 0 0 0 0 -115.08017701021163 267.0069230084373 0 267.0069230084373 -71.19708746955439 0 0 0 0 -76.628307539853267 248.14481893424454 0 248.14481893424454 -41.604092532527829 0 0 0 0 -75.349216229689773 254.5596073412089 0 254.5596073412089 -28.586932157726551 0 0 0 0 -36.419329543467029 128.94834674048252 0 128.94834674048252 81.806610170111526 0 0 0 0 -1.0974594326398801 130.02997622217663 0 130.02997622217663 -3.2054838318790644 0 0 0 0 30.476253635075409 9.0620210309971299 0 9.0620210309971299 -11.311008203208985 0 0 0 0 -34.719268326385645 204.47265167927617 0 204.47265167927617 -150.21035978881991 0 0 0 0 -8.4372134488917823 3.3958805198949733 0 3.3958805198949733 -3.1245498734224668 0 0 0 0 -423.52502222667681 550.53474208797343 0 550.53474208797343 -297.60821460123952 0 0 0 0 23.478499230797752 211.86605116735154 0 211.86605116735154 -399.80245951588677 0 0 0 0 -808.7433497254242 146.30060764747031 0 146.30060764747031 -113.69533477527148 0 0 0 0 -121.24462509438945 325.06235858330001 0 325.06235858330001 -129.95537350174709 0 0 0 0 -432.9415053993871 265.025904024802 0 265.025904024802 208.55408042793715 0 0 0 0 -311.72277575505723 384.22024867345681 0 384.22024867345681 -68.453925923335191 0 0 0 0 -66.461010206563515 34.213183123214549 0 34.213183123214549 -453.37884889630368 0 0 0 0 -221.37995680663153 197.35573891149761 0 197.35573891149761 7.1285243132406322 0 0 0 0 -404.84128032124136 416.53208620128134 0 416.53208620128134 64.080385671877593 0 0 0 0 -20.466922631856903 36.360927401944011 0 36.360927401944011 38.608572018783576 0 0 0 0 -118.66186372045922 -78.344210575540274 0 -78.344210575540274 -371.29318883750238 0 0 0 0 -410.79674675428396 -269.13452982696435 0 -269.13452982696435 -715.89963473386888 0 0 0 0 -356.55766611779109 462.05123601952801 0 462.05123601952801 -739.55841493257776 0 0 0 0 -829.42047550452116 393.77291007001077 0 393.77291007001077 -0.78123755642445758 0 0 0 0 -336.41179705363174 251.41718991325433 0 251.41718991325433 198.88294004085765 0 0 0 0 -139.85082846829025 74.770067311806812 0 74.770067311806812 41.562962705103558 0 0 0 0 -157.49112991705312 656.13078417161557 0 656.13078417161557 52.807028102157346 0 0 0 0 -419.66687768336124 361.04740929925538 0 361.04740929925538 -36.35361449640186 0 0 0 0 -156.77763198495086 162.8533366661577 0 162.8533366661577 33.196111929526523 0 0 0 0 -148.88830044637871 -69.791301806337287 0 -69.791301806337287 -10.169121149177954 0 0 0 0 -621.69523562770337 -147.33723657851215 0 -147.33723657851215 -12.977195384388324 0 0 0 0 -390.45615629450185 103.9864524573477 0 103.9864524573477 149.5466724466969 0 0 0 0 -148.27050397297717 21.759908640588037 0 21.759908640588037 124.97284154922818 0 0 0 0 -115.27639304900319 59.527521607187765 0 59.527521607187765 96.276139975882927 0 0 0 0 -123.98579497773608 113.87744009547714 0 113.87744009547714 142.60097035728586 0 0 0 0 -19.934261623997372 281.96349110304891 0 281.96349110304891 186.29920944268815 0 0 0 0 -34.291667899116874 306.37615048726002 0 306.37615048726002 150.74265315082448 0 0 0 0 -15.165966806157485 311.56929365191718 0 311.56929365191718 136.78748337068828 0 0 0 0 -209.27397731738165 179.3265880720719 0 179.3265880720719 51.148537581419077 0 0 0 0 -18.599956343823578 97.424000793991581 0 97.424000793991581 104.20841332065538 0 0 0 0 -54.116426018968923 83.998686047784304 0 83.998686047784304 108.05041530547169 0 0 0 0 -22.155127684454783 78.011476573112304 0 78.011476573112304 49.53899386962803 0 0 0 0 -45.447515038657002 58.313156822114252 0 58.313156822114252 104.00076393035124 0 0 0 0 -25.347113237460292 17.234450311067093 0 17.234450311067093 13.649585232067871 0 0 0 0 -40.48768906515761 27.548725776607171 0 27.548725776607171 59.34060310465793 0 0 0 0 -37.068388425699595 15.139247695602535 0 15.139247695602535 87.345400880105444 0 0 0 0 -43.891709239610691 61.049801437183902 0 61.049801437183902 34.392610208334716 0 0 0 0 -86.335070867120521 102.85161914610762 0 102.85161914610762 -38.414181798061691 0 0 0 0 -43.55187255120444 83.694969149607232 0 83.694969149607232 46.775717976496267 0 0 0 0 -31.072420017560944 63.447708097046416 0 63.447708097046416 8.1808130332174187 0 0 0 0 -16.361077847735203 42.750404318263904 0 42.750404318263904 35.512110989622798 0 0 0 0 -13.638851108735253 57.517187744827766 0 57.517187744827766 17.488581289828289 0 0 0 0 11.092267501983827 26.837768359234047 0 26.837768359234047 13.422289748216652 0 0 0 0 -65.690210264132475 115.82736657602072 0 115.82736657602072 -36.355264833900378 0 0 0 0 -76.348228612812818 127.92941654064043 0 127.92941654064043 -3.2505719150394725 0 0 0 0 -88.620013806357747 139.0052899855018 0 139.0052899855018 64.612211733765434 0 0 0 0 -41.274264413754281 154.82959541738092 0 154.82959541738092 -70.895502896732069 0 0 0 0 -44.067136349538487 128.9791514887778 0 128.9791514887778 -44.608558607626037 0 0 0 0 15.295922032356088 13.815296313566535 0 13.815296313566535 14.013271686398934 0 0 0 0 23.009870075336949 5.7686576244304888 0 5.7686576244304888 -111.83519845663614 0 0 0 0 -15.85290001508838 25.31189119361261 0 25.31189119361261 23.573289674403895 0 0 0 0 -18.077433549842681 72.48586616281591 0 72.48586616281591 -22.25173516529685 0 0 0 0 -10.915528540339437 19.393374011916421 0 19.393374011916421 12.779427847759507 0 0 0 0 -12.85783428454306 25.045855999701416 0 25.045855999701416 31.525321172666281 0 0 0 0 96.903159806872537 158.87691997130577 0 158.87691997130577 104.76254910131733 0 0 0 0 7.5599665105200984 205.63072671527334 0 205.63072671527334 224.51618637115462 0 0 0 0 44.259453809063416 166.63162399533758 0 166.63162399533758 -390.10314445060067 0 0 0 0 48.31820747879101 110.74305417887081 0 110.74305417887081 -367.36816844228815 0 0 0 0 36.950102064871317 241.46300819177122 0 241.46300819177122 97.710649626736995 0 0 0 0 21.985759885166772 250.34208830392163 0 250.34208830392163 -368.59937632934452 0 0 0 0 -10.042321538727265 284.76297820963646 0 284.76297820963646 -210.29170001799503 0 0 0 0 -59.383308262447827 178.44959382895831 0 178.44959382895831 16.239696763665052 0 0 0 0 -106.96534460451221 233.46129012475285 0 233.46129012475285 51.351689268369228 0 0 0 0 -66.278268587150677 52.078615365056493 0 52.078615365056493 87.216567525002404 0 0 0 0 -35.388116145031944 27.871633149920882 0 27.871633149920882 65.243210934883891 0 0 0 0 -17.571793317882111 172.75918896919029 0 172.75918896919029 -106.96514337557528 0 0 0 0 -57.04912822105689 242.03053545289185 0 242.03053545289185 -124.34127416220872 0 0 0 0 -39.750045908294851 187.57167171428409 0 187.57167171428409 -207.69217067046702 0 0 0 0 -24.105171456525568 154.23522982625946 0 154.23522982625946 -137.01977192217601 0 0 0 0 -30.434188706698478 245.64809785815851 0 245.64809785815851 -241.54798936621228 0 0 0 0 -10.589334677089937 186.34743776730465 0 186.34743776730465 -220.07120645678879 0 0 0 0 -16.144704996258952 145.47555355447184 0 145.47555355447184 -188.94165733737464 0 0 0 0 -12.125031536212191 199.29121875907731 0 199.29121875907731 -265.17532078567456 0 0 0 0 -7.4415051865507849 144.19929541667079 0 144.19929541667079 -281.80766836697057 0 0 0 0 10.477487942116568 58.783362503392709 0 58.783362503392709 -218.81829877170003 0 0 0 0 15.498619309786591 42.03812528997787 0 42.03812528997787 -238.70036406304462 0 0 0 0 -12.729962356017495 103.88820253787435 0 103.88820253787435 -201.70194992551114 0 0 0 0 -5.0032973575725919 103.60164857268592 0 103.60164857268592 -267.27474178675038 0 0 0 0 6.3759324799632395 0.91568039583162175 0 0.91568039583162175 0.98413741273581934 0 0 0 0 -8.6308404152150615 80.477356732628323 0 80.477356732628323 -157.45660531655813 0 0 0 0 -10.85148858037428 101.62892955429015 0 101.62892955429015 -118.96485451830449 0 0 0 0 -11.221179323358228 114.92160646091907 0 114.92160646091907 -215.39168533779048 0 0 0 0 -2.2298625862458721 59.248255695274565 0 59.248255695274565 -140.85368729950642 0 0 0 0 29.581560367128986 14.695416427075088 0 14.695416427075088 -188.40839127371873 0 0 0 0 2.5738831789640244 81.823816694572088 0 81.823816694572088 -254.92119837037717 0 0 0 0 7.922082254459383 90.132419876741551 0 90.132419876741551 -253.99527548182959 0 0 0 0 -4.6564168865152169 129.73434541267852 0 129.73434541267852 -262.76850822682536 0 0 0 0 79.080544863609248 64.069643538879063 0 64.069643538879063 -311.69116128438691 0 0 0 0 136.63435183878647 154.78220420326812 0 154.78220420326812 108.58778401580693 0 0 0 0 279.55280707454949 675.24795282932212 0 675.24795282932212 -137.66318850093194 0 0 0 0 92.024785511690425 126.80716892836881 0 126.80716892836881 70.883131561005939 0 0 0 0 -98.324415512484848 239.02422307955658 0 239.02422307955658 247.56410797734134 0 0 0 0 141.91618612638558 360.24537086120836 0 360.24537086120836 -78.456309060136846 0 0 0 0 11.052126795842923 281.28385618555694 0 281.28385618555694 48.862254854961066 0 0 0 0 67.452426152687622 218.01565418838982 0 218.01565418838982 -63.436523994882009 0 0 0 0 216.46960660213517 294.01962703608297 0 294.01962703608297 -25.663558147061849 0 0 0 0 243.95963285083235 136.59284244169476 0 136.59284244169476 -45.123158606322249 0 0 0 0 228.90301098104101 264.09911585973896 0 264.09911585973896 -167.92021529602789 0 0 0 0 147.19709608218534 178.25861681028081 0 178.25861681028081 111.77699914754788 0 0 0 0 25.16764185748616 304.98940874430764 0 304.98940874430764 120.25978505735657 0 0 0 0 193.94120410701726 181.55083908832603 0 181.55083908832603 145.11008751518602 0 0 0 0 -103.19970529605362 89.008154932750131 0 89.008154932750131 190.7622533231503 0 0 0 0 19.406106888960551 76.182882448191961 0 76.182882448191961 -53.283237156132088 0 0 0 0 166.28987941368905 225.77794919813459 0 225.77794919813459 -66.906406761700055 0 0 0 0 220.11231059630154 255.85230627549026 0 255.85230627549026 225.97068092252266 0 0 0 0 262.70444298728853 320.79661466482867 0 320.79661466482867 205.9859566830055 0 0 0 0 -2.6405266759230557 2.4958873406046962 0 2.4958873406046962 -0.46994895309634899 0 0 0 0 -1.5965387545929843 274.37376886813581 0 274.37376886813581 298.47345492832392 0 0 0 0 21.763249891092528 327.7979098015594 0 327.7979098015594 -21.132356866211921 0 0 0 0 249.87110322585249 185.75717908661682 0 185.75717908661682 -10.817656145693036 0 0 0 0 291.60370513782982 178.25582913585458 0 178.25582913585458 -11.121415001594869 0 0 0 0 249.37941610338021 122.9436255661949 0 122.9436255661949 -18.561369995906716 0 0 0 0 -11.238989968964102 23.64550479954454 0 23.64550479954454 -55.098744456992506 0 0 0 0 -3.6847424312799255 8.2933703333375419 0 8.2933703333375419 -19.117364298971069 0 0 0 0 237.24763026617075 -46.091467981283131 0 -46.091467981283131 -1063.5921889273814 0 0 0 0 300.95177402358604 216.51519957866549 0 216.51519957866549 -12.936103688389267 0 0 0 0 275.67002149345353 145.11702945978323 0 145.11702945978323 -117.09328002067923 0 0 0 0 502.57748549199459 419.52997875541769 0 419.52997875541769 -89.11629381097373 0 0 0 0 598.63085939466691 320.04269350912364 0 320.04269350912364 -39.849068628245732 0 0 0 0 328.94961412654084 176.13797673019872 0 176.13797673019872 23.165251762227854 0 0 0 0 584.99726315965381 310.95069341369526 0 310.95069341369526 -5.2828334585865377 0 0 0 0 656.8396456210321 246.56622059086476 0 246.56622059086476 49.635215703601716 0 0 0 0 -28.313624933935621 37.494138688143892 0 37.494138688143892 -3.8101253366888557 0 0 0 0 -393.9279076115854 250.89059369805182 0 250.89059369805182 -256.03115671002888 0 0 0 0 -121.02419431578195 -20.565748666327949 0 -20.565748666327949 22.282464602055313 0 0 0 0 1354.5884441713133 336.49125651640497 0 336.49125651640497 -50.89244594838965 0 0 0 0 -1020.5457099355481 421.94853182694351 0 421.94853182694351 164.99350156942091 0 0 0 0 -28.480576911056588 1.9134416106776939 0 1.9134416106776939 1.7112455366577137 0 0 0 0 265.02742971748921 270.13096393913474 0 270.13096393913474 87.919942239357624 0 0 0 0 217.45421300638282 507.06768694940183 0 507.06768694940183 87.453524536424084 0 0 0 0 -407.70430730991939 641.84046577497065 0 641.84046577497065 177.47615529615723 0 0 0 0 -48.062187519637519 350.91167943718756 0 350.91167943718756 69.500562056706258 0 0 0 0 365.72421374473197 266.41707808180945 0 266.41707808180945 -20.788292443567116 0 0 0 0 252.73344317967349 202.6900057513958 0 202.6900057513958 63.54419854049047 0 0 0 0 509.87809709516296 255.11715440451371 0 255.11715440451371 6.351959617153625 0 0 0 0 423.20035944884876 456.46175886277342 0 456.46175886277342 233.7874125384551 0 0 0 0 75.661640139888732 -29.259066916256415 0 -29.259066916256415 -1461.3904457997196 0 0 0 0 -1930.9579997141282 961.42247008092818 0 961.42247008092818 155.53834423648732 0 0 0 0 301.44630721090562 755.76117497232917 0 755.76117497232917 23.419495385671325 0 0 0 0 -459.99701016859217 162.22610174427609 0 162.22610174427609 483.67856074428346 0 0 0 0 -83.323102482281683 -267.19969711571321 0 -267.19969711571321 103.10166117455083 0 0 0 0 -8.6176724594328302 22.36089470084487 0 22.36089470084487 22.583420543291425 0 0 0 0 207.9742758260204 -176.24874811979134 0 -176.24874811979134 23.328809902486682 0 0 0 0 5.257400595344734 115.31939859281556 0 115.31939859281556 -102.52149293142429 0 0 0 0 992.86649987234432 121.11503732063466 0 121.11503732063466 -35.75564915369614 0 0 0 0 404.21054289607673 709.18497662240588 0 709.18497662240588 -10.478469716290419 0 0 0 0 1.5529828229502431 1.4365295854734725 0 1.4365295854734725 10.495039406229409 0 0 0 0 130.76643184288332 223.05237927406961 0 223.05237927406961 -47.705597984357155 0 0 0 0 148.19404381386266 282.21378186147558 0 282.21378186147558 147.08745318777073 0 0 0 0 -211.4194798492008 307.74430395285526 0 307.74430395285526 293.84112098726746 0 0 0 0 -201.37600333753289 493.1073951353319 0 493.1073951353319 238.61942546787668 0 0 0 0 -129.91448453310295 357.44369863318934 0 357.44369863318934 246.32973937548013 0 0 0 0 9.7586573301559838 444.16730158910832 0 444.16730158910832 247.15163296576065 0 0 0 0 -128.30636590765425 319.16955948319082 0 319.16955948319082 329.14499394550148 0 0 0 0 -283.59918480850502 337.03164717885375 0 337.03164717885375 396.51890616134551 0 0 0 0 -213.89389565487909 235.22631943439956 0 235.22631943439956 144.85893502355611 0 0 0 0 -336.60898940959032 842.25543325864419 0 842.25543325864419 -526.64795917298034 0 0 0 0 -944.10216809469694 191.6275418604273 0 191.6275418604273 144.32635628731259 0 0 0 0 674.65658743431777 210.79450489096052 0 210.79450489096052 -132.65277937272549 0 0 0 0 661.26266318440685 1371.1500512513885 0 1371.1500512513885 -618.17977999822324 0 0 0 0 222.29233500118698 654.97856283568035 0 654.97856283568035 -1713.2327512550692 0 0 0 0 -1.5561185025040771 3.1479335295579176 0 3.1479335295579176 0.18565160992703866 0 0 0 0 137.83965635629829 426.60975281061837 0 426.60975281061837 865.0056797735806 0 0 0 0 115.27730344426527 165.36312800508313 0 165.36312800508313 170.43061710975962 0 0 0 0 -5.311567350694915 8.2442673710140326 0 8.2442673710140326 -2.6507574422050375 0 0 0 0 15.258235939777478 185.98963252471731 0 185.98963252471731 394.35950397356646 0 0 0 0 -908.5195822091373 415.31552448377988 0 415.31552448377988 -189.2805803308438 0 0 0 0 -3.4614322233604362 7.574461064175928 0 7.574461064175928 -13.043242383784175 0 0 0 0 -214.85143570496984 1092.5969361299576 0 1092.5969361299576 -618.91069911026352 0 0 0 0 214.84921382570246 239.38010727838991 0 239.38010727838991 435.963978494412 0 0 0 0 119.34308932411659 264.24668342643236 0 264.24668342643236 435.33096111665509 0 0 0 0 298.8698658952344 308.98180386432432 0 308.98180386432432 349.68524051895383 0 0 0 0 323.95882373574159 256.41570702684476 0 256.41570702684476 115.72402518793388 0 0 0 0 163.34926594501121 350.84781237602874 0 350.84781237602874 821.95142458650662 0 0 0 0 43.772642563319096 10.720377227506106 0 10.720377227506106 388.8143765767054 0 0 0 0 -10.540985392333823 -6.13588412302488 0 -6.13588412302488 1471.233007222283 0 0 0 0 559.25860359034414 524.82788326422087 0 524.82788326422087 -1152.4174274053803 0 0 0 0 458.14061199453045 477.1917380494815 0 477.1917380494815 308.59780042537022 0 0 0 0 253.71090230791378 -627.13423591063111 0 -627.13423591063111 -145.6121725337307 0 0 0 0 -745.10824973601029 1212.107339109687 0 1212.107339109687 1266.0891833005153 0 0 0 0 5.0741325878849963 7.4722282083941849 0 7.4722282083941849 8.5985510850801461 0 0 0 0 682.47447810368158 558.37827229734285 0 558.37827229734285 5.0911483133386355 0 0 0 0 -82.641387555941037 10.227369758446002 0 10.227369758446002 214.03350382397184 0 0 0 0 -171.99554622496726 285.54754189379673 0 285.54754189379673 -428.47615440596746 0 0 0 0 -3.7610879458243289 -70.767847747272754 0 -70.767847747272754 -51.256215400848305 0 0 0 0 404.05688264585297 363.19527560645838 0 363.19527560645838 436.27701740908378 0 0 0 0 1.2260326143179299 7.8447531390048795 0 7.8447531390048795 -2.7243645240179255 0 0 0 0 206.06915444126935 762.81446006079386 0 762.81446006079386 1081.8435677543748 0 0 0 0 83.947598858780111 359.55212795688021 0 359.55212795688021 669.50647787168054 0 0 0 0 81.69498491192644 353.0378637212234 0 353.0378637212234 832.29440185964813 0 0 0 0 49.839512896732231 564.20961354054634 0 564.20961354054634 1266.9053859296328 0 0 0 0 1.2097663577435043 4.2864042880093649 0 4.2864042880093649 -1.3374038419171619 0 0 0 0 223.31602488794033 591.96346932766028 0 591.96346932766028 693.49539100621223 0 0 0 0 422.71083429213468 402.38965446296061 0 402.38965446296061 223.50893776626617 0 0 0 0 464.69256380951629 461.07111010411791 0 461.07111010411791 89.534106122999219 0 0 0 0 313.29319738913182 532.48298727202928 0 532.48298727202928 86.153476580118877 0 0 0 0 294.62795280414866 391.99834402930719 0 391.99834402930719 322.63823984573537 0 0 0 0 -47.074239282894268 85.32069809558925 0 85.32069809558925 -7.1478444613167085 0 0 0 0 19.537577880359116 62.688702127016114 0 62.688702127016114 -23.538247280503356 0 0 0 0 -19.23759922858153 68.054328113750671 0 68.054328113750671 -8.9009805610839976 0 0 0 0 4.3307473498207401 81.059290520683135 0 81.059290520683135 -16.872921742115068 0 0 0 0 -314.58453529526014 143.60953719654935 0 143.60953719654935 -21.541596526207286 0 0 0 0 -16.386660164859698 70.634256346615331 0 70.634256346615331 -8.9567147672764804 0 0 0 0 513.34610604746558 410.86571705237293 0 410.86571705237293 116.31965564142229 0 0 0 0 -314.71029255751637 131.28484573388414 0 131.28484573388414 -41.559592461504508 0 0 0 0 -128.57378835092823 40.651767349027068 0 40.651767349027068 11.86267877870705 0 0 0 0 -10.207068228641418 102.37635489528068 0 102.37635489528068 5.2827001495964794 0 0 0 0 539.10742842528271 336.39737975252501 0 336.39737975252501 139.78327774228819 0 0 0 0 472.20970418011711 448.71309707775072 0 448.71309707775072 83.738804949360201 0 0 0 0 -33.077350174140705 55.360335856414864 0 55.360335856414864 -26.923752983621597 0 0 0 0 560.47478671555291 370.24690797619405 0 370.24690797619405 48.370773181697587 0 0 0 0 473.28365602526173 472.64556478115264 0 472.64556478115264 39.690755662525589 0 0 0 0 474.42921588650279 476.09029795501192 0 476.09029795501192 48.025665933440905 0 0 0 0 460.04553534691877 514.66207487225984 0 514.66207487225984 38.511508739553392 0 0 0 0 427.91526417080604 513.35152734905205 0 513.35152734905205 49.945278808037983 0 0 0 0 431.39258100607549 488.37534174018947 0 488.37534174018947 69.11321275147202 0 0 0 0 462.30624818915385 505.59707874731976 0 505.59707874731976 -6.1987538219837006 0 0 0 0 529.23147263188002 436.01540753246445 0 436.01540753246445 -86.434599551997962 0 0 0 0 448.10681474135345 390.39820672767382 0 390.39820672767382 -72.957862691982882 0 0 0 0 448.65992929608547 414.54843136973477 0 414.54843136973477 -754.90493181781494 0 0 0 0 171.39949949378206 899.52254294914383 0 899.52254294914383 -206.08266656988053 0 0 0 0 209.39916350947533 757.67329220093598 0 757.67329220093598 259.88168371737265 0 0 0 0 438.62232796668832 607.80411447548249 0 607.80411447548249 -312.95346621776844 0 0 0 0 30.351116615280262 1369.8420063602607 0 1369.8420063602607 -957.71159482664939 0 0 0 0 119.37318818780295 962.11124471408766 0 962.11124471408766 545.46997521947196 0 0 0 0 -305.31064925393002 -248.38805304212292 0 -248.38805304212292 2517.3499094069994 0 0 0 0 -291.8072969791283 365.37929526223525 0 365.37929526223525 663.32953047750198 0 0 0 0 -14.432776246925641 493.6047454647196 0 493.6047454647196 687.18214743671524 0 0 0 0 151.68188424280743 342.83089573109464 0 342.83089573109464 310.49896978778816 0 0 0 0 167.98320016751677 533.16117440312519 0 533.16117440312519 394.92694046294855 0 0 0 0 194.5652529448198 463.59738053633555 0 463.59738053633555 271.89723639255681 0 0 0 0 114.06638196943823 345.54655510899829 0 345.54655510899829 476.58459793190923 0 0 0 0 -4.8332076072711061 473.97570423590514 0 473.97570423590514 396.351544462741 0 0 0 0 76.655321047295729 157.51141597729929 0 157.51141597729929 658.5415625134483 0 0 0 0 9.0411958418071663 29.273206012879172 0 29.273206012879172 -30.376892986312583 0 0 0 0 114.73665574594634 246.74792013061233 0 246.74792013061233 469.59778758585162 0 0 0 0 -27.249556576671239 257.71664223084372 0 257.71664223084372 689.51861811889103 0 0 0 0 21.019651102783087 23.262457595044616 0 23.262457595044616 2.8120823856463346 0 0 0 0 1.3946344674330433 14.268549710049939 0 14.268549710049939 -3.1505645761886036 0 0 0 0 -33.562072267151962 64.286706359431264 0 64.286706359431264 25.134533834883769 0 0 0 0 77.832705139717291 4.0853153736316017 0 4.0853153736316017 17.372345042165762 0 0 0 0 112.15838161770444 688.43115977134585 0 688.43115977134585 788.60973883178667 0 0 0 0 141.65316513503137 -104.74376105403098 0 -104.74376105403098 332.89505013320013 0 0 0 0 -8.421088291448271 18.413634284191758 0 18.413634284191758 -7.8514886938560551 0 0 0 0 14.32382995410444 62.899223825264926 0 62.899223825264926 -50.907464835723658 0 0 0 0 38.753609837041587 36.318612156159269 0 36.318612156159269 -3.6309138610273806 0 0 0 0 35.015963944670482 39.885726157910696 0 39.885726157910696 -19.931804769890306 0 0 0 0 -68.350237053571618 -313.43218090545997 0 -313.43218090545997 249.88220551003906 0 0 0 0 11.303284685825446 40.771488334538972 0 40.771488334538972 -14.218361452961346 0 0 0 0 17.583638107844308 61.394984105445474 0 61.394984105445474 1.9186469810592826 0 0 0 0 19.931116862109775 62.619815396063132 0 62.619815396063132 -22.668366362311644 0 0 0 0 -3.0689852948724266 45.432236405862923 0 45.432236405862923 2.5769446719977509 0 0 0 0 -2.1892021429888189 54.806165351963415 0 54.806165351963415 -13.693904936154283 0 0 0 0 15.164977370732231 86.139656263956567 0 86.139656263956567 -16.536906038923917 0 0 0 0 -9.9568677850184031 82.590885198456817 0 82.590885198456817 -23.35194866263555 0 0 0 0 11.07190749291356 57.864766426510201 0 57.864766426510201 2.7978094441317864 0 0 0 0 25.23775247487356 80.032003052179789 0 80.032003052179789 -18.713060534602846 0 0 0 0 -36.667775288369739 90.057629009545053 0 90.057629009545053 -16.886471432200779 0 0 0 0 11.802502463775454 78.81522987407152 0 78.81522987407152 -15.280285325112345 0 0 0 0 4.6459058400214417 85.912270342687407 0 85.912270342687407 -12.746528200463217 0 0 0 0 -72.784051983293466 95.810152013993502 0 95.810152013993502 -5.4428738791757496 0 0 0 0 -12.79926087642707 53.635041921897788 0 53.635041921897788 17.395066847505987 0 0 0 0 54.2365085034657 69.599296533946088 0 69.599296533946088 -20.225357210742033 0 0 0 0 16.096392837964231 74.410515703915735 0 74.410515703915735 -3.896463900062372 0 0 0 0 -7.0328500784910233 85.462240884646519 0 85.462240884646519 7.727207494680016 0 0 0 0 -23.840095540574112 105.33770129548611 0 105.33770129548611 -7.3650389175891178 0 0 0 0 -21.773840752889384 78.155252650946352 0 78.155252650946352 -5.9254510823633098 0 0 0 0 427.24686898107666 186.64799980564021 0 186.64799980564021 -75.364065771485912 0 0 0 0 200.55325783704211 384.15250106699023 0 384.15250106699023 -233.56010668153613 0 0 0 0 92.142649211677053 318.00486945963348 0 318.00486945963348 26.163049712326028 0 0 0 0 69.972616133014526 399.77199742632365 0 399.77199742632365 -42.348956876165175 0 0 0 0 45.728945316897807 376.15318409841711 0 376.15318409841711 -25.611636643348902 0 0 0 0 223.9890155474568 -109.80694989414769 0 -109.80694989414769 -142.67903934536025 0 0 0 0 585.00635751701884 43.348137412240249 0 43.348137412240249 -86.32032654358045 0 0 0 0 -684.04006702032348 -815.556780786952 0 -815.556780786952 -80.237251927203033 0 0 0 0 226.05573922448525 -67.379816842606374 0 -67.379816842606374 -926.0747669054108 0 0 0 0 -2145.2534929677349 -1644.0634324036801 0 -1644.0634324036801 -324.5824378589823 0 0 0 0 -652.44578371791431 224.63751631060586 0 224.63751631060586 1021.2160032215688 0 0 0 0 -974.52278900472447 1233.3521852174017 0 1233.3521852174017 -954.53941186563316 0 0 0 0 217.34791449050635 521.08299966697678 0 521.08299966697678 -2541.7262625937874 0 0 0 0 160.22563678258302 145.74429371804581 0 145.74429371804581 -606.47424202958064 0 0 0 0 -3.7848440281122606 6.8074904972976498 0 6.8074904972976498 -11.479635699197928 0 0 0 0 1361.358444749324 661.20623600658291 0 661.20623600658291 -1992.5621863801643 0 0 0 0 1501.6709466473185 520.11496143416298 0 520.11496143416298 -3040.7900068942399 0 0 0 0 873.72672603384672 -52.633242294207776 0 -52.633242294207776 -1486.6215793251467 0 0 0 0 -1275.3511668511564 369.22529234545073 0 369.22529234545073 86.511056555769756 0 0 0 0 -7.8910983359821643 11.17531407319774 0 11.17531407319774 -16.712195742043548 0 0 0 0 931.24049904954518 -206.73373934448318 0 -206.73373934448318 -2078.5324844463175 0 0 0 0 -452.86628344114069 -1.9450048513099318 0 -1.9450048513099318 201.86127487200793 0 0 0 0 -355.29368129137583 489.0344170539538 0 489.0344170539538 -70.902778623196355 0 0 0 0 -60.74458877854704 660.64956008187437 0 660.64956008187437 -785.70932623834778 0 0 0 0 -457.04964645083237 675.48697274411825 0 675.48697274411825 98.177321806339023 0 0 0 0 -186.8856182003417 175.65265217550962 0 175.65265217550962 337.05550138055696 0 0 0 0 -274.46275108524969 283.28321972006233 0 283.28321972006233 544.08721181418514 0 0 0 0 205.33428112649199 267.18711314492248 0 267.18711314492248 1536.8080711590301 0 0 0 0 -176.14564946273094 -223.46413449520333 0 -223.46413449520333 910.91611469154486 0 0 0 0 116.2794259787467 99.566114327830689 0 99.566114327830689 -78.846479268613621 0 0 0 0 109.92035141762972 474.6439888061941 0 474.6439888061941 603.72725860439823 0 0 0 0 -332.16885259104311 296.27524986380695 0 296.27524986380695 -413.41937404105556 0 0 0 0 -32.700344158234657 709.82274607228464 0 709.82274607228464 -1187.3561440968588 0 0 0 0 -12.202782196818475 -6.5427135474131148 0 -6.5427135474131148 -2.380110840163411 0 0 0 0 -357.06201674537806 490.95880813043914 0 490.95880813043914 -656.74947723520745 0 0 0 0 -165.21397747965602 111.13516227413493 0 111.13516227413493 395.15687097842601 0 0 0 0 -60.347350173854153 5.948263663347177 0 5.948263663347177 -0.39838964681051436 0 0 0 0 -92.229499009995507 66.404579800337842 0 66.404579800337842 21.178584166011717 0 0 0 0 -133.56697574151076 112.04282105578022 0 112.04282105578022 231.5714904385095 0 0 0 0 -34.178820743025426 105.04627732611516 0 105.04627732611516 32.125539868706255 0 0 0 0 -54.457859000125609 57.522173240842676 0 57.522173240842676 -24.258890125303878 0 0 0 0 131.42413612167911 332.49147420795634 0 332.49147420795634 6.9187408306752332 0 0 0 0 -46.847687151062914 92.764282489452796 0 92.764282489452796 -8.7409937446035428 0 0 0 0 -89.228795742103102 116.5782960455781 0 116.5782960455781 28.492388201178983 0 0 0 0 -1.6475468451885149 64.840080615729704 0 64.840080615729704 13.77494305855015 0 0 0 0 -227.60293767738631 432.23462404446764 0 432.23462404446764 108.17603058707027 0 0 0 0 -40.236836411724653 276.51229842330213 0 276.51229842330213 202.91192317110472 0 0 0 0 140.67399287006174 280.04300607280311 0 280.04300607280311 -221.24602505663643 0 0 0 0 206.16883484284449 397.48119269287872 0 397.48119269287872 -711.16234455837548 0 0 0 0 257.76968499038321 69.152561508173676 0 69.152561508173676 -1303.5763785031668 0 0 0 0 133.0822689095703 319.90658334378531 0 319.90658334378531 -282.0965284925478 0 0 0 0 158.20613827621219 64.150831370385276 0 64.150831370385276 -167.04237648200069 0 0 0 0 244.05900779116928 162.92859467406379 0 162.92859467406379 -661.31465387518983 0 0 0 0 -17.548177804492298 -179.22490305115934 0 -179.22490305115934 -360.62763099642325 0 0 0 0 68.489686791428539 213.47562655653746 0 213.47562655653746 48.64620830619242 0 0 0 0 177.51459628345583 246.93346351497348 0 246.93346351497348 -604.22745974414283 0 0 0 0 36.384263001531508 307.51312932384644 0 307.51312932384644 -450.86087332174066 0 0 0 0 97.763634098886541 296.67462979789798 0 296.67462979789798 -686.907701774835 0 0 0 0 -509.62383694868004 395.96854048482419 0 395.96854048482419 -126.6872448572376 0 0 0 0 -240.57410016238282 727.81409904455359 0 727.81409904455359 -994.61075215772144 0 0 0 0 -1120.2770329244577 407.38624467887712 0 407.38624467887712 726.15050062292721 0 0 0 0 255.71866272841362 79.584713728458155 0 79.584713728458155 -1496.5095604370072 0 0 0 0 -420.03205091182826 -562.49364193154906 0 -562.49364193154906 -682.6125992351881 0 0 0 0 -124.84705229019619 101.07393075689288 0 101.07393075689288 101.6200896352675 0 0 0 0 339.70201534790249 942.82328633860016 0 942.82328633860016 360.98602155773369 0 0 0 0 -117.38651750307872 -48.52314924653183 0 -48.52314924653183 441.86720008874545 0 0 0 0 -20.444644070974128 32.94074259072346 0 32.94074259072346 -37.739941370390596 0 0 0 0 7.5831181522465272 10.053927518291516 0 10.053927518291516 -17.254588397657201 0 0 0 0 225.22650695823722 -12.374604172302497 0 -12.374604172302497 138.37385824436933 0 0 0 0 596.13846031398862 -292.37846813446959 0 -292.37846813446959 -1585.6138888412243 0 0 0 0 -1387.1506901357789 -462.5126866609935 0 -462.5126866609935 3533.8104226305149 0 0 0 0 -151.083234685153 843.67951981629449 0 843.67951981629449 459.43082794224028 0 0 0 0 -19.194353699807255 26.153008400346451 0 26.153008400346451 -29.468834940107484 0 0 0 0 470.06764261065018 1083.2100310900237 0 1083.2100310900237 33.186887842006399 0 0 0 0 281.69550756307581 66.751958155113243 0 66.751958155113243 435.36748335376433 0 0 0 0 47.01389870325238 16.592610545900243 0 16.592610545900243 -69.328714316630794 0 0 0 0 -12.510615469313052 -17.683898835028231 0 -17.683898835028231 -87.777407544672315 0 0 0 0 -110.25345702896448 270.61479153827531 0 270.61479153827531 626.45709906908451 0 0 0 0 -6.5510773508661089 16.548942342986066 0 16.548942342986066 -15.213329142024016 0 0 0 0 211.60207173770505 253.03855492486764 0 253.03855492486764 119.32657709871091 0 0 0 0 26.042412723250891 52.76669467729198 0 52.76669467729198 78.515353226372099 0 0 0 0 -0.026625066178894485 193.92327440449753 0 193.92327440449753 753.98802447861453 0 0 0 0 -103.88670417577305 123.76468190584819 0 123.76468190584819 -305.75440824712132 0 0 0 0 -10.720581443694151 10.962693375035812 0 10.962693375035812 -3.2628292386176341 0 0 0 0 159.69180841042817 391.23764501995174 0 391.23764501995174 202.94587541877263 0 0 0 0 226.91595711989521 243.99090293536938 0 243.99090293536938 -146.13464469854807 0 0 0 0 -101.05188157908015 767.02644831699217 0 767.02644831699217 -1698.9898105944885 0 0 0 0 -93.750025077844839 647.9753722950918 0 647.9753722950918 -650.71801690822031 0 0 0 0 -278.89272201651693 167.43861193552948 0 167.43861193552948 -212.61225477039625 0 0 0 0 -125.44745716984289 110.51648380988991 0 110.51648380988991 -242.24677889644954 0 0 0 0 -1180.7489935068124 927.49208409788844 0 927.49208409788844 -315.80531011815037 0 0 0 0 -2.7179363974366453 6.2713600080412846 0 6.2713600080412846 -12.587242221708351 0 0 0 0 477.74596144495445 -46.917417196993483 0 -46.917417196993483 -1897.3701411171223 0 0 0 0 343.61592635699071 -60.484121311786112 0 -60.484121311786112 -300.06415601947811 0 0 0 0 766.9088163868837 515.82002251843733 0 515.82002251843733 -271.93741854891414 0 0 0 0 -17.156057997972312 202.60973967540122 0 202.60973967540122 -165.53472691796924 0 0 0 0 -9.4177583007841044 17.645570675821958 0 17.645570675821958 -28.667044402139481 0 0 0 0 -116.37750377124758 224.51992562317537 0 224.51992562317537 -330.49720746565436 0 0 0 0 225.19456000943956 321.10117622297548 0 321.10117622297548 -702.07150570819795 0 0 0 0 397.14849811427302 185.8598928855572 0 185.8598928855572 -1076.2088409056305 0 0 0 0 307.66426715966827 57.411305847823314 0 57.411305847823314 -537.44411375242635 0 0 0 0 286.12409109288274 527.44672739620728 0 527.44672739620728 -968.53632078499686 0 0 0 0 198.5738276495731 426.93760773413123 0 426.93760773413123 -672.80070743188844 0 0 0 0 56.653964258941414 457.45946354847911 0 457.45946354847911 -147.21502866515948 0 0 0 0 218.89745410274918 587.72111165926981 0 587.72111165926981 -547.29930546425021 0 0 0 0 208.28441638440927 504.46566930503832 0 504.46566930503832 -642.37641948022065 0 0 0 0 -110.80032724097327 724.91183784514942 0 724.91183784514942 -77.587052732495067 0 0 0 0 242.11367862955012 587.10568686727675 0 587.10568686727675 -673.38484734730446 0 0 0 0 -1158.2837368768669 445.86873489431127 0 445.86873489431127 -328.58826921487343 0 0 0 0 -1.9093667124543572 1074.8113123921066 0 1074.8113123921066 -1615.2193449247652 0 0 0 0 99.522582574549233 8.7664369270087263 0 8.7664369270087263 -6.8363510674389545 0 0 0 0 88.088322868825344 135.37729923940424 0 135.37729923940424 -255.47735376663331 0 0 0 0 -124.69535262047793 65.539287584302656 0 65.539287584302656 502.74008383438013 0 0 0 0 -400.2961397737854 233.32994903247891 0 233.32994903247891 397.00081572543422 0 0 0 0 -223.00092684870287 311.09386604286556 0 311.09386604286556 5.7983444656056236 0 0 0 0 -307.18950563173348 -83.358129483509401 0 -83.358129483509401 -1071.0219536882942 0 0 0 0 -327.61938101609849 -21.725952590164525 0 -21.725952590164525 -93.209085751966995 0 0 0 0 -285.97552377531247 425.99687187542077 0 425.99687187542077 -368.4477023002255 0 0 0 0 -251.3143928179561 415.91526422835886 0 415.91526422835886 -411.05183280364145 0 0 0 0 -271.76097624202521 388.93222531135416 0 388.93222531135416 -411.08999945114192 0 0 0 0 -291.91207846163888 336.99553843427202 0 336.99553843427202 -340.73137867395417 0 0 0 0 -279.64669375141966 337.60737555289234 0 337.60737555289234 -348.918889855413 0 0 0 0 -313.8754118969664 408.21215373871382 0 408.21215373871382 -376.63226837650291 0 0 0 0 -324.99609739179141 367.11323108649231 0 367.11323108649231 -340.41696472268086 0 0 0 0 -235.57638857879647 363.4644794194428 0 363.4644794194428 -471.8023922702705 0 0 0 0 -212.58208071063564 309.13220418690616 0 309.13220418690616 -377.16316759933034 0 0 0 0 -44.140054787645965 24.01282607438938 0 24.01282607438938 24.288739659949698 0 0 0 0 -245.2146528721496 275.98454238836712 0 275.98454238836712 -308.13213139789877 0 0 0 0 -69.038618003709587 65.161641341005534 0 65.161641341005534 -37.889425661071954 0 0 0 0 -58.94108964265763 51.409322533396789 0 51.409322533396789 29.720972219467257 0 0 0 0 -264.19207892094346 409.39331988140293 0 409.39331988140293 -436.45092438412394 0 0 0 0 -232.93502468039514 409.34113341385091 0 409.34113341385091 -515.33528558138642 0 0 0 0 -272.16684888245072 385.40410672950384 0 385.40410672950384 -364.27864190064429 0 0 0 0 -269.75729416408285 345.95942090915196 0 345.95942090915196 -509.56087750949519 0 0 0 0 -266.57922848177259 330.15488353941691 0 330.15488353941691 -553.03549767691948 0 0 0 0 -102.39180025769383 231.49596318601471 0 231.49596318601471 -517.00139112457691 0 0 0 0 -55.856901589926565 323.98600876708588 0 323.98600876708588 -698.73359489495124 0 0 0 0 -1.318540263142495 554.1857718811807 0 554.1857718811807 -482.35835117755778 0 0 0 0 -54.888974088207043 63.56177849446469 0 63.56177849446469 -43.890322461869602 0 0 0 0 -148.57304514171483 230.06400811618369 0 230.06400811618369 -518.56897116706091 0 0 0 0 -245.70122104213806 606.64370296530251 0 606.64370296530251 -475.0920776814819 0 0 0 0 201.96380303073283 440.44096481132647 0 440.44096481132647 -647.15981016632577 0 0 0 0 18.168549063080718 319.82205205136779 0 319.82205205136779 -537.06069866488906 0 0 0 0 -56.127636650255411 61.328633583995071 0 61.328633583995071 -45.965552649924973 0 0 0 0 49.520814418430746 494.97524504486682 0 494.97524504486682 -361.31737252847961 0 0 0 0 32.995950460646782 436.82900281262664 0 436.82900281262664 -562.95988493442565 0 0 0 0 -333.87977253885037 745.42790633659024 0 745.42790633659024 -775.18233695490449 0 0 0 0 -346.19439852648065 424.62865705417789 0 424.62865705417789 -366.82319328168342 0 0 0 0 -426.38865005048137 333.98120830885819 0 333.98120830885819 -338.99443878747115 0 0 0 0 -356.65469718483655 453.01240602988764 0 453.01240602988764 -424.21825305264065 0 0 0 0 -360.57068734975473 246.32569432603486 0 246.32569432603486 -934.9668444599065 0 0 0 0 -667.99670979164875 348.23994444098389 0 348.23994444098389 -444.25381485234539 0 0 0 0 -276.60156659857603 622.37041442594636 0 622.37041442594636 -733.56955533350992 0 0 0 0 -259.90205005608732 429.66396327728944 0 429.66396327728944 -556.92285226292734 0 0 0 0 -311.81232212448958 482.13144200744864 0 482.13144200744864 -403.81555989166372 0 0 0 0 -282.97743502048979 442.40159063673855 0 442.40159063673855 -496.05660555511713 0 0 0 0 -275.22965337438109 414.4151102775686 0 414.4151102775686 -239.42126309488958 0 0 0 0 -258.26916874593007 516.6618130421848 0 516.6618130421848 -452.80722300410707 0 0 0 0 -269.50480884367425 501.97488854247786 0 501.97488854247786 -465.05707065245952 0 0 0 0 -234.98347295410349 387.70962879704894 0 387.70962879704894 -415.39056552928923 0 0 0 0 -225.00168022801518 314.87509984278586 0 314.87509984278586 -319.10209521724755 0 0 0 0 -296.89517771269311 404.76828828299131 0 404.76828828299131 -294.80493721825769 0 0 0 0 -243.01276829125709 342.53811685901019 0 342.53811685901019 -237.6869151727733 0 0 0 0 -191.99840856180163 210.64132978794714 0 210.64132978794714 -192.41031624712923 0 0 0 0 -12.699052166673937 215.17500299013045 0 215.17500299013045 -245.0407303510583 0 0 0 0 -275.57487275984022 347.85870306081051 0 347.85870306081051 -511.71730545844548 0 0 0 0 -289.40562247825437 344.53264615535591 0 344.53264615535591 -312.11508243159187 0 0 0 0 -203.99191077105934 215.04692396169412 0 215.04692396169412 -270.97370746880188 0 0 0 0 -214.07368536010836 340.81218572252419 0 340.81218572252419 -333.94877269744757 0 0 0 0 -292.23052819965233 353.488198868974 0 353.488198868974 -350.8241040041903 0 0 0 0 -299.11823924543569 328.57138308862341 0 328.57138308862341 -265.37963713449426 0 0 0 0 4.4087807710241975 4.8073071592554442 0 4.8073071592554442 -3.5722746923975421 0 0 0 0 -283.99024590350746 353.01447984534752 0 353.01447984534752 -331.09855017480731 0 0 0 0 -310.72047965084494 323.57119491623234 0 323.57119491623234 -344.01410507314722 0 0 0 0 -210.30274528139853 248.99836698931904 0 248.99836698931904 -196.85890853829915 0 0 0 0 14.378286932902824 16.131027576002602 0 16.131027576002602 7.5361258344446185 0 0 0 0 29.623301039787407 26.799557078587704 0 26.799557078587704 1.653678171040994 0 0 0 0 -27.972438657103339 69.870947109353438 0 69.870947109353438 -45.900327126480988 0 0 0 0 -14.249977489365847 56.988229741327814 0 56.988229741327814 -50.590947813885577 0 0 0 0 18.012220267093653 65.804954860501311 0 65.804954860501311 -231.70504143346625 0 0 0 0 -135.6121691467124 195.47514933697676 0 195.47514933697676 -183.73101635303829 0 0 0 0 -73.095709167930181 267.42375494466251 0 267.42375494466251 -234.36914869624161 0 0 0 0 -108.53640369558707 96.861057075402641 0 96.861057075402641 -2.9861070957304037 0 0 0 0 -5.7665780381294098 23.334626664063972 0 23.334626664063972 12.797070944545681 0 0 0 0 -16.980620234098751 55.34158732603828 0 55.34158732603828 -44.718799666647101 0 0 0 0 -273.67623444942001 270.74614625891991 0 270.74614625891991 -278.14129036437953 0 0 0 0 19.041286558373315 31.058059930506445 0 31.058059930506445 -31.804400930461867 0 0 0 0 45.443638275246485 299.26419921912748 0 299.26419921912748 -203.34431335059344 0 0 0 0 227.84205487443251 89.749764348045574 0 89.749764348045574 -281.71939540192761 0 0 0 0 -44.006840477042715 136.68590113704704 0 136.68590113704704 -397.05857889773324 0 0 0 0 -80.877689384651603 208.56699161939468 0 208.56699161939468 -101.78431613575958 0 0 0 0 -10.043925316189416 250.03872579090239 0 250.03872579090239 -185.68569712306271 0 0 0 0 -144.14311567957338 212.1796287163379 0 212.1796287163379 -191.78607037796064 0 0 0 0 26.493133090305832 11.260784559462422 0 11.260784559462422 5.6565346456968086 0 0 0 0 36.787262017271132 34.450265068979206 0 34.450265068979206 -70.468114175397204 0 0 0 0 42.753160266685882 337.00877936363395 0 337.00877936363395 -544.83716715810442 0 0 0 0 15.023889452422736 21.862722275538545 0 21.862722275538545 -59.42363868393295 0 0 0 0 -127.86264123691944 239.16325587993197 0 239.16325587993197 -305.29424886467586 0 0 0 0 1.5417186140526269 3.3403117738066825 0 3.3403117738066825 3.8610605303328782 0 0 0 0 -86.940340760142135 25.870794760316585 0 25.870794760316585 611.88415251445258 0 0 0 0 35.129918196966173 -20.487716825133248 0 -20.487716825133248 -10.778613024012884 0 0 0 0 8.7131990312675498 8.3421772350031276 0 8.3421772350031276 7.1566746355259312 0 0 0 0 -116.35382489839685 99.579681314891786 0 99.579681314891786 -75.342478423146531 0 0 0 0 -57.016457091987832 143.968346189562 0 143.968346189562 -33.578556745807873 0 0 0 0 -148.30800873291446 211.29006678476435 0 211.29006678476435 -117.2273258731002 0 0 0 0 -140.9868905217154 222.35572512725776 0 222.35572512725776 -100.50708617267446 0 0 0 0 -205.16547340480611 434.88582994566241 0 434.88582994566241 -241.32174895599746 0 0 0 0 -219.30743405819521 367.62322089402733 0 367.62322089402733 160.60992956179689 0 0 0 0 -31.126662783397478 541.08125249070144 0 541.08125249070144 -226.52734537661308 0 0 0 0 402.47295302894963 726.97793301878755 0 726.97793301878755 -272.94334434979828 0 0 0 0 -61.169471769593656 606.19984032931825 0 606.19984032931825 477.05947595492034 0 0 0 0 225.31958205347473 127.1253456490449 0 127.1253456490449 24.068279576502391 0 0 0 0 798.30239294706553 700.71449480709271 0 700.71449480709271 372.23480889992788 0 0 0 0 640.27542672187883 -201.28193104445108 0 -201.28193104445108 -37.350342263671337 0 0 0 0 275.84715941993636 93.592908263890422 0 93.592908263890422 -258.19197974163762 0 0 0 0 194.28693080006633 620.80554542588288 0 620.80554542588288 929.40852421904128 0 0 0 0 9.9209201672448444 4.8794084210003987 0 4.8794084210003987 2.0128661316715153 0 0 0 0 238.88178970757144 465.06087704228685 0 465.06087704228685 747.47193723740929 0 0 0 0 -306.6373689468528 47.919241293348023 0 47.919241293348023 -775.48049614710908 0 0 0 0 -1088.1310017852156 -161.16969639450599 0 -161.16969639450599 -640.87681457112194 0 0 0 0 31.470404646235693 -210.26622708547256 0 -210.26622708547256 -146.59580421877763 0 0 0 0 -282.37121069041314 134.72157342560604 0 134.72157342560604 -470.38176742164524 0 0 0 0 188.07827138670837 527.13487379921571 0 527.13487379921571 -265.60420197217718 0 0 0 0 -355.9552847658706 337.13098276932942 0 337.13098276932942 -100.12280513077712 0 0 0 0 -798.44794163215556 794.23267956349446 0 794.23267956349446 -555.95204674606521 0 0 0 0 -725.36703779298841 431.7698420300585 0 431.7698420300585 39.219228662557725 0 0 0 0 -98.175289097431232 670.97551098082931 0 670.97551098082931 -58.22651756346022 0 0 0 0 -327.00288801248826 469.01584472030981 0 469.01584472030981 47.148962190542079 0 0 0 0 -257.01798166021763 300.85773487838014 0 300.85773487838014 -70.540888335344789 0 0 0 0 59.90795780649205 -14.460525164802675 0 -14.460525164802675 -323.83587268798146 0 0 0 0 575.71511764349998 2.905243059816712 0 2.905243059816712 -486.35710577329883 0 0 0 0 271.74189445245429 296.6140562392502 0 296.6140562392502 -380.59405775139749 0 0 0 0 919.48382707381097 547.99569813412018 0 547.99569813412018 -286.82886170006532 0 0 0 0 264.33665382731124 357.74537888291889 0 357.74537888291889 -114.84070585678273 0 0 0 0 363.38729291842901 102.15231019244675 0 102.15231019244675 -292.94415813826708 0 0 0 0 140.39435796481848 57.792589624887114 0 57.792589624887114 -131.89446877998125 0 0 0 0 78.686172398651252 149.34208626467807 0 149.34208626467807 -109.92488802441585 0 0 0 0 69.827453354468162 164.59655485746771 0 164.59655485746771 152.06031944343704 0 0 0 0 -85.845745455684664 376.47793023509439 0 376.47793023509439 -115.77316581582227 0 0 0 0 -93.873146353733318 348.31489235280969 0 348.31489235280969 65.501069578876923 0 0 0 0 -105.91126486744997 247.5851686740541 0 247.5851686740541 346.46694285162084 0 0 0 0 -173.61933812008647 469.11416090718922 0 469.11416090718922 -56.907661223375953 0 0 0 0 -145.62002960239988 368.21653797353974 0 368.21653797353974 166.85459452340729 0 0 0 0 -39.135154731498915 260.89791898950352 0 260.89791898950352 165.07394912855602 0 0 0 0 169.43663411476882 351.16312711350838 0 351.16312711350838 -42.402186891573365 0 0 0 0 82.335715376917506 296.98405946498679 0 296.98405946498679 -59.917029583215481 0 0 0 0 80.102776917861775 321.94182736170114 0 321.94182736170114 -98.181224630723591 0 0 0 0 74.158437283709645 294.44697242490656 0 294.44697242490656 -140.43639845919461 0 0 0 0 -214.76838377528475 421.54127803983647 0 421.54127803983647 24.757327969258768 0 0 0 0 124.22714061323495 200.13328045677918 0 200.13328045677918 -344.97306934912922 0 0 0 0 -53.182608147079009 542.18212447540282 0 542.18212447540282 -536.59038279480592 0 0 0 0 46.067934037644591 306.39167059459032 0 306.39167059459032 -145.29432597423147 0 0 0 0 122.94388668505871 175.64053561904007 0 175.64053561904007 -86.329460303400992 0 0 0 0 73.749185607128311 249.74026050922839 0 249.74026050922839 -158.56903850150411 0 0 0 0 -177.67522056343296 276.83306390518919 0 276.83306390518919 5.0860151566885179 0 0 0 0 -600.74825901056465 334.77067329696729 0 334.77067329696729 3.036169449572526 0 0 0 0 7.6437390662067628 397.00446598749386 0 397.00446598749386 -637.19331166928168 0 0 0 0 47.586116280508577 242.10546876240915 0 242.10546876240915 -225.95166641339529 0 0 0 0 4.0970509041653713 230.8138719520939 0 230.8138719520939 -120.91681980814246 0 0 0 0 509.32527047183248 132.37326271102575 0 132.37326271102575 -151.12936463702499 0 0 0 0 4.0930490626703033 4.4721678808791694 0 4.4721678808791694 3.5917869248036709 0 0 0 0 21.077593719324796 237.23742987389414 0 237.23742987389414 -144.36273803404038 0 0 0 0 44.943436958332313 171.33166105308919 0 171.33166105308919 -129.33535308509818 0 0 0 0 -211.43646158449701 112.73841230769176 0 112.73841230769176 -21.404141943232389 0 0 0 0 -171.20147994157742 100.38403652057241 0 100.38403652057241 -59.571836122995592 0 0 0 0 6.8309601624512766 11.402157069448094 0 11.402157069448094 14.357819361981626 0 0 0 0 -211.24013854568511 112.6952990890486 0 112.6952990890486 -82.604019830308971 0 0 0 0 81.344640641123988 31.521859145374037 0 31.521859145374037 8.5406910615274683 0 0 0 0 14.758897674814904 -1.1744470562376819 0 -1.1744470562376819 -5.9425403435509452 0 0 0 0 -378.54830550344195 180.71808737669926 0 180.71808737669926 -65.154590566846309 0 0 0 0 -11.476874909711597 56.483299989690693 0 56.483299989690693 -7.0083922865832449 0 0 0 0 -399.90580295014661 153.71991542841715 0 153.71991542841715 -51.678078480504155 0 0 0 0 -250.75512527770479 119.4598220554908 0 119.4598220554908 -48.715714599951752 0 0 0 0 -267.66059826934361 155.3116099134204 0 155.3116099134204 -38.844017641895334 0 0 0 0 -354.61121938043016 88.862697461760263 0 88.862697461760263 62.842341267096344 0 0 0 0 -13.97411813928403 10.133993583764109 0 10.133993583764109 6.1241775990973935 0 0 0 0 -59.013964350509923 20.084447756453301 0 20.084447756453301 1.6742210309021175 0 0 0 0 -34.296637216408271 19.515917949596769 0 19.515917949596769 5.865243313688552 0 0 0 0 2.0090149817350493 34.094042443240767 0 34.094042443240767 -2.5635051317584328 0 0 0 0 -351.79779247055012 -21.776942967708237 0 -21.776942967708237 19.002780506853014 0 0 0 0 -20.186689262118861 1.3273416861109126 0 1.3273416861109126 0.13931818238290816 0 0 0 0 -115.99540474073729 57.475785310758511 0 57.475785310758511 8.4917141584446654 0 0 0 0 -30.628988201995782 48.360210292915497 0 48.360210292915497 12.075691447017903 0 0 0 0 -116.5461868547718 60.600980633826111 0 60.600980633826111 -11.504858308355324 0 0 0 0 -209.28605876638903 60.010281787443091 0 60.010281787443091 11.04577941001844 0 0 0 0 -342.30561465962091 65.925720197308692 0 65.925720197308692 19.306720272245002 0 0 0 0 -242.65908586284786 102.09186192371271 0 102.09186192371271 11.944626486234483 0 0 0 0 -185.5211403722351 89.723153001821629 0 89.723153001821629 4.0581356521433918 0 0 0 0 -207.60154212103225 133.73218587603333 0 133.73218587603333 -17.312672772224687 0 0 0 0 -181.07760539172159 120.39529221486373 0 120.39529221486373 -10.640528100164374 0 0 0 0 -196.64176039486483 78.499893469481322 0 78.499893469481322 24.02328671259238 0 0 0 0 -211.03872434858931 106.23599859971728 0 106.23599859971728 0.81057094574498478 0 0 0 0 -236.7605475023156 106.35877774627079 0 106.35877774627079 83.021538920038438 0 0 0 0 -243.63206186177558 127.47513662990605 0 127.47513662990605 19.461122263968718 0 0 0 0 -185.74979132805311 192.67524364250858 0 192.67524364250858 -11.192192613722 0 0 0 0 34.411345132739513 51.462330545825111 0 51.462330545825111 -15.614021268305805 0 0 0 0 -157.49297956643568 177.14630544068496 0 177.14630544068496 -35.826369592934498 0 0 0 0 -193.89000141095312 196.55992256197169 0 196.55992256197169 23.464558562307502 0 0 0 0 -105.2134747315431 288.48775969769486 0 288.48775969769486 5.3942121069703717 0 0 0 0 325.08327665057732 347.10101461536033 0 347.10101461536033 -57.689446594493347 0 0 0 0 235.90133967516886 -95.969718157997704 0 -95.969718157997704 211.02844860027835 0 0 0 0 -181.48917403214728 53.488956534949466 0 53.488956534949466 214.78175338658912 0 0 0 0 -143.08743504314771 304.54267045217694 0 304.54267045217694 247.62523692567629 0 0 0 0 
</DataArray>
<DataArray type="Float64" Name="cross_section_updated" format="ascii">
1 1 1 1 1 0.0076643662337344612 1 0.0038555058555412372 1 1 1 0.0078019023273232305 1 1 1 1 1 1 1 1 1 1 1 1 0.0025261996461350827 1 1 0.0016548892815972244 1 1 1 1 1 1 0.0041353994734752986 1 1 1 1 1 1 1 1 1 1 1 1 1 1 1 1 0.01003144557977332 1 0.010167245552377357 1 1 1 1 1 1 1 1 1 1 1 1 1 1 0.01043291568065921 1 1 1 1 1 1 1 1 1 0.0088483394143823307 1 1 1 1 1 0.0090348124331825 1 1 1 1 1 1 0.013062869390398295 1 0.011596862201453513 1 1 1 1 1 0.011713804433898974 1 1 1 1 1 0.009750845589020958 1 1 1 1 1 1 1 1 1 1 1 0.0099161734468540454 0.010018978637208575 1 1 0.010181116960352739 1 0.010000054974180696 0.010052081580651066 1 1 1 1 1 0.0096750586521240252 0.010287804065433434 0.010292843644671618 1 1 1 1 1 1 1 1 1 1 0.012237705643595002 1 1 1 0.012801848733342763 1 1 1 1 1 1 1 1 1 1 1 1 0.010156150313502581 1 1 1 1 0.010115858374090049 1 1 1 0.0095733046806516387 1 1 0.0098695394281864742 1 1 1 1 1 1 1 1 1 0.010095099799609868 1 0.010231824736946511 1 1 1 0.012583210749190374 1 1 0.0090629001906028933 0.0077904104311173894 1 1 1 1 1 1 1 1 0.0030618668687524449 1 0.0091000793349983108 1 0.008555909753118443 1 1 1 1 1 1 0.0091934923611530356 1 1 1 1 1 1 1 0.012026581250674198 0.010018162074260525 1 0.0099568559156407374 0.0051449168530817643 1 0.0077293668993489995 1 1 1 0.0099732875606408349 1 1 1 1 1 1 1 1 0.011633806688732762 1 1 1 1 1 0.010535989966580485 1 1 1 1 1 1 1 1 1 1 1 1 1 1 1 1 1 1 1 1 1 1 1 1 1 1 1 1 1 1 1 1 1 1 1 1 1 1 1 1 1 1 1 0.010173994072114279 1 0.010499682670879598 1 1 0.011634825027961294 1 0.0099249714050123165 1 1 1 0.014470382795319269 1 1 0.0083105284714942856 0.012124818106692588 1 1 1 0.0083774299839273897 0.011949938358168759 1 1 1 1 1 1 0.0091021888388138489 1 1 1 0.012164859054412988 1 1 1 1 1 1 0.011923502664744505 1 1 0.012182895061668475 1 1 0.010014282227002538 0.0069279293375318525 0.0089683454218249178 0.011356022020375774 1 0.012338626104024808 0.009341019352806533 1 1 1 1 1 0.0098502289618620613 1 1 1 1 1 1 1 0.0071100074880668801 1 0.01004037633685409 1 1 1 1 1 1 1 0.010903913108134003 1 1 1 1 1 1 1 1 0.011259236956042022 0.011751759355561976 1 1 0.0099878789312260116 1 0.01612242235433517 1 0.0069156777287850968 0.0096559417355566585 1 1 1 0.011804566870567704 1 0.012448004059526528 0.0035797794159845193 0.014094201456848879 0.0066569637587827087 1 1 1 1 1 1 1 0.013671275651362537 0.0056505856189206574 1 1 1 0.0053320259491960419 1 1 0.014923110711225693 1 1 1 1 1 1 1 0.011142230474145143 1 1 1 1 1 1 1 1 1 0.012199339312035117 1 1 1 0.0097812810979233215 1 0.0099974270062200693 1 1 0.010488016506103379 1 1 1 1 1 0.0096767582170981595 1 1 1 0.0099158138833666445 1 1 1 1 1 1 1 0.010143715150860095 1 1 1 0.012253483668636149 1 1 1 1 1 1 1 1 1 1 1 1 1 1 1 1 1 1 1 0.0088728501708378454 1 1 1 1 1 1 1 1 1 1 1 1 1 1 1 1 1 1 0.014448659370144057 1 1 1 1 0.010461973705499131 1 1 1 1 1 1 1 1 0.014076648115095548 1 1 1 0.0096951163968974387 1 1 0.010023920690931734 1 0.0096765592444775957 1 1 1 1 0.013474016744790832 1 1 1 0.0099871267439054692 1 0.010701102231494536 0.0099998975832138459 0.006821516749398647 1 1 1 1 1 1 1 1 1 1 1 1 1 0.012163041244173195 1 1 0.0098607219152354111 1 1 0.015427739680878308 1 1 1 1 1 1 1 0.011784536608139516 1 0.012405772959966962 1 1 0.01142064592517511 1 0.010448823825525075 1 1 1 1 1 0.010001444406830831 1 0.014435497041978905 1 1 0.013172858510370249 1 0.0096992786240397005 1 1 1 0.012521383809923334 0.0096123731214283054 1 1 0.011259193776795462 0.0065129921570250202 0.010965399698224396 0.0085573709040207072 1 1 1 1 1 0.011769016724394621 0.011907175573608701 1 1 1 1 1 0.0099993741184929257 1 1 0.013830662804508446 1 1 1 0.010758891016497754 1 1 0.013748819262060369 1 1 1 1 1 1 1 1 1 1 1 1 1 0.012649443992829974 1 1 1 1 1 0.01794684031279152 1 1 1 1 1 0.016796515224410107 1 1 0.010748551600721933 0.015679198854448205 1 1 0.010218846042524578 1 1 1 1 1 1 1 1 1 1 0.010719798802339541 1 1 1 1 1 0.00783248690385209 1 1 1 1 1 1 0.0091802393113565809 1 1 1 1 1 1 1 1 0.009941090180378441 1 1 1 1 1 0.018854917273246084 1 1 1 1 1 1 1 0.0097885129261322378 1 1 1 1 1 0.010874765511343608 1 1 1 1 1 0.0088891136413043262 1 1 1 1 1 1 1 0.016005279815777554 1 1 1 1 1 1 0.014104268668003496 1 1 0.012103518210682791 1 1 0.0099941068094108326 1 1 0.0036388938117851016 0.010050482212840585 1 1 1 1 1 1 1 1 1 1 0.017319537159452884 1 1 0.001826575417969073 1 1 1 1 1 0.0078084205744697998 1 0.010001205604239633 1 1 1 0.0079086108194752792 1 0.013981794376916205 0.009961639849403351 1 1 1 1 1 1 1 0.013639792965680672 1 1 0.0056430582616660424 1 1 1 1 1 1 1 1 1 1 1 0.0098488175570717491 1 1 1 1 1 0.0095793317976145733 0.01134867163815037 1 1 1 1 0.010091970440753398 1 1 1 1 1 0.0085093131308582662 1 0.0081530284120992121 1 0.010921640937242814 0.005036489778348122 1 1 1 1 1 1 1 1 0.0032525297112974624 0.0079378513988098004 1 1 0.0079618664282997825 1 1 1 0.010035367716651269 1 0.0099997161966193446 1 1 0.009322234267824317 0.0099478428782083309 0.010219082215381439 1 1 0.0060799345068007953 1 1 1 1 0.010429928903640182 1 1 1 1 0.011248730205984195 1 1 0.0051529722535008787 1 1 1 1 1 1 1 1 1 1 1 0.014471364524959805 1 1 0.01025728816308881 1 0.012256257434498999 1 0.0084797197558768023 1 1 1 1 1 0.009490015790873458 1 1 1 0.014885237930828472 1 1 0.013041429542738542 1 1 1 1 1 1 1 1 1 1 1 1 1 1 1 1 1 1 1 1 1 1 1 1 1 1 1 1 1 1 1 1 1 1 1 1 1 1 1 1 1 0.011052816817749764 1 1 1 1 1 1 1 1 1 1 1 1 1 1 1 1 1 1 1 1 0.0072095137373452507 1 1 1 1 1 1 1 1 1 1 0.0093403830085853415 1 1 1 1 0.0081086021783794843 1 1 1 1 1 1 1 1 0.0070447535806782841 1 1 6.0698669007708261e-10 1 1 1 1 1 1 1 1 1 0.010148368170629316 1 1 1 1 1 0.014539432850623375 1 1 1 1 1 1 1 1 1 0.010011606028396042 0.012185337804898149 1 1 1 1 1 1 1 1 1 1 1 1 1 1 1 1 1 1 1 1 1 1 0.0017288796672432528 1 1 1 1 0.010610720110453248 1 1 1 1 1 0.0099173796292739286 1 1 1 1 0.0096087514896641274 1 1 1 0.010130759058200343 1 1 1 1 1 0.0079974084949862925 1 1 1 1 1 1 1 1 1 1 0.013290399637417379 1 0.011834002505744111 0.0099700301251146872 1 1 1 1 1 1 0.0063103708503302464 1 1 1 1 1 1 1 1 1 1 1 1 1 1 1 1 1 1 1 1 1 0.0086197188792284281 1 1 1 1 0.010423921373632688 1 1 1 1 1 1 1 1 1 1 1 1 1 1 1 1 1 1 1 1 1 1 1 1 1 1 1 1 1 1 1 1 1 1 1 1 1 1 1 0.0067546951654492999 1 1 1 1 1 1 1 1 1 1 1 1 1 1 0.010113996547753117 1 1 1 1 1 1 1 1 1 0.0099557586314499916 1 1 1 0.0096041434736140116 1 0.010554893590597908 1 0.00980480596214936 1 1 1 1 0.01001973406700773 1 1 1 1 1 1 1 1 1 1 1 1 0.0044435906979756815 1 1 1 1 1 1 1 1 1 1 1 1 1 1 1 0.005729340545113825 1 1 1 1 1 1 1 1 1 1 1 1 1 1 1 1 1 1 1 1 1 1 1 1 1 1 1 1 1 1 1 1 1 1 1 1 1 0.0098438411364866786 1 1 1 1 0.010065457289172507 1 1 1 0.010760629243876428 1 1 1 1 0.010385491324064623 1 1 1 0.0082348457007212078 1 1 1 1 1 1 1 1 0.0077359816203730995 1 1 1 1 1 1 1 1 1 1 1 1 1 1 1 1 1 1 1 1 1 1 1 1 1 1 1 1 1 1 1 1 1 1 1 1 1 0.015690078735717088 1 0.011421816625790497 1 1 0.009850013610626214 1 1 1 1 1 1 1 1 0.0081226379870402987 1 1 1 1 1 1 1 1 1 1 1 1 1 1 0.010101690076938811 1 1 1 1 1 1 1 1 1 1 1 1 1 0.00067053886500910431 1 1 1 0.0051001713966405742 0.00082010617969684174 1 0.019056010270080637 1 0.0099439128810208128 1 1 1 1 0.0099880386662512602 1 0.0093621651333165232 0.0019698427905127588 1 1 1 1 1 0.0099721363682961743 0.0061012199671921161 1 1 1 0.0052610066385656226 1 1 1 1 1 0.0095983459626261345 1 1 1 1 0.0086001807679861111 1 1 1 0.0094960509886676606 1 1 1 1 1 1 1 1 1 1 1 1 1 1 0.0079748669692861346 1 1 1 1 1 1 1 1 1 1 1 1 1 1 0.0099122815332049093 1 1 0.0049886836826158222 1 1 1 1 0.0062779368941773429 0.0099465476621441 0.00758804687130592 1 0.0072217312350045127 1 0.0099378096688494452 1 1 1 0.0027764226962629576 1 1 0.013569571226653887 1 1 1 1 1 0.0099891177692148208 1 1 1 1 1 1 0.0083984092383226766 1 1 1 1 1 1 1 1 1 0.010113479032328426 1 1 0.011119575712498487 1 0.012420515185168922 1 1 1 1 1 1 1 1 0.010617785546575588 1 1 0.0099549327431334086 1 1 1 1 0.011626191876123425 1 1 1 1 1 1 1 1 0.0099522082204633149 0.014059999107451078 1 1 1 1 1 1 1 1 1 1 0.0072980703866665324 1 0.011513428207842149 1 0.0058154886158744718 1 1 1 1 1 0.012362972580131292 1 1 0.0085750696592591987 1 1 1 1 1 1 1 1 0.0053257296113431579 1 1 1 1 1 1 1 0.010714859003682232 1 1 0.01442913900161664 1 1 0.0009488437533631041 1 0.011184024440738547 0.012738315945526152 1 0.0045922728074283842 1 1 0.0096401075967674256 1 1 1 1 0.0089106635901660021 0.014510684140707459 1 0.0075799901540402961 1 0.0053986136874252574 1 1 1 1 0.0050584361645129288 0.0056641412895898236 1 1 1 1 0.012424576127748237 1 1 1 0.0025792397172494964 1 1 1 1 0.013944372564690413 1 1 1 0.013768969309318084 0.0032909680745449232 1 1 1 1 0.015204621510491265 0.0012609506746743175 1 0.00079492360583191708 1 1 1 0.0023073273058665435 0.0091426662296353999 1 1 1 1 1 1 1 1 1 1 1 1 0.0023923714068743197 1 1 1 1 1 1 1 1 1 1 1 1 1 1 1 0.0088443482098846827 1 1 1 1 1 1 1 1 0.010652568269501167 1 1 1 1 1 1 1 1 1 1 1 1 1 0.023743131552385915 1 1 1 0.0070200013739074385 0.0099695961217639989 1 1 1 1 1 1 1 1 1 1 1 0.016655990785528832 1 1 1 1 1 0.010021747110208179 1 0.023145656658583404 1 0.0088864181476329841 1 1 1 1 1 1 1 1 1 1 1 0.0076711834468167588 1 0.013170493789442295 1 1 0.012559440729214881 1 1 1 1 0.007909523304493158 1 1 0.015167282002693225 1 1 1 1 1 1 1 1 1 1 1 0.0099922623839910837 1 1 1 1 1 1 0.010057955981272243 0.0094651280962022091 1 1 1 1 1 1 1 1 1 1 1 1 0.0090076470456976164 1 1 1 1 1 1 0.0067128176675160939 1 1 0.0097091236111472544 1 1 0.009059568351670896 1 1 1 1 1 0.0094510834670583632 1 1 1 1 1 1 1 1 1 0.0097266614351853541 1 1 1 1 1 1 1 1 1 1 1 1 1 1 1 1 1 1 1 1 1 1 1 1 0.0079582829819820552 0.0045966705417938812 1 1 1 1 1 0.0021017936174361831 1 1 1 1 1 1 1 1 1 0.009991973868554254 1 1 1 0.010223925575059543 1 1 0.0060758728146299915 1 1 1 1 1 1 1 1 1 0.0080862224889943282 0.005915646490221832 1 1 1 1 1 1 1 1 1 1 1 1 1 1 0.0094858568660652204 1 1 1 1 1 1 0.010092250300052515 1 1 0.0090301616053388104 1 1 0.0083069815615950948 1 1 1 0.010154695905504611 1 1 1 1 0.0070829309621176818 1 1 1 0.010469597695705291 1 1 1 0.010428576900130052 1 0.0093010710511762101 1 1 1 1 1 0.0099498560227374265 1 1 1 1 1 1 1 0.010699277830400183 1 1 1 1 1 1 1 0.0078237639202580443 1 1 1 1 1 1 1 1 0.0096699969535683043 1 1 -4.8612657250340918e-09 1 1 1 1 1 1 1 1 0.0093644976898463669 1 1 1 1 1 1 1 1 0.0099667006694261363 1 1 1 1 0.0099068377591647848 1 1 1 1 1 1 0.019882909946360064 1 1 1 1 0.020194851128105852 1 1 0.009992783423785661 1 1 0.0033458755141638295 1 1 1 1 1 1 1 1 1 1 1 1 1 1 1 0.010051437871081668 1 0.010020405388056484 1 1 1 1 1 0.0036914186253343487 1 1 1 1 1 1 0.019639397538046596 1 0.010553833029753337 1 1 1 0.01561718569950938 0.0085041769685292902 1 0.017490775733853575 1 1 1 1 1 1 0.0094644829692927396 1 1 0.0065260067103579218 1 1 1 1 1 1 1 0.004998521740788478 1 1 1 1 0.0037284783123664282 1 1 0.0079476179051975702 1 0.0090838140703093997 0.010730305369788695 0.00091669619462939403 1 1 0.0096959634704121399 1 0.003116727294547348 1 1 0.0059622111898068614 0.0099959155538653973 0.006241011646128343 1 1 0.010438477952966044 1 1 1 1 1 1 1 1 1 1 1 1 1 0.010120951339881945 1 0.0051459803258258798 1 1 1 1 1 0.0083825294851558787 -3.2878735168467843e-09 1 1 1 0.0098130012759807816 1 1 0.0072115076909366194 0.0027006249856640126 1 1 1 1 1 1 1 1 0.010071157398356151 1 1 1 1 1 1 1 1 0.010363425341648795 1 1 1 1 1 1 1 1 1 1 1 0.014069704664971764 1 1 1 0.010018615341633676 1 1 0.0098222254936313706 1 1 1 1 0.018153904111698118 1 1 1 1 1 1 1 1 1 1 1 1 1 1 0.014744731910298427 1 1 1 0.013538583081264148 1 1 1 1 1 1 1 1 1 1 1 1 1 0.017195008605310598 1 1 1 0.017595225672231065 1 1 0.015783399727742752 1 0.017774177300741004 1 1 1 1 1 1 1 1 1 0.010445363239159268 1 1 1 1 0.018605109032711321 1 1 1 0.01976679715463181 1 1 1 1 0.021288459536735468 1 1 0.012156156814709808 1 1 1 1 0.010702531071327761 1 1 1 1 1 1 1 0.018877074686595122 1 1 0.0099713874839581843 1 1 0.017292451940413893 1 1 1 1 1 0.015945027873671462 1 0.0099908522307509615 1 1 1 1 1 1 1 1 1 1 1 1 1 1 0.0043899746758977905 1 1 1 1 1 1 1 1 1 1 1 1 1 1 1 1 1 1 1 1 1 1 1 1 0.0095811914965435088 1 1 1 1 1 1 1 1 1 1 1 1 1 1 1 0.0084317306537578518 1 1 1 1 1 1 1 1 1 1 1 1 1 1 1 1 1 1 1 1 1 1 1 1 1 1 1 1 1 1 1 1 1 1 1 1 1 1 1 1 1 1 1 1 1 1 1 1 1 1 1 1 1 1 1 1 1 1 1 1 1 1 1 1 1 1 1 1 1 1 1 1 1 1 1 1 1 1 1 1 1 1 1 1 1 1 1 1 1 1 1 1 1 1 1 1 1 1 1 1 1 1 1 1 1 1 1 1 1 1 1 1 1 1 1 1 1 1 1 1 1 1 1 1 1 1 1 1 1 1 1 1 1 1 1 1 1 1 1 1 1 1 1 1 1 1 1 1 1 1 1 1 1 1 1 1 1 1 0.010013150554143974 1 1 1 1 1 1 1 1 1 1 0.0088561563635549522 1 1 1 1 0.0057867213884167032 1 1 1 1 0.010010371366563808 0.0076202613169416341 1 0.0097199496790393754 1 1 1 1 1 0.011148473516126561 0.010495884701829869 0.0077311746377343015 0.011051985685910606 1 1 1 1 1 1 1 0.011413664326341312 1 1 0.0034475347234539377 1 1 0.0070577416766567959 1 1 1 0.0099826904115295073 1 0.0087644554952997639 1 1 1 1 1 1 0.0090172613099521355 0.0078873695649335981 1 1 1 1 1 1 1 1 1 1 1 1 1 1 1 1 1 1 1 1 1 1 1 1 1 1 1 1 1 1 1 1 1 1 1 1 1 1 1 1 1 1 1 1 1 1 0.008676418549419045 1 0.0067206961261260523 1 1 1 1 1 1 1 1 0.0095597688702435957 1 1 1 1 1 1 1 1 1 1 1 1 1 1 1 1 1 0.013518258338106715 1 0.010197051897419387 1 1 0.018127347494168326 1 1 0.0117656988841809 1 0.0099841277724068006 1 1 1 1 1 1 1 1 1 1 1 1 1 1 1 1 1 1 1 1 1 1 1 1 1 1 1 1 1 1 1 1 1 1 1 1 1 0.013455848640489015 1 1 1 1 1 1 1 1 1 1 1 1 1 1 1 1 0.014218614454273443 1 1 1 1 1 0.015146925632457968 1 1 1 1 1 1 1 1 1 1 1 1 1 1 1 0.010036807709783135 1 0.018793399560127773 1 1 1 1 1 0.0085583013272261775 0.0099746008892045157 1 1 1 1 1 1 0.010169950844298555 0.0083571446473808993 1 1 1 1 1 1 1 1 0.008994489883483241 1 1 1 1 1 1 0.010119005648170787 1 1 0.010069964670211158 1 1 1 1 1 1 1 1 1 0.010422107701639984 0.010206300873148489 1 1 1 1 1 1 0.0096633626472985863 1 1 1 1 1 1 1 1 1 1 1 1 1 1 1 0.0094194994549425346 0.011448087147526972 1 1 1 0.0099543334065283449 1 1 1 1 1 1 0.0091429942780428038 1 0.010698624059584045 0.00010211800405697177 1 0.011285483557326543 1 1 1 1 1 1 -9.5952734590308564e-09 1 1 1 1 1 1 1 1 0.0096527745846679471 1 1 1 1 1 1 1 1 1 1 1 1 1 1 1 0.015551037947461651 1 0.01608174241662895 1 1 1 1 1 1 1 1 0.016992929918424923 1 1 1 0.010247303459267068 0.0019005196503844631 1 1 1 1 0.011219238926211544 1 0.0036627921806163914 0.0090504036004697627 1 1 1 1 1 1 1 1 1 0.0099802053971593599 0.0043806245036572405 0.010589168816611136 1 1 1 0.0032377372479932675 1 1 1 0.01038700196093484 1 1 1 1 1 1 1 1 1 1 0.01013771843606464 1 1 1 1 0.0098904900406942622 1 1 1 1 0.011480076046268405 1 0.0096653171763488935 1 0.01250652387024867 1 1 1 1 0.010069485563177639 0.0069851975680393572 1 1 -1.4050699145840007e-09 1 1 1 0.011712235930782763 1 1 0.010021017453510847 1 1 0.011303734290467018 1 1 1 1 1 1 1 0.010478316542073464 1 1 1 1 0.014008955225326004 1 1 1 1 0.01400610531991945 1 0.010000589031837356 1 1 0.0071064064910612429 1 0.012193451149508421 1 0.010311493220995326 1 1 1 1 0.0061936812183261067 1 1 1 1 1 0.0086339725381214573 1 0.015161715958221494 1 0.0092655535078968888 1 1 1 1 1 1 1 1 1 0.012394951426453034 1 1 0.0092869824887122157 1 1 1 1 1 1 1 1 1 1 1 0.0022869513508048042 0.0099782165280012727 1 1 0.012622427961148127 1 1 1 1 1 0.010891364547196794 1 1 1 1 1 1 1 1 1 1 1 1 3.6299494035607616e-09 1 1 6.8978441348545305e-09 0.0099656879028879007 1 1 1 1 1 1 1 1 0.0051045716475598413 1 1 0.0092054024049218752 1 1 1 1 1 1 0.011440812976565988 1 1 1 1 1 1 1 1 1 1 1 1 0.010988267721702319 1 1 1 0.0069396693584479544 0.011826924025215074 1 0.011382854518795074 1 0.01122788879075377 1 1 1 1 1 1 0.010656931666267126 1 1 1 1 1 1 1 1 1 1 1 1 1 1 1 1 1 1 1 1 1 0.01038128667852202 1 1 1 0.0081420390907583975 1 0.010489464837187046 1 1 1 1 1 1 1 1 1 1 1 0.010246688696164158 1 0.010627549935284426 1 1 0.010158561151343169 1 1 1 0.0099323719804748425 1 1 1 1 1 1 1 1 1 1 1 1 1 1 1 1 1 1 1 0.014432246245600008 1 1 1 1 0.01157873639184747 1 1 1 1 1 1 0.0046914377283170106 1 1 1 0.0019642905031117472 1 1 1 1 1 1 1 1 1 1 0.0092403113071234319 1 1 1 0.00045865991724850647 1 1 1 1 0.015415574092749363 1 1 1 1 1 1 1 1 1 1 1 1 0.016579379349967859 0.010112474792487652 1 1 1 1 1 1 1 1 8.1749509245332419e-10 -1.6030475905037811e-09 1 0.012330464355562384 1 1 1 0.020136316216263064 1 1 1 1 1 0.010019328915655094 1 1 1 1 1 1 1 1 1 1 1 5.7247176339647599e-09 1 1 1 1 0.019287108057826859 1 1 1 0.011217109130128862 1 1 0.0080036626539886704 1 1 1 1 1 1 1 1 1 1 1 1 1 0.0011821447965654486 1 1 1 1 1 1 1 1 1 1 1 1 1 1 1 1 1 1 1 1 1 1 1 1 1 0.023600415551461675 1 0.01062701368031531 1 1 1 1 0.019858474411701427 1 1 1 1 1 1 1 1 1 1 1 1 1 1 1 1 1 1 0.010404375567322963 1 0.010799646183909961 1 1 1 1 1 1 1 1 0.01047499982306032 1 1 0.033083079141245267 1 0.010114315241164323 1 1 1 0.028198045642530922 1 1 1 1 1 1 1 0.024342334406935347 1 1 1 1 0.013409137195653511 0.010005998427352249 1 1 1 0.012389085838023301 1 1 1 1 1 1 1 1 1 1 1 0.010961514328523594 1 1 1 1 1 1 0.010858965882541901 1 1 1 1 1 1 1 1 0.0084748208144460012 1 1 0.0022974146755584055 1 1 1 1 0.0017118689867123039 1 1 1 0.0096442919162765539 1 0.0089992066195589745 1 1 1 0.0010725652759304358 1 1 1 1 1 1 0.010212620622695186 1 1 1 1 1 1 1 1 1 1 0.0027008206513583211 1 0.0012187627712957061 1 1 1 1 1 1 1 1 1 1 1 1 1 1 0.0083537150647069319 1 1 0.0084457137120453052 1 1 1 1 1 1 1 1 1 1 1 1 1 1 1 1 1 1 0.013213055687968774 1 1 1 1 1 1 1 1 1 0.0099013052156158368 1 1 0.018306604853038554 1 0.012060280157351298 1 1 1 0.010807943173369618 1 1 1 1 1 1 1 1 1 0.011568993526124331 1 1 1 1 1 0.010762087930750931 1 1 0.010954497908595644 1 1 0.01089753602608691 1 1 1 1 0.014335795105240454 1 1 1 0.010895949292228722 1 1 1 1 1 1 1 1 1 1 1 1 1 1 1 1 1 1 1 1 1 1 1 0.008867333437006901 0.0089763658878782501 1 1 0.0083980288841934841 1 1 1 0.010043677389612302 1 1 1 1 1 1 1 1 0.012808189064854609 1 1 1 1 1 0.0094596189078874349 1 1 0.0086519318549087704 1 1 1 0.010492017663869105 1 1 1 1 1 1 1 1 0.012493707428560978 1 1 1 1 0.0045887875204333392 1 1 1 1 1 1 0.0026797732271893054 1 1 1 1 1 1 1 1 1 1 0.0067842227693227578 1 1 1 1 1 1 1 1 0.0061124336050972453 0.0096329575751124344 1 0.015856646733631921 1 1 1 1 1 1 0.014070729921222935 1 0.0098740335705593332 1 0.0029460902382370049 1 1 1 1 1 1 0.0057965503717428424 1 0.0098082682554212416 1 0.0061629377346212617 1 0.0086596085782711524 1 1 1 0.011742374444706404 1 0.010528278732254655 1 0.010137100574280203 1 1 0.0093185151373919306 1 1 1 1 0.010044715938850077 1 0.0097495354144976204 1 1 1 0.0094417965862179792 1 1 1 1 0.0095838464229504247 1 1 1 1 8.3193271369075283e-09 1 1 0.0018512127616259755 1 1 1 1 0.0066405500450835778 1 1 1 1 1 1 1 1 1 1 1 1 1 1 1 0.00977381082913166 1 1 1 1 1 1 1 1 1 1 1 1 1 1 1 1 1 0.0085326631971700626 1 1 1 1 1 1 1 1 1 1 1 1 1 1 1 1 1 1 1 1 1 1 1 1 1 1 1 1 1 1 1 1 1 1 1 1 1 1 1 1 1 1 1 1 1 1 1 1 1 1 1 1 1 1 1 1 1 1 1 1 1 1 1 1 1 1 1 1 1 1 1 1 1 1 1 1 1 1 1 1 1 1 1 1 1 1 1 1 1 1 1 1 1 1 1 1 1 1 1 1 1 0.0095561735021014241 1 1 1 1 1 1 1 1 1 1 1 1 1 1 1 1 1 1 1 0.0099848975910473564 1 1 1 1 1 1 1 1 1 1 1 1 1 1 1 1 1 1 0.00096993736433886174 1 1 1 1 1 1 1 0.010370475829425511 0.00045270488763103633 1 1 0.01084317778072242 1 1 1 1 1 1 1 1 1 0.013198861814262164 1 1 1 1 1 1 1 1 1 1 0.0099048629160207874 1 1 1 1 0.010002373965966711 1 1 0.012870456238533896 0.0053890480007119934 1 0.012062130408456617 1 1 0.010941689957482958 1 1 1 1 0.0094629899483137103 0.007953367083112152 1 1 1 1 1 1 0.0094753390572913099 1 1 0.014315785015225733 1 1 1 1 1 0.014258908747725528 1 0.02440944902292734 1 0.017816896309477172 1 0.010782786115557916 1 0.0086359969694914177 0.0095578902818182279 1 1 1 1 0.0099148152134205109 0.0068892516718758456 1 0.019405230112884767 1 1 0.0086760491037369894 1 1 1 1 1 0.0081250839388999282 1 0.008173998511904243 1 0.01478423050691346 1 1 0.0066373196878896021 0.011942544319167945 1 1 1 0.017975888500501386 1 1 1 1 1 0.0048090553085638477 1 0.010019978954269575 1 1 1 1 1 1 1 1 1 1 1 1 1 1 1 0.013083209631176484 1 1 1 1 0.010022614636925824 0.012850023689285237 1 1 1 0.0099915444680621791 1 1 0.0098009162296207389 0.014929002318712048 1 1 1 0.01174577984807991 1 1 1 1 1 0.010584091251768443 0.010011527111654824 1 1 1 1 1 1 1 1 1 1 1 1 0.0094273356456115523 1 1 1 0.010021266540801203 1 1 1 1 0.010207649996478718 1 0.0098258096966807873 1 1 1 1 1 1 1 0.011170659632241058 0.0099629928266898385 1 0.0080915490611778579 1 1 1 0.011792530245244952 0.0069339185221154592 1 1 0.015878652272939602 1 1 0.010153198000852529 1 1 0.010152394418426899 1 0.010477274061031126 1 1 1 1 1 1 1 1 0.010803499582218663 1 1 1 1 0.010213425173008377 1 1 1 1 1 1 1 1 1 1 0.010174384553999237 1 1 1 1 1 0.0096250871633232343 1 1 1 1 1 1 1 1 1 1 1 0.010475534261694407 1 1 1 1 0.010301149707695165 1 1 1 1 1 1 1 1 1 1 1 1 0.010172139828328972 1 1 1 1 1 1 0.010518679984320071 1 1 1 0.013840436874284318 1 1 0.0032604754458297469 1 0.017530206388665599 1 0.014750539550793331 1 0.006302425709825147 1 1 1 0.00092125873230232413 1 1 1 0.012784574099557723 0.016886290833111037 1 1 1 0.011690925692678001 1 1 1 1 1 0.0012608863596809822 1 1 1 1 1 1 0.0098723210216721449 1 1 0.0016624321712336992 1 1 1 1 0.011484956724574724 1 1 1 1 1 1 1 1 1 0.0076416733006894489 1 1 1 0.0037428748855734845 1 1 0.0090743855938574623 1 1 1 1 1 1 1 1 0.016720184358787568 0.010040547668072481 1 1 1 0.017089847267720566 1 1 1 1 1 1 1 0.017590444144158557 1 1 1 1 1 1 1 0.010561336679557332 1 1 1 1 1 1 1 0.017635689887025751 1 1 1 1 1 1 1 1 1 1 0.01269318527631895 1 1 1 1 1 0.011886141216535799 1 1 1 1 0.011301864156712037 1 1 1 1 1 1 1 1 1 1 0.010954490183011057 1 1 1 1 1 1 1 1 0.009973523295019382 1 1 1 0.007635219106010567 1 1 1 1 1 0.0086387015945455937 1 1 1 1 1 1 1 0.0094579937770787291 1 1 1 1 1 1 1 1 1 0.0092579933590873683 1 1 1 1 1 1 1 1 1 1 1 1 1 1 1 1 1 1 1 1 1 1 1 1 1 1 1 1 1 0.0082664513618630163 1 1 1 0.0053409417370839114 1 1 1 1 1 1 1 1 1 1 1 1 1 1 1 0.017791862041206537 0.01646787757628923 1 1 1 1 1 1 1 0.01609030692086106 1 1 1 0.010037576463793413 0.0086346163515805315 1 1 1 1 1 1 1 1 1 1 1 1 1 1 1 1 1 1 1 1 1 0.010028132470254657 1 1 1 0.0094485260475490034 1 1 1 1 1 1 1 1 1 1 1 1 1 1 1 1 1 1 1 1 1 1 1 1 1 1 1 1 1 0.013171364073791627 1 1 1 1 1 1 1 1 1 1 1 1 1 1 1 1 1 1 1 1 1 0.011776374152911979 1 1 1 1 1 1 1 1 0.014964674992436948 1 1 1 1 1 0.0084084442454893313 1 1 1 1 1 1 1 1 1 1 1 0.0090430074078893252 0.0090723014150634745 1 1 0.0087308854744008769 1 0.010173895845526609 1 1 1 1 1 1 1 1 1 1 1 1 1 1 1 1 1 0.0096920661647964621 1 1 1 1 1 1 1 1 1 1 1 1 0.010209164032574302 1 1 0.0094784495540853816 1 1 1 1 1 1 0.0093098905433211601 1 1 1 0.0084501517100295832 1 1 1 1 1 0.0097245522622244635 1 0.0084112844261753448 1 1 1 1 1 1 1 1 0.009468047546326349 1 1 1 1 0.0085319550910304982 1 1 1 1 1 1 1 1 1 0.0092710232594669338 1 0.0054549390425016261 1 1 1 1 1 1 1 1 1 0.0028469664256235983 1 1 1 1 1 1 1 1 0.0097434952841018874 1 1 1 1 1 1 1 0.0071288930712532818 1 1 1 0.003634285747299057 1 1 1 1 0.0027402809655767586 1 1 1 1 1 0.0090830416148746321 1 1 0.0076446469792959132 1 1 1 1 1 1 1 1 1 1 1 1 1 1 1 1 1 1 1 1 1 1 1 1 0.002617243584137785 0.0016059462893686554 1 1 1 1 1 1 1 0.0016506203831176038 1 1 1 1 1 1 1 1 1 1 1 1 1 1 1 1 1 1 1 0.0098949849100917822 1 1 1 0.009774617914911285 0.0098795125694462888 1 1 1 1 1 1 1 1 1 1 1 1 1 1 1 1 1 1 1 1 1 1 1 1 1 1 1 0.010540081179981151 1 1 1 0.010461973956679664 1 1 1 1 0.010559100359865237 1 0.010198734083740767 1 1 1 1 1 0.011069393815466535 1 1 0.012623898471371214 1 1 1 1 1 1 1 1 1 1 1 1 1 1 0.013501782489466905 1 1 1 1 1 1 1 0.014004850672017406 0.014331130921732368 1 1 0.016299232712470201 1 1 1 1 1 1 1 1 1 0.015660388761197831 0.011305914411347836 1 1 1 1 1 1 1 1 0.010008533259466277 1 1 1 0.011165892479314637 1 1 1 1 1 1 0.013340780009264246 1 1 1 0.0097693429024771627 1 1 1 1 1 1 1 0.015248794310004679 1 1 1 1 0.0093872355932825696 1 1 0.01672431454284291 1 1 1 0.010008951535026707 0.0074652374459697468 1 1 1 1 0.019771120295022874 1 1 0.019969321845289781 1 1 1 0.022860940541842529 1 1 1 1 0.0098272977328179283 1 0.0095448863374447603 1 1 1 1 1 1 1 1 1 1 1 1 1 0.0093867586787590093 1 9.1185481040922944e-10 1 1 1 1 0.0032206332748606799 1 1 1 1 1 0.0076761894577725837 1 1 1 0.01210704005204166 1 1 1 1 1 1 1 1 1 1 1 1 1 1 1 1 1 1 1 1 1 1 1 1 1 1 1 1 1 1 1 1 1 1 0.0095575936852811422 1 1 0.0085780608705702879 1 1 1 1 1 1 0.0034689053833790902 1 0.001370576873201591 1 1 1 1 1 1 0.0043825472831252685 1 1 1 0.016746224672628596 1 1 1 1 1 1 1 1 0.010023817163282486 1 0.015329944964271855 0.021649447241039434 1 1 1 1 1 1 1 0.0077815743388054848 1 1 1 1 1 0.002151857495157691 1 1 1 1 1 1 1 1 1 1 1 1 1 0.0034423271263075601 1 1 1 1 1 1 1 1 1 1 1 1 1 1 1 1 1 1 1 1 1 1 1 1 1 1 1 1 1 1 1 1 1 1 1 1 1 1 1 1 1 1 1 1 1 0.010154697270308608 1 1 1 1 1 1 1 1 1 1 1 1 1 1 0.010060157263204771 0.010058796300060747 1 0.010317425182750717 1 1 0.0097877696110375365 1 1 0.0097112187232949593 0.010660492435977921 1 1 1 1 1 1 0.010659655093609957 1 1 1 0.0098141754048637463 1 1 1 1 1 1 1 1 1 1 1 1 1 1 1 1 1 1 1 1 1 1 1 1 1 1 1 1 1 1 1 1 0.009975579088734499 1 1 1 0.010327106854274079 1 1 1 1 1 1 1 0.0099129282626911671 1 1 1 0.010531411898875064 1 1 1 1 1 1 1 1 1 1 1 1 0.010257007748078514 1 1 1 1 1 1 1 1 1 1 1 1 1 1 1 1 1 0.010269091648544167 1 1 1 1 1 1 0.010526099396622678 1 1 1 1 1 1 1 1 1 1 1 1 1 1 1 1 1 1 1 1 1 1 1 1 1 1 1 1 1 1 1 1 1 1 1 1 1 1 1 1 1 1 1 1 1 1 1 1 1 1 0.010478096923524714 1 1 1 1 1 1 1 1 1 1 1 1 1 1 1 1 1 1 1 1 0.010386910006313076 1 1 1 1 1 1 1 1 1 1 1 1 1 1 1 1 1 1 1 1 1 0.0094801912411290983 1 1 1 1 1 1 1 1 1 1 1 1 1 1 1 1 1 1 1 1 1 1 1 1 1 0.0097353105208796992 1 1 1 1 0.011229976715076185 1 1 1 1 1 1 1 1 1 1 1 1 1 1 0.010549673765376197 1 1 1 0.0099202921894828051 1 1 1 1 1 1 1 1 1 1 1 1 1 0.011317676523772717 0.0095846687762149215 1 1 1 1 1 1 1 1 0.009740971631010762 1 1 1 0.010291777767729703 1 1 1 1 4.0976444095480735e-09 1 1 1 1 0.0096935560204637911 1 -2.9406095163053703e-09 1 1 1 1 1 1 1 0.0086888743709808824 1 1 -3.5568025183105312e-09 1 1 1 1 0.0018095827615600222 1 1 1 1 1 1 1 1 1 1 1 -4.2163479894996581e-09 1 0.0027454861926130125 1 1 1 0.0073760491950458536 1 1 1 1 0.0076417861563133974 1 1 1 1 1 0.0032571794494983949 1 2.9310109235514137e-09 1 1 1 0.0081710620564195494 1 1 1 1 0.0081344095947244784 5.2975451863765399e-09 1 1 1 1 1 0.010283137205499679 1 1 1 0.0088013254170105325 1 1 1 1 0.0095576984199893869 1 1 0.0053465522924616548 1 1 1 1 1 1 1 0.0098415757469747026 1 1 1 1 1 1 1 1 1 1 1 1 1 1 1 1 1 1 1 1 1 0.0045264449487312092 1 1 1 1 1 1 1 1 1 1 1 1 1 1 1 1 1 0.0094781081257272505 1 1 1 1 3.6752724284078164e-09 1 0.009136680591549283 1 1 1 1 1 1 1 1 1 0.0095580779707906266 1 1 0.0010510228221436418 0.0014656760542358198 1 1 0.0097767700883488375 1 1 1 1 1 1 1 0.0021624021192620906 -3.3221346030024024e-10 1 1 0.001073643243069692 4.8589271391119571e-09 1 1 1 1 1 1 1 0.0068384624072948732 1 1 0.010832774727068922 1 1 1 1 1 0.01024583931371251 1 1 1 1 1 1 1 1 1 1 1 1 1 1 1 1 1 1 1 1 1 0.0094792012475195427 0.0085908159451641378 1 1 1 1 0.0093118549980666446 1 1 0.0060723255074093801 1 1 1 1 0.0089505289063113325 1 1 1 1 1 1 1 1 1 1 1 1 1 1 1 0.0098354930878067088 1 1 1 1 0.0042962362769881218 1 1 1 1 1 1 1 1 1 1 1 1 1 1 1 1 1 1 1 1 0.010597443719924238 0.0079349051429805709 1 1 1 1 1 1 1 1 1 0.011225748645673933 1 1 0.0090200264593256196 1 1 0.010010124100331948 1 1 1 1 1 1 1 1 1 1 0.0060662320169304652 1 1 0.0087051591293223467 1 1 1 1 1 1 1 1 1 1 1 1 1 1 1 1 1 1 1 1 1 1 1 1 1 1 1 1 1 0.0079174135729873363 1 1 1 0.0093857907687053318 1 1 1 1 1 1 1 1 1 0.0096780094659944353 1 1 1 1 1 1 1 0.009819531875711586 1 1 1 1 0.0084692073956763696 1 1 1 1 1 1 1 1 1 0.0077757199123605365 1 1 0.0093149519270472256 1 1 0.010664743930703061 1 1 1 1 -2.3830882944081422e-09 1 1 1 1 0.00019436234865001858 1 1 1 1 1 1 1 1 1 1 0.0098451653447146278 1 1 1 1 0.010595579183873971 1 1 1 1 0.0083301517858366328 1 1 1 1 1 1 1 -2.7703822005550882e-10 1 1 1 0.0046726689957272017 1 1 1 1 1 0.011483014606318476 0.0012389926410228892 1 1 1 1 0.010004249752059668 1 0.012559537583975518 1 1 1 1 1 1 1 1 1 1 1 1 1 1 1 1 1 1 1 1 1 1 1 1 0.011351638942691349 1 1 1 1 1 1 1 1 1 1 0.010026634713786235 1 0.0090480869932013583 1 1 1 1 1 1 1 1 1 0.010249423226640001 1 1 1 1 1 1 1 1 1 1 1 1 1 1 1 1 1 1 1 1 1 1 1 1 1 1 0.011310896429173533 0.012578571053667147 0.01597247788912887 1 1 1 0.014823422652595215 1 1 1 1 1 1 1 1 1 1 0.01726005611182857 1 1 0.01002258502671468 1 1 1 1 1 1 1 1 1 1 1 1 1 1 1 1 1 1 1 1 1 1 1 1 1 1 1 1 1 1 1 1 1 1 1 1 1 1 1 1 1 1 1 1 1 1 0.010165758393323336 1 1 0.022184965914288368 1 1 0.0093320836050637505 0.0050201590563689613 1 0.016526021305082954 1 0.010231031598972651 1 1 1 1 1 0.0072297254714746052 1 1 1 1 2.6596317544147485e-09 1 1 1 1 1 0.0097322836951443999 1 1 1 0.0091789415590484841 1 1 1 1 1 1 1 1 1 1 1 0.010184843614515866 1 1 1 0.006568135192782854 0.011222578111770153 0.016320128627390094 0.0083774562895165029 0.0097408334197831865 1 1 1 1 1 0.010001829738116322 0.013256102062282895 1 1 1 1 0.016647771085510438 1 1 0.0052453378634611421 0.0087172820976501014 1 1 0.0030241698803267405 1 1 1 1 1 0.010757406484853217 1 1 0.010090227010048969 1 1 1 0.012223108272733568 1 1 1 1 0.010624604021330666 1 1 1 1 1 0.0091646530718921797 0.010034584368133773 0.0081241753104188789 1 1 1 1 1 1 1 1 1 1 0.016055024598481779 1 1 1 1 1 1 0.010000958677053943 1 0.012314815158125759 1 1 1 1 1 1 1 1 1 1 1 0.0099572316488270741 1 0.0069778118510683829 1 1 1 1 1 1 1 1 0.016837342404868318 1 1 0.01667498917992611 1 1 1 1 0.011048390428445992 1 1 1 1 1 1 0.010445039380659504 0.010350369274184595 1 1 1 1 1 1 1 1 1 1 1 1 1 1 1 1 1 1 1 1 1 1 1 0.011264971836561095 1 1 1 1 1 1 1 1 1 1 0.011880492196698299 1 1 1 0.0030435043426680231 1 1 1 1 1 1 1 0.0092768020655630869 1 1 1 1 1 1 0.0098406933769475489 1 1 1 1 1 1 0.0096822691239222564 1 1 1 0.0085814866270476058 1 1 1 1 0.0073509547126890985 1 1 1 1 1 0.0091712690872341896 0.0091069849374259704 1 1 1 1 1 1 1 1 1 0.011041906332561153 1 1 1 1 1 1 0.0099264715688007661 1 1 1 1 1 1 0.0058071358727842266 1 1 1 1 1 1 1 1 1 0.011049308813491115 1 1 0.010955475945994129 1 1 1 1 1 1 0.010705755694305624 1 1 1 1 1 0.010268670302717851 1 1 1 1 1 1 1 1 1 1 1 1 1 1 1 1 0.0059529353934236005 1 1 1 1 1 0.0041369450939869237 1 1 1 1 1 1 1 1 1 1 1 1 1 0.010021816007646449 0.00024362899839698712 1 1 0.018888360107118606 1 1 1.9438919692665868e-09 1 1 1 1 1 1 0.022984812025194677 1 0.020874265314216357 1 1 1 1 1 1 0.010728793297275736 1 1 1 1 1 1 1 1 1 1 1 1 1 1 0.0092915555468506793 1 1 1 0.0096990773616270586 1 1 1 1 1 1 1 1 1 1 1 1 1 1 0.010981121873538948 1 1 1 1 1 1 1 1 1 1 1 0.0095924781852236296 1 1 1 1 0.012534450677861086 1 1 1 0.011906358844983317 1 1 1 1 1 1 1 1 0.009671239338882736 1 1 1 1 1 1 1 1 1 1 0.0071558059720561572 1 0.0099480832427040772 1 1 1 1 1 1 1 1 1 1 1 1 1 1 1 1 1 1 1 1 1 1 1 1 1 1 1 1 1 1 1 1 1 1 1 1 1 1 1 0.010067912205082231 0.0088818118940643884 1 1 1 1 1 0.010524219168412946 1 1 0.011791893792906563 1 1 1 1 0.0096896661931173151 1 1 0.0096394635085163376 1 1 1 1 0.011961057053465004 0.010002635701259211 1 1 1 1 1 0.0099449465959031546 1 1 1 1 1 1 1 1 0.011475112877787349 1 1 1 1 1 1 1 1 0.019125487776436162 1 1 1 1 1 1 1 1 1 1 1 1 1 1 1 1 0.0096034077375840923 1 1 1 0.022564929295970339 1 1 1 0.016070123127154348 0.011230286598017759 1 1 1 1 1 1 0.0088386746647626004 0.0096773688165222929 1 1 1 1 1 1 1 1 1 1 1 1 1 1 1 1 1 0.0092593336532229356 1 1 0.0084946005804013847 1 1 1 1 0.010921304008360153 1 1 0.010075204178478701 1 1 1 1 1 1 0.011570553348122596 0.010360925841535086 1 1 1 1 1 0.009125250330219872 1 1 1 1 1 1 1 1 0.017892101478297746 1 1 1 0.020182542928410215 1 1 1 1 1 0.007315998262502431 0.025429374348119795 1 1 0.0065322398783288658 1 0.014837122400226763 1 1 1 0.0083119916375339799 0.012326376222049927 1 1 1 1 1 0.024683053652157214 1 1 1 1 1 1 1 1 1 1 1 1 1 1 1 1 1 1 0.00035712759851136248 1 0.010007915905031209 1 1 1 1 1 1 1 1 1 1 1 1 1 0.0090667588369253288 1 1 1 1 1 1 1 1 1 1 0.0068369457710045871 1 1 1 1 -2.8599691365149837e-10 1 1 0.0099622140384797494 1 1 1 0.013974281961209905 1 1 1 1 1 1 0.0099812889445039937 1 0.0012321737761726084 1 1 1 0.0043613010605878383 1 0.0027898072835059948 1 1 0.0099640481671733686 1 1 1 0.010302834860397785 1 0.00478972832871042 0.0083718898168129632 1 1 1 2.6738091168237998e-09 1 1 0.015051399287435187 1 1 0.011377657691371695 1 1 1 1 1 1 0.01904048831629478 1 8.4368655638156209e-10 0.0098076563972182146 1 0.0099999613164494933 1 1 1 1 0.0086192451033216474 1 -7.8533340247544103e-10 1 0.010265441059422627 1 1 1.4772815470909251e-09 1 1 1 1 0.010237202352357117 1 1 1 1 1 1 1 1 1 1 1 0.010850420713340553 0.002123267080997894 1 1 1 1 1 1 1 1 1 1 1 1 1 1 1 1 1 1 1 0.01037977497967163 1 1 1 1 1 1 1 1 1 1 1 1 1 1 1 1 1 0.010199578303915414 1 1 1 1 1 -3.3622157037671574e-09 1 1 1 1 1 0.010074660276726672 1 1 1 1 1 0.0073456137458006929 1 1 1 0.0098327585894898342 0.0084298576386252731 1 1 1 1 1 1 0.0025862845835980669 1 0.012299363984294584 1 1 1 1 1 1 0.011838201033843122 1 1 1 1 1 1 1 0.010018549647961526 -5.6647858279190721e-11 0.012548163889546583 1 0.009995607079444066 1 1 1 1 0.014600382202695501 1 0.0080458293367743385 1 0.0055393928170956903 1 1 0.0072297742202708307 1 1 0.0046689912888932383 1 1 1 0.0096079076577127113 1 0.010136310288659384 0.0094492590199486692 1 1 1 1 1 1 0.010025425797118293 1 1 1 1 1 1 0.0098748752439350891 1 1 1 1 1 1 1 1 1 1 1 1 1 1 0.0051941045705037811 0.0063286223558278853 1 0.012956128087841197 1 1 1 1 1 1 1 1 0.006388469379030072 1 0.0045262415658505768 0.011235693725037771 1 1 1 1 0.0067199899172610024 1 1 0.0043426393359107338 1 1 1 1 0.0036958988411637979 1 0.011057602450680638 1 1 1 1 1 1 0.0010506408743686628 0.01108312306394324 1 1 1 1 1 0.00032248223057967408 1 1 1 1 1 0.0069939162540815433 1 1 1 1 1 1 0.0082352707971571695 1 1 0.0093991908833283913 1 1 1 1 1 1 1 1 1 1 1 1 1 1 1 0.010161113525158146 1 1 1 0.0058421481571170331 1 0.011038706903284026 1 1 1 1 0.010570560694232761 1 1 0.0062694173359480188 1 1 1 1 0.010004134257191169 1 1 1 0.010026479215851675 0.015458768968291785 0.013255702431698227 1 0.0083267531957162966 1 1 1 1 1 1 1 0.010183627177239273 1 1 1 0.011039081884569734 1 1 1 1 1 1 1 0.010027305167754415 1 1 1 1 1 1 1 0.010943475123431879 1 1 0.017571673330574418 1 1 1 0.0098112537991299157 1 1 1 1 1 1 1 1 1 1 1 1 1 1 1 1 1 1 1 1 1 1 1 1 1 1 1 1 1 1 1 1 1 1 1 1 1 1 1 1 1 1 1 1 1 1 1 1 1 1 1 1 1 1 1 1 1 1 1 1 1 1 1 1 1 1 1 1 -8.4864731908496083e-10 1 1 1.5401680625304337e-10 1 1 1 1 2.7942170550118717e-05 1 1 1 1 1 1 1 1 1 1 1 1 0.00018090833409538376 0.0099564404111003261 1 1 1 1 1 1 1 1 1 0.010744306118038546 1 1 1 1 1 1 1 1 1 1 1 0.0072321195697534705 0.0055353982956271586 1 0.013563083519359025 0.0065925014726326489 1 1 0.014897732420939044 1 1 1 1 1 1 1 0.0071357039099860936 1 1 1 1 1 0.011724103087560349 1 1 1 0.010345331187363719 1 1 1 1 0.017172872510088831 1 1 1 0.013364836922792007 1 1 1 1 1 1 1 0.012671480883962867 1 1 1 1 1 1 1 1 1 1 1 1 1 1 1 1 1 1 1 1 1 0.010296056737418199 1 1 1 1 0.0098169762813531472 1 1 1 1 0.0093505519324031949 1 1 1 0.0088076236239566993 0.0096254984664579067 0.010002034172881327 1 1 1 1 1 1 0.0072392572377378561 1 1 1 1 0.010752406596489652 0.0090868143561645409 1 1 1 0.011223472285104544 0.010565531190944373 1 0.0089547048473457153 1 1 1 1 0.0097234849552783192 1 1 1 0.010032636631603885 1 1 1 0.0098765025784956564 1 1 1 1 1 1 1 1 1 1 0.0096237106298388934 1 1 1 1 1 1 1 1 1 1 1 1 0.012140653616719926 1 1 1 1 0.011348148633241569 0.016777584376383145 1 1 0.0097490958584934562 1 1 1 1 1 1 1 1 1 0.010874374030703272 0.011948287435594347 0.0074592509711335006 1 0.010014293834787399 1 1 1 1 1 1 1 0.0098751920423818008 1 1 1 1 0.0097652461469535882 0.017389020066398864 1 1 1 1 1 0.0099639325300752354 1 1 1 1 1 0.010960446570622621 1 1 1 1 0.015841226469149379 1 1 1 1 0.014063754354494404 0.0077866284549256357 1 0.0099552418581920835 1 1 0.0092091316320438224 0.014655704370974548 1 1 0.0089310287043270833 1 1 1 1 1 1 1 1 0.017963268939720993 1 0.011524499727820606 0.0055155311877091648 0.0082235225589362484 1 1 1 1 1 1 1 1 1 1 1 1 0.017497085323255321 1 1 1 1 1 1 1 1 1 1 1 1 1 1 1 1 1 1 1 1 1 1 1 1 0.011189788226827063 1 0.014132095116392129 1 0.017606859441590988 1 1 1 1 1 1 1 1 1 1 0.007638419519901643 1 1 0.0027151531238415738 0.0097406409475429209 1 1 1 1 -5.5033489917977185e-09 1 1 1 1 1 1 1 2.8739580854031388e-10 1 1 1 1 1 1 1 0.00072389362486926026 1 1 0.0094677551947469039 1 1 1 1 1 1 1 1 0.025417089861618114 1 0.025130772512380266 1 1 1 1 1 1 1 1 1 1 0.0084881365858569396 1 1 1 0.025688869512495417 1 1 1 1 0.024868283376957165 0.0069771781049850906 1 1 1 1 0.0072618977983298014 1 1 1 0.010376803514577218 1 1 1 1 0.010363421930106538 1 1 1 1 1 1 1 1 1 1 1 1 1 0.010172443191581552 1 1 1 1 1 1 0.016102210770773492 1 1 1 1 0.016216123800019855 1 0.00876256042704774 1 1 1 1 1 1 1 1 1 0.0095714310104061603 1 0.024605646022239129 1 1 1 1 1 1 1 1 1 1 1 1 1 1 1 1 1 0.010364223456826339 0.010075742804809232 1 1 1 1 1 0.012686580889479507 1 0.013653263692486359 0.017408339240262874 0.010715642275944827 1 1 1 1 1 1 1 1 1 1 1 1 1 1 1 1 1 1 1 1 1 1 1 1 1 1 0.010086903103953569 1 0.014386861481719783 0.020060637647263319 1 1 1 1 1 1 1 1 0.0087192325456579359 1 1 1 1 1 1 0.010014908259514947 1 1 1 1 1 1 0.012804614759624834 1 1 1 1 1 1 1 1 1 1 0.023812515959377514 1 1 1 1 -2.4825390354532573e-10 1 1 1 1 0.010841213817879461 1 1 1 1 1 1 0.012434364743343029 1 1 1 1 1 1 1 1 1 1 1 1 1 1 1 1 1 1 1 1 1 1 1 1 1 1 1 1 1 1 1 1 1 1 1 1 0.011604865660571291 1 1 1 1 1 1 1 1 0.010823293354932755 1 1 1 0.010265521147794283 1 1 1 1 1 1 1 1 1 1 1 1 1 1 1 1 1 1 1 1 1 1 0.010277744467361752 1 1 1 1 1 1 0.014249822622250684 1 1 0.012568112099531806 0.011132419359809999 1 1 1 1 1 0.010573237988820254 1 1 1 1 1 1 1 1 1 1 0.01075315161807934 0.011855129088425568 1 1 1 1 0.013398834616001274 1 1 1 1 1 0.014444555720125736 1 0.0099995004114237923 0.0096423445562936055 1 1 1 1 1 1 1 0.0097357996667570626 1 1 1 0.010293495129734501 0.010795749616835597 1 1 1 1 1 1 1 1 1 1 0.0097471797503694627 1 1 1 1 1 1 1 1 1 1 1 1 1 0.0093798713067526074 0.0096323445954707501 1 1 1 0.0097276028968059196 1 1 1 1 1 1 1 1 1 1 1 1 1 1 0.010345370314544605 1 1 1 1 0.010023043843868283 1 1 1 1 1 1 1 1 1 1 1 0.023253690160800318 1 1 1 1 1 1 1 1 1 1 1 0.010824622388895318 1 1 1 1 1 1 1 1 1 1 1 1 1 0.010479252074350721 1 1 1 1 1 1 1 1 1 1 1 1 1 0.0094991795523726198 1 1 1 0.0087210492735997555 1 1 1 1 1 1 1 1 1 1 1 1 1 1 1 0.011182583173788566 1 1 1 1 1 1 1 1 1 1 1 1 1 1 1 1 1 1 1 1 1 1 0.0085472062515516718 1 1 1 1 1 1 0.018330151949312916 0.010003390241565407 1 0.0080532552074558117 1 1 1 1 1 1 1 1 1 0.011175972511098191 1 1 1 1 1 1 1 1 0.013190668943854136 1 1 1 1 1 0.011075000227343241 1 1 1 1 1 0.025822761897399776 1 1 1 0.011453263511526944 1 1 1 1 1 1 1 1 1 1 1 1 1 1 1 1 1 1 1 1 1 1 1 1 1 0.01064172337606209 1 1 1 1 1 1 1 1 1 1 1 1 1 1 1 1 1 0.030209036804930756 1 1 1 0.011171295306142979 1 1 1 1 1 1 1 1 1 1 1 1 1 1 1 1 1 1 1 1 1 1 1 1 1 1 1 1 1 1 -2.0006955120388525e-10 1 1 0.0095218324448977723 1 1 1 1 0.01381818958038623 1 0.012624888861776144 1 0.010111607217558154 1 0.031943284270800419 1 1 1 1 1 1 1 0.019087627418707565 1 1 0.019959820877236099 1 1 0.020122312836391536 1 1 1 1 1 1 3.8505516830600328e-10 1 1 0.010890306472275332 1 1 1 0.0051754960713003284 1 1 0.010866354144597671 1 0.020792257999914479 1 1 1 1 1 1 1 1 1 1 1 1 1 1 1 1 1 1 1 1 1 1 1 1 1 1 1 1 0.0091127910657839619 0.010262843901060265 1 1 1 1 0.0087243162266673474 1 1 1 1 1 1 1 1 0.0072308557517171204 1 1 1 1 1 1 1 1 1 1 1 1 1 0.00044783561134748712 0.00029789566631086006 1 1 1 1 1 1 1 1 1 1 1 1 1 1 1 1 1 1 1 1 1 0.010123016140199469 1 1 1 0.010652128181534324 1 1 1 1 0.010317298839521675 0.015568656608852311 0.0059369357690344862 1 0.010033650663143549 1 0.010048214604117679 1 1 0.014388971320436518 0.0043552983264902034 1 1 1 0.0094227774284530146 1 1 1 0.0089500301111387435 0.01482828569364017 1 0.0066211636515873182 1 1 0.0054029977740824506 1 1 1 0.017806270479901961 1 1 1 1 1 1 0.014200317359141861 1 1 1 1 1 1 1 1 1 1 0.0097737849344022004 0.0090023682525759985 1 1 0.015486766797419416 1 1 1 0.013798809384254235 1 1 1 1 1 1 1 1 7.9968517003266293e-05 0.010167098074341114 1 1 1 0.017071368843298206 1 0.01814855998931595 0.0067841676842087598 0.01527819691722883 1 1 0.016602587050302167 0.010798611239666932 1 1 1 0.016296446261368655 1 1 1 1 1 1 1 1 1 1 1 1 1 1 0.0070220765768185325 1 1 1 0.017637606851531727 1 1 0.0098383002074661358 1 1 0.0072609847718895296 1 1 1 1 1 1 1 1 1 1 1 1 1 1 1 1 0.0095318461723540374 1 0.0092348621047786718 1 1 1 1 1 1 1 1 1 1 1 1 1 1 1 1 1 1 1 1 1 1 1 1 1 1 1 1 1 1 1 1 1 1 1 1 1 1 1 1 1 1 1 1 1 1 1 1 1 1 1 1 1 1 1 1 1 1 1 1 1 1 1 1 1 1 1 1 1 1 1 1 1 1 1 1 1 1 1 1 1 1 1 1 1 1 1 1 0.010033004437348128 1 0.0092161716225536046 1 1 0.011567231678859181 0.0047786150313032169 0.0060464189100217572 1 1 1 0.0095693066754316686 1 1 1 1 1 0.0045334551602949705 0.0076120801428681863 1 1 1 1 1 1 1 1 1 1 1 1 0.0076414115486958395 1 1 1 1 1 1 1 1 1 1 1 1 1 1 1 1 1 1 1 0.013968597937671197 0.012760498324890885 1 1 1 1 1 1 1 1 1 0.020282786546019102 1 1 1 1 1 1 1 1 1 1 1 1 1 1 1 1 1 1 1 1 1 1 1 1 1 1 0.024536703349048526 1 1 1 1 1 1 1 1 1 1 1 1 1 1 1 1 1 1 1 1 1 1 1 1 1 1 1 1 1 1 1 1 1 1 1 1 1 1 1 1 1 1 1 1 1 1 1 1 1 1 1 1 1 1 1 1 1 1 1 1 1 1 1 1 1 1 1 1 1 1 1 1 1 1 0.014936689124998388 1 1 1 1 1 1 1 1 1 1 1 1 1 1 1 1 1 0.011447160855103706 1 1 1 0.013397765777793641 1 1 1 0.0095475144779760338 1 0.010283037783130979 1 0.018855520858565247 0.0050033436104060663 1 1 1 1 1 1 1 1 1 1 1 1 1 1 1 1 0.0056989299114178632 0.0095092846988686364 1 1 1 1 1 1 1 1 0.010325520829451498 1 1 1 1 1 1 1 1 1 1 1 1 1 1 1 0.0099926280322342916 1 1 1 1 1 1 1 1 1 1 1 1 0.016942713208324443 1 1 0.018182057347540928 0.0083752273469077411 1 1 0.016237667982228275 1 1 1 1 1 1 1 1 1 1 1 1 1 1 1 1 1 1 1 1 1 1 1 1 1 1 1 1 1 1 1 1 1 1 1 1 1 1 1 1 1 1 0.014951321187169679 1 1 1 1 1 1 1 1 1 1 1 1 1 1 1 1 1 1 1 0.011828354504041176 1 1 1 1 1 1 1 1 1 1 1 1 1 1 1 1 1 0.011561165637246783 0.019576024546393046 1 0.010373700885037565 1 1 1 1 1 1 0.013097060831555074 1 1 1 1 1 1 1 1 0.014695690402392625 1 0.014910007108882933 1 1 1 1 0.012131772782735074 1 1 1 1 1 1 0.0099799944479046152 1 0.010505206252014045 0.0067032209907545229 1 1 1 1 0.011487579742510315 1 1 1 1 1 1 1 1 1 1 1 0.011852551345974328 1 1 1 1 1 1 1 1 1 1 0.011579418332732655 0.010477564696750152 1 0.01400826056322009 1 1 0.0061787729246952985 1 1 1 0.0099992803428355682 0.011730058685624774 0.0130973617649043 1 1 1 1 1 1 1 1 0.01804683701135849 1 1 0.010487906393026644 1 1 1 1 1 1 1 1 1 1 1 1 0.010173958122979129 1 1 1 0.011324885254190216 1 1 1 1 1 1 1 1 1 1 0.01459353690365766 1 1 1 1 1 1 1 1 0.0082736095160131501 1 1 1 1 0.0069432393850336963 1 1 1 0.0026913906574073873 1 1 1 1 1 1 1 1 1 1 0.0083334886005879266 1 1 1 1 1 1 1 0.010295190509579638 1 1 1 1 0.024792100014129556 1 1 1 1 1 1 0.0096162143968088146 1 1 1 1 0.016530092915550507 1 1 1 0.010170579739539916 1 1 1 1 1 1 1 1 0.01000608419920801 1 1 1 1 1 1 1 1 1 0.0099822375081755239 1 1 1 1 1 1 1 0.012773095701365559 1 1 1 1 1 0.0084397584312430919 1 1 1 1 1 1 1 1 1 1 1 1 1 1 1 1 1 1 1 0.0098390006376985716 1 1 1 1 1 0.0099073829540121255 1 1 1 1 1 1 1 1 1 1 1 1 1 0.0064716907057077722 1 1 1 1 1 1 1 1 1 1 0.010126739635273692 1 1 1 1 1 1 0.013177283221497806 1 1 0.01884438426958595 1 1 0.023666923049724425 1 1 1 1 1 1 1 1 1 1 1 1 0.0092045352853943191 1 1 1 1 1 1 1 0.0080898757712710573 0.019523762035139836 1 1 1 0.010024874724793654 0.018236209321295424 1 0.0058552092418911322 1 1 0.011158140504862343 0.0081957997751286593 1 1 0.0051818849055129748 1 1 1 0.010735441160856056 1 1 1 1 1 1 0.0091837163203931232 1 1 1 0.0088603477959113552 1 1 1 0.010185848831153782 0.0052919646620672653 1 0.0084071392368898212 0.028176280064058833 1 1 1 1 1 1 1 0.010065277559259969 1 1 1 1 1 1 1 1 1 1 1 1 0.01012325030969481 1 1 1 1 1 1 0.0098357048443770551 1 1 1 1 1 1 1 1 1 1 1 1 1 1 1 1 1 0.0085749177920255645 1 1 0.0055712737672894766 1 1 1 1 0.010776374218023042 1 0.0040880761943919985 1 1 1 1 1 1 1 0.0093532803573135662 1 1 1 0.012426575721751563 1 1 1 1 1 1 1 1 0.011876324940583931 1 1 0.0040246069990518274 0.011286491661921708 1 1 1 1 1 0.0044161915937908636 1 1 1 1 0.010866742772162034 1 1 1 1 1 1 1 1 1 0.010684969196220896 1 1 1 1 1 1 1 1 1 0.0078799441312906865 1 1 1 1 1 1 1 1 1 0.0078391501787362025 1 1 1 0.0039158374977820362 1 1 1 1 1 1 1 0.012187223249453597 1 1 1 0.00094346833781074058 1 1 1 1 0.014053212118913264 1 1 1 7.02485343506698e-09 1 1 1 1 1 1 1 1 0.011317229197870687 1 1 1 1 1 1 1 1 1 1 1 1 1 1 1 1 1 1 0.01165614792166756 1 1 0.014746424944038952 1 1 1 1 1 1 1 1 1 1 1 1 1 1 1 1 1 1 1 1 1 1 1 1 1 1 1 1 0.0081897269257395211 1 1 1 1 1 1 0.0051545519143817095 1 0.010020004990245759 1 1 1 1 0.011960734335175582 1 1 1 0.010366762104224873 1 0.019197370296958085 1 1 1 1 1 1 1 1 1 1 1 1 1 0.015267211090958441 1 1 1 1 1 0.017964899582752956 1 1 1 0.01406884757489681 0.010938757730426421 1 1 1 1 1 0.011339130061026419 1 0.0096965016724176109 1 1 1 0.010322082032054036 1 1 1 1 0.00403803955607622 1 1 1 1 1 0.0052577355192127903 1 1 1 1 0.010504466686616531 1 1 1 1 1 1 1 1 1 1 0.0089004434629921664 1 1 1 1 0.0084433753649514887 1 1 1 1 1 1 1 1 1 1 1 1 1 1 1 1 1 1 1 1 1 1 1 1 1 1 1 1 1 0.009239433574376954 1 1 1 1 0.01149340125464858 1 0.0091855080945260348 1 1 1 0.010053072117239411 1 1 1 1 1 1 1 1 1 1 1 1 1 1 1 0.009817318868516639 1 1 1 1 1 1 1 1 1 1 1 1 1 1 1 1 1 1 1 1 1 1 1 1 1 1 1 1 1 1 1 1 1 1 1 0.0088573648526158889 1 1 1 1 1 1 1 1 1 1 0.0099916728290888723 0.011959620429615745 1 1 1 1 1 1 1 1 0.011143158719978936 1 1 1 0.011909508407709499 1 1 1 1 1 0.010922838981227277 1 1 0.0081493315305411086 1 1 1 1 0.0098945547022501815 1 0.015185701456914983 1 1 1 1 1 0.009979909650616188 1 1 1 1 1 1 1 1 1 1 1 1 1 1 1 1 1 1 1 1 1 1 1 1 1 0.0095990558475236645 1 1 1 1 1 1 0.010935968395302363 1 1 1 0.0082794781604177137 1 1 0.011747716800131472 1 1 1 1 1 1 1 1 1 1 1 1 1 1 0.0095432488965831383 1 0.015481894249284506 1 1 0.0036699526820934691 1 1 0.014209745425249025 1 1 1 1 1 1 1 1 0.010612591513880157 1 1 1 1 1 1 1 0.0097239414201969396 1 0.0099025624083004492 1 1 1 1 1 1 1 1 1 1 1 1 1 1 1 1 1 1 1 1 1 1 1 1 1 1 1 1 1 1 1 1 0.01001874646171194 1 1 1 1 1 1 1 1 1 1 1 1 0.028631170980324173 1 0.010030393089753495 1 1 1 1 1 1 1 0.017324054425056155 1 0.01348990767937743 1 1 0.01033595516188484 1 1 1 1 0.010421681658937152 1 0.012847589475678314 1 1 1 1 1 1 1 0.016582316830615739 1 1 1 0.01010985516773967 1 1 0.015724796444759076 1 1 0.011610409775802868 1 1 1 1 1 1 1 1 0.0075552361997422088 1 1 1 1 1 0.0026070199933171737 1 0.012609306491253991 1 1 0.010940913326029117 1 1 1 1 1 1 1 1 1 1 1 0.0099952007842790697 1 0.013155045528609544 1 1 0.011505091201342424 1 1 0.010131177161552957 1 1 1 0.0049974808957468295 1 1 1 1 1 1 1 1 1 1 1 -3.5606435230817191e-09 0.011180804640683292 1 1 1 0.010433075585792026 0.010813658456111611 1 1 1 1 1 1 1 1 1 1 1 1 1 1 1 1 1 0.0083565057482556521 1 1 1 1 1 1 1 1 1 1 1 1 1 1 1 1 1 1 1 1 0.0078734261338776895 1 0.0069357924209023716 1 1 0.010130734254560651 1 1 1 1 0.002820532545164553 1 1 1 1 1 1 1 1 1 1 1 1 0.010600316911167354 1 1 1 0.0061217796989245996 1 1 1 1 1 0.002341227863014439 1 1 0.0099439624731507067 0.016029077042331301 0.013466698858470596 0.0085805654372829686 1 1 1 1 1 1 0.013303632116044576 1 1 0.020056253845245967 0.012252687191393954 0.0047360383710607912 1 0.0088325352757435555 1 1 1 1 1 1 1 1 1 0.0100258913425385 1 1 1 1 1 1 1 1 1 1 1 1 1 1 1 0.0099716022654800576 0.013228983882194997 1 1 0.0054686011890432203 1 1 1 0.010171727752948709 1 0.010091226303092862 0.010013913430721295 1 1 1 1 1 0.010046707481146645 1 1 0.0050429391251085448 1 1 1 0.0096801127895313564 1 1 1 1 1 0.009858758683873238 1 1 1 1 1 1 1 1 1 1 1 1 1 1 1 1 1 1 0.0098223050974662919 1 1 1 1 1 1 1 1 1 1 1 1 1 1 1 1 1 1 1 1 1 1 1 1 0.011539538395965859 1 1 0.01046206020585886 1 1 1 1 1 1 1 1 1 1 1 0.0096210450997257588 1 1 1 1 1 0.019598841067572526 0.0013624887811535362 1 1 1 1 0.01545777673159579 1 1 1 1 1 1 1 1 0.010203589077208475 0.011246364500203519 1 1 0.0099261444227783449 1 1 0.0082009721364091279 1 0.014055055658458313 0.013709808935586681 1 0.0055546358827008695 1 1 1 1 0.005687524972664882 1 1 1 0.011136400112116328 1 1 1 0.013242065213677157 1 1 0.0057333460130869485 1 1 0.010837560033553115 1 1 1 1 1 1 1 1 1 0.013614977854008994 0.0095062890985160593 1 1 0.015797843823048656 1 1 1 1 0.016575854116413317 1 1 1 0.0054965731362181316 1 1 1 1 0.0058509904574513931 1 1 1 1 1 1 1 1 1 1 1 1 1 1 1 1 1 1 1 1 1 1 1 0.010009394284757667 1 1 1 1 1 1 1 1 1 1 1 1 1 1 1 1 1 1 1 1 1 1 1 1 1 1 0.011529356862372905 1 1 1 1 1 1 1 1 1 1 1 1 1 1 1 1 0.011667679029429034 1 0.010750913680936291 1 1 1 1 1 1 1 1 1 1 1 1 1 1 1 1 1 1 1 1 0.0029494579969081385 1 1 1 1 1 1 1 2.0398034997204384e-09 0.001491594523361792 1 1 1 1 1 1 1 0.0073941996922629299 1 1 1 1 0.0059866523507888618 1 1 0.017777582402268136 1 0.018212062462286911 1 0.010065175975127821 1 1 1 1 1 1 1 0.019178096070790192 1 0.01176022804719036 1 1 0.010277789320765772 1 1 1 1 1 1 1 1 1 1 1 1 1 1 1 1 1 1 1 1 0.0094133918069355393 1 1 1 1 1 1 0.029984928134032071 0.0084378910216139115 1 1 0.013660854817061918 1 1 1 0.009913268454544287 1 1 1 1 1 1 1 0.0099811203650724076 1 1 1 1 1 1 1 1 1 1 1 1 1 1 1 1 0.0090328116118154334 1 1 1 1 1 1 1 1 1 0.015551353586026133 1 1 1 1 1 -7.743907043389342e-10 1 1 1 1 1 1 1 0.0058053255121000499 1 1 1 1 1 1 1 1 1 0.0073099476266603805 1 1 0.011269118750252742 1 0.0010116090008734785 1 0.012280081312982197 1 0.013837653328398421 1 1 1 1 1 0.012775794966415061 1 1 1 1 1 0.031353308183922193 1 1 1 1 1 1 1 1 0.0095546810756084385 0.00999248126250484 1 1 1 1 1 1 1 1 1 1 1 1 1 0.010451539969732242 1 1 1 1 1 1 1 1 1 0.034467649480579926 1 1 1 1 1 1 1 1 1 0.037149635905523726 1 1 0.015742910596575038 -1.3232160662318693e-09 1 1 1 0.0095853827321733861 1 1 1 1 1 0.0034828278385041975 0.0077359920434816511 1 1 1 1 1 1 1 1 0.010751973382030034 1 0.0070608406227557277 1 1 0.010155499875179351 1 1 1 1 1 1 1 1 1 1 1 1 1 0.013273975197134687 1 1 1 1 0.011048677104098735 1 1 1 1 1 1 1 1 1 1 1 1 1 1 0.0099055314470236529 1 1 0.0096272570649034422 1 1 0.0082785698603531008 1 1 1 1 1 1 1 1 1 1 1 1 0.011236132255334558 1 1 1 1 1 0.0098462847579339763 1 1 1 1 0.0099688551486241568 1 1 1 1 1 1 0.0097334949492961387 1 1 1 0.011313356078914264 1 1 1 3.2926970178204229e-11 1 1 0.0016989279712106772 1 1 1 1 1 1 1 1 1 1 1 1 1 1 1 1 1 1 1 1 1 1 1 1 0.0056189029192225785 1 1 0.013656575183412147 0.0097188404146201172 1 1 1 1 0.007405479249989886 1 0.015960952735817269 0.010626108178551596 1 0.0093563773431616752 1 1 0.012689378675366758 0.0078978281235483217 1 1 0.012126109385117342 1 1 1 1 1 0.014070572843911999 0.012374803753379042 1 0.015313465573106429 1 0.0024545676416911008 1 1 1 1 1 1 1 1 1 1 1 1 1 1 0.0084836670785174168 1 1 1 1 0.007568693880392682 1 1 1 1 1 1 1 1 1 1 1 1 1 0.0084640763966766508 1 1 0.0052006909460969681 0.0039027638271484713 1 1 1 1 0.0004278342560447429 1 0.014788389247787595 1 1 1 1 1 1 1 1 1 1 1 1 1 1 1 1 1 1 1 1 1 0.003701321006969344 0.010147089909490798 1 1 1 1 0.0049358058674620672 1 1 1 1 1 0.0085242362338842099 1 1 1 1 0.0084602462370385254 1 1 1 1 1 1 1 0.0084753240756735918 1 1 1 1 0.0061068497953759241 1 1 1 1 1 1 1 1 1 1 1 1 1 1 1 1 1 1 1 1 1 1 1 1 1 1 1 1 1 0.0078624741033986728 1 -2.7360988266722508e-09 0.0094523705184972381 1 1 1 1 1 1 1 1 1.4846434359672145e-09 1 1 1 1 4.5616400864978424e-09 1 1 1 1 1 1 1 1 1 1 1 1 1 1 1 1 1 1 1 1 1 1 1 1 1 1 1 0.00996945321862968 1 1 1 0.012699062136826637 0.014424129654989763 1 1 1 1 1 1 0.012058546199369505 1 1 0.0089243151845911015 1 1 1 1 1 1 0.013138452176291528 1 1 1 1 0.010521768219028912 1 1 0.011580024327467693 1 1 1 1 1 1 1 1 1 1 1 1 1 1 0.011219471899861751 1 1 1 1 1 1 1 1 1 1 1 1 1 1 1 1 1 1 1 1 1 1 1 1 1 1 1 1 1 1 1 1 1 1 1 1 1 1 1 1 1 1 1 0.010752192397190906 1 1 1 1 0.012227981032605303 1 1 0.0099827053052315151 1 0.013818197458284005 1 1 1 1 0.0099657343338413161 1 1 0.0069757619334397322 1 0.010003917544049916 1 0.012623975172362956 1 1 1 1 1 1 1 1 1 1 1 1 0.011649330221803611 1 1 1 1 1 1 1 
</DataArray>
</CellData>
</Piece>
</UnstructuredGrid>
</VTKFile>
